54
Topotecan GFN2 opt
C      -5.48796946      2.11829181     -0.89319765
C      -5.38761482      1.60046850      0.53346445
C      -5.06863953      0.08661829      0.67454844
C      -3.74701979     -0.25067821      0.04028700
C      -3.72537928     -0.72508646     -1.23986550
C      -4.98594055     -0.96478532     -2.00510557
O      -6.14475416     -1.14004915     -1.20109484
C      -6.21545818     -0.72185881      0.05089286
O      -7.18426022     -0.97576361      0.72443899
C      -2.48795660     -1.04916093     -1.92041402
O      -2.39449425     -1.47648462     -3.06050194
N      -1.36534443     -0.82498800     -1.14916744
C      -0.02154292     -1.08999587     -1.63692908
C       0.83372667     -0.72424413     -0.46918324
C       2.18352688     -0.74778670     -0.28727866
C       2.68879534     -0.32363759      0.96791602
C       1.75159869      0.11361258      1.95467417
C       2.22661726      0.55495066      3.20559047
C       3.56456512      0.55869503      3.46825223
C       4.49326015      0.12253090      2.50332409
C       4.07083770     -0.31901051      1.26169767
C       5.08016342     -0.80568958      0.25569809
N       5.00384810     -0.07707511     -1.00653880
C       5.29339606      1.32950019     -0.81828947
C       5.88808134     -0.66349929     -1.99165528
O       5.82403552      0.12904277      2.78981332
N       0.41966910      0.12824328      1.75285394
C      -0.00568019     -0.28126988      0.59028653
C      -1.38034982     -0.36305863      0.13504721
C      -2.55191121     -0.06457214      0.76545648
O      -5.02741570     -0.22515160      2.05071756
H      -6.30681017      1.63966698     -1.42583428
H      -5.68120411      3.18851615     -0.87468662
H      -4.55995002      1.95137813     -1.43603414
H      -6.33035622      1.77617167      1.05728670
H      -4.59990641      2.13315956      1.07051940
H      -5.17524014     -0.14537896     -2.71105197
H      -4.88197339     -1.88200910     -2.59588851
H       0.17983403     -0.48433912     -2.52671719
H       0.06828718     -2.14150222     -1.92910412
H       2.86510833     -1.04920184     -1.06554343
H       1.50498874      0.88274466      3.93601210
H       3.93275545      0.89759133      4.42818881
H       4.88493898     -1.86206087      0.04084104
H       6.08389142     -0.72929117      0.70261864
H       5.19327240      1.84356666     -1.77302233
H       6.30831377      1.50259830     -0.42813009
H       4.57450720      1.75172041     -0.11781152
H       5.77598748     -0.12590477     -2.93219851
H       5.61145988     -1.70523657     -2.15213336
H       6.94669535     -0.62602982     -1.69063524
H       5.96100726      0.46109016      3.68551221
H      -2.57020184      0.28403420      1.78156185
H      -5.92579541     -0.48939165      2.30591820
