72
carrier @complex
B       0.92858920     -3.97020213      0.14367311
N       0.98585786     -4.24813001      1.56982481
B      -0.45398539     -4.25144770      1.35082734
N      -0.45365406     -4.34855637     -0.10400613
N      -4.41436092     -1.39243831     -0.13255152
B      -4.33558621     -1.35487728      1.32223994
N      -4.74636755      0.02749664      1.52818108
B      -4.44880193      0.04184352      0.10422077
B      -1.21830095     -3.32828702     -0.73875566
N      -2.44555786     -2.88551818     -0.09750249
B      -3.21293638     -1.83982380     -0.75340545
N      -2.58962650     -0.98032400     -1.75184494
B      -1.36091497     -1.45470185     -2.37098236
N      -0.56237274     -2.49297983     -1.73703730
N       0.57604713      1.13332168     -3.12871553
B       0.65176752     -0.31816483     -3.04805917
N      -0.73723564     -0.62862367     -3.35133814
B      -0.83772770      0.79327515     -3.05878033
B      -2.83227348     -1.31874424      3.24941930
N      -3.36141135     -2.02789537      2.08830341
B      -2.47642721     -2.91293335      1.36099711
N      -1.38450736     -3.50450431      2.10226260
B      -0.86477398     -2.78856614      3.26472450
N      -1.76613308     -1.93449785      3.98634270
N       0.24763161     -1.07179667      5.28668154
B      -0.08887155      0.32398384      5.13034707
N      -1.51874900      0.24591420      5.25684963
B      -1.28198849     -1.27630043      5.21642139
N      -1.75675142      1.36356978     -2.14744680
B      -2.73767756      0.45592620     -1.57626109
N      -3.60063394      0.97970948     -0.53362175
B      -3.10641482      2.05911789      0.30183959
N      -2.12497695      2.95706580     -0.28414429
B      -1.25155869      2.44811273     -1.32502085
B       2.47920539     -2.10848164      0.34254763
N       1.59317274     -2.89555131     -0.49630498
B       0.85510452     -2.22478377     -1.55016439
N       1.45179446     -1.03038744     -2.12449732
B       2.34031798     -0.23176350     -1.29931260
N       3.06724318     -0.91679964     -0.24686416
N      -3.27747927      2.00569280      1.74399779
B      -3.81258942      0.77173272      2.30865854
N      -3.14569528      0.10346555      3.41040849
B      -2.16456480      0.86983000      4.16695256
N      -1.61912837      2.11984696      3.64321115
B      -2.32755391      2.75742522      2.55107034
B      -0.34553054      4.00548729      1.99201609
N      -0.16029206      4.31742829      0.58175469
B      -1.55973922      3.91629534      0.58857776
N      -1.80098446      3.97445903      2.02199063
N       2.20267375      1.21697626     -1.26819813
B       1.05930345      1.79190778     -1.96139212
N       0.17618593      2.72842544     -1.28247208
B       0.68960014      3.39527816     -0.09427314
N       1.82959964      2.84880450      0.62703290
B       2.68457678      1.90676469     -0.07986948
B       1.03556204     -1.52187341      4.19826007
N       0.58202792     -2.66997816      3.43020164
B       1.42445487     -3.13419057      2.34655201
N       2.46288326     -2.27624264      1.78529939
B       2.90492950     -1.14832524      2.59159846
N       2.08407688     -0.64444669      3.67619655
N       0.49563260      3.15394371      2.74294942
B      -0.17417491      2.26774602      3.68413179
N       0.63471225      1.28444463      4.36901266
B       1.81456581      0.78311997      3.70044100
N       2.48094585      1.67125762      2.75807412
B       1.67975938      2.66222118      2.06403684
N       3.92739182     -0.30100950      2.06490995
B       3.81662613     -0.09644195      0.62857945
N       3.80398836      1.35923390      0.61104674
B       3.54343484      1.10247723      2.02054235
