54
drug @complex
C      -3.89958338      2.66724878      6.71379144
C      -4.16515149      2.73046141      8.21189013
C      -4.41570089      1.36599449      8.91679222
C      -3.21412562      0.47684802      8.78208544
C      -3.17018230     -0.42434144      7.73545939
C      -4.31511064     -0.58935998      6.79095377
O      -5.56163430     -0.13162731      7.29810466
C      -5.66804540      0.71854006      8.30393966
O      -6.74775381      0.99365217      8.76497224
C      -2.00451873     -1.18577325      7.49946148
O      -1.86600052     -1.98257476      6.49956187
N      -0.98114907     -1.01866705      8.36116366
C       0.31091067     -1.66527627      8.19777605
C       1.11536992     -1.06266771      9.29301136
C       2.42649395     -1.20476284      9.64119656
C       2.90431661     -0.45087744     10.74059973
C       1.97369472      0.38197726     11.44081153
C       2.41704921      1.12037484     12.55694697
C       3.72048276      1.05101127     12.94951169
C       4.64954045      0.25752595     12.24567685
C       4.25697876     -0.48861516     11.14782187
C       5.26911008     -1.32201379     10.40602104
N       5.23880904     -1.07756931      8.96879358
C       5.57604935      0.29478688      8.65173948
C       6.09782667     -2.00361399      8.26135865
O       5.94786564      0.21846570     12.64311908
N       0.68504279      0.51327223     11.07678169
C       0.29166020     -0.17354146     10.03884651
C      -1.01425550     -0.15579585      9.41175282
C      -2.13222570      0.60311010      9.65872588
O      -4.67858274      1.61312197     10.28019372
H      -4.75844696      2.26906524      6.17891651
H      -3.71783725      3.67290235      6.34283185
H      -3.02491536      2.06531743      6.47828535
H      -5.04839407      3.34461872      8.40624104
H      -3.31830309      3.19041355      8.72494601
H      -4.09438651     -0.08720944      5.83935676
H      -4.45442641     -1.65168772      6.56206579
H       0.67841951     -1.45628618      7.17511073
H       0.19841243     -2.75001983      8.28461637
H       3.10121228     -1.83458549      9.08712844
H       1.70084145      1.73529333     13.07677658
H       4.06442885      1.61695815     13.80543316
H       5.04232195     -2.38169160     10.56770591
H       6.26496321     -1.12104589     10.83174843
H       5.47914443      0.44339665      7.57775643
H       6.60091215      0.55736841      8.95647072
H       4.88087709      0.96199529      9.15877903
H       5.99968089     -1.82683359      7.19163158
H       5.78379472     -3.02489029      8.47500282
H       7.15780261     -1.89912780      8.54011032
H       6.07415386      0.79181738     13.40925609
H      -2.16767988      1.29005160     10.48621078
H      -5.64110950      1.71085385     10.36850170
