      -----------------------------------------------------------      
     |                   =====================                   |     
     |                           x T B                           |     
     |                   =====================                   |     
     |                         S. Grimme                         |     
     |          Mulliken Center for Theoretical Chemistry        |     
     |                    University of Bonn                     |     
      -----------------------------------------------------------      

   * xtb version 6.7.1pre (5071a88) compiled by 'Marcel@Raven' on 2024-07-23

   xtb is free software: you can redistribute it and/or modify it under
   the terms of the GNU Lesser General Public License as published by
   the Free Software Foundation, either version 3 of the License, or
   (at your option) any later version.
   
   xtb is distributed in the hope that it will be useful,
   but WITHOUT ANY WARRANTY; without even the implied warranty of
   MERCHANTABILITY or FITNESS FOR A PARTICULAR PURPOSE.  See the
   GNU Lesser General Public License for more details.
   
   Cite this work as:
   * C. Bannwarth, E. Caldeweyher, S. Ehlert, A. Hansen, P. Pracht,
     J. Seibert, S. Spicher, S. Grimme, WIREs Comput. Mol. Sci., 2020, 11,
     e01493. DOI: 10.1002/wcms.1493
   
   for GFN2-xTB:
   * C. Bannwarth, S. Ehlert and S. Grimme., J. Chem. Theory Comput., 2019,
     15, 1652-1671. DOI: 10.1021/acs.jctc.8b01176
   for GFN1-xTB:
   * S. Grimme, C. Bannwarth, P. Shushkov, J. Chem. Theory Comput., 2017,
     13, 1989-2009. DOI: 10.1021/acs.jctc.7b00118
   for GFN0-xTB:
   * P. Pracht, E. Caldeweyher, S. Ehlert, S. Grimme, ChemRxiv, 2019, preprint.
     DOI: 10.26434/chemrxiv.8326202.v1
   for GFN-FF:
   * S. Spicher and S. Grimme, Angew. Chem. Int. Ed., 2020, 59, 15665-15673.
     DOI: 10.1002/anie.202004239
   
   for ALPB and GBSA implicit solvation:
   * S. Ehlert, M. Stahn, S. Spicher, S. Grimme, J. Chem. Theory Comput.,
     2021, 17, 4250-4261. DOI: 10.1021/acs.jctc.1c00471
   
   for ddCOSMO and CPCM-X implicit solvation:
   * M. Stahn, S. Ehlert, S. Grimme, J. Phys. Chem. A,
     2023, XX, XXXX-XXXX. DOI: 10.1021/acs.jpca.3c04382
   
   for DFT-D4:
   * E. Caldeweyher, C. Bannwarth and S. Grimme, J. Chem. Phys., 2017,
     147, 034112. DOI: 10.1063/1.4993215
   * E. Caldeweyher, S. Ehlert, A. Hansen, H. Neugebauer, S. Spicher,
     C. Bannwarth and S. Grimme, J. Chem. Phys., 2019, 150, 154122.
     DOI: 10.1063/1.5090222
   * E. Caldeweyher, J.-M. Mewes, S. Ehlert and S. Grimme, Phys. Chem. Chem. Phys.
     2020, 22, 8499-8512. DOI: 10.1039/D0CP00502A
   
   for sTDA-xTB:
   * S. Grimme and C. Bannwarth, J. Chem. Phys., 2016, 145, 054103.
     DOI: 10.1063/1.4959605
   
   in the mass-spec context:
   * V. Asgeirsson, C. Bauer and S. Grimme, Chem. Sci., 2017, 8, 4879.
     DOI: 10.1039/c7sc00601b
   * J. Koopman and S. Grimme, ACS Omega 2019, 4, 12, 15120-15133.
     DOI: 10.1021/acsomega.9b02011
   
   for metadynamics refer to:
   * S. Grimme, J. Chem. Theory Comput., 2019, 155, 2847-2862
     DOI: 10.1021/acs.jctc.9b00143
   
   for SPH calculations refer to:
   * S. Spicher and S. Grimme, J. Chem. Theory Comput., 2021, 17, 1701-1714
     DOI: 10.1021/acs.jctc.0c01306
   
   for ONIOM refer to:
   * C. Plett, A. Katbashev, S. Ehlert, S. Grimme, M. Bursch,
     Phys. Chem. Chem. Phys., 2023, 25, 17860-17868. DOI: 10.1039/D3CP02178E
   
   for DIPRO refer to:
   * J. Kohn, N. Gildemeister, S. Grimme, D. Fazzi, A. Hansen,
     J. Chem. Phys., 2023, just accepted.
   
   for PTB refer to:
   * S. Grimme, M. Mueller, A. Hansen, J. Chem. Phys., 2023, 158, 124111.
     DOI: 10.1063/5.0137838
   
   with help from (in alphabetical order)
   P. Atkinson, C. Bannwarth, F. Bohle, G. Brandenburg, E. Caldeweyher
   M. Checinski, S. Dohm, S. Ehlert, S. Ehrlich, I. Gerasimov, C. Hölzer
   A. Katbashev, J. Kohn, J. Koopman, C. Lavigne, S. Lehtola, F. März, M. Müller,
   F. Musil, H. Neugebauer, J. Pisarek, C. Plett, P. Pracht, F. Pultar,
   J. Seibert, P. Shushkov, S. Spicher, M. Stahn, M. Steiner, T. Strunk,
   J. Stückrath, T. Rose, and J. Unsleber
   
 * started run on 2026/08/31 at 18:34:43.840     
   ID    Z sym.   atoms
    1    6 C      1-3, 5, 8-12, 14, 16-21, 23-30
    2    8 O      4, 6, 7, 15, 31
    3    7 N      13, 22, 92-127
    4    1 H      32-55
    5    5 B      56-91

           -------------------------------------------------
          |                Calculation Setup                |
           -------------------------------------------------

          program call               : "c:\Users\Andre\Proyectos doctorado\kras-pancreatic-gC3N4-ai\tools\xtb\xtb-6.7.1\bin\xtb.exe" "c:\Users\Andre\Proyectos doctorado\nano-qsar-ai-therapeutics\calculations\tnbc\Topotecan\Topotecan_B36N36_complex.xyz" --gfn 2 --sp --chrg 0 --uhf 0 --iterations 500 --norestart
          coordinate file            : c:\Users\Andre\Proyectos doctorado\nano-qsar-ai-therapeutics\calculations\tnbc\Topotecan\Topotecan_B36N36_complex.xyz
          omp threads                :                    16


molecular fragmentation (1/2 indicates fragments):
111111111111111111111111111111111111111111111111111111111111111111111121
1121111111111111111111111111111111211121111111111111111
# atoms in fragment 1/2:   123     4
 fragment masses (1/2) :     1264.26       49.64
CMA distance (Bohr)    :   8.677
constraining FC (au)   :  0.0500

           -------------------------------------------------
          |                 G F N 2 - x T B                 |
           -------------------------------------------------

        Reference                      10.1021/acs.jctc.8b01176
      * Hamiltonian:
        H0-scaling (s, p, d)           1.850000    2.230000    2.230000
        zeta-weighting                 0.500000
      * Dispersion:
        s8                             2.700000
        a1                             0.520000
        a2                             5.000000
        s9                             5.000000
      * Repulsion:
        kExp                           1.500000    1.000000
        rExp                           1.000000
      * Coulomb:
        alpha                          2.000000
        third order                    shell-resolved
        anisotropic                    true
        a3                             3.000000
        a5                             4.000000
        cn-shift                       1.200000
        cn-exp                         4.000000
        max-rad                        5.000000


          ...................................................
          :                      SETUP                      :
          :.................................................:
          :  # basis functions                 436          :
          :  # atomic orbitals                 436          :
          :  # shells                          230          :
          :  # electrons                       448          :
          :  max. iterations                   500          :
          :  Hamiltonian                  GFN2-xTB          :
          :  restarted?                      false          :
          :  GBSA solvation                  false          :
          :  PC potential                    false          :
          :  electronic temp.          300.0000000     K    :
          :  accuracy                    1.0000000          :
          :  -> integral cutoff          0.2500000E+02      :
          :  -> integral neglect         0.1000000E-07      :
          :  -> SCF convergence          0.1000000E-05 Eh   :
          :  -> wf. convergence          0.1000000E-03 e    :
          :  Broyden damping             0.4000000          :
          :  net charge                          0          :
          :  unpaired electrons                  0          :
          ...................................................

 iter      E             dE          RMSdq      gap      omega  full diag
   1   -218.6282013 -0.218628E+03  0.144E+01    0.03       0.0  T
   2   -197.5655076  0.210627E+02  0.124E+01    0.32       1.0  T
   3   -171.5199141  0.260456E+02  0.102E+01    0.16       1.0  T
   4     57.2828890  0.228803E+03  0.135E+01    0.05       1.0  T
   5   -113.4654934 -0.170748E+03  0.954E+00    0.07       1.0  T
   6   -228.5171808 -0.115052E+03  0.485E+00    0.14       1.0  T
   7   -232.8930339 -0.437585E+01  0.327E+00    0.10       1.0  T
   8   -231.9250122  0.968022E+00  0.280E+00    0.33       1.0  T
   9   -231.9403363 -0.153241E-01  0.253E+00    0.16       1.0  T
  10   -233.4506679 -0.151033E+01  0.214E+00    0.18       1.0  T
  11   -234.6522391 -0.120157E+01  0.135E+00    0.05       1.0  T
  12   -234.5717928  0.804463E-01  0.118E+00    0.11       1.0  T
  13   -234.7947901 -0.222997E+00  0.870E-01    0.10       1.0  T
  14   -234.4505505  0.344240E+00  0.974E-01    0.07       1.0  T
  15   -234.8237943 -0.373244E+00  0.553E-01    0.08       1.0  T
  16   -234.5612675  0.262527E+00  0.740E-01    0.06       1.0  T
  17   -234.8713737 -0.310106E+00  0.363E-01    0.08       1.0  T
  18   -234.8541050  0.172687E-01  0.352E-01    0.10       1.0  T
  19   -234.9017530 -0.476480E-01  0.201E-01    0.07       1.0  T
  20   -234.8631828  0.385702E-01  0.306E-01    0.10       1.0  T
  21   -234.8792792 -0.160964E-01  0.242E-01    0.08       1.0  T
  22   -234.8964813 -0.172021E-01  0.161E-01    0.07       1.0  T
  23   -234.9052149 -0.873354E-02  0.943E-02    0.07       1.0  T
  24   -234.9048613  0.353605E-03  0.888E-02    0.07       1.0  T
  25   -234.9062341 -0.137283E-02  0.589E-02    0.07       1.0  T
  26   -234.9069333 -0.699181E-03  0.309E-02    0.07       1.0  T
  27   -234.9068710  0.622970E-04  0.282E-02    0.07       1.0  T
  28   -234.9071007 -0.229717E-03  0.120E-02    0.07       1.0  T
  29   -234.9071144 -0.137518E-04  0.655E-03    0.07       1.4  T
  30   -234.9071256 -0.111179E-04  0.403E-03    0.07       2.2  T
  31   -234.9071316 -0.602484E-05  0.143E-03    0.07       6.2  T
  32   -234.9071322 -0.636090E-06  0.747E-04    0.07      11.9  T
  33   -234.9071325 -0.295136E-06  0.341E-04    0.07      26.0  T

   *** convergence criteria satisfied after 33 iterations ***

         #    Occupation            Energy/Eh            Energy/eV
      -------------------------------------------------------------
         1        2.0000           -1.1538809             -31.3987
       ...           ...                  ...                  ...
       218        2.0000           -0.1489602              -4.0534
       219        2.0000           -0.1444006              -3.9293
       220        2.0000           -0.1346152              -3.6631
       221        2.0000           -0.1326517              -3.6096
       222        1.9982           -0.1241383              -3.3780
       223        1.9549           -0.1210382              -3.2936
       224        1.6228           -0.1188445              -3.2339 (HOMO)
       225        0.3971           -0.1161328              -3.1601 (LUMO)
       226        0.0270           -0.1133812              -3.0853
       227        0.0000           -0.1062951              -2.8924
       228        0.0000           -0.1032117              -2.8085
       229                         -0.1008741              -2.7449
       ...                                ...                  ...
       436                         82.2194296            2237.3046
      -------------------------------------------------------------
                  HL-Gap            0.0027117 Eh            0.0738 eV
             Fermi-level           -0.1174583 Eh           -3.1962 eV

 SCC (total)                   0 d,  0 h,  0 min,  0.857 sec
 SCC setup                      ...        0 min,  0.001 sec (  0.117%)
 Dispersion                     ...        0 min,  0.004 sec (  0.467%)
 classical contributions        ...        0 min,  0.000 sec (  0.000%)
 integral evaluation            ...        0 min,  0.013 sec (  1.517%)
 iterations                     ...        0 min,  0.799 sec ( 93.232%)
 molecular gradient             ...        0 min,  0.037 sec (  4.317%)
 printout                       ...        0 min,  0.003 sec (  0.350%)

         :::::::::::::::::::::::::::::::::::::::::::::::::::::
         ::                     SUMMARY                     ::
         :::::::::::::::::::::::::::::::::::::::::::::::::::::
         :: total energy              30.721650213461 Eh    ::
         :: gradient norm            214.530792784227 Eh/a0 ::
         :: HOMO-LUMO gap              0.073788111422 eV    ::
         ::.................................................::
         :: SCC energy              -234.867956678743 Eh    ::
         :: -> isotropic ES            1.461802143958 Eh    ::
         :: -> anisotropic ES          0.142480437172 Eh    ::
         :: -> anisotropic XC          0.290205329101 Eh    ::
         :: -> dispersion             -0.416777621988 Eh    ::
         :: repulsion energy         265.589606892204 Eh    ::
         :: add. restraining           0.000000000000 Eh    ::
         :: total charge               0.000000000002 e     ::
         :::::::::::::::::::::::::::::::::::::::::::::::::::::

           -------------------------------------------------
          |                Property Printout                |
           -------------------------------------------------

    * Orbital Energies and Occupations

         #    Occupation            Energy/Eh            Energy/eV
      -------------------------------------------------------------
         1        2.0000           -1.1538809             -31.3987
       ...           ...                  ...                  ...
       212        2.0000           -0.1868817              -5.0853
       213        2.0000           -0.1818816              -4.9493
       214        2.0000           -0.1774606              -4.8289
       215        2.0000           -0.1711223              -4.6565
       216        2.0000           -0.1659359              -4.5153
       217        2.0000           -0.1528732              -4.1599
       218        2.0000           -0.1489602              -4.0534
       219        2.0000           -0.1444006              -3.9293
       220        2.0000           -0.1346152              -3.6631
       221        2.0000           -0.1326517              -3.6096
       222        1.9982           -0.1241383              -3.3780
       223        1.9549           -0.1210382              -3.2936
       224        1.6228           -0.1188445              -3.2339 (HOMO)
       225        0.3971           -0.1161328              -3.1601 (LUMO)
       226        0.0270           -0.1133812              -3.0853
       227        0.0000           -0.1062951              -2.8924
       228        0.0000           -0.1032117              -2.8085
       229                         -0.1008741              -2.7449
       230                         -0.0916747              -2.4946
       231                         -0.0867812              -2.3614
       232                         -0.0840050              -2.2859
       233                         -0.0819404              -2.2297
       234                         -0.0766037              -2.0845
       235                         -0.0730018              -1.9865
       ...                                ...                  ...
       436                         82.2194296            2237.3046
      -------------------------------------------------------------
                  HL-Gap            0.0027117 Eh            0.0738 eV
             Fermi-level           -0.1174583 Eh           -3.1962 eV

     #   Z          covCN         q      C6AA      α(0)
     1   6 C        7.404    -0.040    21.201     6.539
     2   6 C        6.888    -0.076    21.863     6.640
     3   6 C        6.651    -0.353    27.874     7.498
     4   8 O        5.547     1.188     5.383     3.134
     5   6 C        2.904     0.208    23.605     7.966
     6   8 O        0.856    -0.679    28.151     7.114
     7   8 O        1.711    -0.438    21.575     6.271
     8   6 C        7.076     0.042    19.790     6.318
     9   6 C        7.865     0.491    13.816     5.279
    10   6 C        8.008    -0.383    28.639     7.600
    11   6 C        3.309    -0.339    35.046     9.454
    12   6 C        2.977    -0.082    30.054     8.992
    13   7 N        3.892    -0.180    24.888     7.409
    14   6 C        7.173    -0.023    20.903     6.493
    15   8 O        2.619    -0.174    16.896     5.552
    16   6 C        5.374    -0.204    24.421     7.018
    17   6 C        3.610    -0.250    26.184     7.389
    18   6 C        3.013    -0.056    29.372     8.890
    19   6 C        2.908    -0.285    35.895     9.824
    20   6 C        5.738    -0.182    23.959     6.951
    21   6 C        8.258    -0.138    23.055     6.819
    22   7 N        7.060     0.619    12.760     5.305
    23   6 C        4.495    -0.406    29.256     7.682
    24   6 C        7.877    -0.352    27.851     7.495
    25   6 C        7.860    -0.112    22.544     6.743
    26   6 C        7.117    -0.098    22.280     6.703
    27   6 C        7.669    -0.157    23.431     6.874
    28   6 C        5.946    -0.293    26.427     7.301
    29   6 C        6.020     0.073    19.282     6.236
    30   6 C        7.257    -0.017    20.783     6.474
    31   8 O        1.659    -0.452    21.873     6.314
    32   1 H        2.734     0.338     0.601     1.211
    33   1 H        2.776     0.435     0.415     1.005
    34   1 H        1.026    -0.270    17.813     6.593
    35   1 H        0.923    -0.096     5.422     3.641
    36   1 H        1.163    -0.014     3.295     2.834
    37   1 H        1.654    -0.818  1125.846    52.381
    38   1 H        0.927    -0.073     4.708     3.393
    39   1 H        1.497     0.063     2.147     2.288
    40   1 H        0.934     0.115     1.655     2.011
    41   1 H        0.924    -0.014     3.319     2.849
    42   1 H        2.737     0.450     0.393     0.978
    43   1 H        0.925     0.016     2.794     2.614
    44   1 H        1.199    -0.025     3.509     2.925
    45   1 H        3.342     0.625     0.219     0.730
    46   1 H        0.924     0.042     2.423     2.434
    47   1 H        0.924     0.028     2.618     2.530
    48   1 H        0.924     0.060     2.202     2.320
    49   1 H        0.924    -0.063     4.414     3.286
    50   1 H        2.744     0.645     0.206     0.708
    51   1 H        1.573     0.239     0.916     1.494
    52   1 H        2.734     0.433     0.418     1.009
    53   1 H        0.925    -0.017     3.365     2.869
    54   1 H        0.925    -0.057     4.275     3.233
    55   1 H        0.804     0.281     0.780     1.387
    56   5 B        5.102     0.074    21.416     7.457
    57   5 B        5.103     0.083    21.262     7.430
    58   5 B        5.102     0.111    20.784     7.346
    59   5 B        5.102     0.104    20.902     7.366
    60   5 B        8.857     0.116    20.708     7.332
    61   5 B        7.569     0.109    20.819     7.352
    62   5 B        6.441     0.206    19.292     7.077
    63   5 B        5.238     0.166    19.896     7.187
    64   5 B       10.169     0.308    17.836     6.805
    65   5 B        8.640     0.003    22.686     7.674
    66   5 B        7.760     0.225    19.009     7.025
    67   5 B        5.105     0.121    20.620     7.317
    68   5 B        1.850     0.034    43.279    13.856
    69   5 B        1.850     0.061    42.359    13.708
    70   5 B        1.850     0.071    42.009    13.651
    71   5 B        1.850     0.060    42.395    13.714
    72   5 B        1.850     0.101    41.005    13.487
    73   5 B        3.702     0.060    21.486     7.501
    74   5 B        1.850     0.054    42.582    13.744
    75   5 B        1.850     0.073    41.938    13.640
    76   5 B        4.542     0.490    15.572     6.358
    77   5 B        5.261     0.384    16.832     6.610
    78   5 B        1.857    -0.021    45.280    14.172
    79   5 B        4.451     0.043    21.954     7.550
    80   5 B        4.397     0.279    18.233     6.880
    81   5 B        4.397     0.286    18.128     6.860
    82   5 B        4.397     0.268    18.385     6.909
    83   5 B        4.397     0.253    18.597     6.948
    84   5 B        6.043     0.233    18.892     7.003
    85   5 B        5.887    -0.718    43.602    10.639
    86   5 B        7.586     0.189    19.545     7.123
    87   5 B        7.216    -0.061    23.931     7.882
    88   5 B        6.815     0.251    18.622     6.953
    89   5 B        8.282     0.365    17.083     6.659
    90   5 B        7.176     0.260    18.489     6.928
    91   5 B        5.369     0.178    19.719     7.155
    92   7 N        4.372    -0.066    22.520     7.048
    93   7 N        4.372    -0.083    22.842     7.098
    94   7 N        4.372    -0.052    22.248     7.006
    95   7 N        4.372    -0.066    22.505     7.046
    96   7 N        7.899     0.513    13.877     5.533
    97   7 N        8.017    -0.313    28.039     7.865
    98   7 N        5.869    -0.318    28.152     7.880
    99   7 N        4.674    -0.304    27.802     7.831
   100   7 N        9.722     0.464    14.433     5.642
   101   7 N        7.696     0.658    12.375     5.225
   102   7 N        5.865    -0.453    31.854     8.383
   103   7 N        4.372    -0.122    23.649     7.223
   104   7 N        0.932    -0.162    24.392     7.132
   105   7 N        0.932    -0.164    24.427     7.137
   106   7 N        0.932    -0.072    22.539     6.855
   107   7 N        0.932    -0.072    22.534     6.855
   108   7 N        0.932    -0.223    25.755     7.328
   109   7 N        2.293    -0.285    27.653     7.806
   110   7 N        0.932    -0.204    25.327     7.267
   111   7 N        0.932    -0.131    23.724     7.033
   112   7 N        2.884    -0.096    23.117     7.141
   113   7 N        2.775    -0.262    26.776     7.685
   114   7 N        0.932    -0.249    26.360     7.414
   115   7 N        2.724    -0.172    24.718     7.384
   116   7 N        3.977    -0.354    29.113     8.014
   117   7 N        3.977    -0.370    29.517     8.069
   118   7 N        3.977    -0.351    29.017     8.001
   119   7 N        3.977    -0.390    30.069     8.144
   120   7 N        5.325    -0.433    31.292     8.308
   121   7 N        6.594     1.462     6.835     3.883
   122   7 N        6.758    -0.111    23.411     7.186
   123   7 N        7.005     0.459    14.494     5.654
   124   7 N        6.248    -0.336    28.636     7.948
   125   7 N        6.889    -0.311    27.990     7.858
   126   7 N        6.087    -0.439    31.446     8.329
   127   7 N        4.124    -0.583    35.979     8.909

 Mol. C6AA /au·bohr⁶  :     324659.843299
 Mol. C8AA /au·bohr⁸  :    8734389.145870
 Mol. α(0) /au        :        897.424502


Wiberg/Mayer (AO) data.
largest (>0.10) Wiberg bond orders for each atom

 ---------------------------------------------------------------------------
     #   Z sym  total        # sym  WBO       # sym  WBO       # sym  WBO
 ---------------------------------------------------------------------------
     1   6 C    3.705 --   123 N    1.229    34 H    0.664    87 B    0.613
                            97 N    0.368    33 H    0.321
     2   6 C    3.949 --   123 N    0.951    35 H    0.914     3 C    0.870
                            36 H    0.783
     3   6 C    3.885 --    10 C    0.995     5 C    0.899     2 C    0.870
                            85 B    0.396     4 O    0.203
     4   8 O    3.810 --   121 N    3.517     3 C    0.203
     5   6 C    3.647 --     6 O    1.319     3 C    0.899     7 O    0.861
                           120 N    0.186
     6   8 O    1.650 --     5 C    1.319
     7   8 O    1.993 --     8 C    0.883     5 C    0.861
     8   6 C    3.870 --     7 O    0.883    38 H    0.819    39 H    0.756
                            96 N    0.516   122 N    0.397    60 B    0.115
     9   6 C    3.887 --    96 N    1.599    60 B    0.763    10 C    0.503
                           122 N    0.466    86 B    0.233    14 C    0.115
    10   6 C    3.648 --    11 C    1.035     3 C    0.995     9 C    0.503
                            84 B    0.121    60 B    0.119
    11   6 C    3.767 --    12 C    1.347    10 C    1.035    40 H    0.828
    12   6 C    3.806 --    11 C    1.347    18 C    1.175    13 N    0.946
    13   7 N    3.282 --    12 C    0.946    16 C    0.927    14 C    0.810
                            76 B    0.240
    14   6 C    3.650 --    13 N    0.810    15 O    0.780    60 B    0.718
                            76 B    0.420    86 B    0.189     9 C    0.115
                           112 N    0.110    96 N    0.104
    15   8 O    1.860 --    14 C    0.780   112 N    0.695    76 B    0.226
    16   6 C    3.893 --    17 C    0.968    41 H    0.936    13 N    0.927
                            42 H    0.378    73 B    0.276   109 N    0.200
    17   6 C    3.663 --    18 C    1.152    26 C    0.983    16 C    0.968
    18   6 C    3.919 --    19 C    1.268    12 C    1.175    17 C    1.152
    19   6 C    3.756 --    18 C    1.268    20 C    1.096    43 H    0.927
    20   6 C    3.570 --    19 C    1.096    25 C    0.973    21 C    0.369
                            66 B    0.207    89 B    0.132   125 N    0.126
                            65 B    0.117
    21   6 C    3.769 --    89 B    1.444   125 N    0.682    44 H    0.528
                            20 C    0.369    65 B    0.341
    22   7 N    3.843 --   101 N    2.332    23 C    0.515    65 B    0.414
                            24 C    0.125    91 B    0.105
    23   6 C    3.893 --    48 H    0.978    47 H    0.975    46 H    0.974
                            22 N    0.515   101 N    0.105    65 B    0.101
    24   6 C    3.529 --    49 H    0.842    51 H    0.573   115 N    0.531
                            65 B    0.512    79 B    0.428    22 N    0.125
                           101 N    0.120
    25   6 C    3.662 --    20 C    0.973    30 C    0.909    26 C    0.697
                            88 B    0.326    64 B    0.148
    26   6 C    3.750 --    17 C    0.983    64 B    0.748    25 C    0.697
                            27 C    0.323    77 B    0.213    90 B    0.153
                           113 N    0.109   100 N    0.102
    27   6 C    3.352 --    28 C    0.711    52 H    0.462   100 N    0.459
                            64 B    0.443    26 C    0.323   113 N    0.281
                            77 B    0.258
    28   6 C    3.141 --    53 H    0.911    27 C    0.711    29 C    0.560
                           100 N    0.471
    29   6 C    3.566 --    30 C    0.928    31 O    0.918    28 C    0.560
                           100 N    0.458   126 N    0.122    88 B    0.110
    30   6 C    3.790 --    29 C    0.928    25 C    0.909    54 H    0.889
                           124 N    0.487
    31   8 O    1.964 --    29 C    0.918    55 H    0.888
    32   1 H    0.884 --    87 B    0.708
    33   1 H    0.806 --     1 C    0.321    97 N    0.237    61 B    0.147
    34   1 H    0.911 --     1 C    0.664    87 B    0.116
    35   1 H    0.985 --     2 C    0.914
    36   1 H    0.998 --     2 C    0.783
    37   1 H    0.319 --    85 B    0.116
    38   1 H    0.953 --     8 C    0.819
    39   1 H    0.983 --     8 C    0.756
    40   1 H    0.986 --    11 C    0.828
    41   1 H    0.997 --    16 C    0.936
    42   1 H    0.794 --    16 C    0.378    73 B    0.287   109 N    0.104
    43   1 H    0.998 --    19 C    0.927
    44   1 H    0.971 --    21 C    0.528   125 N    0.130
    45   1 H    0.609 --   125 N    0.375    89 B    0.178
    46   1 H    0.994 --    23 C    0.974
    47   1 H    0.996 --    23 C    0.975
    48   1 H    0.994 --    23 C    0.978
    49   1 H    0.979 --    24 C    0.842
    50   1 H    0.584 --   115 N    0.364    79 B    0.147
    51   1 H    0.921 --    24 C    0.573
    52   1 H    0.805 --    27 C    0.462   113 N    0.162    77 B    0.108
    53   1 H    0.986 --    28 C    0.911
    54   1 H    0.993 --    30 C    0.889
    55   1 H    0.919 --    31 O    0.888
    56   5 B    3.625 --    92 N    2.968    62 B    0.209    80 B    0.160
                            82 B    0.154
    57   5 B    3.623 --    93 N    3.017    66 B    0.190    81 B    0.153
                            83 B    0.140
    58   5 B    3.585 --    94 N    3.026    72 B    0.181    80 B    0.153
                            81 B    0.146
    59   5 B    3.603 --    95 N    3.013    74 B    0.179    83 B    0.158
                            82 B    0.152
    60   5 B    3.477 --    96 N    1.154     9 C    0.763    14 C    0.718
                            84 B    0.161    10 C    0.119     8 C    0.115
                            76 B    0.109
    61   5 B    3.387 --    97 N    2.174    85 B    0.379    78 B    0.289
                            33 H    0.147
    62   5 B    3.595 --    98 N    2.802    85 B    0.240    56 B    0.209
    63   5 B    3.567 --    99 N    2.798    86 B    0.204    68 B    0.183
                            87 B    0.146
    64   5 B    3.473 --   100 N    1.835    26 C    0.748    27 C    0.443
                            25 C    0.148
    65   5 B    3.124 --   101 N    0.814    24 C    0.512    22 N    0.414
                            21 C    0.341    79 B    0.238    91 B    0.172
                            20 C    0.117    23 C    0.101
    66   5 B    3.586 --   102 N    2.902    20 C    0.207    57 B    0.190
    67   5 B    3.653 --   103 N    3.028    91 B    0.186    69 B    0.167
                            90 B    0.139
    68   5 B    3.669 --   104 N    3.411    63 B    0.183
    69   5 B    3.683 --   105 N    3.449    67 B    0.167
    70   5 B    3.676 --   106 N    3.545    73 B    0.113
    71   5 B    3.680 --   107 N    3.532    75 B    0.134
    72   5 B    3.661 --   108 N    3.387    58 B    0.181
    73   5 B    3.660 --   109 N    2.956    42 H    0.287    16 C    0.276
                            70 B    0.113
    74   5 B    3.682 --   110 N    3.398    59 B    0.179
    75   5 B    3.667 --   111 N    3.499    71 B    0.134
    76   5 B    3.252 --   112 N    2.141    14 C    0.420    13 N    0.240
                            15 O    0.226    60 B    0.109
    77   5 B    3.416 --   113 N    2.587    27 C    0.258    26 C    0.213
                            52 H    0.108
    78   5 B    3.697 --   114 N    3.261    61 B    0.289
    79   5 B    3.372 --   115 N    2.093    24 C    0.428    65 B    0.238
                            50 H    0.147
    80   5 B    3.443 --   116 N    2.838    56 B    0.160    58 B    0.153
    81   5 B    3.448 --   117 N    2.843    57 B    0.153    58 B    0.146
    82   5 B    3.475 --   118 N    2.874    56 B    0.154    59 B    0.152
    83   5 B    3.470 --   119 N    2.831    59 B    0.158    57 B    0.140
    84   5 B    3.404 --   120 N    2.665    60 B    0.161    10 C    0.121
    85   5 B    2.090 --     3 C    0.396    61 B    0.379   121 N    0.319
                            62 B    0.240    98 N    0.144    37 H    0.116
    86   5 B    3.279 --   122 N    2.153     9 C    0.233    63 B    0.204
                            14 C    0.189
    87   5 B    3.308 --   123 N    1.325    32 H    0.708     1 C    0.613
                            63 B    0.146    34 H    0.116
    88   5 B    3.216 --   124 N    2.281    25 C    0.326    29 C    0.110
    89   5 B    3.500 --   125 N    1.527    21 C    1.444    45 H    0.178
                            20 C    0.132
    90   5 B    3.459 --   126 N    2.867    26 C    0.153    67 B    0.139
    91   5 B    3.462 --   127 N    2.519    67 B    0.186    65 B    0.172
                            22 N    0.105
    92   7 N    3.596 --    56 B    2.968   116 N    0.144   118 N    0.137
    93   7 N    3.589 --    57 B    3.017   117 N    0.128   119 N    0.126
    94   7 N    3.592 --    58 B    3.026   117 N    0.141   116 N    0.136
    95   7 N    3.595 --    59 B    3.013   118 N    0.139   119 N    0.134
    96   7 N    3.769 --     9 C    1.599    60 B    1.154     8 C    0.516
                            14 C    0.104
    97   7 N    3.334 --    61 B    2.174     1 C    0.368    33 H    0.237
    98   7 N    3.507 --    62 B    2.802    85 B    0.144
    99   7 N    3.423 --    63 B    2.798
   100   7 N    3.708 --    64 B    1.835    28 C    0.471    27 C    0.459
                            29 C    0.458    26 C    0.102
   101   7 N    3.798 --    22 N    2.332    65 B    0.814    24 C    0.120
                            23 C    0.105
   102   7 N    3.376 --    66 B    2.902
   103   7 N    3.598 --    67 B    3.028
   104   7 N    3.553 --    68 B    3.411
   105   7 N    3.596 --    69 B    3.449
   106   7 N    3.666 --    70 B    3.545
   107   7 N    3.659 --    71 B    3.532   111 N    0.106
   108   7 N    3.556 --    72 B    3.387
   109   7 N    3.378 --    73 B    2.956    16 C    0.200    42 H    0.104
   110   7 N    3.560 --    74 B    3.398
   111   7 N    3.619 --    75 B    3.499   107 N    0.106
   112   7 N    3.189 --    76 B    2.141    15 O    0.695    14 C    0.110
   113   7 N    3.445 --    77 B    2.587    27 C    0.281    52 H    0.162
                            26 C    0.109
   114   7 N    3.464 --    78 B    3.261
   115   7 N    3.270 --    79 B    2.093    24 C    0.531    50 H    0.364
   116   7 N    3.305 --    80 B    2.838    92 N    0.144    94 N    0.136
   117   7 N    3.282 --    81 B    2.843    94 N    0.141    93 N    0.128
   118   7 N    3.326 --    82 B    2.874    95 N    0.139    92 N    0.137
   119   7 N    3.273 --    83 B    2.831    95 N    0.134    93 N    0.126
   120   7 N    3.373 --    84 B    2.665     5 C    0.186
   121   7 N    3.935 --     4 O    3.517    85 B    0.319
   122   7 N    3.556 --    86 B    2.153     9 C    0.466     8 C    0.397
   123   7 N    3.738 --    87 B    1.325     1 C    1.229     2 C    0.951
   124   7 N    3.199 --    88 B    2.281    30 C    0.487
   125   7 N    3.230 --    89 B    1.527    21 C    0.682    45 H    0.375
                            44 H    0.130    20 C    0.126
   126   7 N    3.335 --    90 B    2.867    29 C    0.122
   127   7 N    3.120 --    91 B    2.519
 ---------------------------------------------------------------------------

Topologies differ in total number of bonds
Writing topology from bond orders to xtbtopo.mol

molecular dipole:
                 x           y           z       tot (Debye)
 q only:       -6.524      -3.079      -3.399
   full:       -3.586      -4.455      -2.201      15.575
molecular quadrupole (traceless):
                xx          xy          yy          xz          yz          zz
 q only:      -98.159      16.117     120.156     -48.586     -20.927     -21.997
  q+dip:       -5.048      10.798      78.480     -58.400     -21.834     -73.432
   full:      -13.807      10.828      93.440     -58.942     -23.596     -79.633


           -------------------------------------------------
          | TOTAL ENERGY               30.721650213461 Eh   |
          | GRADIENT NORM             214.530792784227 Eh/α |
          | HOMO-LUMO GAP               0.073788111422 eV   |
           -------------------------------------------------

------------------------------------------------------------------------
 * finished run on 2026/08/31 at 18:34:44.754     
------------------------------------------------------------------------
 total:
 * wall-time:     0 d,  0 h,  0 min,  0.913 sec
 *  cpu-time:     0 d,  0 h,  0 min, 12.406 sec
 * ratio c/w:    13.588 speedup
 SCF:
 * wall-time:     0 d,  0 h,  0 min,  0.859 sec
 *  cpu-time:     0 d,  0 h,  0 min, 11.750 sec
 * ratio c/w:    13.679 speedup

normal termination of xtb
