      -----------------------------------------------------------      
     |                   =====================                   |     
     |                           x T B                           |     
     |                   =====================                   |     
     |                         S. Grimme                         |     
     |          Mulliken Center for Theoretical Chemistry        |     
     |                    University of Bonn                     |     
      -----------------------------------------------------------      

   * xtb version 6.7.1pre (5071a88) compiled by 'Marcel@Raven' on 2024-07-23

   xtb is free software: you can redistribute it and/or modify it under
   the terms of the GNU Lesser General Public License as published by
   the Free Software Foundation, either version 3 of the License, or
   (at your option) any later version.
   
   xtb is distributed in the hope that it will be useful,
   but WITHOUT ANY WARRANTY; without even the implied warranty of
   MERCHANTABILITY or FITNESS FOR A PARTICULAR PURPOSE.  See the
   GNU Lesser General Public License for more details.
   
   Cite this work as:
   * C. Bannwarth, E. Caldeweyher, S. Ehlert, A. Hansen, P. Pracht,
     J. Seibert, S. Spicher, S. Grimme, WIREs Comput. Mol. Sci., 2020, 11,
     e01493. DOI: 10.1002/wcms.1493
   
   for GFN2-xTB:
   * C. Bannwarth, S. Ehlert and S. Grimme., J. Chem. Theory Comput., 2019,
     15, 1652-1671. DOI: 10.1021/acs.jctc.8b01176
   for GFN1-xTB:
   * S. Grimme, C. Bannwarth, P. Shushkov, J. Chem. Theory Comput., 2017,
     13, 1989-2009. DOI: 10.1021/acs.jctc.7b00118
   for GFN0-xTB:
   * P. Pracht, E. Caldeweyher, S. Ehlert, S. Grimme, ChemRxiv, 2019, preprint.
     DOI: 10.26434/chemrxiv.8326202.v1
   for GFN-FF:
   * S. Spicher and S. Grimme, Angew. Chem. Int. Ed., 2020, 59, 15665-15673.
     DOI: 10.1002/anie.202004239
   
   for ALPB and GBSA implicit solvation:
   * S. Ehlert, M. Stahn, S. Spicher, S. Grimme, J. Chem. Theory Comput.,
     2021, 17, 4250-4261. DOI: 10.1021/acs.jctc.1c00471
   
   for ddCOSMO and CPCM-X implicit solvation:
   * M. Stahn, S. Ehlert, S. Grimme, J. Phys. Chem. A,
     2023, XX, XXXX-XXXX. DOI: 10.1021/acs.jpca.3c04382
   
   for DFT-D4:
   * E. Caldeweyher, C. Bannwarth and S. Grimme, J. Chem. Phys., 2017,
     147, 034112. DOI: 10.1063/1.4993215
   * E. Caldeweyher, S. Ehlert, A. Hansen, H. Neugebauer, S. Spicher,
     C. Bannwarth and S. Grimme, J. Chem. Phys., 2019, 150, 154122.
     DOI: 10.1063/1.5090222
   * E. Caldeweyher, J.-M. Mewes, S. Ehlert and S. Grimme, Phys. Chem. Chem. Phys.
     2020, 22, 8499-8512. DOI: 10.1039/D0CP00502A
   
   for sTDA-xTB:
   * S. Grimme and C. Bannwarth, J. Chem. Phys., 2016, 145, 054103.
     DOI: 10.1063/1.4959605
   
   in the mass-spec context:
   * V. Asgeirsson, C. Bauer and S. Grimme, Chem. Sci., 2017, 8, 4879.
     DOI: 10.1039/c7sc00601b
   * J. Koopman and S. Grimme, ACS Omega 2019, 4, 12, 15120-15133.
     DOI: 10.1021/acsomega.9b02011
   
   for metadynamics refer to:
   * S. Grimme, J. Chem. Theory Comput., 2019, 155, 2847-2862
     DOI: 10.1021/acs.jctc.9b00143
   
   for SPH calculations refer to:
   * S. Spicher and S. Grimme, J. Chem. Theory Comput., 2021, 17, 1701-1714
     DOI: 10.1021/acs.jctc.0c01306
   
   for ONIOM refer to:
   * C. Plett, A. Katbashev, S. Ehlert, S. Grimme, M. Bursch,
     Phys. Chem. Chem. Phys., 2023, 25, 17860-17868. DOI: 10.1039/D3CP02178E
   
   for DIPRO refer to:
   * J. Kohn, N. Gildemeister, S. Grimme, D. Fazzi, A. Hansen,
     J. Chem. Phys., 2023, just accepted.
   
   for PTB refer to:
   * S. Grimme, M. Mueller, A. Hansen, J. Chem. Phys., 2023, 158, 124111.
     DOI: 10.1063/5.0137838
   
   with help from (in alphabetical order)
   P. Atkinson, C. Bannwarth, F. Bohle, G. Brandenburg, E. Caldeweyher
   M. Checinski, S. Dohm, S. Ehlert, S. Ehrlich, I. Gerasimov, C. Hölzer
   A. Katbashev, J. Kohn, J. Koopman, C. Lavigne, S. Lehtola, F. März, M. Müller,
   F. Musil, H. Neugebauer, J. Pisarek, C. Plett, P. Pracht, F. Pultar,
   J. Seibert, P. Shushkov, S. Spicher, M. Stahn, M. Steiner, T. Strunk,
   J. Stückrath, T. Rose, and J. Unsleber
   
 * started run on 2026/08/31 at 18:34:39.240     
   ID    Z sym.   atoms
    1    6 C      1-3, 5, 8-12, 14, 16-21, 23-30
    2    8 O      4, 6, 7, 15, 31
    3    7 N      13, 22
    4    1 H      32-55

           -------------------------------------------------
          |                Calculation Setup                |
           -------------------------------------------------

          program call               : "c:\Users\Andre\Proyectos doctorado\kras-pancreatic-gC3N4-ai\tools\xtb\xtb-6.7.1\bin\xtb.exe" "c:\Users\Andre\Proyectos doctorado\nano-qsar-ai-therapeutics\calculations\tnbc\Topotecan\Topotecan_drug.xyz" --gfn 2 --sp --chrg 0 --uhf 0 --iterations 500 --norestart
          coordinate file            : c:\Users\Andre\Proyectos doctorado\nano-qsar-ai-therapeutics\calculations\tnbc\Topotecan\Topotecan_drug.xyz
          omp threads                :                    16


           -------------------------------------------------
          |                 G F N 2 - x T B                 |
           -------------------------------------------------

        Reference                      10.1021/acs.jctc.8b01176
      * Hamiltonian:
        H0-scaling (s, p, d)           1.850000    2.230000    2.230000
        zeta-weighting                 0.500000
      * Dispersion:
        s8                             2.700000
        a1                             0.520000
        a2                             5.000000
        s9                             5.000000
      * Repulsion:
        kExp                           1.500000    1.000000
        rExp                           1.000000
      * Coulomb:
        alpha                          2.000000
        third order                    shell-resolved
        anisotropic                    true
        a3                             3.000000
        a5                             4.000000
        cn-shift                       1.200000
        cn-exp                         4.000000
        max-rad                        5.000000


          ...................................................
          :                      SETUP                      :
          :.................................................:
          :  # basis functions                 148          :
          :  # atomic orbitals                 148          :
          :  # shells                           86          :
          :  # electrons                       160          :
          :  max. iterations                   500          :
          :  Hamiltonian                  GFN2-xTB          :
          :  restarted?                      false          :
          :  GBSA solvation                  false          :
          :  PC potential                    false          :
          :  electronic temp.          300.0000000     K    :
          :  accuracy                    1.0000000          :
          :  -> integral cutoff          0.2500000E+02      :
          :  -> integral neglect         0.1000000E-07      :
          :  -> SCF convergence          0.1000000E-05 Eh   :
          :  -> wf. convergence          0.1000000E-03 e    :
          :  Broyden damping             0.4000000          :
          :  net charge                          0          :
          :  unpaired electrons                  0          :
          ...................................................

 iter      E             dE          RMSdq      gap      omega  full diag
   1    -90.8919441 -0.908919E+02  0.415E+00    2.46       0.0  T
   2    -91.0126666 -0.120722E+00  0.244E+00    2.26       1.0  T
   3    -91.0009390  0.117276E-01  0.134E+00    2.30       1.0  T
   4    -91.0211857 -0.202467E-01  0.590E-01    1.79       1.0  T
   5    -91.0372081 -0.160224E-01  0.147E-01    1.92       1.0  T
   6    -91.0380206 -0.812497E-03  0.637E-02    1.90       1.0  T
   7    -91.0380936 -0.729856E-04  0.279E-02    1.92       1.0  T
   8    -91.0381016 -0.803089E-05  0.115E-02    1.92       1.2  T
   9    -91.0381042 -0.254542E-05  0.409E-03    1.92       3.3  T
  10    -91.0381043 -0.814838E-07  0.223E-03    1.92       6.1  T
  11    -91.0381044 -0.153155E-06  0.886E-04    1.92      15.2  T
  12    -91.0381044 -0.946098E-08  0.359E-04    1.92      37.5  T

   *** convergence criteria satisfied after 12 iterations ***

         #    Occupation            Energy/Eh            Energy/eV
      -------------------------------------------------------------
         1        2.0000           -0.7465393             -20.3144
       ...           ...                  ...                  ...
        74        2.0000           -0.4304828             -11.7140
        75        2.0000           -0.4111477             -11.1879
        76        2.0000           -0.4082278             -11.1084
        77        2.0000           -0.3972832             -10.8106
        78        2.0000           -0.3921177             -10.6701
        79        2.0000           -0.3754536             -10.2166
        80        2.0000           -0.3581283              -9.7452 (HOMO)
        81                         -0.2875395              -7.8243 (LUMO)
        82                         -0.2690299              -7.3207
        83                         -0.2530871              -6.8869
        84                         -0.2411793              -6.5628
        85                         -0.2125168              -5.7829
       ...                                ...                  ...
       148                          0.7331219              19.9493
      -------------------------------------------------------------
                  HL-Gap            0.0705888 Eh            1.9208 eV
             Fermi-level           -0.3228339 Eh           -8.7848 eV

 SCC (total)                   0 d,  0 h,  0 min,  0.062 sec
 SCC setup                      ...        0 min,  0.001 sec (  1.613%)
 Dispersion                     ...        0 min,  0.000 sec (  0.000%)
 classical contributions        ...        0 min,  0.000 sec (  0.000%)
 integral evaluation            ...        0 min,  0.004 sec (  6.452%)
 iterations                     ...        0 min,  0.051 sec ( 82.258%)
 molecular gradient             ...        0 min,  0.006 sec (  9.677%)
 printout                       ...        0 min,  0.000 sec (  0.000%)

         :::::::::::::::::::::::::::::::::::::::::::::::::::::
         ::                     SUMMARY                     ::
         :::::::::::::::::::::::::::::::::::::::::::::::::::::
         :: total energy             -89.879067092824 Eh    ::
         :: gradient norm              0.120525015446 Eh/a0 ::
         :: HOMO-LUMO gap              1.920819142754 eV    ::
         ::.................................................::
         :: SCC energy               -91.037936283301 Eh    ::
         :: -> isotropic ES            0.132579598213 Eh    ::
         :: -> anisotropic ES          0.007906123048 Eh    ::
         :: -> anisotropic XC          0.026896624251 Eh    ::
         :: -> dispersion             -0.065067094598 Eh    ::
         :: repulsion energy           1.158869190476 Eh    ::
         :: add. restraining           0.000000000000 Eh    ::
         :: total charge              -0.000000000000 e     ::
         :::::::::::::::::::::::::::::::::::::::::::::::::::::

           -------------------------------------------------
          |                Property Printout                |
           -------------------------------------------------

    * Orbital Energies and Occupations

         #    Occupation            Energy/Eh            Energy/eV
      -------------------------------------------------------------
         1        2.0000           -0.7465393             -20.3144
       ...           ...                  ...                  ...
        68        2.0000           -0.4520866             -12.3019
        69        2.0000           -0.4481217             -12.1940
        70        2.0000           -0.4420761             -12.0295
        71        2.0000           -0.4361794             -11.8690
        72        2.0000           -0.4329335             -11.7807
        73        2.0000           -0.4309042             -11.7255
        74        2.0000           -0.4304828             -11.7140
        75        2.0000           -0.4111477             -11.1879
        76        2.0000           -0.4082278             -11.1084
        77        2.0000           -0.3972832             -10.8106
        78        2.0000           -0.3921177             -10.6701
        79        2.0000           -0.3754536             -10.2166
        80        2.0000           -0.3581283              -9.7452 (HOMO)
        81                         -0.2875395              -7.8243 (LUMO)
        82                         -0.2690299              -7.3207
        83                         -0.2530871              -6.8869
        84                         -0.2411793              -6.5628
        85                         -0.2125168              -5.7829
        86                         -0.2103444              -5.7238
        87                         -0.1616055              -4.3975
        88                         -0.1171542              -3.1879
        89                         -0.0740769              -2.0157
        90                         -0.0449771              -1.2239
        91                         -0.0116168              -0.3161
       ...                                ...                  ...
       148                          0.7331219              19.9493
      -------------------------------------------------------------
                  HL-Gap            0.0705888 Eh            1.9208 eV
             Fermi-level           -0.3228339 Eh           -8.7848 eV

     #   Z          covCN         q      C6AA      α(0)
     1   6 C        3.748    -0.100    22.475     6.762
     2   6 C        3.802    -0.053    21.520     6.605
     3   6 C        3.779     0.118    18.680     6.157
     4   8 O        1.651    -0.445    21.747     6.295
     5   6 C        2.699     0.334    21.323     7.558
     6   8 O        0.856    -0.390    21.486     6.215
     7   8 O        1.700    -0.250    18.145     5.751
     8   6 C        3.686     0.076    19.507     6.323
     9   6 C        2.959    -0.055    29.363     8.888
    10   6 C        2.967     0.010    27.779     8.645
    11   6 C        2.910    -0.062    29.551     8.914
    12   6 C        2.976     0.061    26.630     8.465
    13   7 N        2.786    -0.052    22.236     7.004
    14   6 C        2.765     0.250    22.803     7.820
    15   8 O        0.857    -0.461    22.929     6.420
    16   6 C        3.789     0.001    20.583     6.462
    17   6 C        3.038    -0.007    28.160     8.704
    18   6 C        3.013    -0.005    28.139     8.702
    19   6 C        2.908    -0.039    28.974     8.826
    20   6 C        2.961     0.004    27.925     8.668
    21   6 C        3.758     0.004    20.555     6.464
    22   7 N        2.720    -0.169    24.645     7.373
    23   6 C        3.711    -0.032    21.288     6.594
    24   6 C        3.706    -0.031    21.274     6.593
    25   6 C        2.975     0.015    27.672     8.629
    26   6 C        2.978     0.004    27.937     8.670
    27   6 C        2.919    -0.039    28.964     8.825
    28   6 C        2.909    -0.064    29.581     8.918
    29   6 C        2.840     0.149    24.749     8.153
    30   6 C        2.916    -0.057    29.426     8.895
    31   8 O        1.659    -0.388    20.614     6.129
    32   1 H        0.924     0.037     2.494     2.470
    33   1 H        0.924     0.056     2.250     2.346
    34   1 H        0.924     0.042     2.426     2.436
    35   1 H        0.923     0.048     2.348     2.396
    36   1 H        0.924     0.032     2.563     2.503
    37   1 H        0.803     0.310     0.692     1.307
    38   1 H        0.924     0.098     1.803     2.100
    39   1 H        0.924     0.074     2.045     2.236
    40   1 H        0.925     0.075     2.036     2.231
    41   1 H        0.924     0.080     1.975     2.198
    42   1 H        0.924     0.080     1.984     2.203
    43   1 H        0.925     0.046     2.371     2.408
    44   1 H        0.923     0.019     2.753     2.595
    45   1 H        0.923     0.045     2.384     2.415
    46   1 H        0.924     0.037     2.491     2.468
    47   1 H        0.924     0.016     2.797     2.615
    48   1 H        0.924     0.041     2.436     2.441
    49   1 H        0.924     0.040     2.455     2.450
    50   1 H        0.924     0.016     2.801     2.617
    51   1 H        0.924     0.036     2.509     2.477
    52   1 H        0.925     0.041     2.438     2.442
    53   1 H        0.925     0.035     2.512     2.478
    54   1 H        0.925     0.070     2.087     2.259
    55   1 H        0.804     0.303     0.714     1.327

 Mol. C6AA /au·bohr⁶  :      35233.861756
 Mol. C8AA /au·bohr⁸  :     838284.733873
 Mol. α(0) /au        :        289.844420


Wiberg/Mayer (AO) data.
largest (>0.10) Wiberg bond orders for each atom

 ---------------------------------------------------------------------------
     #   Z sym  total        # sym  WBO       # sym  WBO       # sym  WBO
 ---------------------------------------------------------------------------
     1   6 C    3.994 --     2 C    1.017    32 H    0.987    33 H    0.985
                            34 H    0.984
     2   6 C    3.990 --     1 C    1.017    36 H    0.976    35 H    0.973
                             3 C    0.938
     3   6 C    3.961 --     4 O    0.986    10 C    0.982     2 C    0.938
                             5 C    0.922
     4   8 O    1.953 --     3 C    0.986    37 H    0.874
     5   6 C    3.911 --     6 O    1.740     7 O    1.154     3 C    0.922
     6   8 O    2.050 --     5 C    1.740     7 O    0.164
     7   8 O    2.329 --     5 C    1.154     8 C    0.931     6 O    0.164
     8   6 C    3.918 --     9 C    1.020    38 H    0.950    39 H    0.946
                             7 O    0.931
     9   6 C    3.966 --    10 C    1.613    14 C    1.058     8 C    1.020
    10   6 C    3.985 --     9 C    1.613    11 C    1.199     3 C    0.982
    11   6 C    3.962 --    12 C    1.557    10 C    1.199    40 H    0.961
    12   6 C    3.960 --    11 C    1.557    13 N    1.147    18 C    1.080
    13   7 N    3.601 --    14 C    1.157    12 C    1.147    16 C    0.975
                            15 O    0.160
    14   6 C    3.957 --    15 O    1.627    13 N    1.157     9 C    1.058
    15   8 O    1.971 --    14 C    1.627    13 N    0.160
    16   6 C    3.965 --    17 C    1.017    13 N    0.975    42 H    0.947
                            41 H    0.947
    17   6 C    3.982 --    18 C    1.389    26 C    1.298    16 C    1.017
                            20 C    0.113
    18   6 C    3.979 --    17 C    1.389    19 C    1.324    12 C    1.080
    19   6 C    3.982 --    20 C    1.501    18 C    1.324    43 H    0.964
    20   6 C    3.983 --    19 C    1.501    25 C    1.252    21 C    1.006
                            17 C    0.113
    21   6 C    3.986 --    20 C    1.006    22 N    0.990    44 H    0.963
                            45 H    0.961
    22   7 N    3.107 --    24 C    1.014    23 C    1.013    21 C    0.990
    23   6 C    3.985 --    22 N    1.013    46 H    0.983    48 H    0.982
                            47 H    0.976
    24   6 C    3.986 --    22 N    1.014    51 H    0.983    49 H    0.983
                            50 H    0.975
    25   6 C    3.976 --    30 C    1.319    20 C    1.252    26 C    1.222
    26   6 C    3.989 --    17 C    1.298    27 C    1.285    25 C    1.222
    27   6 C    3.981 --    28 C    1.526    26 C    1.285    52 H    0.969
                            30 C    0.125
    28   6 C    3.989 --    27 C    1.526    29 C    1.307    53 H    0.965
    29   6 C    3.931 --    30 C    1.429    28 C    1.307    31 O    1.075
    30   6 C    3.983 --    29 C    1.429    25 C    1.319    54 H    0.963
                            27 C    0.125
    31   8 O    2.117 --    29 C    1.075    55 H    0.887
    32   1 H    0.999 --     1 C    0.987
    33   1 H    0.997 --     1 C    0.985
    34   1 H    0.998 --     1 C    0.984
    35   1 H    0.997 --     2 C    0.973
    36   1 H    0.999 --     2 C    0.976
    37   1 H    0.903 --     4 O    0.874
    38   1 H    0.989 --     8 C    0.950
    39   1 H    0.993 --     8 C    0.946
    40   1 H    0.994 --    11 C    0.961
    41   1 H    0.993 --    16 C    0.947
    42   1 H    0.993 --    16 C    0.947
    43   1 H    0.997 --    19 C    0.964
    44   1 H    0.999 --    21 C    0.963
    45   1 H    0.997 --    21 C    0.961
    46   1 H    0.999 --    23 C    0.983
    47   1 H    1.000 --    23 C    0.976
    48   1 H    0.998 --    23 C    0.982
    49   1 H    0.998 --    24 C    0.983
    50   1 H    1.000 --    24 C    0.975
    51   1 H    0.999 --    24 C    0.983
    52   1 H    0.998 --    27 C    0.969
    53   1 H    0.998 --    28 C    0.965
    54   1 H    0.995 --    30 C    0.963
    55   1 H    0.908 --    31 O    0.887
 ---------------------------------------------------------------------------

Topologies differ in total number of bonds
Writing topology from bond orders to xtbtopo.mol

molecular dipole:
                 x           y           z       tot (Debye)
 q only:       -2.942      -0.602      -0.742
   full:       -2.573      -0.589      -0.795       7.007
molecular quadrupole (traceless):
                xx          xy          yy          xz          yz          zz
 q only:      -17.671     -22.261      10.560     -12.558       1.581       7.111
  q+dip:      -19.281     -27.235      15.962     -14.811      -1.444       3.319
   full:      -21.561     -26.829      13.714     -14.972       1.495       7.847


           -------------------------------------------------
          | TOTAL ENERGY              -89.879067092824 Eh   |
          | GRADIENT NORM               0.120525015446 Eh/α |
          | HOMO-LUMO GAP               1.920819142754 eV   |
           -------------------------------------------------

------------------------------------------------------------------------
 * finished run on 2026/08/31 at 18:34:39.363     
------------------------------------------------------------------------
 total:
 * wall-time:     0 d,  0 h,  0 min,  0.122 sec
 *  cpu-time:     0 d,  0 h,  0 min,  1.031 sec
 * ratio c/w:     8.453 speedup
 SCF:
 * wall-time:     0 d,  0 h,  0 min,  0.063 sec
 *  cpu-time:     0 d,  0 h,  0 min,  0.734 sec
 * ratio c/w:    11.657 speedup

normal termination of xtb
