127
Drug@B36N36 non-overlapping complex
C      4.045208     -2.227891      9.247235
C      5.087805     -1.214122      9.704757
C      4.680728     -0.365779     10.929935
O      4.417827     -1.253345     12.028203
C      5.900857      0.504554     11.308694
O      6.742205      0.092102     12.108847
O      6.054298      1.695010     10.688698
C      4.984415      2.341414      9.963653
C      3.641428      1.753869     10.218097
C      3.473652      0.504923     10.692434
C      2.133050     -0.000916     10.957982
C      1.078411      0.779098     10.702321
N      1.242829      2.049797     10.193311
C      2.458779      2.621461      9.917197
O      2.603207      3.746735      9.451383
C     -0.041474      2.716292      9.985112
C     -1.032803      1.678232     10.441255
C     -0.347593      0.529759     10.867989
C     -1.028466     -0.573072     11.340508
C     -2.436950     -0.539397     11.387938
C     -3.149795     -1.773639     11.925788
N     -3.867899     -2.543002     10.895476
C     -4.712163     -3.558666     11.525983
C     -2.952474     -3.174341      9.944228
C     -3.151616      0.625423     10.947763
C     -2.427706      1.754043     10.470718
C     -3.116687      2.908064     10.043557
C     -4.508662      2.969327     10.077328
C     -5.219459      1.873039     10.535985
C     -4.561274      0.722040     10.961663
O     -6.582486      1.882307     10.587264
H      3.149412     -1.734651      8.859337
H      3.752154     -2.897859     10.061130
H      4.455001     -2.843309      8.439469
H      5.999267     -1.775803      9.950740
H      5.346179     -0.564659      8.858593
H      5.286175     -1.433530     12.444030
H      5.011461      3.390676     10.275697
H      5.230091      2.301122      8.897329
H      2.017044     -1.000688     11.364356
H     -0.076178      3.623119     10.596901
H     -0.149893      2.957787      8.923150
H     -0.485150     -1.454144     11.668249
H     -2.436175     -2.420143     12.455608
H     -3.847954     -1.428357     12.700492
H     -5.443171     -3.091489     12.195417
H     -4.126635     -4.282611     12.104325
H     -5.288063     -4.105044     10.770598
H     -3.511921     -3.753281      9.200323
H     -2.243051     -3.848334     10.437989
H     -2.386489     -2.426309      9.379576
H     -2.573669      3.776644      9.678230
H     -5.011687      3.870872      9.743584
H     -5.172075     -0.112336     11.297411
H     -6.901864      2.729010     10.235659
B      3.459180     -1.454569      1.628037
N      3.456400      1.129904      0.940040
B      2.539920      2.362499     -1.261047
N      2.293067     -0.641637     -2.730603
B      0.690534     -3.561069      2.702709
N     -2.939724     -2.654773      1.709476
B     -1.038202      4.085096      1.831238
N     -0.619347      0.017651     -3.941904
B     -0.473710      1.445324     -4.091730
N      1.209559     -3.786796     -1.739405
B     -3.844500      2.209440     -0.493722
N     -2.772864      2.763562     -1.211833
B      1.405725      0.818091     -4.889311
N     -0.235789      3.364215      2.833544
B      0.898320     -2.879798     -2.813849
N     -0.491833      3.766578     -1.010119
B     -0.805996      2.182269      3.281874
N      1.656110     -1.274433      3.503622
B     -0.248484      3.469937     -2.379863
N      1.308703      0.068898      3.816981
B     -1.597441     -0.559934     -3.084689
N     -3.832496      1.776842      0.831624
B      0.337602      4.495994      1.183894
N      0.043256     -0.013955      4.456653
B     -2.708837      2.226751      1.601242
N      3.772728     -0.132624     -0.765541
B     -2.253381     -3.639412      1.008482
N      1.055818      3.733398      2.235734
B     -1.825620     -0.777460      3.219840
N     -2.436768     -3.601880     -0.450773
B      3.018658     -1.073670     -1.502768
N     -3.157960     -1.252592     -0.384321
B      2.034656      2.922326      1.561722
N     -0.507447     -2.900148     -2.432795
B     -1.673548     -2.112882     -2.491621
N      0.590135      3.964583     -0.110225
B      1.090314      2.959649     -3.182489
N      0.077350     -4.359230      1.721289
B     -1.784034      3.452384     -0.408220
N     -2.013520      3.418515      1.031553
B      1.465878     -4.212148      1.499138
N     -0.797987      1.064153      4.194581
B     -2.666242     -2.402096     -1.175256
N     -1.074388     -4.484335      0.991235
B     -2.503710      0.491370     -2.109143
N      2.352728     -3.887335      0.453103
B      3.912327     -0.202357      0.725926
N      1.928548      1.957009     -2.465077
B      1.001184      2.254351     -4.622507
N     -4.186016      0.829005     -0.347538
B     -1.338881      2.453658     -3.114870
N     -2.359649      1.932605     -2.305841
B      3.073063     -2.645483      0.601111
N      2.335213     -3.673670     -0.970876
B      2.217863      0.545803      2.808407
N     -2.026423      0.611912      3.601492
B     -1.101749     -4.183787     -0.441007
N     -3.218144      0.041654     -0.958566
B      3.447752      1.258593     -0.514065
N      2.582085      1.632977      1.936454
B      1.472054     -1.555001     -3.515610
N     -2.102601      1.754194      2.760799
B      2.040765      0.711921     -3.211483
N     -2.720915     -1.341699      2.320567
B      0.658648     -0.538875     -4.486937
N     -0.168664     -3.759421     -1.356472
B      0.485560     -2.105634      3.433764
N     -0.587253     -1.205033      3.824488
B     -3.224373     -1.451411      1.000320
N      2.671324     -0.855529      2.621135
B      1.878557      3.339348     -0.106427
N      2.876911     -2.331783     -0.793563
