55
Topotecan - ETKDG+MMFF conformer
C      4.045208     -2.227891     -1.342863
C      5.087805     -1.214122     -0.885341
C      4.680728     -0.365779      0.339837
O      4.417827     -1.253345      1.438105
C      5.900857      0.504554      0.718596
O      6.742205      0.092102      1.518749
O      6.054298      1.695010      0.098600
C      4.984415      2.341414     -0.626445
C      3.641428      1.753869     -0.372001
C      3.473652      0.504923      0.102336
C      2.133050     -0.000916      0.367884
C      1.078411      0.779098      0.112223
N      1.242829      2.049797     -0.396787
C      2.458779      2.621461     -0.672901
O      2.603207      3.746735     -1.138715
C     -0.041474      2.716292     -0.604986
C     -1.032803      1.678232     -0.148843
C     -0.347593      0.529759      0.277891
C     -1.028466     -0.573072      0.750410
C     -2.436950     -0.539397      0.797840
C     -3.149795     -1.773639      1.335690
N     -3.867899     -2.543002      0.305378
C     -4.712163     -3.558666      0.935885
C     -2.952474     -3.174341     -0.645870
C     -3.151616      0.625423      0.357665
C     -2.427706      1.754043     -0.119380
C     -3.116687      2.908064     -0.546541
C     -4.508662      2.969327     -0.512770
C     -5.219459      1.873039     -0.054113
C     -4.561274      0.722040      0.371565
O     -6.582486      1.882307     -0.002834
H      3.149412     -1.734651     -1.730761
H      3.752154     -2.897859     -0.528968
H      4.455001     -2.843309     -2.150629
H      5.999267     -1.775803     -0.639358
H      5.346179     -0.564659     -1.731505
H      5.286175     -1.433530      1.853932
H      5.011461      3.390676     -0.314401
H      5.230091      2.301122     -1.692769
H      2.017044     -1.000688      0.774258
H     -0.076178      3.623119      0.006803
H     -0.149893      2.957787     -1.666948
H     -0.485150     -1.454144      1.078151
H     -2.436175     -2.420143      1.865510
H     -3.847954     -1.428357      2.110394
H     -5.443171     -3.091489      1.605319
H     -4.126635     -4.282611      1.514227
H     -5.288063     -4.105044      0.180500
H     -3.511921     -3.753281     -1.389775
H     -2.243051     -3.848334     -0.152109
H     -2.386489     -2.426309     -1.210522
H     -2.573669      3.776644     -0.911868
H     -5.011687      3.870872     -0.846514
H     -5.172075     -0.112336      0.707313
H     -6.901864      2.729010     -0.354439
