      -----------------------------------------------------------      
     |                   =====================                   |     
     |                           x T B                           |     
     |                   =====================                   |     
     |                         S. Grimme                         |     
     |          Mulliken Center for Theoretical Chemistry        |     
     |                    University of Bonn                     |     
      -----------------------------------------------------------      

   * xtb version 6.7.1pre (5071a88) compiled by 'Marcel@Raven' on 2024-07-23

   xtb is free software: you can redistribute it and/or modify it under
   the terms of the GNU Lesser General Public License as published by
   the Free Software Foundation, either version 3 of the License, or
   (at your option) any later version.
   
   xtb is distributed in the hope that it will be useful,
   but WITHOUT ANY WARRANTY; without even the implied warranty of
   MERCHANTABILITY or FITNESS FOR A PARTICULAR PURPOSE.  See the
   GNU Lesser General Public License for more details.
   
   Cite this work as:
   * C. Bannwarth, E. Caldeweyher, S. Ehlert, A. Hansen, P. Pracht,
     J. Seibert, S. Spicher, S. Grimme, WIREs Comput. Mol. Sci., 2020, 11,
     e01493. DOI: 10.1002/wcms.1493
   
   for GFN2-xTB:
   * C. Bannwarth, S. Ehlert and S. Grimme., J. Chem. Theory Comput., 2019,
     15, 1652-1671. DOI: 10.1021/acs.jctc.8b01176
   for GFN1-xTB:
   * S. Grimme, C. Bannwarth, P. Shushkov, J. Chem. Theory Comput., 2017,
     13, 1989-2009. DOI: 10.1021/acs.jctc.7b00118
   for GFN0-xTB:
   * P. Pracht, E. Caldeweyher, S. Ehlert, S. Grimme, ChemRxiv, 2019, preprint.
     DOI: 10.26434/chemrxiv.8326202.v1
   for GFN-FF:
   * S. Spicher and S. Grimme, Angew. Chem. Int. Ed., 2020, 59, 15665-15673.
     DOI: 10.1002/anie.202004239
   
   for ALPB and GBSA implicit solvation:
   * S. Ehlert, M. Stahn, S. Spicher, S. Grimme, J. Chem. Theory Comput.,
     2021, 17, 4250-4261. DOI: 10.1021/acs.jctc.1c00471
   
   for ddCOSMO and CPCM-X implicit solvation:
   * M. Stahn, S. Ehlert, S. Grimme, J. Phys. Chem. A,
     2023, XX, XXXX-XXXX. DOI: 10.1021/acs.jpca.3c04382
   
   for DFT-D4:
   * E. Caldeweyher, C. Bannwarth and S. Grimme, J. Chem. Phys., 2017,
     147, 034112. DOI: 10.1063/1.4993215
   * E. Caldeweyher, S. Ehlert, A. Hansen, H. Neugebauer, S. Spicher,
     C. Bannwarth and S. Grimme, J. Chem. Phys., 2019, 150, 154122.
     DOI: 10.1063/1.5090222
   * E. Caldeweyher, J.-M. Mewes, S. Ehlert and S. Grimme, Phys. Chem. Chem. Phys.
     2020, 22, 8499-8512. DOI: 10.1039/D0CP00502A
   
   for sTDA-xTB:
   * S. Grimme and C. Bannwarth, J. Chem. Phys., 2016, 145, 054103.
     DOI: 10.1063/1.4959605
   
   in the mass-spec context:
   * V. Asgeirsson, C. Bauer and S. Grimme, Chem. Sci., 2017, 8, 4879.
     DOI: 10.1039/c7sc00601b
   * J. Koopman and S. Grimme, ACS Omega 2019, 4, 12, 15120-15133.
     DOI: 10.1021/acsomega.9b02011
   
   for metadynamics refer to:
   * S. Grimme, J. Chem. Theory Comput., 2019, 155, 2847-2862
     DOI: 10.1021/acs.jctc.9b00143
   
   for SPH calculations refer to:
   * S. Spicher and S. Grimme, J. Chem. Theory Comput., 2021, 17, 1701-1714
     DOI: 10.1021/acs.jctc.0c01306
   
   for ONIOM refer to:
   * C. Plett, A. Katbashev, S. Ehlert, S. Grimme, M. Bursch,
     Phys. Chem. Chem. Phys., 2023, 25, 17860-17868. DOI: 10.1039/D3CP02178E
   
   for DIPRO refer to:
   * J. Kohn, N. Gildemeister, S. Grimme, D. Fazzi, A. Hansen,
     J. Chem. Phys., 2023, just accepted.
   
   for PTB refer to:
   * S. Grimme, M. Mueller, A. Hansen, J. Chem. Phys., 2023, 158, 124111.
     DOI: 10.1063/5.0137838
   
   with help from (in alphabetical order)
   P. Atkinson, C. Bannwarth, F. Bohle, G. Brandenburg, E. Caldeweyher
   M. Checinski, S. Dohm, S. Ehlert, S. Ehrlich, I. Gerasimov, C. Hölzer
   A. Katbashev, J. Kohn, J. Koopman, C. Lavigne, S. Lehtola, F. März, M. Müller,
   F. Musil, H. Neugebauer, J. Pisarek, C. Plett, P. Pracht, F. Pultar,
   J. Seibert, P. Shushkov, S. Spicher, M. Stahn, M. Steiner, T. Strunk,
   J. Stückrath, T. Rose, and J. Unsleber
   
 * started run on 2026/08/31 at 22:22:03.104     
   ID    Z sym.   atoms
    1    6 C      1-3, 5, 8-12, 14, 16-21, 23-30
    2    8 O      4, 6, 7, 15, 31
    3    7 N      13, 22, 57, 59, 61, 63, 65, 67, 69, 71, 73, 75, 77, 79, 81,
                  83, 85, 87, 89, 91, 93, 95, 97, 99, 101, 103, 105, 107,
                  109, 111, 113, 115, 117, 119, 121, 123, 125, 127
    4    1 H      32-55
    5    5 B      56, 58, 60, 62, 64, 66, 68, 70, 72, 74, 76, 78, 80, 82, 84,
                  86, 88, 90, 92, 94, 96, 98, 100, 102, 104, 106, 108, 110,
                  112, 114, 116, 118, 120, 122, 124, 126

           -------------------------------------------------
          |                Calculation Setup                |
           -------------------------------------------------

          program call               : "c:\Users\Andre\Proyectos doctorado\kras-pancreatic-gC3N4-ai\tools\xtb\xtb-6.7.1\bin\xtb.exe" "c:\Users\Andre\Proyectos doctorado\nano-qsar-ai-therapeutics\calculations\tnbc\Topotecan\Topotecan_B36N36_clean_complex.xyz" --gfn 2 --sp --chrg 0 --uhf 0 --etemp 300 --iterations 500 --norestart
          coordinate file            : c:\Users\Andre\Proyectos doctorado\nano-qsar-ai-therapeutics\calculations\tnbc\Topotecan\Topotecan_B36N36_clean_complex.xyz
          omp threads                :                    16


molecular fragmentation (1/2 indicates fragments):
111111111111111111111111111111111111111111111111111111122222222222222222
2222222222222222222222222222222222222222222222222222222
# atoms in fragment 1/2:    55    72
 fragment masses (1/2) :      420.46      893.44
CMA distance (Bohr)    :  18.538
constraining FC (au)   :  0.0500

           -------------------------------------------------
          |                 G F N 2 - x T B                 |
           -------------------------------------------------

        Reference                      10.1021/acs.jctc.8b01176
      * Hamiltonian:
        H0-scaling (s, p, d)           1.850000    2.230000    2.230000
        zeta-weighting                 0.500000
      * Dispersion:
        s8                             2.700000
        a1                             0.520000
        a2                             5.000000
        s9                             5.000000
      * Repulsion:
        kExp                           1.500000    1.000000
        rExp                           1.000000
      * Coulomb:
        alpha                          2.000000
        third order                    shell-resolved
        anisotropic                    true
        a3                             3.000000
        a5                             4.000000
        cn-shift                       1.200000
        cn-exp                         4.000000
        max-rad                        5.000000


          ...................................................
          :                      SETUP                      :
          :.................................................:
          :  # basis functions                 436          :
          :  # atomic orbitals                 436          :
          :  # shells                          230          :
          :  # electrons                       448          :
          :  max. iterations                   500          :
          :  Hamiltonian                  GFN2-xTB          :
          :  restarted?                      false          :
          :  GBSA solvation                  false          :
          :  PC potential                    false          :
          :  electronic temp.          300.0000000     K    :
          :  accuracy                    1.0000000          :
          :  -> integral cutoff          0.2500000E+02      :
          :  -> integral neglect         0.1000000E-07      :
          :  -> SCF convergence          0.1000000E-05 Eh   :
          :  -> wf. convergence          0.1000000E-03 e    :
          :  Broyden damping             0.4000000          :
          :  net charge                          0          :
          :  unpaired electrons                  0          :
          ...................................................

 iter      E             dE          RMSdq      gap      omega  full diag
   1   -241.6693456 -0.241669E+03  0.108E+01    0.63       0.0  T
   2   -242.1353292 -0.465984E+00  0.657E+00    0.21       1.0  T
   3   -238.9128719  0.322246E+01  0.432E+00    0.20       1.0  T
   4   -240.7977492 -0.188488E+01  0.248E+00    0.39       1.0  T
   5   -241.3299300 -0.532181E+00  0.192E+00    0.14       1.0  T
   6   -242.6087141 -0.127878E+01  0.788E-01    0.74       1.0  T
   7   -242.6263384 -0.176242E-01  0.564E-01    0.80       1.0  T
   8   -242.6217003  0.463809E-02  0.445E-01    0.81       1.0  T
   9   -242.6246846 -0.298437E-02  0.203E-01    0.75       1.0  T
  10   -242.6275217 -0.283702E-02  0.117E-01    0.75       1.0  T
  11   -242.6295307 -0.200907E-02  0.689E-02    0.69       1.0  T
  12   -242.6297974 -0.266665E-03  0.568E-02    0.72       1.0  T
  13   -242.6299104 -0.113015E-03  0.429E-02    0.71       1.0  T
  14   -242.6299888 -0.784280E-04  0.283E-02    0.72       1.0  T
  15   -242.6300297 -0.409108E-04  0.136E-02    0.72       1.0  T
  16   -242.6300403 -0.105637E-04  0.703E-03    0.72       1.3  T
  17   -242.6300437 -0.342291E-05  0.204E-03    0.73       4.4  T
  18   -242.6300442 -0.452616E-06  0.966E-04    0.73       9.2  T
  19   -242.6300443 -0.781785E-07  0.615E-04    0.73      14.4  T

   *** convergence criteria satisfied after 19 iterations ***

         #    Occupation            Energy/Eh            Energy/eV
      -------------------------------------------------------------
         1        2.0000           -0.7398938             -20.1335
       ...           ...                  ...                  ...
       218        2.0000           -0.3300379              -8.9808
       219        2.0000           -0.3274794              -8.9112
       220        2.0000           -0.3263428              -8.8802
       221        2.0000           -0.3235842              -8.8052
       222        2.0000           -0.3181766              -8.6580
       223        2.0000           -0.3160917              -8.6013
       224        2.0000           -0.3126049              -8.5064 (HOMO)
       225        0.0000           -0.2859240              -7.7804 (LUMO)
       226                         -0.2781451              -7.5687
       227                         -0.2777256              -7.5573
       228                         -0.2670524              -7.2669
       229                         -0.2598973              -7.0722
       ...                                ...                  ...
       436                          0.9812036              26.6999
      -------------------------------------------------------------
                  HL-Gap            0.0266809 Eh            0.7260 eV
             Fermi-level           -0.2992514 Eh           -8.1430 eV

 SCC (total)                   0 d,  0 h,  0 min,  0.892 sec
 SCC setup                      ...        0 min,  0.003 sec (  0.336%)
 Dispersion                     ...        0 min,  0.005 sec (  0.561%)
 classical contributions        ...        0 min,  0.001 sec (  0.112%)
 integral evaluation            ...        0 min,  0.015 sec (  1.682%)
 iterations                     ...        0 min,  0.825 sec ( 92.489%)
 molecular gradient             ...        0 min,  0.040 sec (  4.484%)
 printout                       ...        0 min,  0.003 sec (  0.336%)

         :::::::::::::::::::::::::::::::::::::::::::::::::::::
         ::                     SUMMARY                     ::
         :::::::::::::::::::::::::::::::::::::::::::::::::::::
         :: total energy            -240.088803667933 Eh    ::
         :: gradient norm              0.120175587037 Eh/a0 ::
         :: HOMO-LUMO gap              0.726024244142 eV    ::
         ::.................................................::
         :: SCC energy              -242.613689615314 Eh    ::
         :: -> isotropic ES            0.762463502139 Eh    ::
         :: -> anisotropic ES         -0.023488347228 Eh    ::
         :: -> anisotropic XC          0.089606057483 Eh    ::
         :: -> dispersion             -0.209221388540 Eh    ::
         :: repulsion energy           2.524885947382 Eh    ::
         :: add. restraining           0.000000000000 Eh    ::
         :: total charge               0.000000000003 e     ::
         :::::::::::::::::::::::::::::::::::::::::::::::::::::

           -------------------------------------------------
          |                Property Printout                |
           -------------------------------------------------

    * Orbital Energies and Occupations

         #    Occupation            Energy/Eh            Energy/eV
      -------------------------------------------------------------
         1        2.0000           -0.7398938             -20.1335
       ...           ...                  ...                  ...
       212        2.0000           -0.3428943              -9.3306
       213        2.0000           -0.3415061              -9.2929
       214        2.0000           -0.3375636              -9.1856
       215        2.0000           -0.3352397              -9.1223
       216        2.0000           -0.3331080              -9.0643
       217        2.0000           -0.3317578              -9.0276
       218        2.0000           -0.3300379              -8.9808
       219        2.0000           -0.3274794              -8.9112
       220        2.0000           -0.3263428              -8.8802
       221        2.0000           -0.3235842              -8.8052
       222        2.0000           -0.3181766              -8.6580
       223        2.0000           -0.3160917              -8.6013
       224        2.0000           -0.3126049              -8.5064 (HOMO)
       225        0.0000           -0.2859240              -7.7804 (LUMO)
       226                         -0.2781451              -7.5687
       227                         -0.2777256              -7.5573
       228                         -0.2670524              -7.2669
       229                         -0.2598973              -7.0722
       230                         -0.2544084              -6.9228
       231                         -0.2480814              -6.7506
       232                         -0.2466774              -6.7124
       233                         -0.2376261              -6.4661
       234                         -0.2337646              -6.3611
       235                         -0.2321516              -6.3172
       ...                                ...                  ...
       436                          0.9812036              26.6999
      -------------------------------------------------------------
                  HL-Gap            0.0266809 Eh            0.7260 eV
             Fermi-level           -0.2992514 Eh           -8.1430 eV

     #   Z          covCN         q      C6AA      α(0)
     1   6 C        3.748    -0.106    22.595     6.780
     2   6 C        3.802    -0.055    21.559     6.611
     3   6 C        3.779     0.118    18.682     6.158
     4   8 O        1.651    -0.445    21.752     6.296
     5   6 C        2.699     0.333    21.333     7.560
     6   8 O        0.856    -0.393    21.536     6.222
     7   8 O        1.700    -0.251    18.156     5.753
     8   6 C        3.686     0.073    19.542     6.329
     9   6 C        2.959    -0.056    29.380     8.891
    10   6 C        2.967     0.010    27.788     8.647
    11   6 C        2.910    -0.064    29.581     8.918
    12   6 C        2.976     0.061    26.618     8.463
    13   7 N        2.786    -0.048    22.163     6.992
    14   6 C        2.765     0.249    22.820     7.823
    15   8 O        0.857    -0.461    22.947     6.423
    16   6 C        3.789    -0.004    20.662     6.474
    17   6 C        3.038    -0.005    28.118     8.697
    18   6 C        3.013    -0.005    28.119     8.698
    19   6 C        2.908    -0.040    28.989     8.829
    20   6 C        2.961     0.004    27.936     8.669
    21   6 C        3.758     0.003    20.575     6.467
    22   7 N        2.720    -0.168    24.623     7.370
    23   6 C        3.711    -0.034    21.317     6.598
    24   6 C        3.706    -0.035    21.358     6.606
    25   6 C        2.975     0.015    27.662     8.627
    26   6 C        2.978     0.005    27.916     8.667
    27   6 C        2.919    -0.039    28.979     8.828
    28   6 C        2.909    -0.065    29.614     8.923
    29   6 C        2.840     0.149    24.762     8.155
    30   6 C        2.916    -0.058    29.448     8.899
    31   8 O        1.659    -0.389    20.643     6.134
    32   1 H        0.924     0.043     2.416     2.431
    33   1 H        0.924     0.056     2.244     2.343
    34   1 H        0.924     0.044     2.399     2.422
    35   1 H        0.923     0.048     2.351     2.398
    36   1 H        0.924     0.034     2.537     2.491
    37   1 H        0.803     0.310     0.693     1.308
    38   1 H        0.924     0.098     1.804     2.100
    39   1 H        0.924     0.075     2.030     2.228
    40   1 H        0.925     0.076     2.024     2.225
    41   1 H        0.924     0.081     1.969     2.195
    42   1 H        0.924     0.087     1.912     2.163
    43   1 H        0.925     0.047     2.358     2.402
    44   1 H        0.923     0.019     2.754     2.595
    45   1 H        0.923     0.044     2.391     2.418
    46   1 H        0.924     0.036     2.499     2.472
    47   1 H        0.924     0.015     2.804     2.619
    48   1 H        0.924     0.041     2.433     2.439
    49   1 H        0.924     0.041     2.434     2.440
    50   1 H        0.924     0.016     2.799     2.616
    51   1 H        0.924     0.041     2.440     2.443
    52   1 H        0.925     0.042     2.419     2.432
    53   1 H        0.925     0.035     2.518     2.482
    54   1 H        0.925     0.070     2.084     2.257
    55   1 H        0.804     0.302     0.715     1.328
    56   5 B        2.781     0.076    20.196     7.514
    57   7 N        2.774    -0.227    25.960     7.567
    58   5 B        2.788     0.092    19.928     7.462
    59   7 N        2.524    -0.314    28.115     7.874
    60   5 B        2.779     0.082    20.096     7.495
    61   7 N        2.655    -0.270    26.990     7.716
    62   5 B        2.849     0.241    17.669     7.019
    63   7 N        2.529    -0.272    27.071     7.727
    64   5 B        3.195     0.150    18.926     7.256
    65   7 N        2.979    -0.110    23.390     7.183
    66   5 B        2.644     0.373    16.323     6.813
    67   7 N        2.669    -0.212    25.624     7.518
    68   5 B        3.181     0.023    20.983     7.640
    69   7 N        2.888    -0.222    25.840     7.550
    70   5 B        3.009     0.209    18.072     7.091
    71   7 N        2.660    -0.163    24.522     7.355
    72   5 B        2.906     0.320    16.609     6.801
    73   7 N        3.156    -0.083    22.857     7.101
    74   5 B        2.779     0.094    19.908     7.461
    75   7 N        3.037    -0.128    23.764     7.240
    76   5 B        2.758     0.090    20.007     7.484
    77   7 N        2.634    -0.310    27.976     7.855
    78   5 B        3.040     0.227    17.818     7.041
    79   7 N        2.981    -0.005    21.353     6.863
    80   5 B        2.582     0.325    17.311     7.088
    81   7 N        2.596    -0.359    29.269     8.035
    82   5 B        3.287     0.340    16.339     6.741
    83   7 N        2.784    -0.252    26.534     7.650
    84   5 B        2.559     0.320    17.595     7.185
    85   7 N        2.579    -0.368    29.509     8.068
    86   5 B        2.530     0.301    18.226     7.377
    87   7 N        2.665    -0.205    25.453     7.493
    88   5 B        2.698     0.196    18.495     7.217
    89   7 N        2.844    -0.167    24.602     7.367
    90   5 B        2.758     0.082    20.129     7.507
    91   7 N        2.672    -0.174    24.759     7.390
    92   5 B        2.877     0.111    19.570     7.384
    93   7 N        2.663    -0.144    24.123     7.295
    94   5 B        2.594     0.312    17.391     7.086
    95   7 N        2.519    -0.354    29.165     8.020
    96   5 B        2.684     0.184    18.722     7.269
    97   7 N        3.008    -0.131    23.839     7.252
    98   5 B        2.677     0.210    18.358     7.202
    99   7 N        2.716    -0.249    26.467     7.641
   100   5 B        2.647     0.164    19.165     7.380
   101   7 N        2.825    -0.206    25.471     7.496
   102   5 B        3.321     0.230    17.779     7.031
   103   7 N        2.531    -0.285    27.396     7.773
   104   5 B        2.950     0.036    20.765     7.603
   105   7 N        2.783    -0.185    25.000     7.426
   106   5 B        2.796     0.085    20.036     7.481
   107   7 N        2.673    -0.155    24.362     7.331
   108   5 B        3.021     0.211    18.054     7.087
   109   7 N        3.272     0.016    20.975     6.802
   110   5 B        2.869     0.306    16.799     6.842
   111   7 N        3.154    -0.116    23.526     7.204
   112   5 B        3.263     0.320    16.584     6.792
   113   7 N        2.833    -0.061    22.410     7.031
   114   5 B        3.303     0.231    17.760     7.028
   115   7 N        2.656    -0.182    24.957     7.420
   116   5 B        2.838     0.112    19.564     7.387
   117   7 N        2.834    -0.225    25.899     7.558
   118   5 B        2.863     0.253    17.503     6.984
   119   7 N        2.654    -0.230    26.046     7.580
   120   5 B        3.011     0.114    19.484     7.363
   121   7 N        3.153    -0.086    22.905     7.108
   122   5 B        2.674     0.202    18.492     7.230
   123   7 N        2.696    -0.232    26.075     7.584
   124   5 B        2.585     0.369    16.723     6.962
   125   7 N        2.881    -0.180    24.899     7.411
   126   5 B        2.825     0.107    19.663     7.407
   127   7 N        2.827    -0.252    26.546     7.652

 Mol. C6AA /au·bohr⁶  :     273133.472197
 Mol. C8AA /au·bohr⁸  :    7496418.884266
 Mol. α(0) /au        :        818.595175


Wiberg/Mayer (AO) data.
largest (>0.10) Wiberg bond orders for each atom

 ---------------------------------------------------------------------------
     #   Z sym  total        # sym  WBO       # sym  WBO       # sym  WBO
 ---------------------------------------------------------------------------
     1   6 C    3.993 --     2 C    1.017    32 H    0.987    33 H    0.985
                            34 H    0.984
     2   6 C    3.990 --     1 C    1.017    36 H    0.976    35 H    0.973
                             3 C    0.938
     3   6 C    3.961 --     4 O    0.986    10 C    0.982     2 C    0.938
                             5 C    0.923
     4   8 O    1.953 --     3 C    0.986    37 H    0.874
     5   6 C    3.911 --     6 O    1.737     7 O    1.155     3 C    0.923
     6   8 O    2.047 --     5 C    1.737     7 O    0.164
     7   8 O    2.329 --     5 C    1.155     8 C    0.931     6 O    0.164
     8   6 C    3.918 --     9 C    1.020    38 H    0.950    39 H    0.946
                             7 O    0.931
     9   6 C    3.966 --    10 C    1.612    14 C    1.059     8 C    1.020
    10   6 C    3.985 --     9 C    1.612    11 C    1.200     3 C    0.982
    11   6 C    3.962 --    12 C    1.556    10 C    1.200    40 H    0.961
    12   6 C    3.960 --    11 C    1.556    13 N    1.149    18 C    1.080
    13   7 N    3.604 --    14 C    1.159    12 C    1.149    16 C    0.976
                            15 O    0.160
    14   6 C    3.957 --    15 O    1.626    13 N    1.159     9 C    1.059
    15   8 O    1.969 --    14 C    1.626    13 N    0.160
    16   6 C    3.965 --    17 C    1.017    13 N    0.976    41 H    0.947
                            42 H    0.945
    17   6 C    3.982 --    18 C    1.389    26 C    1.298    16 C    1.017
                            20 C    0.113
    18   6 C    3.979 --    17 C    1.389    19 C    1.324    12 C    1.080
    19   6 C    3.982 --    20 C    1.502    18 C    1.324    43 H    0.964
    20   6 C    3.983 --    19 C    1.502    25 C    1.252    21 C    1.005
                            17 C    0.113
    21   6 C    3.986 --    20 C    1.005    22 N    0.990    44 H    0.963
                            45 H    0.961
    22   7 N    3.107 --    24 C    1.014    23 C    1.013    21 C    0.990
    23   6 C    3.986 --    22 N    1.013    46 H    0.983    48 H    0.982
                            47 H    0.976
    24   6 C    3.985 --    22 N    1.014    49 H    0.982    51 H    0.982
                            50 H    0.975
    25   6 C    3.976 --    30 C    1.319    20 C    1.252    26 C    1.223
    26   6 C    3.989 --    17 C    1.298    27 C    1.285    25 C    1.223
    27   6 C    3.981 --    28 C    1.526    26 C    1.285    52 H    0.969
                            30 C    0.126
    28   6 C    3.989 --    27 C    1.526    29 C    1.308    53 H    0.965
    29   6 C    3.931 --    30 C    1.429    28 C    1.308    31 O    1.073
    30   6 C    3.983 --    29 C    1.429    25 C    1.319    54 H    0.963
                            27 C    0.126
    31   8 O    2.115 --    29 C    1.073    55 H    0.888
    32   1 H    0.998 --     1 C    0.987
    33   1 H    0.997 --     1 C    0.985
    34   1 H    0.998 --     1 C    0.984
    35   1 H    0.997 --     2 C    0.973
    36   1 H    0.999 --     2 C    0.976
    37   1 H    0.904 --     4 O    0.874
    38   1 H    0.989 --     8 C    0.950
    39   1 H    0.993 --     8 C    0.946
    40   1 H    0.994 --    11 C    0.961
    41   1 H    0.993 --    16 C    0.947
    42   1 H    0.992 --    16 C    0.945
    43   1 H    0.997 --    19 C    0.964
    44   1 H    0.999 --    21 C    0.963
    45   1 H    0.997 --    21 C    0.961
    46   1 H    0.999 --    23 C    0.983
    47   1 H    1.000 --    23 C    0.976
    48   1 H    0.998 --    23 C    0.982
    49   1 H    0.998 --    24 C    0.982
    50   1 H    1.000 --    24 C    0.975
    51   1 H    0.998 --    24 C    0.982
    52   1 H    0.998 --    27 C    0.969
    53   1 H    0.998 --    28 C    0.965
    54   1 H    0.994 --    30 C    0.963
    55   1 H    0.908 --    31 O    0.888
    56   5 B    3.477 --   125 N    1.281   108 B    1.000   102 B    0.969
    57   7 N    3.398 --   102 B    1.143   115 N    1.007   114 B    1.001
    58   5 B    3.465 --   103 N    1.277   126 B    0.978   114 B    0.958
    59   7 N    3.530 --   118 B    1.152   116 B    1.150    86 B    1.018
    60   5 B    3.465 --    93 N    1.241   122 B    0.995    96 B    0.990
    61   7 N    3.263 --    82 B    1.200   124 B    0.967   119 N    0.888
    62   5 B    3.407 --    95 N    1.177    69 N    1.033    78 B    0.963
    63   7 N    3.569 --    76 B    1.277    64 B    1.158   120 B    0.973
    64   5 B    3.393 --    63 N    1.158   106 B    0.932   104 B    0.640
                            68 B    0.294
    65   7 N    3.323 --    70 B    1.113   109 N    1.043   121 N    0.945
    66   5 B    3.433 --    67 N    1.187    77 N    1.126   105 N    0.962
    67   7 N    3.446 --    66 B    1.187    94 B    1.086   107 N    0.967
    68   5 B    3.456 --   104 B    1.284   120 B    1.004   118 B    0.626
                            64 B    0.294
    69   7 N    3.429 --    72 B    1.235    62 B    1.033    83 N    0.929
    70   5 B    3.390 --    65 N    1.113    89 N    1.039   116 B    1.005
    71   7 N    3.510 --    74 B    1.205    94 B    1.124    91 N    0.999
    72   5 B    3.514 --    69 N    1.235    97 N    1.070   117 N    1.001
    73   7 N    3.348 --   122 B    1.142   125 N    0.990    75 N    0.982
    74   5 B    3.414 --    71 N    1.205    92 B    1.008   106 B    0.926
    75   7 N    3.325 --   110 B    1.135    73 N    0.982    79 N    0.973
    76   5 B    3.464 --    63 N    1.277    90 B    0.978   100 B    0.932
    77   7 N    3.218 --    66 B    1.126    80 B    1.067   105 N    0.792
    78   5 B    3.368 --    91 N    1.152    83 N    0.991    62 B    0.963
    79   7 N    3.095 --    97 N    1.013    75 N    0.973   123 N    0.938
    80   5 B    3.511 --   117 N    1.246    77 N    1.067    95 N    0.989
    81   7 N    3.434 --    86 B    1.202   114 B    1.062   102 B    0.926
    82   5 B    3.481 --    61 N    1.200    99 N    1.042    85 N    0.981
    83   7 N    3.284 --    88 B    1.170    78 B    0.991    69 N    0.929
    84   5 B    3.523 --   119 N    1.211   123 N    1.120   111 N    1.033
    85   7 N    3.431 --    98 B    1.220   112 B    0.993    82 B    0.981
    86   5 B    3.520 --    81 N    1.202   127 N    1.098    59 N    1.018
    87   7 N    3.442 --   124 B    1.262    98 B    0.997   113 N    0.990
    88   5 B    3.444 --    83 N    1.170   115 N    1.122   126 B    0.923
    89   7 N    3.470 --    90 B    1.260    70 B    1.039   121 N    0.984
    90   5 B    3.421 --    89 N    1.260    76 B    0.978    98 B    0.959
    91   7 N    3.511 --   126 B    1.171    78 B    1.152    71 N    0.999
    92   5 B    3.347 --   104 B    1.009    74 B    1.008   103 N    0.963
    93   7 N    3.509 --    60 B    1.241    96 B    1.092    99 N    1.036
    94   5 B    3.515 --    71 N    1.124    95 N    1.103    67 N    1.086
    95   7 N    3.477 --    62 B    1.177    94 B    1.103    80 B    0.989
    96   5 B    3.464 --   101 N    1.180    93 N    1.092    60 B    0.990
    97   7 N    3.259 --    72 B    1.070    79 N    1.013   111 N    0.975
    98   5 B    3.390 --    85 N    1.220    87 N    0.997    90 B    0.959
    99   7 N    3.372 --    82 B    1.042    93 N    1.036   112 B    0.985
   100   5 B    3.453 --   113 N    1.190   107 N    1.079    76 B    0.932
   101   7 N    3.407 --    96 B    1.180   108 B    1.072   109 N    0.959
   102   5 B    3.365 --    57 N    1.143    56 B    0.969    81 N    0.926
                           114 B    0.127
   103   7 N    3.561 --    58 B    1.277   118 B    1.105    92 B    0.963
   104   5 B    3.367 --    68 B    1.284    92 B    1.009    64 B    0.640
                           118 B    0.186
   105   7 N    2.986 --   113 N    1.045    66 B    0.962    77 N    0.792
   106   5 B    3.454 --   107 N    1.266    64 B    0.932    74 B    0.926
   107   7 N    3.481 --   106 B    1.266   100 B    1.079    67 N    0.967
   108   5 B    3.443 --   127 N    1.131   101 N    1.072    56 B    1.000
   109   7 N    3.187 --    65 N    1.043   101 N    0.959   127 N    0.951
   110   5 B    3.523 --   115 N    1.164    75 N    1.135   125 N    0.994
   111   7 N    3.216 --    84 B    1.033   117 N    0.984    97 N    0.975
   112   5 B    3.507 --   121 N    1.265    85 N    0.993    99 N    0.985
   113   7 N    3.439 --   100 B    1.190   105 N    1.045    87 N    0.990
   114   5 B    3.327 --    81 N    1.062    57 N    1.001    58 B    0.958
                           102 B    0.127
   115   7 N    3.491 --   110 B    1.164    88 B    1.122    57 N    1.007
   116   5 B    3.385 --    59 N    1.150    70 B    1.005   120 B    1.002
   117   7 N    3.445 --    80 B    1.246    72 B    1.001   111 N    0.984
   118   5 B    3.444 --    59 N    1.152   103 N    1.105    68 B    0.626
                           104 B    0.186   120 B    0.120
   119   7 N    3.333 --    84 B    1.211   124 B    1.035    61 N    0.888
   120   5 B    3.333 --    68 B    1.004   116 B    1.002    63 N    0.973
                           118 B    0.120
   121   7 N    3.440 --   112 B    1.265    89 N    0.984    65 N    0.945
   122   5 B    3.446 --    73 N    1.142   123 N    1.116    60 B    0.995
   123   7 N    3.392 --    84 B    1.120   122 B    1.116    79 N    0.938
   124   5 B    3.439 --    87 N    1.262   119 N    1.035    61 N    0.967
   125   7 N    3.474 --    56 B    1.281   110 B    0.994    73 N    0.990
   126   5 B    3.359 --    91 N    1.171    58 B    0.978    88 B    0.923
   127   7 N    3.418 --   108 B    1.131    86 B    1.098   109 N    0.951
 ---------------------------------------------------------------------------

Topologies differ in total number of bonds
Writing topology from bond orders to xtbtopo.mol

molecular dipole:
                 x           y           z       tot (Debye)
 q only:       -1.097       1.468      -5.010
   full:       -2.377       0.650      -2.947       9.764
molecular quadrupole (traceless):
                xx          xy          yy          xz          yz          zz
 q only:      -19.125     -23.947      30.705     -87.737     -28.686     -11.580
  q+dip:       -9.728     -28.787      50.394     -80.738     -23.767     -40.667
   full:       -6.716     -27.500      46.253     -77.014     -20.700     -39.537


           -------------------------------------------------
          | TOTAL ENERGY             -240.088803667933 Eh   |
          | GRADIENT NORM               0.120175587037 Eh/α |
          | HOMO-LUMO GAP               0.726024244142 eV   |
           -------------------------------------------------

------------------------------------------------------------------------
 * finished run on 2026/08/31 at 22:22:04.060     
------------------------------------------------------------------------
 total:
 * wall-time:     0 d,  0 h,  0 min,  0.954 sec
 *  cpu-time:     0 d,  0 h,  0 min,  8.062 sec
 * ratio c/w:     8.451 speedup
 SCF:
 * wall-time:     0 d,  0 h,  0 min,  0.894 sec
 *  cpu-time:     0 d,  0 h,  0 min,  7.500 sec
 * ratio c/w:     8.389 speedup

normal termination of xtb
