185
Paclitaxel/B40H15 GFN2 opt
C      -6.18846633      0.66240789     17.26094138
C      -5.31040906      0.96575271     16.08060364
O      -5.68170657      1.40258464     15.02338531
O      -4.02999901      0.66973351     16.35039108
C      -3.08509059      1.07150850     15.36383438
C      -2.90729230      2.59855608     15.45428504
O      -3.61278766      3.23321830     16.19938275
C      -2.00035200      3.30897439     14.44573755
C      -2.86682066      3.25498829     13.16721524
C      -1.87046752      4.79562480     14.91362650
O      -3.01348107      5.54213406     14.58044146
C      -0.64582741      5.51749695     14.33602308
C      -0.09422226      4.94415787     13.03783841
O       1.33091294      5.09642194     12.96312558
C       1.54688310      3.69533363     12.83362945
C       0.04574048      3.40841001     13.01732976
O      -0.48219872      2.65887049     11.91212875
C      -0.41097401      3.05154414     10.62812751
C      -0.97765995      1.96942208      9.74418705
O       0.01745669      4.10175670     10.23985551
C      -0.59248263      2.68549202     14.23102089
C       0.17075358      2.60674441     15.57959548
O       1.45040506      3.22512307     15.52279827
C       1.78139600      4.04675663     16.52988447
O       1.03654870      4.31351905     17.44629158
C       3.14159375      4.59987850     16.37155190
C       3.43362255      5.82292532     16.96972365
C       4.69413893      6.37230618     16.83631102
C       5.66954787      5.69966180     16.11739136
C       5.38658636      4.47348950     15.53681586
C       4.12582570      3.92079783     15.65969349
C       0.40637727      1.16711470     16.16742486
O       1.33331450      1.29568907     17.22383151
C       1.08299121      0.24044877     15.14337380
C       0.16164925     -0.67105454     14.31147773
O       0.36722361     -2.06560293     14.63041015
C       1.44011055     -2.63259672     14.11821491
O       2.33055150     -2.07678087     13.52118998
C       1.49442553     -4.13762924     14.36681915
O       2.76730481     -4.59939393     14.01924763
C       0.37825284     -4.81624628     13.50845467
N       0.74988760     -4.75912726     12.11304353
C       0.56177392     -3.63675546     11.38426362
O      -0.07215207     -2.68944018     11.82714459
C       1.12058707     -3.63656941     10.00937713
C       0.51893502     -2.79559896      9.07608192
C       0.99281735     -2.72564753      7.78082068
C       2.08344855     -3.49394822      7.40524109
C       2.70135696     -4.31722811      8.33293415
C       2.22754618     -4.39092545      9.63102262
C       0.13315264     -6.23913122     13.93167754
C       1.15824708     -7.17672971     13.89348390
C       0.92000904     -8.48592968     14.27181269
C      -0.34252116     -8.87173934     14.68941344
C      -1.36600026     -7.94082734     14.73417059
C      -1.12921671     -6.63058785     14.35696610
C      -1.30922191     -0.34502901     14.41365092
C      -2.09261744     -0.70287731     13.18709808
C      -1.78467667      0.33162605     15.46829093
C      -0.91470815      0.52351612     16.68794888
C      -0.60433087     -0.84681200     17.32102061
C      -1.55118978      1.34971974     17.81153708
H      -5.81479125     -0.20674174     17.79368137
H      -7.21044032      0.50636574     16.92979825
H      -6.16060619      1.52042864     17.93025158
H      -3.54054617      0.89897543     14.37984388
H      -2.73083957      2.30864658     12.65472559
H      -2.60322986      4.07160846     12.50215101
H      -3.92064419      3.36464036     13.41926327
H      -1.76641433      4.80023483     16.01021534
H      -3.75339972      5.19481527     15.09558816
H      -0.92839184      6.55887143     14.18275524
H       0.16539955      5.50160162     15.06344285
H      -0.58094651      5.37127952     12.15830088
H       2.25210965      3.30606216     13.56157850
H       1.88193449      3.43973429     11.82305704
H      -0.65527416      2.12911697      8.71999202
H      -2.06414724      2.01660739      9.78338172
H      -0.65904400      0.99246153     10.09568633
H      -0.71878772      1.67045173     13.86642758
H      -0.39391318      3.17100203     16.33085459
H       2.65983745      6.32898920     17.52682420
H       4.91847877      7.32454818     17.29293374
H       6.65488750      6.12954922     16.01389628
H       6.15251277      3.94685824     14.98746332
H       3.90593011      2.95549582     15.23119267
H       1.00518260      1.94977228     17.85534703
H       1.68489312      0.85161002     14.47104225
H       1.77390100     -0.38389248     15.71187294
H       0.44050100     -0.57855182     13.25303937
H       1.29741942     -4.34689221     15.42536111
H       3.21483584     -3.85796172     13.57150137
H      -0.53370502     -4.22132586     13.63332713
H       1.33742862     -5.50076583     11.76848235
H      -0.32739931     -2.20358130      9.38980057
H       0.51908814     -2.06813116      7.07055372
H       2.45147090     -3.44138228      6.39222128
H       3.56262888     -4.90231517      8.04615258
H       2.74655122     -5.01371728     10.34610040
H       2.14946482     -6.87184649     13.59481080
H       1.72338789     -9.20700482     14.24229104
H      -0.52740555     -9.89421211     14.98323912
H      -2.35170789     -8.23518766     15.06288076
H      -1.92998072     -5.90614312     14.39114936
H      -2.05230230      0.10137246     12.45110213
H      -1.64487363     -1.57963174     12.72646520
H      -3.13246662     -0.91756772     13.41780832
H      -1.48529145     -1.20235385     17.84958656
H       0.21234444     -0.74121835     18.03113900
H      -0.33385468     -1.58944520     16.58241340
H      -0.91643291      1.30671910     18.69498665
H      -2.51475809      0.92285987     18.07281540
H      -1.70774215      2.39316612     17.56199071
B       3.43501132     -1.92495758      2.65698411
N       3.48915726      0.70328620      2.17633792
B       2.71906534      2.11967964      0.03189849
N       2.53379208     -0.75872933     -1.68322361
B       0.59349357     -4.07764920      3.39813428
N      -2.96348697     -3.05105734      2.26956440
B      -1.02535924      3.63170183      3.03843534
N      -0.29590274      0.02777521     -3.00647946
B      -0.13053581      1.46101388     -3.03328717
N       1.37368302     -3.96135368     -1.00997104
B      -3.70209173      1.97890610      0.41226020
N      -2.58574613      2.57447734     -0.19601223
B       1.78665510      0.87701684     -3.76662918
N      -0.28886073      2.82275765      4.02511829
B       1.13287205     -2.96792516     -2.02544338
N      -0.31429260      3.53296986      0.21675188
B      -0.89778222      1.62158754      4.35045207
N       1.52710407     -1.87387297      4.43683042
B       0.00738998      3.34238667     -1.15556606
N       1.17263796     -0.55326763      4.83671166
B      -1.32723082     -0.60395386     -2.25691425
N      -3.76917256      1.44080328      1.69694124
B       0.38885007      4.07713704      2.50664672
N      -0.13384032     -0.67242534      5.38673719
B      -2.69258703      1.81791352      2.56543015
N       3.89853078     -0.42310982      0.39786117
B      -2.24435940     -3.98595720      1.53447259
N       1.03579471      3.22131062      3.53257402
B      -1.93280261     -1.31002847      3.98406072
N      -2.34047468     -3.83258213      0.07505281
B       3.18289004     -1.29412590     -0.45382948
N      -3.04978490     -1.48856340      0.28307529
B       2.04901223      2.45913004      2.85682921
N      -0.29285181     -3.00127596     -1.72972859
B      -1.44794546     -2.19808376     -1.79446297
N       0.71413716      3.64762916      1.19080391
B       1.38790071      2.88116921     -1.91605072
N       0.03380678     -4.78864630      2.32278487
B      -1.64168140      3.18728521      0.71552681
N      -1.95476162      3.04035420      2.13256035
B       1.43464174     -4.64165375      2.19518614
N      -0.95375156      0.43313911      5.17366345
B      -2.51942565     -2.57790790     -0.56574456
N      -1.07279333     -4.84186577      1.51965689
B      -2.28228995      0.37835968     -1.25601251
N       2.38346868     -4.24542082      1.23155109
B       3.95002529     -0.61156537      1.88454149
N       2.17508044      1.81522709     -1.23290647
B       1.37884542      2.29262869     -3.41032295
N      -4.06212157      0.59548788      0.42801152
B      -1.04470817      2.39975331     -2.03146923
N      -2.11513390      1.82860582     -1.32730140
B       3.10265981     -3.02725547      1.51903501
N       2.45141525     -3.91975179     -0.16916113
B       2.14046703     -0.00977504      3.91763689
N      -2.14621601      0.04419726      4.47007926
B      -1.01329499     -4.43056345      0.11573283
N      -3.06665170     -0.15242846     -0.18861512
B       3.57293282      0.94899928      0.73961965
N       2.56252819      1.13600816      3.15704509
B       1.75546995     -1.59810578     -2.58536260
N      -2.16296923      1.25152529      3.72139781
B       2.32127372      0.63198205     -2.06856910
N      -2.77678037     -1.79190797      2.99324785
B       1.00782443     -0.49911322     -3.51867527
N      -0.02476513     -3.94675750     -0.70708780
B       0.35346509     -2.67966306      4.22263321
N      -0.73391376     -1.80150817      4.62005254
B      -3.20151512     -1.79413479      1.64077831
N       2.59431113     -1.39628384      3.64697578
B       1.99595421      3.01004205      1.22001459
N       2.99038332     -2.60248872      0.14520164
