113
Paclitaxel GFN2 opt
C       0.94961127     -1.95135536     -0.10731093
C       0.15892764     -1.20083926      0.91496741
C      -0.88554887     -1.67876286      1.60485715
C      -1.46851049     -3.02975943      1.31024196
C      -2.94498405     -3.01552808      0.91955367
O      -3.68366886     -3.86227529      1.35104525
C      -3.42205579     -2.08103552     -0.21741792
C      -2.89997752     -2.85798895     -1.47939269
C      -3.56442993     -2.37354738     -2.76942635
C      -3.60984859     -0.85775540     -2.86837629
C      -3.20937574      0.01714628     -1.65291675
C      -2.81103721     -0.65677594     -0.31644653
C      -3.08077804      0.31614762      0.86951618
C      -1.94003994      0.50050854      1.93469531
C      -1.58739481     -0.83038064      2.64648193
C      -0.68147746     -0.58370506      3.86808579
C      -2.85609365     -1.45152561      3.23895902
C      -0.69849590      1.14036460      1.27004731
C       0.54193580      0.23791271      1.14935292
O       1.33915835      0.75611528      0.07417384
C       2.41479227      1.44735541      0.40851035
O       2.78992976      1.65097467      1.53798274
C       3.13631958      2.01788372     -0.81740959
C       4.65448698      2.13551796     -0.48896762
C       5.40074582      2.56506076     -1.73082915
C       5.63161392      3.91455134     -1.96290958
C       6.28237501      4.32521580     -3.11205818
C       6.70765656      3.38946795     -4.03996004
C       6.47770193      2.04354296     -3.81419449
C       5.82585956      1.63111619     -2.66524224
N       5.22716416      0.93375252      0.09896047
C       4.84199394     -0.34666673     -0.05007635
O       3.88484455     -0.70030590     -0.72778828
C       5.66804260     -1.33887548      0.69088460
C       7.04395650     -1.19371426      0.84505222
C       7.76965444     -2.16206855      1.51493760
C       7.13115027     -3.27453809      2.03897211
C       5.76426013     -3.42899917      1.87701074
C       5.03584260     -2.47064506      1.19746980
O       2.83716294      1.35360039     -1.99607519
O      -2.44398003      1.36450265      2.93100833
O      -3.29562426      1.64397528      0.36744760
C      -4.45506695      2.26111732      0.65158717
O      -5.35286210      1.75313635      1.27790138
C      -4.49133845      3.63633662      0.10249213
C      -3.50857352      4.10095815     -0.76880976
C      -3.58935947      5.38703690     -1.26842762
C      -4.64212262      6.21226916     -0.90338282
C      -5.62289867      5.75101901     -0.03935166
C      -5.55114717      4.46543633      0.46215031
C      -4.61362009      0.61863539     -1.82594632
O      -4.93971798     -0.32071924     -2.84362827
O      -2.22142684      0.98948071     -2.00147715
C      -1.05188421      0.54775433     -2.50381246
O      -0.77668344     -0.61996612     -2.60122041
C      -0.18390297      1.68719189     -2.93467940
O      -3.01584261     -4.24870079     -1.35483960
C      -4.95621757     -2.07025269     -0.16412358
O      -1.34101320     -3.90761169      2.43566233
C      -0.31153530     -4.75346230      2.44910704
O       0.53271322     -4.80942984      1.59345427
C      -0.34658510     -5.60459020      3.69065034
H       1.01024188     -3.00990079      0.13069194
H       0.50645047     -1.83029902     -1.09675557
H       1.95821831     -1.55186046     -0.16871273
H      -0.94190245     -3.49422106      0.46545459
H      -1.82389190     -2.67513798     -1.56383108
H      -3.00354076     -2.79011148     -3.60571897
H      -4.58685838     -2.75079172     -2.83353076
H      -3.09509245     -0.51211283     -3.77220705
H      -1.73099242     -0.78267112     -0.39408167
H      -3.99551363      0.03754619      1.40262862
H      -1.20621232      0.05597278      4.57118536
H       0.26234871     -0.11364451      3.62806627
H      -0.47457029     -1.53836088      4.34501910
H      -3.60753626     -1.67991247      2.49434751
H      -2.61392682     -2.36877848      3.76680528
H      -3.28775327     -0.74182591      3.94060256
H      -0.95726302      1.46509145      0.26056379
H      -0.42595630      2.02825678      1.84520426
H       1.16812793      0.31964190      2.04637091
H       2.77057812      3.04639189     -0.94949316
H       4.73558045      2.91550802      0.27691826
H       5.29930234      4.64582817     -1.23941123
H       6.45818008      5.37703626     -3.28284833
H       7.21563930      3.70993940     -4.93728651
H       6.80327396      1.31013422     -4.53667216
H       5.64571282      0.57995274     -2.49900060
H       5.99961078      1.10614212      0.72275750
H       7.55915729     -0.34610565      0.41400341
H       8.83815325     -2.05009558      1.62451853
H       7.70273095     -4.02503791      2.56420308
H       5.26461590     -4.29988626      2.27303692
H       3.97250062     -2.58732317      1.05423405
H       3.08140720      0.41217493     -1.85090736
H      -2.71138781      2.19669613      2.52531601
H      -2.70268390      3.44398062     -1.05558481
H      -2.83138606      5.74941521     -1.94701096
H      -4.69948107      7.21637787     -1.29665822
H      -6.44341022      6.39432497      0.24018921
H      -6.30387099      4.08192682      1.13397877
H      -5.29961134      0.55421109     -0.98301048
H      -4.58536161      1.64264264     -2.21059355
H      -0.59136537      2.63121778     -2.58773478
H      -0.13356076      1.69035789     -4.02183345
H       0.82921694      1.53536005     -2.56316764
H      -3.94136347     -4.48176802     -1.20906412
H      -5.30638529     -1.45514661      0.66205167
H      -5.32210833     -3.07959963      0.01401712
H      -5.39740045     -1.69902421     -1.08047930
H      -1.37327374     -5.86898449      3.92465773
H       0.06300327     -5.03235519      4.52094122
H       0.25682971     -6.49447641      3.54110880
