113
drug @complex
C       1.84391030      0.66303073      9.07627640
C       1.88241065      0.44893299     10.55400233
C       2.77504520     -0.30087849     11.21491192
C       3.81807020     -1.10573249     10.49656207
C       3.71016512     -2.61649882     10.69183692
O       4.70341137     -3.26819331     10.87334899
C       2.35310510     -3.31958681     10.43461060
C       2.24802458     -3.26324103      8.86750328
C       1.15176048     -4.18081613      8.31788488
C      -0.13445734     -4.16076176      9.13284949
C      -0.19482979     -3.37105793     10.46534906
C       1.06793436     -2.62863691     10.96169362
C       0.99232385     -2.37559848     12.49730832
C       1.23818191     -0.90860633     13.00381184
C       2.68994735     -0.42925337     12.72456332
C       2.94739222      0.93567736     13.41411418
C       3.68430015     -1.41403262     13.34588446
C       0.20808198      0.06513444     12.38320393
C       0.80195422      1.08635265     11.39327330
O      -0.26915078      1.59606103     10.59241380
C      -0.63527936      2.85552397     10.78897247
O      -0.16123865      3.59183943     11.61904586
C      -1.79195906      3.24368578      9.86023546
C      -1.64385944      4.73786429      9.40271574
C      -2.31871680      4.98809930      8.06283860
C      -3.54715712      4.40937391      7.76617290
C      -4.16403273      4.65703664      6.55300678
C      -3.57478421      5.49979090      5.62664694
C      -2.36068911      6.09095695      5.92188728
C      -1.73628877      5.83476520      7.12955696
N      -0.26042528      5.17421812      9.38577517
C       0.72999024      4.45039748      8.81690047
O       0.51356879      3.37958489      8.26738110
C       2.09124595      5.03231027      8.95603344
C       2.31208665      6.40718313      9.00165526
C       3.59524217      6.89919671      9.15745656
C       4.66798723      6.02966667      9.27813546
C       4.45637312      4.66276410      9.21979158
C       3.17711524      4.16690707      9.04982208
O      -1.96574889      2.31601162      8.84144173
O       1.08863672     -0.92894021     14.40648210
O      -0.31725715     -2.70388139     12.98324187
C      -0.43271259     -3.71945361     13.86103422
O       0.50368217     -4.36242826     14.26624962
C      -1.84126199     -3.95848684     14.24638333
C      -2.89504933     -3.30313937     13.61242837
C      -4.19710873     -3.58995825     13.97623174
C      -4.45475809     -4.52348477     14.96876257
C      -3.40826644     -5.17573261     15.60177823
C      -2.10362931     -4.89723495     15.24168386
C      -0.61188054     -4.72114515     11.06875485
O      -0.38739228     -5.39139569      9.83641398
O      -1.30087496     -2.45004610     10.54325300
C      -1.46875580     -1.55868742      9.58854064
O      -0.67433158     -1.52188175      8.62999498
C      -2.62140246     -0.66498182      9.75760713
O       3.47650673     -3.51336643      8.24439848
C       2.50925493     -4.76203047     10.93571616
O       5.13756423     -0.73488848     10.91498440
C       5.62113893      0.42450141     10.47265358
O       5.03920952      1.15975174      9.71794551
C       6.97689986      0.69124776     11.07102514
H       2.84751273      0.71342611      8.66230581
H       1.29481998     -0.12616248      8.56241614
H       1.32695164      1.58642748      8.83335113
H       3.74379894     -0.93479388      9.41470111
H       2.00056826     -2.23644706      8.58166896
H       0.94186258     -3.86463520      7.29566005
H       1.50844627     -5.21309030      8.28844128
H      -0.98360010     -3.92830838      8.48154187
H       1.01059014     -1.65919053     10.46770749
H       1.68966781     -3.03159904     13.02924789
H       3.66180633      0.80860448     14.22160497
H       2.04548223      1.34433179     13.85469395
H       3.35949234      1.65078817     12.70651948
H       3.64457751     -2.40029964     12.90067395
H       4.69806502     -1.04141389     13.23830219
H       3.44892608     -1.50928174     14.40333966
H      -0.56277925     -0.49977628     11.86088097
H      -0.27870600      0.61072746     13.19500607
H       1.21654010      1.94260425     11.93745481
H      -2.70084730      3.18225346     10.47681649
H      -2.14012281      5.35155688     10.16410180
H      -4.02317090      3.75347358      8.47682910
H      -5.10757929      4.18459965      6.32735392
H      -4.05483544      5.68445559      4.67865522
H      -1.88776012      6.74786008      5.20826525
H      -0.78264518      6.29539296      7.33578597
H      -0.01128930      5.95194752      9.97294311
H       1.49072404      7.10065978      8.88829096
H       3.75972258      7.96637251      9.18646742
H       5.66564392      6.42158945      9.41039293
H       5.27952664      3.97053805      9.30465571
H       3.01762174      3.10355627      8.99954447
H      -1.21983294      2.39043327      8.21586298
H       0.20953891     -1.25925060     14.62457455
H      -2.68172899     -2.58938595     12.83266027
H      -5.01655390     -3.08887952     13.48303368
H      -5.47432933     -4.74531220     15.24629801
H      -3.61172640     -5.90367472     16.37214641
H      -1.27198647     -5.39605737     15.71518939
H       0.00097177     -5.13102498     11.86992318
H      -1.66702782     -4.73999790     11.35787503
H      -3.19489268     -0.90847562     10.64543200
H      -3.20811394     -0.72797309      8.83107145
H      -2.27089397      0.37109564      9.76035637
H       3.74109280     -4.42695967      8.40909828
H       2.41814392     -4.80279848     12.01909985
H       3.50442440     -5.12440978     10.68674436
H       1.77900920     -5.43050469     10.49779580
H       7.44110804     -0.24319104     11.36878645
H       6.84882861      1.32125249     11.94981364
H       7.59761708      1.22105837     10.35480266
