72
carrier @complex
B      -1.42304573     -3.67571359      0.62883252
N      -1.66757979     -4.38889985      1.87253299
B      -2.94207962     -3.70848270      1.69772155
N      -2.79665532     -3.32045713      0.30153500
N      -5.13894692      0.89888969      1.39237018
B      -5.24041419      0.43270715      2.76789780
N      -5.05468637      1.70786846      3.44709378
B      -4.60057448      2.04706854      2.10704069
B      -2.98304592     -1.92570514      0.07967311
N      -3.98836809     -1.22760666      0.86804833
B      -4.16147345      0.19746350      0.62876608
N      -3.11808529      0.97076009     -0.02955487
B      -2.12929625      0.23798979     -0.80686135
N      -1.92115106     -1.18544289     -0.58734987
N       0.78338151      1.82502426     -0.68556543
B       0.24026769      0.54271890     -1.10821104
N      -1.10316145      0.97799875     -1.46226212
B      -0.63974731      2.12699919     -0.69805522
B      -4.11560804     -0.79233997      4.54122727
N      -4.75139699     -0.80919717      3.23252246
B      -4.22016682     -1.70754026      2.22376490
N      -3.57720451     -2.92321580      2.68609290
B      -2.93864210     -2.91285748      3.99390655
N      -3.47622163     -2.01084836      4.98844922
N      -1.47197005     -2.57055852      6.47075091
B      -1.10139725     -1.22580214      7.10449441
N      -2.51432898     -0.69258771      6.94208596
B      -2.71632279     -1.90345076      6.18326104
N      -1.34599755      2.71552858      0.37666012
B      -2.67628567      2.19141275      0.62873109
N      -3.36928994      2.67637863      1.80807082
B      -2.57704438      3.10521646      2.95003960
N      -1.24951340      3.62843040      2.68080470
B      -0.54221993      3.14939623      1.50775761
B       0.72267455     -2.84022347      1.41501547
N      -0.29989988     -2.85209648      0.38167594
B      -0.55401713     -1.63086347     -0.35911627
N       0.54950797     -0.69894122     -0.50632901
B       1.57965237     -0.67327786      0.51885614
N       1.81852632     -1.90204164      1.25236423
N      -2.93439187      2.66969121      4.28693487
B      -3.99710743      1.68414084      4.40664881
N      -3.79976873      0.47358775      5.18088240
B      -2.70922883      0.46645773      6.15062626
N      -1.63801028      1.44231188      6.07391200
B      -1.87177509      2.63471315      5.28636641
B       0.50157796      3.00357205      5.13875410
N       0.97615743      3.64118161      3.91283572
B      -0.45034105      3.90411179      3.81822449
N      -0.82709127      3.59704689      5.18609655
N       2.05107029      0.59771500      1.04582499
B       1.34638639      1.79866771      0.62427707
N       0.85389892      2.75455634      1.60490752
B       1.44424747      2.71363760      2.93821439
N       2.15415317      1.52962088      3.39274711
B       2.62272242      0.59119921      2.38693243
B      -0.81168916     -2.95571420      5.27892091
N      -1.60805798     -3.46914753      4.16609702
B      -0.90276623     -3.88972877      2.96972758
N       0.45617170     -3.43646950      2.71279338
B       1.22367582     -2.93809039      3.84896112
N       0.55957201     -2.51354593      5.06749292
N       0.79979292      1.67577870      5.50828748
B      -0.27760390      0.91385085      6.12288349
N      -0.03564207     -0.47178316      6.42536321
B       0.88651816     -1.18591755      5.58469678
N       1.97055086     -0.42938107      4.96891589
B       1.75619568      0.97427818      4.68194194
N       2.55757756     -2.49465381      3.61197211
B       2.72397092     -1.81430061      2.33802730
N       3.31397473     -0.57599837      2.82005452
B       2.79520498     -1.13100935      4.06456032
