109
Pamiparib/B36N36 GFN2 opt
C       2.60395162      0.90640805      8.21415949
C       1.48852908      0.14963285      8.94284874
C       1.34756171      0.61312668     10.41872328
C       1.65989438     -0.62910032     11.25622402
C       1.31483094     -1.76516657     10.30353846
N       1.83708080     -1.27529179      9.04266651
C       1.54625127     -2.10880253      7.89570095
C       0.10179423     -2.05896972      7.44723876
N      -0.43502182     -3.08750405      6.91966798
N      -1.69701040     -3.15778975      6.41924184
C      -2.76397756     -2.34002844      6.13194797
O      -3.71827209     -2.86012279      5.58051631
C      -2.77958223     -0.90152242      6.50157715
C      -1.73129190     -0.27586740      7.17060808
C      -0.47181620     -0.75557814      7.62218660
C       0.18048998      0.29423571      8.22553060
N      -0.61321264      1.40543004      8.15994952
C      -1.77227614      1.09786391      7.49510983
C      -2.86602419      1.87820770      7.14747267
C      -3.89007156      1.23038269      6.48381065
C      -3.87895854     -0.12404310      6.16722013
F      -4.97097496      1.95841746      6.13073831
H       2.67941638      0.56809018      7.18607529
H       2.39775261      1.97344752      8.20954417
H       3.54717197      0.72259891      8.72091646
H       2.02578202      1.43356542     10.64395187
H       0.32768086      0.94730273     10.61154097
H       2.72229612     -0.66704570     11.49337354
H       1.08940113     -0.66474913     12.18176115
H       1.80680865     -2.70297487     10.56534275
H       0.22615206     -1.93461978     10.27658806
H       2.15209865     -1.76120522      7.05226238
H       1.83761248     -3.13319782      8.13018370
H      -1.86018179     -4.08983871      6.04681634
H      -0.33698815      2.33220348      8.43733475
H      -2.92947097      2.93221089      7.36357025
H      -4.71089705     -0.56728889      5.64550850
B       0.59915634     -3.91603908      0.51445590
N       1.08886140     -3.98608199      1.88297898
B      -0.33479091     -3.78889201      2.11766914
N      -0.82057698     -4.08457852      0.77859868
N      -4.21169309     -0.53562035      1.38293224
B      -3.66725822     -0.30229903      2.71148969
N      -3.81508556      1.14556043      2.75828074
B      -4.00869433      0.90324468      1.33746192
B      -1.63246423     -3.05391812      0.22356008
N      -2.51670245     -2.31724391      1.11211821
B      -3.33958581     -1.26738817      0.52904272
N      -2.98130912     -0.67934190     -0.75525813
B      -2.08965409     -1.44105716     -1.61690603
N      -1.24835768     -2.49400898     -1.06554754
N      -0.22805206      0.64416357     -3.40776737
B      -0.29507423     -0.77209655     -3.07937383
N      -1.73129302     -0.88341789     -2.87779875
B      -1.57060850      0.56227709     -2.85131087
B      -1.63129483     -0.22295385      4.03523792
N      -2.56516837     -1.00305169      3.25281914
B      -2.08053004     -2.13441516      2.48813914
N      -0.87311320     -2.79075188      2.96273484
B       0.08487911     -2.01963252      3.72948377
N      -0.42055190     -0.88812868      4.47916696
N       1.97510358     -0.21710779      4.96435869
B       1.79633792      1.20173196      4.68538343
N       0.45918857      1.37208409      5.23027441
B       0.53248204     -0.08229097      5.14027592
N      -2.06736977      1.40603466     -1.83034270
B      -2.90462612      0.77119575     -0.82685252
N      -3.31148213      1.58067331      0.30762505
B      -2.45803230      2.67627357      0.72667060
N      -1.62312779      3.29611781     -0.28789280
B      -1.20340728      2.49995861     -1.42724898
B       2.33224038     -2.33499583     -0.12801817
N       1.13407335     -3.07044750     -0.48636980
B       0.17104837     -2.44675170     -1.37701748
N       0.67749879     -1.46570746     -2.32101295
B       1.87255690     -0.71798235     -1.97649953
N       2.82209483     -1.35478812     -1.08091727
N      -2.15030193      2.86571047      2.13671618
B      -2.61230353      1.83954466      3.06226662
N      -1.68422353      1.23349347      4.00741911
B      -0.45647963      1.95004245      4.30045901
N       0.03741157      2.98167364      3.40114376
B      -0.91555259      3.56117274      2.46244092
B       0.90803855      4.34784664      1.09814642
N       0.65775646      4.41235758     -0.33289835
B      -0.70053603      4.26514764      0.16935592
N      -0.44992799      4.56936347      1.57075054
N       1.91632950      0.72242410     -2.17970345
B       0.68236771      1.37555365     -2.59381707
N       0.18265432      2.53609165     -1.87042361
B       1.12840641      3.27285156     -1.04598053
N       2.36937693      2.64924426     -0.60750261
B       2.83571075      1.48660970     -1.35015349
B       2.33457173     -0.97346437      3.80660872
N       1.50926755     -2.11221235      3.44081655
B       1.89186276     -2.87308070      2.25947402
N       2.77196173     -2.28589643      1.25878460
B       3.58381182     -1.14795245      1.66169850
N       3.22432155     -0.35867792      2.83300761
N       1.83932585      3.47631354      1.71156139
B       1.42146162      2.87702325      2.96473836
N       2.29453177      1.87117103      3.54524827
B       3.13456340      1.08314880      2.66010184
N       3.53906202      1.69606129      1.40895446
B       2.67599993      2.70067423      0.81280085
N       4.45399476     -0.56398657      0.69770141
B       3.90665891     -0.55551808     -0.65115321
N       4.04846488      0.86454672     -0.93649866
B       4.23926642      0.86197890      0.50539457
