37
drug @complex
C       2.60395162      0.90640805      8.21415949
C       1.48852908      0.14963285      8.94284874
C       1.34756171      0.61312668     10.41872328
C       1.65989438     -0.62910032     11.25622402
C       1.31483094     -1.76516657     10.30353846
N       1.83708080     -1.27529179      9.04266651
C       1.54625127     -2.10880253      7.89570095
C       0.10179423     -2.05896972      7.44723876
N      -0.43502182     -3.08750405      6.91966798
N      -1.69701040     -3.15778975      6.41924184
C      -2.76397756     -2.34002844      6.13194797
O      -3.71827209     -2.86012279      5.58051631
C      -2.77958223     -0.90152242      6.50157715
C      -1.73129190     -0.27586740      7.17060808
C      -0.47181620     -0.75557814      7.62218660
C       0.18048998      0.29423571      8.22553060
N      -0.61321264      1.40543004      8.15994952
C      -1.77227614      1.09786391      7.49510983
C      -2.86602419      1.87820770      7.14747267
C      -3.89007156      1.23038269      6.48381065
C      -3.87895854     -0.12404310      6.16722013
F      -4.97097496      1.95841746      6.13073831
H       2.67941638      0.56809018      7.18607529
H       2.39775261      1.97344752      8.20954417
H       3.54717197      0.72259891      8.72091646
H       2.02578202      1.43356542     10.64395187
H       0.32768086      0.94730273     10.61154097
H       2.72229612     -0.66704570     11.49337354
H       1.08940113     -0.66474913     12.18176115
H       1.80680865     -2.70297487     10.56534275
H       0.22615206     -1.93461978     10.27658806
H       2.15209865     -1.76120522      7.05226238
H       1.83761248     -3.13319782      8.13018370
H      -1.86018179     -4.08983871      6.04681634
H      -0.33698815      2.33220348      8.43733475
H      -2.92947097      2.93221089      7.36357025
H      -4.71089705     -0.56728889      5.64550850
