189
Cabazitaxel/B36N36 GFN2 opt
C      -1.65431017     -2.05906677     13.74414004
C      -1.50008375     -0.80071838     14.54787584
C      -2.35351455      0.22922023     14.54547563
C      -3.37341932      0.38465106     13.45025876
C      -3.12059873      1.69413086     12.68209248
O      -4.01556274      2.48435857     12.55150195
C      -1.75829043      1.93058440     11.97569036
C      -1.64301933      0.82562309     10.89432890
C      -0.51173004      1.11533591      9.90004000
C       0.75567871      1.67987129     10.53702332
C       0.80694396      1.97827633     12.05554110
C      -0.49470023      1.76508302     12.86237477
C      -0.48824579      2.60533374     14.16200188
C      -0.75450297      1.82966174     15.50124449
C      -2.21569211      1.30659258     15.59834164
C      -3.23772210      2.44648161     15.51072842
C      -2.45318021      0.68149698     16.98843185
C       0.25285828      0.67735224     15.68194405
C      -0.24823973     -0.74932155     15.39691587
O       0.79307278     -1.42111520     14.65806225
C       1.24124168     -2.58740821     15.09755502
O       0.90634823     -3.12882235     16.11991092
C       2.18858367     -3.21850516     14.07801651
C       1.38529670     -4.40772515     13.42517891
C       1.56383327     -5.66773672     14.22456058
C       0.50186925     -6.20898393     14.93455902
C       0.67528074     -7.35756054     15.68667682
C       1.91052479     -7.97971513     15.73104096
C       2.97473952     -7.44648595     15.02355806
C       2.80360603     -6.29458834     14.27799074
N       1.77549029     -4.59169872     12.04825454
C       1.32061197     -3.76208326     11.07931942
O       0.52646899     -2.86556199     11.29412781
O       1.84902548     -4.09740396      9.90236681
C       1.51879442     -3.34334972      8.70081066
C       2.29450185     -4.04669447      7.58866843
C       1.99326098     -1.89965840      8.85644857
C       0.01712540     -3.41377619      8.43036339
O       2.65198590     -2.31208045     13.12706561
O      -0.48279183      2.72088035     16.56201582
O       0.78704612      3.23315690     14.32390959
C       0.79227011      4.49814475     14.76453642
O      -0.21409103      5.13757347     14.97457267
C       2.15973900      5.03332128     14.94220830
C       2.30186187      6.33871818     15.40759783
C       3.56188163      6.87562785     15.58857179
C       4.68551624      6.11486341     15.30577074
C       4.54847130      4.81546649     14.84257141
C       3.29095438      4.27222440     14.66130193
C       1.19373588      3.39903654     11.61354212
O       0.97170443      3.06859602     10.24496755
O       1.78669211      1.25727221     12.80474784
C       3.09922136      1.26197359     12.50877908
O       3.59043583      1.76017254     11.53234912
C       3.87331787      0.53988558     13.57664880
O      -2.90498389      0.72096453     10.26577145
C      -3.03776978     -0.36095966      9.37679681
C      -1.89684540      3.30633036     11.31199086
O      -4.68370831      0.32309913     13.96976575
C      -5.68149546      0.07173770     13.00798080
H      -1.00687829     -2.07638771     12.86623413
H      -1.38517203     -2.90362216     14.37935761
H      -2.68328120     -2.20250336     13.42931701
H      -3.24841759     -0.41450747     12.70556450
H      -1.42006928     -0.13172400     11.39855322
H      -0.86018897      1.83889432      9.16230372
H      -0.27078449      0.20107753      9.35959351
H       1.63060550      1.10352566     10.21951244
H      -0.43597644      0.71524095     13.15170099
H      -1.22173275      3.41613010     14.07936458
H      -4.23177788      2.02670228     15.39132632
H      -3.06753316      3.13379616     14.69100006
H      -3.21881092      3.01690074     16.43775686
H      -2.12038199      1.37274964     17.75856064
H      -3.51737139      0.49950247     17.11074296
H      -1.93454516     -0.25835732     17.12490646
H       0.60982956      0.74320910     16.70985129
H       1.09948878      0.86082389     15.02046315
H      -0.37484519     -1.32041674     16.32648082
H       3.06898609     -3.60974020     14.59637874
H       0.32677297     -4.12694188     13.39975790
H      -0.46293357     -5.72600514     14.90525561
H      -0.15637184     -7.76678024     16.24006511
H       2.04579325     -8.87564235     16.31796731
H       3.94198397     -7.92543918     15.05731542
H       3.64346378     -5.87694739     13.74045961
H       2.52893921     -5.22076817     11.82477230
H       1.99539030     -5.08982968      7.52965470
H       3.36134728     -4.00283219      7.79161770
H       2.08790371     -3.56386265      6.63721151
H       1.80450568     -1.35172964      7.93681889
H       1.46035127     -1.41729661      9.67160831
H       3.05900170     -1.87703646      9.07508439
H      -0.29842526     -4.45296395      8.36517737
H      -0.20558593     -2.91403632      7.49348255
H      -0.53214013     -2.92908853      9.23243401
H       1.88410561     -1.91655621     12.68617426
H      -1.01237795      3.52154587     16.44505044
H       1.41226370      6.91173070     15.62020151
H       3.67089728      7.88712572     15.94989878
H       5.67041125      6.53494504     15.44689738
H       5.42520397      4.22563155     14.62083924
H       3.17535950      3.26359845     14.30180140
H       0.55249305      4.21132641     11.95674480
H       2.23789510      3.65446236     11.80291479
H       3.52561647      0.82815050     14.56451569
H       4.93031835      0.76038273     13.46268315
H       3.71311589     -0.53106729     13.45992701
H      -4.10241846     -0.44543486      9.16434734
H      -2.67903945     -1.29080237      9.83541348
H      -2.49781667     -0.19261193      8.43543191
H      -1.07928282      3.53037512     10.64240179
H      -1.97650323      4.08625769     12.06631862
H      -2.81631347      3.30862913     10.73245616
H      -5.74901150      0.87622540     12.27239128
H      -5.49323422     -0.87629569     12.48707993
H      -6.61624746      0.00276196     13.56083031
B       0.54558769     -3.81680526      2.67357474
N       0.48527974     -3.71453265      4.12502464
B      -0.92959159     -3.63591423      3.79061578
N      -0.85774188     -4.10012309      2.41511766
N      -4.42938698     -0.86929303      1.29622344
B      -4.43913942     -0.46166195      2.69265170
N      -4.67980701      0.96037779      2.50625688
B      -4.30697387      0.57413603      1.15393350
B      -1.45808542     -3.20839405      1.48011409
N      -2.65640980     -2.48813804      1.88605537
B      -3.25645661     -1.58142322      0.91673988
N      -2.47667904     -1.08019230     -0.20509947
B      -1.28143684     -1.82220399     -0.57903971
N      -0.65069910     -2.73184731      0.36749927
N       0.99139468      0.26818786     -1.79403056
B       0.88938630     -1.11186661     -1.34585302
N      -0.50791425     -1.34796761     -1.67589064
B      -0.45402735      0.10353807     -1.76717696
B      -3.06728165     -0.06586353      4.66090690
N      -3.59953219     -1.00764498      3.69263679
B      -2.78221409     -2.13794851      3.29133978
N      -1.80826184     -2.62764878      4.25216945
B      -1.26220522     -1.69423796      5.21710014
N      -2.09281210     -0.57385582      5.61198023
N      -0.07905990      0.38188412      6.82741664
B      -0.21837638      1.75448659      6.35707146
N      -1.67217968      1.82632343      6.33324604
B      -1.48765604      0.38965717      6.45567397
N      -1.34831471      0.98103592     -1.11034224
B      -2.46284032      0.35952435     -0.41863816
N      -3.31474747      1.22102458      0.38088899
B      -2.74728017      2.43028187      0.95092125
N      -1.63092061      3.03621977      0.24814460
B      -0.76579397      2.18851188     -0.55198315
B       2.29887768     -2.13376185      2.52949967
N       1.36694617     -3.01432314      1.84825048
B       0.77722019     -2.57160749      0.59672833
N       1.54236921     -1.63437188     -0.20434818
B       2.47445177     -0.74260995      0.46252013
N       3.05182098     -1.19985778      1.71429975
N      -3.00537531      2.77069716      2.34146168
B      -3.71980216      1.79325418      3.14865588
N      -3.18534527      1.36422117      4.43372429
B      -2.20552069      2.23037860      5.07636669
N      -1.46769412      3.21304450      4.29779963
B      -2.02851366      3.61453398      3.01597397
B       0.12439846      4.45598017      2.33509913
N       0.42797955      4.36528231      0.91467428
B      -1.00760866      4.12972563      0.89481934
N      -1.32260364      4.57830251      2.24219892
N       2.50543645      0.66991194      0.11831855
B       1.48340592      1.15786492     -0.79680827
N       0.67963399      2.32162962     -0.45344058
B       1.19970875      3.22074899      0.56729144
N       2.21708340      2.76445995      1.50335723
B       2.99788851      1.59449973      1.12997292
B       0.73558257     -0.42675227      5.98715300
N       0.17066342     -1.67001291      5.47682891
B       1.01962273     -2.49317626      4.62637219
N       2.18011829     -1.91908916      3.96490544
B       2.71245149     -0.67121528      4.49745209
N       1.89090395      0.17765108      5.34706242
N       0.80341507      3.73638862      3.34605251
B      -0.01781354      3.21779405      4.42472028
N       0.62743270      2.35419754      5.39689737
B       1.78930714      1.58686732      4.99002807
N       2.59527143      2.11650194      3.90642660
B       1.96376929      2.97532387      2.92076353
N       3.84457122     -0.09432083      3.85863159
B       3.84607810     -0.25981631      2.41333482
N       3.99910644      1.13517766      2.03221749
B       3.63487174      1.28229866      3.43340764
