117
drug @complex
C      -1.65431017     -2.05906677     13.74414004
C      -1.50008375     -0.80071838     14.54787584
C      -2.35351455      0.22922023     14.54547563
C      -3.37341932      0.38465106     13.45025876
C      -3.12059873      1.69413086     12.68209248
O      -4.01556274      2.48435857     12.55150195
C      -1.75829043      1.93058440     11.97569036
C      -1.64301933      0.82562309     10.89432890
C      -0.51173004      1.11533591      9.90004000
C       0.75567871      1.67987129     10.53702332
C       0.80694396      1.97827633     12.05554110
C      -0.49470023      1.76508302     12.86237477
C      -0.48824579      2.60533374     14.16200188
C      -0.75450297      1.82966174     15.50124449
C      -2.21569211      1.30659258     15.59834164
C      -3.23772210      2.44648161     15.51072842
C      -2.45318021      0.68149698     16.98843185
C       0.25285828      0.67735224     15.68194405
C      -0.24823973     -0.74932155     15.39691587
O       0.79307278     -1.42111520     14.65806225
C       1.24124168     -2.58740821     15.09755502
O       0.90634823     -3.12882235     16.11991092
C       2.18858367     -3.21850516     14.07801651
C       1.38529670     -4.40772515     13.42517891
C       1.56383327     -5.66773672     14.22456058
C       0.50186925     -6.20898393     14.93455902
C       0.67528074     -7.35756054     15.68667682
C       1.91052479     -7.97971513     15.73104096
C       2.97473952     -7.44648595     15.02355806
C       2.80360603     -6.29458834     14.27799074
N       1.77549029     -4.59169872     12.04825454
C       1.32061197     -3.76208326     11.07931942
O       0.52646899     -2.86556199     11.29412781
O       1.84902548     -4.09740396      9.90236681
C       1.51879442     -3.34334972      8.70081066
C       2.29450185     -4.04669447      7.58866843
C       1.99326098     -1.89965840      8.85644857
C       0.01712540     -3.41377619      8.43036339
O       2.65198590     -2.31208045     13.12706561
O      -0.48279183      2.72088035     16.56201582
O       0.78704612      3.23315690     14.32390959
C       0.79227011      4.49814475     14.76453642
O      -0.21409103      5.13757347     14.97457267
C       2.15973900      5.03332128     14.94220830
C       2.30186187      6.33871818     15.40759783
C       3.56188163      6.87562785     15.58857179
C       4.68551624      6.11486341     15.30577074
C       4.54847130      4.81546649     14.84257141
C       3.29095438      4.27222440     14.66130193
C       1.19373588      3.39903654     11.61354212
O       0.97170443      3.06859602     10.24496755
O       1.78669211      1.25727221     12.80474784
C       3.09922136      1.26197359     12.50877908
O       3.59043583      1.76017254     11.53234912
C       3.87331787      0.53988558     13.57664880
O      -2.90498389      0.72096453     10.26577145
C      -3.03776978     -0.36095966      9.37679681
C      -1.89684540      3.30633036     11.31199086
O      -4.68370831      0.32309913     13.96976575
C      -5.68149546      0.07173770     13.00798080
H      -1.00687829     -2.07638771     12.86623413
H      -1.38517203     -2.90362216     14.37935761
H      -2.68328120     -2.20250336     13.42931701
H      -3.24841759     -0.41450747     12.70556450
H      -1.42006928     -0.13172400     11.39855322
H      -0.86018897      1.83889432      9.16230372
H      -0.27078449      0.20107753      9.35959351
H       1.63060550      1.10352566     10.21951244
H      -0.43597644      0.71524095     13.15170099
H      -1.22173275      3.41613010     14.07936458
H      -4.23177788      2.02670228     15.39132632
H      -3.06753316      3.13379616     14.69100006
H      -3.21881092      3.01690074     16.43775686
H      -2.12038199      1.37274964     17.75856064
H      -3.51737139      0.49950247     17.11074296
H      -1.93454516     -0.25835732     17.12490646
H       0.60982956      0.74320910     16.70985129
H       1.09948878      0.86082389     15.02046315
H      -0.37484519     -1.32041674     16.32648082
H       3.06898609     -3.60974020     14.59637874
H       0.32677297     -4.12694188     13.39975790
H      -0.46293357     -5.72600514     14.90525561
H      -0.15637184     -7.76678024     16.24006511
H       2.04579325     -8.87564235     16.31796731
H       3.94198397     -7.92543918     15.05731542
H       3.64346378     -5.87694739     13.74045961
H       2.52893921     -5.22076817     11.82477230
H       1.99539030     -5.08982968      7.52965470
H       3.36134728     -4.00283219      7.79161770
H       2.08790371     -3.56386265      6.63721151
H       1.80450568     -1.35172964      7.93681889
H       1.46035127     -1.41729661      9.67160831
H       3.05900170     -1.87703646      9.07508439
H      -0.29842526     -4.45296395      8.36517737
H      -0.20558593     -2.91403632      7.49348255
H      -0.53214013     -2.92908853      9.23243401
H       1.88410561     -1.91655621     12.68617426
H      -1.01237795      3.52154587     16.44505044
H       1.41226370      6.91173070     15.62020151
H       3.67089728      7.88712572     15.94989878
H       5.67041125      6.53494504     15.44689738
H       5.42520397      4.22563155     14.62083924
H       3.17535950      3.26359845     14.30180140
H       0.55249305      4.21132641     11.95674480
H       2.23789510      3.65446236     11.80291479
H       3.52561647      0.82815050     14.56451569
H       4.93031835      0.76038273     13.46268315
H       3.71311589     -0.53106729     13.45992701
H      -4.10241846     -0.44543486      9.16434734
H      -2.67903945     -1.29080237      9.83541348
H      -2.49781667     -0.19261193      8.43543191
H      -1.07928282      3.53037512     10.64240179
H      -1.97650323      4.08625769     12.06631862
H      -2.81631347      3.30862913     10.73245616
H      -5.74901150      0.87622540     12.27239128
H      -5.49323422     -0.87629569     12.48707993
H      -6.61624746      0.00276196     13.56083031
