72
carrier @complex
B       3.43548930     -1.72727532      2.32563607
N       3.56936012      0.82262233      1.52389950
B       2.63654470      2.01695317     -0.68865933
N       2.18433016     -1.01436482     -2.02982870
B       0.69152984     -3.59729645      3.61897813
N      -3.01718401     -2.51223569      2.69035584
B      -0.67421121      4.08056757      2.46498321
N      -0.73927283     -0.22008695     -3.15094002
B      -0.51672939      1.18881669     -3.36355213
N       0.95826111     -4.02953639     -0.86233557
B      -3.68088909      2.29460270      0.32945140
N      -2.60961892      2.75535795     -0.45208558
B       1.28992997      0.41566056     -4.20934588
N       0.12708520      3.34770299      3.46871217
B       0.65394827     -3.16086290     -1.96599161
N      -0.26820875      3.62978345     -0.37969633
B      -0.48939671      2.20987651      3.96143205
N       1.93875053     -1.36003515      4.46780433
B      -0.09899855      3.26385787     -1.74604866
N       1.55950769      0.02648700      4.62910544
B      -1.71619182     -0.70603873     -2.23620020
N      -3.63547478      1.91116519      1.66965355
B       0.69473792      4.39151596      1.75268700
N       0.25062274     -0.01406182      5.16641895
B      -2.45723590      2.32026123      2.37182100
N       3.76939843     -0.51874511     -0.14306095
B      -2.37751837     -3.54729009      2.01371234
N       1.41273301      3.62579352      2.80974638
B      -1.65017170     -0.65376262      3.97718932
N      -2.61278153     -3.57926519      0.56110988
B       2.93667337     -1.44757052     -0.81547176
N      -3.22618907     -1.19956034      0.53310302
B       2.29078823      2.71626548      2.11839517
N      -0.73424845     -3.08139546     -1.52827858
B      -1.85397828     -2.22890864     -1.57592550
N       0.85784169      3.79781974      0.47278265
B       1.16626758      2.63986703     -2.58497487
N      -0.04145346     -4.34267719      2.68061844
B      -1.54956677      3.41399346      0.28064377
N      -1.71625681      3.44496235      1.73111733
B       1.33447884     -4.32519148      2.38356839
N      -0.51012379      1.13264040      4.94644488
B      -2.81146726     -2.40577658     -0.21449572
N      -1.23296338     -4.43290400      2.00403385
B      -2.52303413      0.43743493     -1.27430424
N       2.19121018     -4.13320797      1.27923143
B       3.91846846     -0.54750142      1.34728612
N       1.96117029      1.61112208     -1.85576773
B       0.98056374      1.88393225     -3.98913883
N      -4.10506450      0.94677189      0.53690115
B      -1.27676617      2.28536654     -2.39466623
N      -2.29402502      1.85941186     -1.52827191
B       2.99095478     -2.93868340      1.35307308
N       2.12263954     -3.97010803     -0.14804549
B       2.33307324      0.35267404      3.42466501
N      -1.80544886      0.75155960      4.42303735
B      -1.30491276     -4.21927032      0.55877800
N      -3.22344794      0.07482095     -0.08543713
B       3.50444128      0.88711953      0.06549530
N       2.73712483      1.39737575      2.51842517
B       1.27459318     -1.90266548     -2.74411451
N      -1.82697932      1.85865614      3.52633422
B       1.98143586      0.33060812     -2.55326352
N      -2.69393129     -1.17647051      3.21526205
B       0.48118221     -0.87501323     -3.72049807
N      -0.39684599     -3.90693160     -0.42520301
B       0.63486832     -2.24886060      4.61431159
N      -0.42916753     -1.12325439      4.49903387
B      -3.25781652     -1.33292802      1.92797003
N       2.72543169     -1.05215818      3.34141666
B       2.10112493      3.08501694      0.44800650
N       2.76178664     -2.66425936     -0.05166940
