31
drug @complex
N       0.67569633     -2.53302148      6.19611084
C       1.19956710      0.04358273      9.76135793
C       1.08286533     -1.30075028      9.03256623
C      -2.03494059     -0.61496765     10.68233843
C      -2.63661097      0.29025018      8.90819557
C      -0.82848931      1.78440958     10.31311273
C       0.28390587      1.21776050      7.99099394
N       2.53675070      1.66839198      6.98079029
O      -3.15699949     -0.70092753      9.80430439
C      -1.44623476      0.50331959      9.82319607
O      -2.35309754     -0.30347659     11.98486104
Pt      0.65532722     -0.66834302      7.10641323
O       2.26165558      0.75507825      9.08531090
C       1.68853066      1.18194106      7.93982370
O       2.08643912      2.76301670      6.22646509
C      -0.04582447      0.85714071      9.41537227
O      -1.27403373      3.03172052      9.90521584
H      -0.13650817     -3.07742561      6.48238224
H       1.50842108     -3.06798503      6.43052557
H       1.45403925     -0.00468770     10.82174765
H       0.31671262     -1.91757811      9.50941728
H       2.04194843     -1.82474286      9.11889310
H      -1.47223048     -1.55317781     10.72673485
H      -2.96874015      0.44157634     11.98771858
H      -3.32644494      1.13034518      8.78197328
H      -2.38287605     -0.14204017      7.93236597
H      -1.42559863      3.01911966      8.95371186
H      -0.56046528      1.82143254     11.36294252
H      -0.28869896      1.92431769      7.40352419
H       3.48987838      1.80395587      7.29875938
H       1.95528019      2.45947632      5.31225302
