      -----------------------------------------------------------      
     |                   =====================                   |     
     |                           x T B                           |     
     |                   =====================                   |     
     |                         S. Grimme                         |     
     |          Mulliken Center for Theoretical Chemistry        |     
     |                    University of Bonn                     |     
      -----------------------------------------------------------      

   * xtb version 6.7.1pre (5071a88) compiled by 'Marcel@Raven' on 2024-07-23

   xtb is free software: you can redistribute it and/or modify it under
   the terms of the GNU Lesser General Public License as published by
   the Free Software Foundation, either version 3 of the License, or
   (at your option) any later version.
   
   xtb is distributed in the hope that it will be useful,
   but WITHOUT ANY WARRANTY; without even the implied warranty of
   MERCHANTABILITY or FITNESS FOR A PARTICULAR PURPOSE.  See the
   GNU Lesser General Public License for more details.
   
   Cite this work as:
   * C. Bannwarth, E. Caldeweyher, S. Ehlert, A. Hansen, P. Pracht,
     J. Seibert, S. Spicher, S. Grimme, WIREs Comput. Mol. Sci., 2020, 11,
     e01493. DOI: 10.1002/wcms.1493
   
   for GFN2-xTB:
   * C. Bannwarth, S. Ehlert and S. Grimme., J. Chem. Theory Comput., 2019,
     15, 1652-1671. DOI: 10.1021/acs.jctc.8b01176
   for GFN1-xTB:
   * S. Grimme, C. Bannwarth, P. Shushkov, J. Chem. Theory Comput., 2017,
     13, 1989-2009. DOI: 10.1021/acs.jctc.7b00118
   for GFN0-xTB:
   * P. Pracht, E. Caldeweyher, S. Ehlert, S. Grimme, ChemRxiv, 2019, preprint.
     DOI: 10.26434/chemrxiv.8326202.v1
   for GFN-FF:
   * S. Spicher and S. Grimme, Angew. Chem. Int. Ed., 2020, 59, 15665-15673.
     DOI: 10.1002/anie.202004239
   
   for ALPB and GBSA implicit solvation:
   * S. Ehlert, M. Stahn, S. Spicher, S. Grimme, J. Chem. Theory Comput.,
     2021, 17, 4250-4261. DOI: 10.1021/acs.jctc.1c00471
   
   for ddCOSMO and CPCM-X implicit solvation:
   * M. Stahn, S. Ehlert, S. Grimme, J. Phys. Chem. A,
     2023, XX, XXXX-XXXX. DOI: 10.1021/acs.jpca.3c04382
   
   for DFT-D4:
   * E. Caldeweyher, C. Bannwarth and S. Grimme, J. Chem. Phys., 2017,
     147, 034112. DOI: 10.1063/1.4993215
   * E. Caldeweyher, S. Ehlert, A. Hansen, H. Neugebauer, S. Spicher,
     C. Bannwarth and S. Grimme, J. Chem. Phys., 2019, 150, 154122.
     DOI: 10.1063/1.5090222
   * E. Caldeweyher, J.-M. Mewes, S. Ehlert and S. Grimme, Phys. Chem. Chem. Phys.
     2020, 22, 8499-8512. DOI: 10.1039/D0CP00502A
   
   for sTDA-xTB:
   * S. Grimme and C. Bannwarth, J. Chem. Phys., 2016, 145, 054103.
     DOI: 10.1063/1.4959605
   
   in the mass-spec context:
   * V. Asgeirsson, C. Bauer and S. Grimme, Chem. Sci., 2017, 8, 4879.
     DOI: 10.1039/c7sc00601b
   * J. Koopman and S. Grimme, ACS Omega 2019, 4, 12, 15120-15133.
     DOI: 10.1021/acsomega.9b02011
   
   for metadynamics refer to:
   * S. Grimme, J. Chem. Theory Comput., 2019, 155, 2847-2862
     DOI: 10.1021/acs.jctc.9b00143
   
   for SPH calculations refer to:
   * S. Spicher and S. Grimme, J. Chem. Theory Comput., 2021, 17, 1701-1714
     DOI: 10.1021/acs.jctc.0c01306
   
   for ONIOM refer to:
   * C. Plett, A. Katbashev, S. Ehlert, S. Grimme, M. Bursch,
     Phys. Chem. Chem. Phys., 2023, 25, 17860-17868. DOI: 10.1039/D3CP02178E
   
   for DIPRO refer to:
   * J. Kohn, N. Gildemeister, S. Grimme, D. Fazzi, A. Hansen,
     J. Chem. Phys., 2023, just accepted.
   
   for PTB refer to:
   * S. Grimme, M. Mueller, A. Hansen, J. Chem. Phys., 2023, 158, 124111.
     DOI: 10.1063/5.0137838
   
   with help from (in alphabetical order)
   P. Atkinson, C. Bannwarth, F. Bohle, G. Brandenburg, E. Caldeweyher
   M. Checinski, S. Dohm, S. Ehlert, S. Ehrlich, I. Gerasimov, C. Hölzer
   A. Katbashev, J. Kohn, J. Koopman, C. Lavigne, S. Lehtola, F. März, M. Müller,
   F. Musil, H. Neugebauer, J. Pisarek, C. Plett, P. Pracht, F. Pultar,
   J. Seibert, P. Shushkov, S. Spicher, M. Stahn, M. Steiner, T. Strunk,
   J. Stückrath, T. Rose, and J. Unsleber
   
 * started run on 2026/08/31 at 18:33:54.164     
   ID    Z sym.   atoms
    1    6 C      1, 3-8, 10, 11, 13-15, 17, 18, 20-22, 24, 26, 28, 29,
                  31-33, 35, 37, 38
    2    8 O      2, 9, 12, 16, 19, 23, 25, 27, 30, 36, 39
    3    7 N      34, 105-140
    4    1 H      40-68
    5    5 B      69-104

           -------------------------------------------------
          |                Calculation Setup                |
           -------------------------------------------------

          program call               : "c:\Users\Andre\Proyectos doctorado\kras-pancreatic-gC3N4-ai\tools\xtb\xtb-6.7.1\bin\xtb.exe" "c:\Users\Andre\Proyectos doctorado\nano-qsar-ai-therapeutics\calculations\tnbc\Doxorubicin\Doxorubicin_B36N36_complex.xyz" --gfn 2 --sp --chrg 0 --uhf 0 --iterations 500 --norestart
          coordinate file            : c:\Users\Andre\Proyectos doctorado\nano-qsar-ai-therapeutics\calculations\tnbc\Doxorubicin\Doxorubicin_B36N36_complex.xyz
          omp threads                :                    16


molecular fragmentation (1/2 indicates fragments):
111111111111111111111111111111111111111111111111111111111111111111111111
11111111112112111111111111111111111111111111112122111111111111111111
# atoms in fragment 1/2:   135     5
 fragment masses (1/2) :     1373.32       63.64
CMA distance (Bohr)    :   7.450
constraining FC (au)   :  0.0500

           -------------------------------------------------
          |                 G F N 2 - x T B                 |
           -------------------------------------------------

        Reference                      10.1021/acs.jctc.8b01176
      * Hamiltonian:
        H0-scaling (s, p, d)           1.850000    2.230000    2.230000
        zeta-weighting                 0.500000
      * Dispersion:
        s8                             2.700000
        a1                             0.520000
        a2                             5.000000
        s9                             5.000000
      * Repulsion:
        kExp                           1.500000    1.000000
        rExp                           1.000000
      * Coulomb:
        alpha                          2.000000
        third order                    shell-resolved
        anisotropic                    true
        a3                             3.000000
        a5                             4.000000
        cn-shift                       1.200000
        cn-exp                         4.000000
        max-rad                        5.000000


          ...................................................
          :                      SETUP                      :
          :.................................................:
          :  # basis functions                 473          :
          :  # atomic orbitals                 473          :
          :  # shells                          251          :
          :  # electrons                       496          :
          :  max. iterations                   500          :
          :  Hamiltonian                  GFN2-xTB          :
          :  restarted?                      false          :
          :  GBSA solvation                  false          :
          :  PC potential                    false          :
          :  electronic temp.          300.0000000     K    :
          :  accuracy                    1.0000000          :
          :  -> integral cutoff          0.2500000E+02      :
          :  -> integral neglect         0.1000000E-07      :
          :  -> SCF convergence          0.1000000E-05 Eh   :
          :  -> wf. convergence          0.1000000E-03 e    :
          :  Broyden damping             0.4000000          :
          :  net charge                          0          :
          :  unpaired electrons                  0          :
          ...................................................

 iter      E             dE          RMSdq      gap      omega  full diag
   1   -250.8506059 -0.250851E+03  0.134E+01    0.09       0.0  T
   2   -162.2423032  0.886083E+02  0.123E+01    0.19       1.0  T
   3    281.1998474  0.443442E+03  0.171E+01    0.17       1.0  T
   4    136.8248643 -0.144375E+03  0.143E+01    0.14       1.0  T
   5   -211.0887709 -0.347914E+03  0.831E+00    0.25       1.0  T
   6   -259.8283115 -0.487395E+02  0.510E+00    0.16       1.0  T
   7   -257.1551022  0.267321E+01  0.413E+00    0.25       1.0  T
   8   -259.5601767 -0.240507E+01  0.381E+00    0.03       1.0  T
   9   -263.5833059 -0.402313E+01  0.272E+00    0.09       1.0  T
  10   -263.1877123  0.395594E+00  0.234E+00    0.11       1.0  T
  11   -264.6876164 -0.149990E+01  0.174E+00    0.02       1.0  T
  12   -264.9548773 -0.267261E+00  0.134E+00    0.15       1.0  T
  13   -265.2097486 -0.254871E+00  0.126E+00    0.21       1.0  T
  14   -265.7072150 -0.497466E+00  0.852E-01    0.06       1.0  T
  15   -265.7382605 -0.310455E-01  0.922E-01    0.12       1.0  T
  16   -265.6637148  0.745457E-01  0.687E-01    0.04       1.0  T
  17   -265.6654305 -0.171573E-02  0.834E-01    0.25       1.0  T
  18   -265.7224942 -0.570637E-01  0.793E-01    0.15       1.0  T
  19   -265.7264369 -0.394264E-02  0.566E-01    0.16       1.0  T
  20   -265.7847207 -0.582839E-01  0.453E-01    0.10       1.0  T
  21   -265.7931149 -0.839411E-02  0.414E-01    0.11       1.0  T
  22   -265.8339943 -0.408795E-01  0.284E-01    0.10       1.0  T
  23   -265.8687625 -0.347682E-01  0.100E-01    0.07       1.0  T
  24   -265.8694103 -0.647754E-03  0.811E-02    0.07       1.0  T
  25   -265.8682286  0.118163E-02  0.847E-02    0.07       1.0  T
  26   -265.8704870 -0.225840E-02  0.484E-02    0.07       1.0  T
  27   -265.8700711  0.415939E-03  0.540E-02    0.07       1.0  T
  28   -265.8703395 -0.268412E-03  0.438E-02    0.07       1.0  T
  29   -265.8706688 -0.329255E-03  0.268E-02    0.07       1.0  T
  30   -265.8707603 -0.915285E-04  0.191E-02    0.07       1.0  T
  31   -265.8709091 -0.148771E-03  0.693E-03    0.06       1.2  T
  32   -265.8709132 -0.416995E-05  0.510E-03    0.06       1.7  T
  33   -265.8709221 -0.888112E-05  0.287E-03    0.06       2.9  T
  34   -265.8709255 -0.339129E-05  0.628E-04    0.06      13.5  T
  35   -265.8709255 -0.255166E-07  0.420E-04    0.06      20.1  T
  36   -265.8709255  0.150724E-07  0.352E-04    0.06      24.0  T

   *** convergence criteria satisfied after 36 iterations ***

         #    Occupation            Energy/Eh            Energy/eV
      -------------------------------------------------------------
         1        2.0000           -1.1767820             -32.0219
       ...           ...                  ...                  ...
       242        2.0000           -0.1916938              -5.2163
       243        2.0000           -0.1851647              -5.0386
       244        2.0000           -0.1798318              -4.8935
       245        2.0000           -0.1777901              -4.8379
       246        2.0000           -0.1707700              -4.6469
       247        1.9969           -0.1653556              -4.4996
       248        1.5037           -0.1602569              -4.3608 (HOMO)
       249        0.4188           -0.1579416              -4.2978 (LUMO)
       250        0.0792           -0.1561748              -4.2497
       251        0.0013           -0.1522667              -4.1434
       252        0.0000           -0.1462710              -3.9802
       253                         -0.1413928              -3.8475
       ...                                ...                  ...
       473                         42.5711403            1158.4197
      -------------------------------------------------------------
                  HL-Gap            0.0023153 Eh            0.0630 eV
             Fermi-level           -0.1592037 Eh           -4.3322 eV

 SCC (total)                   0 d,  0 h,  0 min,  1.087 sec
 SCC setup                      ...        0 min,  0.001 sec (  0.092%)
 Dispersion                     ...        0 min,  0.006 sec (  0.552%)
 classical contributions        ...        0 min,  0.000 sec (  0.000%)
 integral evaluation            ...        0 min,  0.019 sec (  1.748%)
 iterations                     ...        0 min,  1.012 sec ( 93.100%)
 molecular gradient             ...        0 min,  0.045 sec (  4.140%)
 printout                       ...        0 min,  0.004 sec (  0.368%)

         :::::::::::::::::::::::::::::::::::::::::::::::::::::
         ::                     SUMMARY                     ::
         :::::::::::::::::::::::::::::::::::::::::::::::::::::
         :: total energy             -42.429593858996 Eh    ::
         :: gradient norm            175.171232594728 Eh/a0 ::
         :: HOMO-LUMO gap              0.063003365650 eV    ::
         ::.................................................::
         :: SCC energy              -265.827831602249 Eh    ::
         :: -> isotropic ES            1.406337917053 Eh    ::
         :: -> anisotropic ES          0.174919919925 Eh    ::
         :: -> anisotropic XC          0.305627763265 Eh    ::
         :: -> dispersion             -0.385150805065 Eh    ::
         :: repulsion energy         223.398237743253 Eh    ::
         :: add. restraining           0.000000000000 Eh    ::
         :: total charge              -0.000000000000 e     ::
         :::::::::::::::::::::::::::::::::::::::::::::::::::::

           -------------------------------------------------
          |                Property Printout                |
           -------------------------------------------------

    * Orbital Energies and Occupations

         #    Occupation            Energy/Eh            Energy/eV
      -------------------------------------------------------------
         1        2.0000           -1.1767820             -32.0219
       ...           ...                  ...                  ...
       236        2.0000           -0.2264169              -6.1611
       237        2.0000           -0.2242411              -6.1019
       238        2.0000           -0.2215112              -6.0276
       239        2.0000           -0.2117489              -5.7620
       240        2.0000           -0.2074565              -5.6452
       241        2.0000           -0.2047926              -5.5727
       242        2.0000           -0.1916938              -5.2163
       243        2.0000           -0.1851647              -5.0386
       244        2.0000           -0.1798318              -4.8935
       245        2.0000           -0.1777901              -4.8379
       246        2.0000           -0.1707700              -4.6469
       247        1.9969           -0.1653556              -4.4996
       248        1.5037           -0.1602569              -4.3608 (HOMO)
       249        0.4188           -0.1579416              -4.2978 (LUMO)
       250        0.0792           -0.1561748              -4.2497
       251        0.0013           -0.1522667              -4.1434
       252        0.0000           -0.1462710              -3.9802
       253                         -0.1413928              -3.8475
       254                         -0.1346038              -3.6628
       255                         -0.1247365              -3.3943
       256                         -0.1233990              -3.3579
       257                         -0.1144213              -3.1136
       258                         -0.1104266              -3.0049
       259                         -0.1065220              -2.8986
       ...                                ...                  ...
       473                         42.5711403            1158.4197
      -------------------------------------------------------------
                  HL-Gap            0.0023153 Eh            0.0630 eV
             Fermi-level           -0.1592037 Eh           -4.3322 eV

     #   Z          covCN         q      C6AA      α(0)
     1   6 C        3.637     0.044    20.193     6.465
     2   8 O        1.703    -0.328    19.487     5.960
     3   6 C        3.130    -0.063    29.342     8.868
     4   6 C        2.911    -0.127    31.243     9.166
     5   6 C        2.909    -0.123    31.126     9.148
     6   6 C        2.920    -0.204    33.395     9.477
     7   6 C        6.973    -0.080    21.935     6.651
     8   6 C        7.056    -0.018    20.812     6.479
     9   8 O        2.901    -0.017    14.676     5.174
    10   6 C        4.759    -0.199    24.318     7.003
    11   6 C        2.843    -0.007    28.197     8.702
    12   8 O        1.658    -0.524    23.421     6.533
    13   6 C        2.957    -0.134    31.437     9.196
    14   6 C        3.701    -0.299    26.877     7.413
    15   6 C        6.457    -0.340    27.554     7.455
    16   8 O        5.609     1.278     5.024     3.027
    17   6 C        6.972    -0.148    23.253     6.848
    18   6 C        7.682     0.237    16.858     5.831
    19   8 O        2.064    -0.653    26.412     6.941
    20   6 C        6.445     0.086    19.078     6.203
    21   6 C        5.731    -0.258    25.615     7.188
    22   6 C        6.029     0.135    18.318     6.078
    23   8 O        3.132    -0.648    26.283     6.924
    24   6 C        6.153     0.113    18.657     6.134
    25   8 O        4.058    -0.185    17.069     5.580
    26   6 C        5.052     0.029    20.002     6.352
    27   8 O        1.654    -0.484    22.542     6.409
    28   6 C        5.621    -0.304    26.665     7.334
    29   6 C        3.752     0.045    19.874     6.357
    30   8 O        2.186    -0.373    20.283     6.083
    31   6 C        8.178    -0.191    24.151     6.979
    32   6 C        7.530    -0.163    23.565     6.894
    33   6 C        5.845     0.029    20.001     6.351
    34   7 N        4.888    -0.410    30.638     8.221
    35   6 C        5.442    -0.098    22.279     6.703
    36   8 O        1.650    -0.500    22.900     6.460
    37   6 C        7.421    -0.067    21.686     6.614
    38   6 C        5.092    -0.145    23.187     6.839
    39   8 O        5.681     0.176    12.381     4.752
    40   1 H        0.924     0.026     2.642     2.542
    41   1 H        0.924     0.029     2.598     2.521
    42   1 H        0.924     0.029     2.595     2.519
    43   1 H        0.925    -0.016     3.354     2.864
    44   1 H        0.925    -0.017     3.378     2.874
    45   1 H        0.925    -0.032     3.683     3.001
    46   1 H        0.824     0.310     0.689     1.303
    47   1 H        4.274     0.405     0.463     1.062
    48   1 H        2.398     0.282     0.759     1.360
    49   1 H        2.732     0.425     0.430     1.023
    50   1 H        2.258     0.420     0.439     1.034
    51   1 H        1.198     0.079     1.973     2.193
    52   1 H        0.924     0.008     2.928     2.676
    53   1 H        0.803     0.324     0.653     1.269
    54   1 H        1.467     0.182     1.186     1.700
    55   1 H        2.635     0.288     0.740     1.343
    56   1 H        0.923     0.013     2.847     2.638
    57   1 H        2.043     0.283     0.757     1.358
    58   1 H        1.261     0.138     1.464     1.889
    59   1 H        1.260     0.146     1.410     1.854
    60   1 H        0.924    -0.032     3.687     3.003
    61   1 H        0.859     0.110     1.709     2.048
    62   1 H        0.860     0.129     1.556     1.954
    63   1 H        0.924    -0.016     3.357     2.865
    64   1 H        0.803     0.298     0.727     1.340
    65   1 H        2.491     0.064     2.143     2.285
    66   1 H        0.924     0.057     2.240     2.340
    67   1 H        1.056     0.038     2.466     2.453
    68   1 H        0.924     0.026     2.640     2.541
    69   5 B        5.102     0.069    21.507     7.472
    70   5 B        5.102     0.088    21.178     7.415
    71   5 B        5.102     0.104    20.898     7.366
    72   5 B        5.892     0.270    18.350     6.902
    73   5 B        9.222     0.296    17.993     6.835
    74   5 B        7.942    -0.160    26.015     8.218
    75   5 B        7.110     0.200    19.382     7.093
    76   5 B        5.102     0.124    20.581     7.310
    77   5 B        7.059     0.083    21.256     7.429
    78   5 B        6.180     0.147    20.207     7.243
    79   5 B        5.102     0.080    21.315     7.439
    80   5 B        9.945     0.209    19.239     7.067
    81   5 B        1.850     0.070    42.042    13.657
    82   5 B        2.328     0.136    28.380    10.294
    83   5 B        1.850     0.095    41.210    13.521
    84   5 B        1.854     0.047    42.832    13.784
    85   5 B        2.119     0.173    36.572    12.585
    86   5 B        1.850     0.110    40.715    13.439
    87   5 B        3.789     0.466    15.823     6.415
    88   5 B        3.629     0.172    19.341     7.178
    89   5 B        3.984     0.426    16.317     6.509
    90   5 B        1.851     0.103    40.942    13.477
    91   5 B        5.592     0.190    19.524     7.119
    92   5 B        6.322     0.287    18.118     6.858
    93   5 B        4.397     0.277    18.259     6.885
    94   5 B        4.397     0.292    18.046     6.845
    95   5 B        4.397     0.242    18.760     6.979
    96   5 B        4.708     0.318    17.695     6.778
    97   5 B        9.598     0.277    18.257     6.885
    98   5 B        7.737     0.052    21.792     7.522
    99   5 B        4.401     0.285    18.143     6.863
   100   5 B        4.843     0.181    19.661     7.144
   101   5 B        4.413     0.292    18.041     6.844
   102   5 B        4.397     0.285    18.146     6.864
   103   5 B        8.111     0.424    16.347     6.515
   104   5 B        6.748     0.042    21.979     7.554
   105   7 N        4.372    -0.065    22.502     7.045
   106   7 N        4.372    -0.056    22.323     7.017
   107   7 N        4.372    -0.016    21.548     6.894
   108   7 N        4.775    -0.188    25.057     7.435
   109   7 N        7.550    -0.123    23.672     7.226
   110   7 N        7.017     0.449    14.608     5.677
   111   7 N        6.405    -0.166    24.586     7.364
   112   7 N        4.372    -0.090    22.982     7.120
   113   7 N        5.512    -0.148    24.186     7.304
   114   7 N        4.550    -0.232    26.061     7.582
   115   7 N        4.372    -0.102    23.233     7.159
   116   7 N        9.557     0.276    16.837     6.094
   117   7 N        0.932    -0.164    24.438     7.138
   118   7 N        0.935    -0.250    26.358     7.412
   119   7 N        0.932    -0.090    22.884     6.908
   120   7 N        0.932    -0.115    23.406     6.986
   121   7 N        1.015    -0.273    26.460     7.382
   122   7 N        0.932    -0.125    23.608     7.016
   123   7 N        2.805    -0.309    27.946     7.851
   124   7 N        2.313    -0.269    27.212     7.744
   125   7 N        2.757    -0.099    23.178     7.150
   126   7 N        0.932    -0.191    25.026     7.224
   127   7 N        3.233    -0.370    29.527     8.071
   128   7 N        4.611    -0.307    27.880     7.842
   129   7 N        3.977    -0.338    28.681     7.954
   130   7 N        3.977    -0.333    28.539     7.934
   131   7 N        3.977    -0.344    28.836     7.975
   132   7 N        3.977    -0.392    30.138     8.154
   133   7 N        7.392     0.286    16.696     6.069
   134   7 N        7.139    -0.365    29.381     8.051
   135   7 N        3.977    -0.381    29.838     8.113
   136   7 N        4.002    -0.470    32.365     8.449
   137   7 N        3.977    -0.451    31.814     8.377
   138   7 N        3.977    -0.458    32.003     8.402
   139   7 N        8.414     0.192    18.048     6.310
   140   7 N        6.850     0.252    17.166     6.153

 Mol. C6AA /au·bohr⁶  :     325708.212361
 Mol. C8AA /au·bohr⁸  :    8928704.463707
 Mol. α(0) /au        :        887.531885


Wiberg/Mayer (AO) data.
largest (>0.10) Wiberg bond orders for each atom

 ---------------------------------------------------------------------------
     #   Z sym  total        # sym  WBO       # sym  WBO       # sym  WBO
 ---------------------------------------------------------------------------
     1   6 C    3.958 --     2 O    0.992    41 H    0.982    40 H    0.978
                            42 H    0.978
     2   8 O    2.102 --     1 C    0.992     3 C    0.947
     3   6 C    3.764 --     4 C    1.340    20 C    0.998     2 O    0.947
     4   6 C    3.914 --     5 C    1.407     3 C    1.340    43 H    0.967
     5   6 C    3.935 --     4 C    1.407     6 C    1.286    44 H    0.972
     6   6 C    3.803 --     5 C    1.286     7 C    1.266    45 H    0.947
     7   6 C    3.744 --     6 C    1.266     8 C    0.697    20 C    0.474
                           109 N    0.349    97 B    0.218    73 B    0.137
     8   6 C    3.770 --     9 O    0.840    10 C    0.766     7 C    0.697
                            89 B    0.483    73 B    0.314    97 B    0.194
     9   8 O    2.178 --     8 C    0.840   125 N    0.761    89 B    0.360
    10   6 C    3.706 --    11 C    1.192    17 C    0.974     8 C    0.766
                            97 B    0.145    73 B    0.102
    11   6 C    3.779 --    13 C    1.251    10 C    1.192    12 O    0.950
                            14 C    0.106
    12   8 O    1.983 --    11 C    0.950    46 H    0.820
    13   6 C    3.816 --    11 C    1.251    14 C    1.145    29 C    0.986
    14   6 C    3.437 --    13 C    1.145    15 C    0.959    21 C    0.853
                            11 C    0.106
    15   6 C    3.821 --    17 C    0.977    14 C    0.959    74 B    0.563
                            98 B    0.484   110 N    0.226
    16   8 O    3.699 --   110 N    1.704    74 B    1.478   134 N    0.133
                           100 B    0.130
    17   6 C    3.791 --    15 C    0.977    10 C    0.974    18 C    0.782
                            75 B    0.232    97 B    0.188
    18   6 C    3.788 --    19 O    1.121    17 C    0.782   133 N    0.600
                           111 N    0.343    97 B    0.264    20 C    0.247
    19   8 O    1.773 --    18 C    1.121   134 N    0.125
    20   6 C    3.860 --   133 N    1.344     3 C    0.998     7 C    0.474
                            18 C    0.247   109 N    0.226    97 B    0.194
    21   6 C    3.621 --    22 C    0.861    14 C    0.853    48 H    0.560
                            49 H    0.377    91 B    0.374   127 N    0.276
    22   6 C    3.907 --    23 O    0.924    21 C    0.861    28 C    0.860
                            24 C    0.854   128 N    0.115    92 B    0.107
    23   8 O    1.828 --    22 C    0.924    50 H    0.485
    24   6 C    3.708 --    26 C    0.931    22 C    0.854    25 O    0.753
                           123 N    0.586    87 B    0.216   108 N    0.106
    25   8 O    2.377 --    87 B    0.771    24 C    0.753    72 B    0.341
                            96 B    0.134   123 N    0.101
    26   6 C    3.949 --    27 O    0.986    52 H    0.938    24 C    0.931
                            51 H    0.929
    27   8 O    1.919 --    26 C    0.986    53 H    0.829
    28   6 C    3.898 --    29 C    0.969    22 C    0.860    54 H    0.797
                            55 H    0.591    92 B    0.227
    29   6 C    3.887 --    13 C    0.986    28 C    0.969    30 O    0.875
                            56 H    0.862
    30   8 O    2.095 --    29 C    0.875    31 C    0.823
    31   6 C    3.790 --    30 O    0.823    57 H    0.600   103 B    0.569
                            80 B    0.503    39 O    0.330    33 C    0.142
                            32 C    0.137
    32   6 C    3.821 --   103 B    0.869    59 H    0.737    58 H    0.700
                           139 N    0.599    33 C    0.315    31 C    0.137
                            34 N    0.132
    33   6 C    3.879 --   139 N    0.903    60 H    0.841    35 C    0.765
                            34 N    0.629    32 C    0.315    31 C    0.142
    34   7 N    3.141 --    62 H    0.947    61 H    0.911    33 C    0.629
                            32 C    0.132
    35   6 C    3.766 --    63 H    0.950    36 O    0.934    33 C    0.765
                            37 C    0.597
    36   8 O    1.924 --    35 C    0.934    64 H    0.879
    37   6 C    3.719 --   116 N    0.925    35 C    0.597    65 H    0.581
                            38 C    0.576   140 N    0.527    80 B    0.116
    38   6 C    3.934 --    66 H    0.959    68 H    0.887    67 H    0.861
                            37 C    0.576   140 N    0.317
    39   8 O    2.575 --   140 N    0.680   116 N    0.623   104 B    0.359
                            31 C    0.330    80 B    0.178
    40   1 H    0.998 --     1 C    0.978
    41   1 H    0.998 --     1 C    0.982
    42   1 H    0.998 --     1 C    0.978
    43   1 H    0.998 --     4 C    0.967
    44   1 H    0.998 --     5 C    0.972
    45   1 H    0.989 --     6 C    0.947
    46   1 H    0.903 --    12 O    0.820
    47   1 H    0.821 --   134 N    0.286   110 N    0.258    74 B    0.132
    48   1 H    0.897 --    21 C    0.560    91 B    0.140
    49   1 H    0.805 --    21 C    0.377    91 B    0.171   127 N    0.117
    50   1 H    0.812 --    23 O    0.485   124 N    0.278
    51   1 H    0.992 --    26 C    0.929
    52   1 H    0.998 --    26 C    0.938
    53   1 H    0.894 --    27 O    0.829
    54   1 H    0.960 --    28 C    0.797
    55   1 H    0.916 --    28 C    0.591    92 B    0.139
    56   1 H    0.997 --    29 C    0.862
    57   1 H    0.917 --    31 C    0.600    77 B    0.139
    58   1 H    0.953 --    32 C    0.700
    59   1 H    0.973 --    32 C    0.737
    60   1 H    0.987 --    33 C    0.841
    61   1 H    0.978 --    34 N    0.911
    62   1 H    0.981 --    34 N    0.947
    63   1 H    0.997 --    35 C    0.950
    64   1 H    0.910 --    36 O    0.879
    65   1 H    0.929 --    37 C    0.581
    66   1 H    0.993 --    38 C    0.959
    67   1 H    0.944 --    38 C    0.861
    68   1 H    0.956 --    38 C    0.887
    69   5 B    3.634 --   105 N    2.949    75 B    0.249    93 B    0.155
                            95 B    0.147
    70   5 B    3.618 --   106 N    2.996    79 B    0.211    94 B    0.149
                            96 B    0.137
    71   5 B    3.603 --   107 N    3.022    85 B    0.173    94 B    0.156
                            93 B    0.156
    72   5 B    3.470 --   108 N    2.871    25 O    0.341    95 B    0.140
    73   5 B    3.467 --   109 N    2.429     8 C    0.314    99 B    0.141
                             7 C    0.137    89 B    0.125    10 C    0.102
    74   5 B    3.578 --    16 O    1.478   110 N    0.656    15 C    0.563
                           100 B    0.241    91 B    0.171    47 H    0.132
    75   5 B    3.534 --   111 N    2.468    69 B    0.249    17 C    0.232
                            97 B    0.154    98 B    0.140
    76   5 B    3.619 --   112 N    2.993   100 B    0.203    81 B    0.171
                            99 B    0.144
    77   5 B    3.657 --   113 N    3.017    90 B    0.173    57 H    0.139
                           101 B    0.121
    78   5 B    3.626 --   114 N    3.051   104 B    0.116    92 B    0.115
                           102 B    0.106
    79   5 B    3.675 --   115 N    2.984    70 B    0.211   102 B    0.157
                           101 B    0.155
    80   5 B    3.333 --   116 N    1.645    31 C    0.503    82 B    0.181
                            39 O    0.178   104 B    0.167    37 C    0.116
    81   5 B    3.671 --   117 N    3.442    76 B    0.171
    82   5 B    3.638 --   118 N    3.213    80 B    0.181
    83   5 B    3.667 --   119 N    3.539    86 B    0.125
    84   5 B    3.666 --   120 N    3.437    88 B    0.166
    85   5 B    3.629 --   121 N    3.343    71 B    0.173
    86   5 B    3.660 --   122 N    3.520    83 B    0.125
    87   5 B    3.332 --   123 N    2.209    25 O    0.771    24 C    0.216
    88   5 B    3.560 --   124 N    3.060    84 B    0.166
    89   5 B    3.328 --   125 N    2.254     8 C    0.483     9 O    0.360
                            73 B    0.125
    90   5 B    3.663 --   126 N    3.386    77 B    0.173
    91   5 B    3.590 --   127 N    2.446    21 C    0.374    49 H    0.171
                            74 B    0.171    48 H    0.140
    92   5 B    3.495 --   128 N    2.728    28 C    0.227    55 H    0.139
                            78 B    0.115    22 C    0.107
    93   5 B    3.463 --   129 N    2.841    71 B    0.156    69 B    0.155
    94   5 B    3.452 --   130 N    2.849    71 B    0.156    70 B    0.149
    95   5 B    3.463 --   131 N    2.879    69 B    0.147    72 B    0.140
    96   5 B    3.463 --   132 N    2.884    70 B    0.137    25 O    0.134
    97   5 B    3.122 --   133 N    1.328    18 C    0.264     7 C    0.218
                            20 C    0.194     8 C    0.194    17 C    0.188
                            75 B    0.154    10 C    0.145
    98   5 B    3.451 --   134 N    2.315    15 C    0.484    75 B    0.140
    99   5 B    3.443 --   135 N    2.839    76 B    0.144    73 B    0.141
   100   5 B    3.488 --   136 N    2.574    74 B    0.241    76 B    0.203
                            16 O    0.130
   101   5 B    3.458 --   137 N    2.905    79 B    0.155    77 B    0.121
   102   5 B    3.432 --   138 N    2.898    79 B    0.157    78 B    0.106
   103   5 B    3.446 --   139 N    1.552    32 C    0.869    31 C    0.569
   104   5 B    2.800 --   140 N    1.575    39 O    0.359    80 B    0.167
                            78 B    0.116
   105   7 N    3.584 --    69 B    2.949   129 N    0.143   131 N    0.133
   106   7 N    3.606 --    70 B    2.996   130 N    0.147   132 N    0.103
   107   7 N    3.632 --    71 B    3.022   129 N    0.154   130 N    0.150
   108   7 N    3.482 --    72 B    2.871   131 N    0.118    24 C    0.106
                           132 N    0.101
   109   7 N    3.518 --    73 B    2.429     7 C    0.349    20 C    0.226
   110   7 N    3.389 --    16 O    1.704    74 B    0.656    47 H    0.258
                            15 C    0.226
   111   7 N    3.450 --    75 B    2.468    18 C    0.343
   112   7 N    3.611 --    76 B    2.993   135 N    0.138   136 N    0.121
   113   7 N    3.621 --    77 B    3.017   137 N    0.118
   114   7 N    3.547 --    78 B    3.051
   115   7 N    3.598 --    79 B    2.984   138 N    0.116   137 N    0.109
   116   7 N    3.541 --    80 B    1.645    37 C    0.925    39 O    0.623
   117   7 N    3.579 --    81 B    3.442
   118   7 N    3.508 --    82 B    3.213
   119   7 N    3.662 --    83 B    3.539   122 N    0.115
   120   7 N    3.580 --    84 B    3.437
   121   7 N    3.540 --    85 B    3.343
   122   7 N    3.643 --    86 B    3.520   119 N    0.115
   123   7 N    3.148 --    87 B    2.209    24 C    0.586    25 O    0.101
   124   7 N    3.527 --    88 B    3.060    50 H    0.278
   125   7 N    3.210 --    89 B    2.254     9 O    0.761
   126   7 N    3.578 --    90 B    3.386
   127   7 N    3.201 --    91 B    2.446    21 C    0.276    49 H    0.117
   128   7 N    3.378 --    92 B    2.728    22 C    0.115
   129   7 N    3.344 --    93 B    2.841   107 N    0.154   105 N    0.143
   130   7 N    3.334 --    94 B    2.849   107 N    0.150   106 N    0.147
   131   7 N    3.318 --    95 B    2.879   105 N    0.133   108 N    0.118
   132   7 N    3.320 --    96 B    2.884   106 N    0.103   108 N    0.101
   133   7 N    3.654 --    20 C    1.344    97 B    1.328    18 C    0.600
   134   7 N    3.326 --    98 B    2.315    47 H    0.286    16 O    0.133
                            19 O    0.125
   135   7 N    3.369 --    99 B    2.839   112 N    0.138
   136   7 N    3.206 --   100 B    2.574   112 N    0.121
   137   7 N    3.342 --   101 B    2.905   113 N    0.118   115 N    0.109
   138   7 N    3.318 --   102 B    2.898   115 N    0.116
   139   7 N    3.620 --   103 B    1.552    33 C    0.903    32 C    0.599
   140   7 N    3.488 --   104 B    1.575    39 O    0.680    37 C    0.527
                            38 C    0.317
 ---------------------------------------------------------------------------

Topologies differ in total number of bonds
Writing topology from bond orders to xtbtopo.mol

molecular dipole:
                 x           y           z       tot (Debye)
 q only:       -1.080      -5.945      -5.266
   full:       -0.736      -4.829      -3.867      15.837
molecular quadrupole (traceless):
                xx          xy          yy          xz          yz          zz
 q only:      -38.866     -96.889      37.767      16.508     -10.192       1.099
  q+dip:       25.175    -109.641       6.101      26.540     -11.014     -31.275
   full:       16.823    -113.217      19.647      28.797     -10.277     -36.469


           -------------------------------------------------
          | TOTAL ENERGY              -42.429593858996 Eh   |
          | GRADIENT NORM             175.171232594728 Eh/α |
          | HOMO-LUMO GAP               0.063003365650 eV   |
           -------------------------------------------------

------------------------------------------------------------------------
 * finished run on 2026/08/31 at 18:33:55.326     
------------------------------------------------------------------------
 total:
 * wall-time:     0 d,  0 h,  0 min,  1.161 sec
 *  cpu-time:     0 d,  0 h,  0 min, 15.297 sec
 * ratio c/w:    13.176 speedup
 SCF:
 * wall-time:     0 d,  0 h,  0 min,  1.092 sec
 *  cpu-time:     0 d,  0 h,  0 min, 14.562 sec
 * ratio c/w:    13.336 speedup

normal termination of xtb
