140
Drug@B36N36 non-overlapping complex
C      8.372790      1.693998     13.911135
O      7.036479      1.342369     13.580918
C      6.079799      2.320267     13.569306
C      6.358605      3.664909     13.855656
C      5.347285      4.624595     13.834584
C      4.045044      4.250011     13.527619
C      3.750505      2.910606     13.239273
C      2.356617      2.554658     12.920295
O      1.488820      3.423836     12.884258
C      1.991824      1.153545     12.643670
C      0.656330      0.801981     12.362612
O     -0.342855      1.746486     12.386218
C      0.287078     -0.528973     12.079581
C      1.275492     -1.529549     12.178216
C      2.610950     -1.162529     12.430474
O      3.534710     -2.180664     12.438714
C      2.976746      0.174200     12.661495
C      4.387388      0.533852     12.935313
O      5.216905     -0.369498     12.882466
C      4.755892      1.939889     13.254637
C      0.942808     -2.999594     12.026676
C     -0.554673     -3.339504     12.039726
O     -0.735957     -4.622686     11.407704
C     -1.107064     -3.416371     13.483575
O     -0.673006     -2.700793     14.390114
C     -2.301226     -4.342817     13.720154
O     -2.032351     -5.708186     13.460202
C     -1.329702     -2.312494     11.230558
C     -1.157484     -0.883909     11.757194
O     -1.631782     -0.033928     10.703303
C     -2.902892      0.547426     10.999770
C     -3.148242      1.651212      9.963571
C     -4.630068      1.963652      9.799327
N     -5.146792      2.666903     10.991993
C     -5.429785      0.665900      9.488332
O     -6.634151      0.670981     10.272925
C     -4.596463     -0.603493      9.769643
C     -5.448515     -1.864691      9.845678
O     -3.917483     -0.461505     11.019726
H      8.436063      2.092676     14.928860
H      8.977350      0.782709     13.873107
H      8.786742      2.398118     13.182089
H      7.361620      4.001182     14.101616
H      5.576736      5.664100     14.059245
H      3.261033      5.005826     13.515239
H      0.056005      2.625938     12.573911
H      4.422599     -1.793400     12.622215
H      1.388127     -3.338847     11.081368
H      1.436581     -3.573216     12.822600
H     -0.294129     -4.590994     10.537952
H     -3.138995     -4.013294     13.098361
H     -2.606789     -4.255168     14.767347
H     -1.645867     -5.739261     12.559414
H     -1.014948     -2.363620     10.177385
H     -2.394929     -2.573291     11.200056
H     -1.740871     -0.755207     12.678768
H     -2.879198      1.000800     11.997785
H     -2.569836      2.545033     10.230720
H     -2.743622      1.341068      8.989786
H     -4.749366      2.648533      8.950693
H     -6.127003      2.905584     10.813842
H     -4.662070      3.559265     11.096231
H     -5.747022      0.663190      8.439469
H     -6.320776      0.858196     11.182769
H     -3.849808     -0.747588      8.977884
H     -6.129732     -1.839623     10.702978
H     -4.808505     -2.742418      9.988926
H     -6.030968     -2.006383      8.930481
B      3.459180     -1.454569      1.628037
N      3.456400      1.129904      0.940040
B      2.539920      2.362499     -1.261047
N      2.293067     -0.641637     -2.730603
B      0.690534     -3.561069      2.702709
N     -2.939724     -2.654773      1.709476
B     -1.038202      4.085096      1.831238
N     -0.619347      0.017651     -3.941904
B     -0.473710      1.445324     -4.091730
N      1.209559     -3.786796     -1.739405
B     -3.844500      2.209440     -0.493722
N     -2.772864      2.763562     -1.211833
B      1.405725      0.818091     -4.889311
N     -0.235789      3.364215      2.833544
B      0.898320     -2.879798     -2.813849
N     -0.491833      3.766578     -1.010119
B     -0.805996      2.182269      3.281874
N      1.656110     -1.274433      3.503622
B     -0.248484      3.469937     -2.379863
N      1.308703      0.068898      3.816981
B     -1.597441     -0.559934     -3.084689
N     -3.832496      1.776842      0.831624
B      0.337602      4.495994      1.183894
N      0.043256     -0.013955      4.456653
B     -2.708837      2.226751      1.601242
N      3.772728     -0.132624     -0.765541
B     -2.253381     -3.639412      1.008482
N      1.055818      3.733398      2.235734
B     -1.825620     -0.777460      3.219840
N     -2.436768     -3.601880     -0.450773
B      3.018658     -1.073670     -1.502768
N     -3.157960     -1.252592     -0.384321
B      2.034656      2.922326      1.561722
N     -0.507447     -2.900148     -2.432795
B     -1.673548     -2.112882     -2.491621
N      0.590135      3.964583     -0.110225
B      1.090314      2.959649     -3.182489
N      0.077350     -4.359230      1.721289
B     -1.784034      3.452384     -0.408220
N     -2.013520      3.418515      1.031553
B      1.465878     -4.212148      1.499138
N     -0.797987      1.064153      4.194581
B     -2.666242     -2.402096     -1.175256
N     -1.074388     -4.484335      0.991235
B     -2.503710      0.491370     -2.109143
N      2.352728     -3.887335      0.453103
B      3.912327     -0.202357      0.725926
N      1.928548      1.957009     -2.465077
B      1.001184      2.254351     -4.622507
N     -4.186016      0.829005     -0.347538
B     -1.338881      2.453658     -3.114870
N     -2.359649      1.932605     -2.305841
B      3.073063     -2.645483      0.601111
N      2.335213     -3.673670     -0.970876
B      2.217863      0.545803      2.808407
N     -2.026423      0.611912      3.601492
B     -1.101749     -4.183787     -0.441007
N     -3.218144      0.041654     -0.958566
B      3.447752      1.258593     -0.514065
N      2.582085      1.632977      1.936454
B      1.472054     -1.555001     -3.515610
N     -2.102601      1.754194      2.760799
B      2.040765      0.711921     -3.211483
N     -2.720915     -1.341699      2.320567
B      0.658648     -0.538875     -4.486937
N     -0.168664     -3.759421     -1.356472
B      0.485560     -2.105634      3.433764
N     -0.587253     -1.205033      3.824488
B     -3.224373     -1.451411      1.000320
N      2.671324     -0.855529      2.621135
B      1.878557      3.339348     -0.106427
N      2.876911     -2.331783     -0.793563
