140
Doxorubicin 0 deg
C      8.372790      1.693998     13.128319
O      7.036479      1.342369     12.798102
C      6.079799      2.320267     12.786490
C      6.358605      3.664909     13.072840
C      5.347285      4.624595     13.051768
C      4.045044      4.250011     12.744803
C      3.750505      2.910606     12.456457
C      2.356617      2.554658     12.137479
O      1.488820      3.423836     12.101442
C      1.991824      1.153545     11.860854
C      0.656330      0.801981     11.579796
O     -0.342855      1.746486     11.603402
C      0.287078     -0.528973     11.296765
C      1.275492     -1.529549     11.395400
C      2.610950     -1.162529     11.647658
O      3.534710     -2.180664     11.655898
C      2.976746      0.174200     11.878679
C      4.387388      0.533852     12.152497
O      5.216905     -0.369498     12.099650
C      4.755892      1.939889     12.471821
C      0.942808     -2.999594     11.243860
C     -0.554673     -3.339504     11.256910
O     -0.735957     -4.622686     10.624888
C     -1.107064     -3.416371     12.700759
O     -0.673006     -2.700793     13.607298
C     -2.301226     -4.342817     12.937338
O     -2.032351     -5.708186     12.677386
C     -1.329702     -2.312494     10.447742
C     -1.157484     -0.883909     10.974378
O     -1.631782     -0.033928      9.920487
C     -2.902892      0.547426     10.216954
C     -3.148242      1.651212      9.180755
C     -4.630068      1.963652      9.016511
N     -5.146792      2.666903     10.209177
C     -5.429785      0.665900      8.705516
O     -6.634151      0.670981      9.490109
C     -4.596463     -0.603493      8.986827
C     -5.448515     -1.864691      9.062862
O     -3.917483     -0.461505     10.236910
H      8.436063      2.092676     14.146044
H      8.977350      0.782709     13.090291
H      8.786742      2.398118     12.399273
H      7.361620      4.001182     13.318800
H      5.576736      5.664100     13.276429
H      3.261033      5.005826     12.732423
H      0.056005      2.625938     11.791095
H      4.422599     -1.793400     11.839399
H      1.388127     -3.338847     10.298552
H      1.436581     -3.573216     12.039784
H     -0.294129     -4.590994      9.755136
H     -3.138995     -4.013294     12.315545
H     -2.606789     -4.255168     13.984531
H     -1.645867     -5.739261     11.776598
H     -1.014948     -2.363620      9.394569
H     -2.394929     -2.573291     10.417240
H     -1.740871     -0.755207     11.895952
H     -2.879198      1.000800     11.214969
H     -2.569836      2.545033      9.447904
H     -2.743622      1.341068      8.206970
H     -4.749366      2.648533      8.167877
H     -6.127003      2.905584     10.031026
H     -4.662070      3.559265     10.313415
H     -5.747022      0.663190      7.656653
H     -6.320776      0.858196     10.399953
H     -3.849808     -0.747588      8.195068
H     -6.129732     -1.839623      9.920162
H     -4.808505     -2.742418      9.206110
H     -6.030968     -2.006383      8.147665
B      3.459180     -1.454569      1.628037
N      3.456400      1.129904      0.940040
B      2.539920      2.362499     -1.261047
N      2.293067     -0.641637     -2.730603
B      0.690534     -3.561069      2.702709
N     -2.939724     -2.654773      1.709476
B     -1.038202      4.085096      1.831238
N     -0.619347      0.017651     -3.941904
B     -0.473710      1.445324     -4.091730
N      1.209559     -3.786796     -1.739405
B     -3.844500      2.209440     -0.493722
N     -2.772864      2.763562     -1.211833
B      1.405725      0.818091     -4.889311
N     -0.235789      3.364215      2.833544
B      0.898320     -2.879798     -2.813849
N     -0.491833      3.766578     -1.010119
B     -0.805996      2.182269      3.281874
N      1.656110     -1.274433      3.503622
B     -0.248484      3.469937     -2.379863
N      1.308703      0.068898      3.816981
B     -1.597441     -0.559934     -3.084689
N     -3.832496      1.776842      0.831624
B      0.337602      4.495994      1.183894
N      0.043256     -0.013955      4.456653
B     -2.708837      2.226751      1.601242
N      3.772728     -0.132624     -0.765541
B     -2.253381     -3.639412      1.008482
N      1.055818      3.733398      2.235734
B     -1.825620     -0.777460      3.219840
N     -2.436768     -3.601880     -0.450773
B      3.018658     -1.073670     -1.502768
N     -3.157960     -1.252592     -0.384321
B      2.034656      2.922326      1.561722
N     -0.507447     -2.900148     -2.432795
B     -1.673548     -2.112882     -2.491621
N      0.590135      3.964583     -0.110225
B      1.090314      2.959649     -3.182489
N      0.077350     -4.359230      1.721289
B     -1.784034      3.452384     -0.408220
N     -2.013520      3.418515      1.031553
B      1.465878     -4.212148      1.499138
N     -0.797987      1.064153      4.194581
B     -2.666242     -2.402096     -1.175256
N     -1.074388     -4.484335      0.991235
B     -2.503710      0.491370     -2.109143
N      2.352728     -3.887335      0.453103
B      3.912327     -0.202357      0.725926
N      1.928548      1.957009     -2.465077
B      1.001184      2.254351     -4.622507
N     -4.186016      0.829005     -0.347538
B     -1.338881      2.453658     -3.114870
N     -2.359649      1.932605     -2.305841
B      3.073063     -2.645483      0.601111
N      2.335213     -3.673670     -0.970876
B      2.217863      0.545803      2.808407
N     -2.026423      0.611912      3.601492
B     -1.101749     -4.183787     -0.441007
N     -3.218144      0.041654     -0.958566
B      3.447752      1.258593     -0.514065
N      2.582085      1.632977      1.936454
B      1.472054     -1.555001     -3.515610
N     -2.102601      1.754194      2.760799
B      2.040765      0.711921     -3.211483
N     -2.720915     -1.341699      2.320567
B      0.658648     -0.538875     -4.486937
N     -0.168664     -3.759421     -1.356472
B      0.485560     -2.105634      3.433764
N     -0.587253     -1.205033      3.824488
B     -3.224373     -1.451411      1.000320
N      2.671324     -0.855529      2.621135
B      1.878557      3.339348     -0.106427
N      2.876911     -2.331783     -0.793563
