      -----------------------------------------------------------      
     |                   =====================                   |     
     |                           x T B                           |     
     |                   =====================                   |     
     |                         S. Grimme                         |     
     |          Mulliken Center for Theoretical Chemistry        |     
     |                    University of Bonn                     |     
      -----------------------------------------------------------      

   * xtb version 6.7.1pre (5071a88) compiled by 'Marcel@Raven' on 2024-07-23

   xtb is free software: you can redistribute it and/or modify it under
   the terms of the GNU Lesser General Public License as published by
   the Free Software Foundation, either version 3 of the License, or
   (at your option) any later version.
   
   xtb is distributed in the hope that it will be useful,
   but WITHOUT ANY WARRANTY; without even the implied warranty of
   MERCHANTABILITY or FITNESS FOR A PARTICULAR PURPOSE.  See the
   GNU Lesser General Public License for more details.
   
   Cite this work as:
   * C. Bannwarth, E. Caldeweyher, S. Ehlert, A. Hansen, P. Pracht,
     J. Seibert, S. Spicher, S. Grimme, WIREs Comput. Mol. Sci., 2020, 11,
     e01493. DOI: 10.1002/wcms.1493
   
   for GFN2-xTB:
   * C. Bannwarth, S. Ehlert and S. Grimme., J. Chem. Theory Comput., 2019,
     15, 1652-1671. DOI: 10.1021/acs.jctc.8b01176
   for GFN1-xTB:
   * S. Grimme, C. Bannwarth, P. Shushkov, J. Chem. Theory Comput., 2017,
     13, 1989-2009. DOI: 10.1021/acs.jctc.7b00118
   for GFN0-xTB:
   * P. Pracht, E. Caldeweyher, S. Ehlert, S. Grimme, ChemRxiv, 2019, preprint.
     DOI: 10.26434/chemrxiv.8326202.v1
   for GFN-FF:
   * S. Spicher and S. Grimme, Angew. Chem. Int. Ed., 2020, 59, 15665-15673.
     DOI: 10.1002/anie.202004239
   
   for ALPB and GBSA implicit solvation:
   * S. Ehlert, M. Stahn, S. Spicher, S. Grimme, J. Chem. Theory Comput.,
     2021, 17, 4250-4261. DOI: 10.1021/acs.jctc.1c00471
   
   for ddCOSMO and CPCM-X implicit solvation:
   * M. Stahn, S. Ehlert, S. Grimme, J. Phys. Chem. A,
     2023, XX, XXXX-XXXX. DOI: 10.1021/acs.jpca.3c04382
   
   for DFT-D4:
   * E. Caldeweyher, C. Bannwarth and S. Grimme, J. Chem. Phys., 2017,
     147, 034112. DOI: 10.1063/1.4993215
   * E. Caldeweyher, S. Ehlert, A. Hansen, H. Neugebauer, S. Spicher,
     C. Bannwarth and S. Grimme, J. Chem. Phys., 2019, 150, 154122.
     DOI: 10.1063/1.5090222
   * E. Caldeweyher, J.-M. Mewes, S. Ehlert and S. Grimme, Phys. Chem. Chem. Phys.
     2020, 22, 8499-8512. DOI: 10.1039/D0CP00502A
   
   for sTDA-xTB:
   * S. Grimme and C. Bannwarth, J. Chem. Phys., 2016, 145, 054103.
     DOI: 10.1063/1.4959605
   
   in the mass-spec context:
   * V. Asgeirsson, C. Bauer and S. Grimme, Chem. Sci., 2017, 8, 4879.
     DOI: 10.1039/c7sc00601b
   * J. Koopman and S. Grimme, ACS Omega 2019, 4, 12, 15120-15133.
     DOI: 10.1021/acsomega.9b02011
   
   for metadynamics refer to:
   * S. Grimme, J. Chem. Theory Comput., 2019, 155, 2847-2862
     DOI: 10.1021/acs.jctc.9b00143
   
   for SPH calculations refer to:
   * S. Spicher and S. Grimme, J. Chem. Theory Comput., 2021, 17, 1701-1714
     DOI: 10.1021/acs.jctc.0c01306
   
   for ONIOM refer to:
   * C. Plett, A. Katbashev, S. Ehlert, S. Grimme, M. Bursch,
     Phys. Chem. Chem. Phys., 2023, 25, 17860-17868. DOI: 10.1039/D3CP02178E
   
   for DIPRO refer to:
   * J. Kohn, N. Gildemeister, S. Grimme, D. Fazzi, A. Hansen,
     J. Chem. Phys., 2023, just accepted.
   
   for PTB refer to:
   * S. Grimme, M. Mueller, A. Hansen, J. Chem. Phys., 2023, 158, 124111.
     DOI: 10.1063/5.0137838
   
   with help from (in alphabetical order)
   P. Atkinson, C. Bannwarth, F. Bohle, G. Brandenburg, E. Caldeweyher
   M. Checinski, S. Dohm, S. Ehlert, S. Ehrlich, I. Gerasimov, C. Hölzer
   A. Katbashev, J. Kohn, J. Koopman, C. Lavigne, S. Lehtola, F. März, M. Müller,
   F. Musil, H. Neugebauer, J. Pisarek, C. Plett, P. Pracht, F. Pultar,
   J. Seibert, P. Shushkov, S. Spicher, M. Stahn, M. Steiner, T. Strunk,
   J. Stückrath, T. Rose, and J. Unsleber
   
 * started run on 2026/08/31 at 22:26:49.568     
   ID    Z sym.   atoms
    1    6 C      1, 3-8, 10, 11, 13-15, 17, 18, 20-22, 24, 26, 28, 29,
                  31-33, 35, 37, 38
    2    8 O      2, 9, 12, 16, 19, 23, 25, 27, 30, 36, 39
    3    7 N      34, 70, 72, 74, 76, 78, 80, 82, 84, 86, 88, 90, 92, 94, 96,
                  98, 100, 102, 104, 106, 108, 110, 112, 114, 116, 118, 120,
                  122, 124, 126, 128, 130, 132, 134, 136, 138, 140
    4    1 H      40-68
    5    5 B      69, 71, 73, 75, 77, 79, 81, 83, 85, 87, 89, 91, 93, 95, 97,
                  99, 101, 103, 105, 107, 109, 111, 113, 115, 117, 119, 121,
                  123, 125, 127, 129, 131, 133, 135, 137, 139

           -------------------------------------------------
          |                Calculation Setup                |
           -------------------------------------------------

          program call               : "c:\Users\Andre\Proyectos doctorado\kras-pancreatic-gC3N4-ai\tools\xtb\xtb-6.7.1\bin\xtb.exe" "c:\Users\Andre\Proyectos doctorado\nano-qsar-ai-therapeutics\calculations\tnbc\Doxorubicin\Doxorubicin_opt_180deg.xyz" --opt vloose --gfn 2 --chrg 0 --uhf 0 --etemp 300 --iterations 500 --cycles 15 --norestart
          coordinate file            : c:\Users\Andre\Proyectos doctorado\nano-qsar-ai-therapeutics\calculations\tnbc\Doxorubicin\Doxorubicin_opt_180deg.xyz
          omp threads                :                    16


molecular fragmentation (1/2 indicates fragments):
111111111111111111111111111111111111111111111111111111111111111111112222
22222222222222222222222222222222222222222222222222222222222222222222
# atoms in fragment 1/2:    68    72
 fragment masses (1/2) :      543.52      893.44
CMA distance (Bohr)    :  21.399
constraining FC (au)   :  0.0500

           -------------------------------------------------
          |                 G F N 2 - x T B                 |
           -------------------------------------------------

        Reference                      10.1021/acs.jctc.8b01176
      * Hamiltonian:
        H0-scaling (s, p, d)           1.850000    2.230000    2.230000
        zeta-weighting                 0.500000
      * Dispersion:
        s8                             2.700000
        a1                             0.520000
        a2                             5.000000
        s9                             5.000000
      * Repulsion:
        kExp                           1.500000    1.000000
        rExp                           1.000000
      * Coulomb:
        alpha                          2.000000
        third order                    shell-resolved
        anisotropic                    true
        a3                             3.000000
        a5                             4.000000
        cn-shift                       1.200000
        cn-exp                         4.000000
        max-rad                        5.000000


          ...................................................
          :                      SETUP                      :
          :.................................................:
          :  # basis functions                 473          :
          :  # atomic orbitals                 473          :
          :  # shells                          251          :
          :  # electrons                       496          :
          :  max. iterations                   500          :
          :  Hamiltonian                  GFN2-xTB          :
          :  restarted?                      false          :
          :  GBSA solvation                  false          :
          :  PC potential                    false          :
          :  electronic temp.          300.0000000     K    :
          :  accuracy                    1.0000000          :
          :  -> integral cutoff          0.2500000E+02      :
          :  -> integral neglect         0.1000000E-07      :
          :  -> SCF convergence          0.1000000E-05 Eh   :
          :  -> wf. convergence          0.1000000E-03 e    :
          :  Broyden damping             0.4000000          :
          :  net charge                          0          :
          :  unpaired electrons                  0          :
          ...................................................

 iter      E             dE          RMSdq      gap      omega  full diag
   1   -272.1447862 -0.272145E+03  0.105E+01    0.18       0.0  T
   2   -271.7380170  0.406769E+00  0.626E+00    0.16       1.0  T
   3   -137.2009460  0.134537E+03  0.121E+01    0.00       1.0  T
   4   -222.6717140 -0.854708E+02  0.750E+00    0.04       1.0  T
   5   -266.6700100 -0.439983E+02  0.364E+00    0.14       1.0  T
   6   -268.3705853 -0.170058E+01  0.343E+00    0.01       1.0  T
   7   -272.3538694 -0.398328E+01  0.188E+00    0.21       1.0  T
   8   -272.9695994 -0.615730E+00  0.145E+00    0.35       1.0  T
   9   -273.0547233 -0.851239E-01  0.128E+00    0.49       1.0  T
  10   -273.0785550 -0.238316E-01  0.115E+00    0.57       1.0  T
  11   -272.6916716  0.386883E+00  0.105E+00    0.07       1.0  T
  12   -272.8189908 -0.127319E+00  0.915E-01    0.02       1.0  T
  13   -272.5741436  0.244847E+00  0.103E+00    0.08       1.0  T
  14   -272.7231559 -0.149012E+00  0.918E-01    0.07       1.0  T
  15   -272.8586013 -0.135445E+00  0.805E-01    0.04       1.0  T
  16   -272.5165419  0.342059E+00  0.976E-01    0.07       1.0  T
  17   -272.6371810 -0.120639E+00  0.741E-01    0.05       1.0  T
  18   -273.0718352 -0.434654E+00  0.395E-01    0.06       1.0  T
  19   -273.0735463 -0.171104E-02  0.369E-01    0.05       1.0  T
  20   -273.0970166 -0.234703E-01  0.327E-01    0.10       1.0  T
  21   -273.0115607  0.854559E-01  0.401E-01    0.01       1.0  T
  22   -273.1068150 -0.952543E-01  0.152E-01    0.16       1.0  T
  23   -273.1070589 -0.243855E-03  0.968E-02    0.22       1.0  T
  24   -273.1068335  0.225422E-03  0.719E-02    0.27       1.0  T
  25   -273.1069973 -0.163833E-03  0.635E-02    0.28       1.0  T
  26   -273.1071743 -0.177032E-03  0.558E-02    0.29       1.0  T
  27   -273.1072380 -0.636958E-04  0.494E-02    0.30       1.0  T
  28   -273.1073491 -0.111117E-03  0.462E-02    0.29       1.0  T
  29   -273.1074890 -0.139866E-03  0.435E-02    0.27       1.0  T
  30   -273.1076038 -0.114774E-03  0.387E-02    0.26       1.0  T
  31   -273.1077708 -0.166999E-03  0.330E-02    0.24       1.0  T
  32   -273.1081487 -0.377965E-03  0.199E-02    0.20       1.0  T
  33   -273.1083375 -0.188798E-03  0.104E-02    0.17       1.0  T
  34   -273.1083238  0.137491E-04  0.117E-02    0.16       1.0  T
  35   -273.1083483 -0.244723E-04  0.748E-03    0.16       1.1  T
  36   -273.1083532 -0.494871E-05  0.576E-03    0.17       1.5  T
  37   -273.1083548 -0.162978E-05  0.494E-03    0.17       1.7  T
  38   -273.1083565 -0.163477E-05  0.407E-03    0.17       2.1  T
  39   -273.1083575 -0.100291E-05  0.293E-03    0.17       2.9  T
  40   -273.1083580 -0.510861E-06  0.207E-03    0.17       4.1  T
  41   -273.1083584 -0.402445E-06  0.137E-03    0.17       6.2  T
  42   -273.1083585 -0.125857E-06  0.104E-03    0.17       8.1  T
  43   -273.1083587 -0.128483E-06  0.632E-04    0.17      13.4  T
  44   -273.1083587 -0.358243E-07  0.390E-04    0.17      21.7  T

   *** convergence criteria satisfied after 44 iterations ***

         #    Occupation            Energy/Eh            Energy/eV
      -------------------------------------------------------------
         1        2.0000           -0.7196318             -19.5822
       ...           ...                  ...                  ...
       242        2.0000           -0.3355126              -9.1298
       243        2.0000           -0.3334073              -9.0725
       244        2.0000           -0.3319534              -9.0329
       245        2.0000           -0.3291762              -8.9573
       246        1.9994           -0.3238821              -8.8133
       247        1.9937           -0.3215816              -8.7507
       248        1.9282           -0.3192427              -8.6870 (HOMO)
       249        0.0786           -0.3130799              -8.5193 (LUMO)
       250                         -0.2912779              -7.9261
       251                         -0.2837521              -7.7213
       252                         -0.2735047              -7.4424
       253                         -0.2723202              -7.4102
       ...                                ...                  ...
       473                          0.9757582              26.5517
      -------------------------------------------------------------
                  HL-Gap            0.0061628 Eh            0.1677 eV
             Fermi-level           -0.3161160 Eh           -8.6020 eV

 SCC (total)                   0 d,  0 h,  0 min,  1.888 sec
 SCC setup                      ...        0 min,  0.002 sec (  0.106%)
 Dispersion                     ...        0 min,  0.004 sec (  0.212%)
 classical contributions        ...        0 min,  0.000 sec (  0.000%)
 integral evaluation            ...        0 min,  0.018 sec (  0.953%)
 iterations                     ...        0 min,  1.819 sec ( 96.345%)
 molecular gradient             ...        0 min,  0.040 sec (  2.119%)
 printout                       ...        0 min,  0.005 sec (  0.265%)

         :::::::::::::::::::::::::::::::::::::::::::::::::::::
         ::                     SUMMARY                     ::
         :::::::::::::::::::::::::::::::::::::::::::::::::::::
         :: total energy            -270.479988891609 Eh    ::
         :: gradient norm              0.117951180357 Eh/a0 ::
         :: HOMO-LUMO gap              0.167699212232 eV    ::
         ::.................................................::
         :: SCC energy              -273.092818102062 Eh    ::
         :: -> isotropic ES            0.873988361984 Eh    ::
         :: -> anisotropic ES         -0.027948498560 Eh    ::
         :: -> anisotropic XC          0.074408344108 Eh    ::
         :: -> dispersion             -0.224694884358 Eh    ::
         :: repulsion energy           2.612829210453 Eh    ::
         :: add. restraining           0.000000000000 Eh    ::
         :: total charge               0.000000000001 e     ::
         :::::::::::::::::::::::::::::::::::::::::::::::::::::

      ----------------------------------------------------------- 
     |                   =====================                   |
     |                        A N C O P T                        |
     |                   =====================                   |
     |               Approximate Normal Coordinate               |
     |                Rational Function Optimizer                |
      ----------------------------------------------------------- 
      ----------------------------------------------------------- 
     |                   =====================                   |
     |                        A N C O P T                        |
     |                   =====================                   |
     |               Approximate Normal Coordinate               |
     |                Rational Function Optimizer                |
      ----------------------------------------------------------- 

          ...................................................
          :                      SETUP                      :
          :.................................................:
          :   optimization level            normal          :
          :   max. optcycles                    15          :
          :   ANC micro-cycles                  15          :
          :   degrees of freedom               414          :
          :.................................................:
          :   RF solver                   davidson          :
          :   write xtbopt.log                true          :
          :   linear?                        false          :
          :   energy convergence         0.5000000E-05 Eh   :
          :   grad. convergence          0.1000000E-02 Eh/α :
          :   maxmium RF displ.          1.0000000          :
          :   Hlow (freq-cutoff)         0.1000000E-01      :
          :   Hmax (freq-cutoff)         5.0000000          :
          :   S6 in model hess.         20.0000000          :
          ...................................................

generating ANC from exact Hessian ...
Using Lindh-Hessian (1995)
 Shifting diagonal of input Hessian by   1.008608180546373E-002
 Lowest  eigenvalues of input Hessian
    0.010000    0.010005    0.010017    0.000000    0.000000    0.000000
    0.000000    0.000000    0.000000    0.010093    0.010101    0.010105
    0.010266    0.010297    0.010375    0.010444    0.010700    0.011298
 Highest eigenvalues
    2.087489    2.121975    2.154604    2.234262    2.260728    2.314979
 

........................................................................
.............................. CYCLE    1 ..............................
........................................................................

 iter      E             dE          RMSdq      gap      omega  full diag
   1   -273.1083587 -0.273108E+03  0.319E-04    0.17       0.0  T
   2   -273.1083587  0.229242E-07  0.412E-04    0.17      20.5  T
   3   -273.1083587 -0.225139E-07  0.282E-04    0.17      29.9  T
     SCC iter.                  ...        0 min,  0.131 sec
     gradient                   ...        0 min,  0.040 sec
 * total energy  :  -270.4799889 Eh     change       -0.1166597E-07 Eh
   gradient norm :     0.1179560 Eh/α   predicted     0.0000000E+00 (-100.00%)
   displ. norm   :     0.3729247 α      lambda       -0.2141326E-01
   maximum displ.:     0.1100566 α      in ANC's #51, #28, #41, ...

........................................................................
.............................. CYCLE    2 ..............................
........................................................................

 iter      E             dE          RMSdq      gap      omega  full diag
   1   -273.1497093 -0.273150E+03  0.146E-01    0.13       0.0  T
   2   -273.1486693  0.103995E-02  0.136E-01    0.40       1.0  T
   3   -273.1517829 -0.311362E-02  0.593E-02    0.18       1.0  T
   4   -273.1462171  0.556579E-02  0.111E-01    0.10       1.0  T
   5   -273.1512562 -0.503908E-02  0.394E-02    0.23       1.0  T
   6   -273.1518645 -0.608264E-03  0.106E-02    0.18       1.0  T
   7   -273.1518803 -0.158437E-04  0.687E-03    0.17       1.2  T
   8   -273.1518945 -0.141294E-04  0.264E-03    0.17       3.2  T
   9   -273.1518957 -0.121150E-05  0.144E-03    0.17       5.9  T
  10   -273.1518958 -0.150160E-06  0.827E-04    0.17      10.2  T
  11   -273.1518959 -0.115494E-06  0.442E-04    0.17      19.1  T
     SCC iter.                  ...        0 min,  0.542 sec
     gradient                   ...        0 min,  0.044 sec
 * total energy  :  -270.4948279 Eh     change       -0.1483902E-01 Eh
   gradient norm :     0.0520056 Eh/α   predicted    -0.1221033E-01 ( -17.71%)
   displ. norm   :     0.3733176 α      lambda       -0.7536781E-02
   maximum displ.:     0.1234188 α      in ANC's #28, #51, #17, ...

........................................................................
.............................. CYCLE    3 ..............................
........................................................................

 iter      E             dE          RMSdq      gap      omega  full diag
   1   -273.1768530 -0.273177E+03  0.111E-01    0.15       0.0  T
   2   -273.1761120  0.740962E-03  0.944E-02    0.27       1.0  T
   3   -273.1742838  0.182825E-02  0.947E-02    0.11       1.0  T
   4   -273.1769507 -0.266692E-02  0.539E-02    0.28       1.0  T
   5   -273.1773176 -0.366966E-03  0.359E-02    0.24       1.0  T
   6   -273.1777126 -0.395003E-03  0.193E-02    0.20       1.0  T
   7   -273.1778406 -0.127929E-03  0.100E-02    0.18       1.0  T
   8   -273.1778811 -0.405084E-04  0.308E-03    0.17       2.7  T
   9   -273.1778818 -0.750236E-06  0.190E-03    0.17       4.5  T
  10   -273.1778827 -0.905019E-06  0.110E-03    0.17       7.7  T
  11   -273.1778830 -0.286189E-06  0.367E-04    0.17      23.0  T
  12   -273.1778830 -0.182524E-07  0.188E-04    0.17      45.0  T
     SCC iter.                  ...        0 min,  0.462 sec
     gradient                   ...        0 min,  0.040 sec
 * total energy  :  -270.4994698 Eh     change       -0.4641826E-02 Eh
   gradient norm :     0.0158614 Eh/α   predicted    -0.4299129E-02 (  -7.38%)
   displ. norm   :     0.2789017 α      lambda       -0.1582009E-02
   maximum displ.:     0.1228049 α      in ANC's #17, #28, #20, ...

........................................................................
.............................. CYCLE    4 ..............................
........................................................................

 iter      E             dE          RMSdq      gap      omega  full diag
   1   -273.1839925 -0.273184E+03  0.495E-02    0.17       0.0  T
   2   -273.1839168  0.757628E-04  0.318E-02    0.19       1.0  T
   3   -273.1820463  0.187052E-02  0.676E-02    0.12       1.0  T
   4   -273.1838713 -0.182503E-02  0.252E-02    0.20       1.0  T
   5   -273.1840116 -0.140359E-03  0.117E-02    0.19       1.0  T
   6   -273.1840642 -0.525938E-04  0.534E-03    0.18       1.6  T
   7   -273.1840747 -0.104617E-04  0.257E-03    0.17       3.3  T
   8   -273.1840770 -0.233205E-05  0.105E-03    0.17       8.1  T
   9   -273.1840773 -0.299305E-06  0.511E-04    0.17      16.5  T
  10   -273.1840773 -0.131081E-09  0.417E-04    0.17      20.3  T
     SCC iter.                  ...        0 min,  0.455 sec
     gradient                   ...        0 min,  0.044 sec
 * total energy  :  -270.5005724 Eh     change       -0.1102696E-02 Eh
   gradient norm :     0.0091713 Eh/α   predicted    -0.8526055E-03 ( -22.68%)
   displ. norm   :     0.2878485 α      lambda       -0.8219771E-03
   maximum displ.:     0.1487767 α      in ANC's #17, #13, #15, ...

........................................................................
.............................. CYCLE    5 ..............................
........................................................................

 iter      E             dE          RMSdq      gap      omega  full diag
   1   -273.1865215 -0.273187E+03  0.391E-02    0.17       0.0  T
   2   -273.1865147  0.681780E-05  0.227E-02    0.18       1.0  T
   3   -273.1855440  0.970698E-03  0.473E-02    0.13       1.0  T
   4   -273.1863818 -0.837768E-03  0.195E-02    0.20       1.0  T
   5   -273.1865216 -0.139792E-03  0.623E-03    0.18       1.4  T
   6   -273.1865374 -0.158396E-04  0.237E-03    0.17       3.6  T
   7   -273.1865396 -0.219509E-05  0.936E-04    0.17       9.0  T
   8   -273.1865398 -0.167077E-06  0.459E-04    0.17      18.4  T
   9   -273.1865398 -0.485313E-07  0.228E-04    0.17      37.1  T
     SCC iter.                  ...        0 min,  0.369 sec
     gradient                   ...        0 min,  0.041 sec
 * total energy  :  -270.5011193 Eh     change       -0.5468213E-03 Eh
   gradient norm :     0.0078892 Eh/α   predicted    -0.4450474E-03 ( -18.61%)
   displ. norm   :     0.2303460 α      lambda       -0.3589652E-03
   maximum displ.:     0.1186942 α      in ANC's #17, #13, #15, ...

........................................................................
.............................. CYCLE    6 ..............................
........................................................................

 iter      E             dE          RMSdq      gap      omega  full diag
   1   -273.1875900 -0.273188E+03  0.247E-02    0.17       0.0  T
   2   -273.1875887  0.130750E-05  0.147E-02    0.17       1.0  T
   3   -273.1871823  0.406425E-03  0.292E-02    0.14       1.0  T
   4   -273.1875712 -0.388919E-03  0.701E-03    0.18       1.2  T
   5   -273.1875925 -0.213376E-04  0.174E-03    0.17       4.8  T
   6   -273.1875933 -0.726784E-06  0.967E-04    0.17       8.7  T
   7   -273.1875935 -0.202057E-06  0.487E-04    0.17      17.3  T
     SCC iter.                  ...        0 min,  0.273 sec
     gradient                   ...        0 min,  0.040 sec
 * total energy  :  -270.5013742 Eh     change       -0.2548863E-03 Eh
   gradient norm :     0.0057175 Eh/α   predicted    -0.1890061E-03 ( -25.85%)
   displ. norm   :     0.2418527 α      lambda       -0.2622353E-03
   maximum displ.:     0.1222742 α      in ANC's #13, #17, #15, ...

........................................................................
.............................. CYCLE    7 ..............................
........................................................................

 iter      E             dE          RMSdq      gap      omega  full diag
   1   -273.1876567 -0.273188E+03  0.235E-02    0.17       0.0  T
   2   -273.1876502  0.646420E-05  0.146E-02    0.18       1.0  T
   3   -273.1867706  0.879627E-03  0.421E-02    0.13       1.0  T
   4   -273.1876441 -0.873517E-03  0.622E-03    0.18       1.4  T
   5   -273.1876579 -0.137293E-04  0.242E-03    0.17       3.5  T
   6   -273.1876592 -0.135906E-05  0.142E-03    0.17       5.9  T
   7   -273.1876599 -0.640531E-06  0.396E-04    0.17      21.4  T
   8   -273.1876599 -0.105985E-07  0.237E-04    0.17      35.7  T
     SCC iter.                  ...        0 min,  0.377 sec
     gradient                   ...        0 min,  0.044 sec
 * total energy  :  -270.5015603 Eh     change       -0.1861623E-03 Eh
   gradient norm :     0.0041224 Eh/α   predicted    -0.1387931E-03 ( -25.45%)
   displ. norm   :     0.2224335 α      lambda       -0.1781437E-03
   maximum displ.:     0.1229287 α      in ANC's #13, #15, #17, ...

........................................................................
.............................. CYCLE    8 ..............................
........................................................................

 iter      E             dE          RMSdq      gap      omega  full diag
   1   -273.1876102 -0.273188E+03  0.208E-02    0.17       0.0  T
   2   -273.1876092  0.103231E-05  0.124E-02    0.17       1.0  T
   3   -273.1873543  0.254834E-03  0.228E-02    0.15       1.0  T
   4   -273.1875957 -0.241356E-03  0.628E-03    0.18       1.3  T
   5   -273.1876117 -0.159937E-04  0.134E-03    0.17       6.3  T
   6   -273.1876120 -0.297920E-06  0.800E-04    0.17      10.6  T
   7   -273.1876121 -0.146031E-06  0.400E-04    0.17      21.1  T
     SCC iter.                  ...        0 min,  0.275 sec
     gradient                   ...        0 min,  0.041 sec
 * total energy  :  -270.5016899 Eh     change       -0.1295358E-03 Eh
   gradient norm :     0.0039943 Eh/α   predicted    -0.9348024E-04 ( -27.83%)
   displ. norm   :     0.2135022 α      lambda       -0.1386503E-03
   maximum displ.:     0.1195752 α      in ANC's #13, #15, #16, ...

........................................................................
.............................. CYCLE    9 ..............................
........................................................................

 iter      E             dE          RMSdq      gap      omega  full diag
   1   -273.1874808 -0.273187E+03  0.207E-02    0.17       0.0  T
   2   -273.1874743  0.651872E-05  0.126E-02    0.17       1.0  T
   3   -273.1872361  0.238156E-03  0.233E-02    0.20       1.0  T
   4   -273.1874820 -0.245841E-03  0.208E-03    0.17       4.1  T
   5   -273.1874822 -0.196118E-06  0.109E-03    0.17       7.7  T
   6   -273.1874824 -0.210588E-06  0.810E-04    0.17      10.4  T
   7   -273.1874825 -0.959202E-07  0.437E-04    0.17      19.3  T
     SCC iter.                  ...        0 min,  0.283 sec
     gradient                   ...        0 min,  0.040 sec
 * total energy  :  -270.5017953 Eh     change       -0.1054909E-03 Eh
   gradient norm :     0.0041799 Eh/α   predicted    -0.7248802E-04 ( -31.29%)
   displ. norm   :     0.2456448 α      lambda       -0.1371186E-03
   maximum displ.:     0.1341999 α      in ANC's #13, #15, #16, ...

........................................................................
.............................. CYCLE   10 ..............................
........................................................................

 iter      E             dE          RMSdq      gap      omega  full diag
   1   -273.1876236 -0.273188E+03  0.239E-02    0.17       0.0  T
   2   -273.1875559  0.676496E-04  0.182E-02    0.16       1.0  T
   3   -273.1872527  0.303193E-03  0.300E-02    0.22       1.0  T
   4   -273.1875985 -0.345797E-03  0.833E-03    0.18       1.0  T
   5   -273.1876256 -0.270173E-04  0.291E-03    0.17       2.9  T
   6   -273.1876291 -0.350061E-05  0.104E-03    0.17       8.2  T
   7   -273.1876292 -0.101262E-06  0.689E-04    0.17      12.3  T
   8   -273.1876293 -0.112979E-06  0.280E-04    0.17      30.2  T
     SCC iter.                  ...        0 min,  0.346 sec
     gradient                   ...        0 min,  0.041 sec
 * total energy  :  -270.5018988 Eh     change       -0.1034487E-03 Eh
   gradient norm :     0.0036770 Eh/α   predicted    -0.7270068E-04 ( -29.72%)
   displ. norm   :     0.2623568 α      lambda       -0.1228664E-03
   maximum displ.:     0.1378766 α      in ANC's #13, #15, #16, ...

........................................................................
.............................. CYCLE   11 ..............................
........................................................................

 iter      E             dE          RMSdq      gap      omega  full diag
   1   -273.1878982 -0.273188E+03  0.260E-02    0.18       0.0  T
   2   -273.1876857  0.212516E-03  0.260E-02    0.15       1.0  T
   3   -273.1876233  0.624071E-04  0.275E-02    0.21       1.0  T
   4   -273.1878589 -0.235680E-03  0.108E-02    0.19       1.0  T
   5   -273.1878973 -0.383812E-04  0.539E-03    0.18       1.6  T
   6   -273.1879098 -0.125145E-04  0.190E-03    0.17       4.4  T
   7   -273.1879111 -0.131317E-05  0.660E-04    0.17      12.8  T
   8   -273.1879111  0.371028E-08  0.486E-04    0.17      17.4  T
   9   -273.1879112 -0.526977E-07  0.281E-04    0.17      30.1  T
     SCC iter.                  ...        0 min,  0.436 sec
     gradient                   ...        0 min,  0.041 sec
 * total energy  :  -270.5019904 Eh     change       -0.9158277E-04 Eh
   gradient norm :     0.0029052 Eh/α   predicted    -0.6566360E-04 ( -28.30%)
   displ. norm   :     0.2572258 α      lambda       -0.1039140E-03
   maximum displ.:     0.1273382 α      in ANC's #13, #16, #18, ...

........................................................................
.............................. CYCLE   12 ..............................
........................................................................

 iter      E             dE          RMSdq      gap      omega  full diag
   1   -273.1884139 -0.273188E+03  0.259E-02    0.18       0.0  T
   2   -273.1881737  0.240281E-03  0.274E-02    0.15       1.0  T
   3   -273.1881834 -0.974948E-05  0.256E-02    0.21       1.0  T
   4   -273.1883816 -0.198150E-03  0.103E-02    0.19       1.0  T
   5   -273.1884150 -0.334088E-04  0.530E-03    0.18       1.6  T
   6   -273.1884270 -0.120784E-04  0.191E-03    0.17       4.4  T
   7   -273.1884284 -0.133901E-05  0.688E-04    0.17      12.3  T
   8   -273.1884284 -0.509812E-08  0.470E-04    0.17      18.0  T
   9   -273.1884284 -0.517295E-07  0.267E-04    0.17      31.7  T
     SCC iter.                  ...        0 min,  0.355 sec
     gradient                   ...        0 min,  0.039 sec
 * total energy  :  -270.5020672 Eh     change       -0.7680996E-04 Eh
   gradient norm :     0.0027918 Eh/α   predicted    -0.5540280E-04 ( -27.87%)
   displ. norm   :     0.2470911 α      lambda       -0.8767196E-04
   maximum displ.:     0.1119975 α      in ANC's #13, #16, #6, ...

........................................................................
.............................. CYCLE   13 ..............................
........................................................................

 iter      E             dE          RMSdq      gap      omega  full diag
   1   -273.1888376 -0.273189E+03  0.249E-02    0.18       0.0  T
   2   -273.1886713  0.166315E-03  0.243E-02    0.15       1.0  T
   3   -273.1885966  0.747095E-04  0.254E-02    0.21       1.0  T
   4   -273.1888106 -0.213978E-03  0.934E-03    0.19       1.0  T
   5   -273.1888383 -0.277471E-04  0.465E-03    0.18       1.8  T
   6   -273.1888478 -0.944293E-05  0.159E-03    0.17       5.3  T
   7   -273.1888486 -0.850635E-06  0.655E-04    0.17      12.9  T
   8   -273.1888486 -0.273412E-07  0.401E-04    0.17      21.1  T
     SCC iter.                  ...        0 min,  0.368 sec
     gradient                   ...        0 min,  0.055 sec
 * total energy  :  -270.5021328 Eh     change       -0.6559980E-04 Eh
   gradient norm :     0.0029989 Eh/α   predicted    -0.4651453E-04 ( -29.09%)
   displ. norm   :     0.2503351 α      lambda       -0.8255972E-04
   maximum displ.:     0.0984865 α      in ANC's #13, #6, #5, ...

........................................................................
.............................. CYCLE   14 ..............................
........................................................................

 iter      E             dE          RMSdq      gap      omega  full diag
   1   -273.1891481 -0.273189E+03  0.247E-02    0.18       0.0  T
   2   -273.1890808  0.673715E-04  0.194E-02    0.16       1.0  T
   3   -273.1888076  0.273207E-03  0.284E-02    0.22       1.0  T
   4   -273.1891239 -0.316379E-03  0.829E-03    0.18       1.0  T
   5   -273.1891478 -0.238839E-04  0.358E-03    0.18       2.4  T
   6   -273.1891536 -0.579494E-05  0.102E-03    0.17       8.3  T
   7   -273.1891537 -0.113960E-06  0.698E-04    0.17      12.1  T
   8   -273.1891539 -0.121369E-06  0.299E-04    0.17      28.3  T
     SCC iter.                  ...        0 min,  0.334 sec
     gradient                   ...        0 min,  0.041 sec
 * total energy  :  -270.5021959 Eh     change       -0.6310894E-04 Eh
   gradient norm :     0.0030334 Eh/α   predicted    -0.4387151E-04 ( -30.48%)
   displ. norm   :     0.2769473 α      lambda       -0.8559259E-04
   maximum displ.:     0.0976101 α      in ANC's #6, #13, #5, ...

........................................................................
.............................. CYCLE   15 ..............................
........................................................................

 iter      E             dE          RMSdq      gap      omega  full diag
   1   -273.1890871 -0.273189E+03  0.262E-02    0.18       0.0  T
   2   -273.1890616  0.254283E-04  0.176E-02    0.16       1.0  T
   3   -273.1886772  0.384405E-03  0.303E-02    0.23       1.0  T
   4   -273.1890752 -0.397923E-03  0.603E-03    0.18       1.4  T
   5   -273.1890888 -0.136321E-04  0.198E-03    0.18       4.3  T
   6   -273.1890901 -0.131238E-05  0.988E-04    0.17       8.6  T
   7   -273.1890902 -0.136291E-06  0.663E-04    0.17      12.7  T
   8   -273.1890904 -0.112512E-06  0.259E-04    0.17      32.7  T
     SCC iter.                  ...        0 min,  0.312 sec
     gradient                   ...        0 min,  0.043 sec
 * total energy  :  -270.5022617 Eh     change       -0.6579709E-04 Eh
   gradient norm :     0.0028826 Eh/α   predicted    -0.4608385E-04 ( -29.96%)
   displ. norm   :     0.2782419 α      lambda       -0.8224652E-04
   maximum displ.:     0.1045556 α      in ANC's #6, #5, #11, ...

   *** FAILED TO CONVERGE GEOMETRY OPTIMIZATION IN 15 ITERATIONS ***


 ANCopt (total)                0 d,  0 h,  0 min,  6.411 sec
 optimizer setup                ...        0 min,  0.000 sec (  0.000%)
 model hessian                  ...        0 min,  0.089 sec (  1.388%)
 ANC generation                 ...        0 min,  0.021 sec (  0.328%)
 coordinate transformation      ...        0 min,  0.003 sec (  0.047%)
 single point calculation       ...        0 min,  6.258 sec ( 97.613%)
 optimization log               ...        0 min,  0.032 sec (  0.499%)
 hessian update                 ...        0 min,  0.002 sec (  0.031%)
 rational function              ...        0 min,  0.005 sec (  0.078%)

================
 final structure:
================
140
 xtb: 6.7.1pre (5071a88)
C           -8.26389817991362       -1.63445899117423       13.07147192008529
O           -6.92477264369497       -1.29537331498776       12.80364735579844
C           -5.98432506001793       -2.25362010345804       12.79573630835755
C           -6.26101561328807       -3.60057125542280       13.03857694581514
C           -5.25421983725288       -4.54826544347595       13.02355752213972
C           -3.95218264427800       -4.17275283592686       12.76684869082044
C           -3.64895253201824       -2.83799377812911       12.51452854668914
C           -2.24298811853668       -2.50356457461193       12.24127421386500
O           -1.37500369185282       -3.38885075420854       12.28907953226627
C           -1.93156479484910       -1.12825001449509       11.90993072600855
C           -0.60636796251726       -0.78338078788865       11.59121995052564
O            0.37590309697787       -1.67801666788408       11.63181249051857
C           -0.28953273132776        0.54833066387728       11.23634439193154
C           -1.25920761855318        1.52211147819753       11.28097418726446
C           -2.59481015175156        1.18879519749432       11.61777838693386
O           -3.48466188137009        2.18217686219876       11.62649459382807
C           -2.94035352930937       -0.13618597173149       11.91566020687417
C           -4.32962676920691       -0.45387766544347       12.24696970659057
O           -5.19109092870944        0.43278533657625       12.28343631292856
C           -4.65242609978196       -1.85824245592892       12.52159122364736
C           -0.97777915518705        2.96790019600830       11.00034242008667
C            0.50849164387471        3.32058667171378       11.10866696590181
O            0.76425262611295        4.61059440248536       10.57679911739008
C            0.97592952336975        3.27096657619924       12.56963549941407
O            0.49983344201532        2.49061353991788       13.35185402632029
C            2.13252056189130        4.18975988833610       12.94777676339748
O            1.83523376761675        5.55442104407643       12.86260809891183
C            1.31957951425472        2.27122430245695       10.33217238147310
C            1.14556168643777        0.85427137582074       10.88019379985442
O            1.60145770223002       -0.06368755403962        9.89750690016113
C            2.85148551220139       -0.64263881094410       10.16575792424469
C            3.08127557987318       -1.70114698298036        9.08425270448392
C            4.57331838164376       -1.97597693191578        8.90511022630884
N            5.11208701799304       -2.52102979752370       10.14510538747985
C            5.33757104569633       -0.65658144377301        8.56361313194270
O            6.58390696051719       -0.61781070950934        9.20655680847098
C            4.46869103839863        0.56822841404150        8.94586690618476
C            5.29355852279681        1.84434636046284        9.04490163884199
O            3.86583892994175        0.32612909218612       10.20982530009295
H           -8.37755548335178       -2.07127723493845       14.06880183853101
H           -8.81329390385205       -0.69529975654522       13.02644562754991
H           -8.66386397693043       -2.32297808697975       12.32026917955958
H           -7.27134756426544       -3.91732573123589       13.24236064822068
H           -5.49469533463910       -5.58332268128828       13.21444787591505
H           -3.14675057472921       -4.89006032030771       12.75223838071505
H           -0.03895752010255       -2.55024818076288       11.89247322731576
H           -4.36086101095137        1.77944014872769       11.89201953567029
H           -1.33330585286171        3.21017910901810        9.99257737263293
H           -1.55889073436704        3.57633043130020       11.69832780517221
H            0.53936911655183        4.60389756763949        9.63933978272073
H            2.98338434049540        3.92770991921570       12.29585523692331
H            2.40624096134005        3.99139717102248       13.98670635663617
H            1.47149383709670        5.72291871378425       11.98224961327301
H            0.97604262101255        2.26521790311539        9.29297881281235
H            2.38035370196755        2.52940052601957       10.34143043272402
H            1.74861406719588        0.72670079461485       11.79114859293420
H            2.84760314136231       -1.09291984954860       11.16900172978667
H            2.55397103586060       -2.60981142236319        9.37163401941450
H            2.64821763267783       -1.34309976192837        8.15033494164812
H            4.69560728076369       -2.67700444215721        8.06004877072623
H            6.05019755011754       -2.87538285543228        9.98940184963184
H            4.53217101960246       -3.28476365287986       10.47158112592877
H            5.55527309682049       -0.61590562205364        7.49186006773975
H            6.39425044986869       -0.69211555249642       10.15294656599156
H            3.68480456003467        0.70013184818031        8.18658692915956
H            6.04306176437209        1.74339936970776        9.82395603434594
H            4.64920930414969        2.68527076911093        9.28586497415543
H            5.79143926679518        2.03219755447594        8.09850029136307
B            3.47702176174734       -1.45044654341922        1.66342000536362
N            3.46785677461990        1.13121336114885        0.96932061535391
B            2.55054295828728        2.36167737044915       -1.23285060223954
N            2.29771556094907       -0.64623868917253       -2.69551872211967
B            0.71183681277878       -3.55377151118522        2.74991102977141
N           -2.92029985218072       -2.64965493407582        1.76255585746215
B           -1.02100261570104        4.09035734967727        1.86433979327100
N           -0.61759269505229        0.00938378678898       -3.89982725990695
B           -0.47228098616430        1.43630485972593       -4.05390308516703
N            1.21726885660661       -3.78819286834574       -1.69435934519056
B           -3.83339240252858        2.20829978170347       -0.44848555321553
N           -2.76325337955364        2.76037344133365       -1.17047568362701
B            1.40501266401965        0.80840815440057       -4.85437730716398
N           -0.21559057918917        3.37282382030967        2.86920853636501
B            0.90295479172810       -2.88513013108147       -2.77090257515194
N           -0.48258130028962        3.76428605656253       -0.97732279412981
B           -0.78514444912403        2.19207833507905        3.32027156925060
N            1.68419939565639       -1.26694974159285        3.55042991654450
B           -0.24287475633755        3.46513160936849       -2.34728406210127
N            1.33842180050863        0.07573668150974        3.86429161547293
B           -1.59418618090082       -0.56693737594421       -3.03996563083953
N           -3.81391142353745        1.77674636380659        0.87748779360258
B            0.35300527175772        4.49946404517857        1.21203003929829
N            0.06932474740928       -0.00438191767049        4.49335467714131
B           -2.69100190313493        2.23006015966273        1.64379795865354
N            3.78037207707920       -0.13298292582351       -0.73429655904482
B           -2.23841665993649       -3.63767041752786        1.06200594810469
N            1.07291342661788        3.73730212576071        2.26470726092872
B           -1.80253869181786       -0.77115982765314        3.26731936959856
N           -2.42471233457352       -3.60273057177344       -0.39660546650827
B            3.02635049422673       -1.07585490036540       -1.46921559616771
N           -3.14574181824110       -1.25316473265568       -0.33332943734284
B            2.04935208692020        2.92441880468509        1.59109345054255
N           -0.50198254120436       -2.90580544300642       -2.38642764867404
B           -1.66845350772291       -2.11906376482461       -2.44376701782629
N            0.60106176461406        3.96377493736139       -0.08037928552175
B            1.09454119290203        2.95306588685384       -3.15129742387165
N            0.09473955734740       -4.35158851719908        1.77090274235777
B           -1.77319616911682        3.45218138075164       -0.37195356494302
N           -1.99669442335151        3.42017504213519        1.06960838083346
B            1.48292362603397       -4.20749911351029        1.54519188529237
N           -0.77122134413930        1.07290553018231        4.23315315395419
B           -2.65730258005935       -2.40532279964981       -1.12349020289436
N           -1.05748837944221       -4.47934244297919        1.04405630686735
B           -2.49777069506672        0.48682520430703       -2.06447839087970
N            2.36545707950647       -3.88346282435123        0.49545167005141
B            3.92596573984646       -0.20030874913224        0.75588495474887
N            1.93563587980184        1.95307129769908       -2.43400457946276
B            1.00186669612132        2.24533825791403       -4.58982684673658
N           -4.17330047377655        0.82815873586824       -0.29699235980210
B           -1.33522653888925        2.44737961075732       -3.07746813031688
N           -2.35326234572783        1.92771511074847       -2.26418123003879
B            3.08715841447551       -2.64222953073415        0.63872082048293
N            2.34397064161935       -3.67334203598077       -0.92815351996055
B            2.24225684337281        0.55088291195016        2.84534513133181
N           -1.99961592584517        0.61947337424985        3.64413976280602
B           -1.08961555210612       -4.18484028157502       -0.38952805436317
N           -3.20781507646915        0.03950876546617       -0.91040116880884
B            3.45927801805593        1.25916692438505       -0.48549982838221
N            2.59808070140342        1.63510821989665        1.96811954014720
B            1.47521698170336       -1.56168657230022       -3.47668397067781
N           -2.08147482987549        1.76133104206577        2.80426809844052
B            2.04569587645267        0.70656417231154       -3.17885453765052
N           -2.69610254639702       -1.33688634042786        2.36917234432620
B            0.65853835919615       -0.54794679706043       -4.44779132646537
N           -0.15982586847037       -3.76190487436385       -1.30891184494844
B            0.51146021317922       -2.09781235794700        3.48128373402194
N           -0.55934433357693       -1.19492333625898        3.86894398923837
B           -3.20876396674008       -1.44887601366957        1.05161112127495
N            2.69498804498810       -0.84923517990905        2.66107662528577
B            1.88984193226622        3.33893591322264       -0.07820617754387
N            2.88665368006127       -2.33192559371725       -0.75609774126600
 
 Bond Distances (Angstroems)
 ---------------------------
C1-O2=1.4071         C1-H40=1.0947        C1-H41=1.0890        C1-H42=1.0947        O2-C1=1.4071         O2-C3=1.3427         
C3-O2=1.3427         C3-C4=1.3964         C3-C20=1.4161        C4-C3=1.3964         C4-C5=1.3827         C4-H43=1.0783        
C5-C4=1.3827         C5-C6=1.3792         C5-H44=1.0796        C6-C5=1.3792         C6-C7=1.3918         C6-H45=1.0786        
C7-C6=1.3918         C7-C8=1.4708         C7-C20=1.4025        C8-C7=1.4708         C8-O9=1.2407         C8-C10=1.4485        
O9-C8=1.2407         C10-C8=1.4485        C10-C11=1.4059       C10-C17=1.4149       C11-C10=1.4059       C11-O12=1.3292       
C11-C13=1.4141       O12-C11=1.3292       O12-H46=1.0004       C13-C11=1.4141       C13-C14=1.3750       C13-C29=1.5099       
C14-C13=1.3750       C14-C15=1.4172       C14-C21=1.4994       C15-C14=1.4172       C15-O16=1.3337       C15-C17=1.4013       
O16-C15=1.3337       O16-H47=1.0002       C17-C10=1.4149       C17-C15=1.4013       C17-C18=1.4631       C18-C17=1.4631       
C18-O19=1.2368       C18-C20=1.4669       O19-C18=1.2368       C20-C3=1.4161        C20-C7=1.4025        C20-C18=1.4669       
C21-C14=1.4994       C21-C22=1.5314       C21-H48=1.0958       C21-H49=1.0932       C22-C21=1.5314       C22-O23=1.4186       
C22-C24=1.5347       C22-C28=1.5369       O23-C22=1.4186       O23-H50=0.9641       C24-C22=1.5347       C24-O25=1.2031       
C24-C26=1.5248       O25-C24=1.2031       C26-C24=1.5248       C26-O27=1.3993       C26-H51=1.1035       C26-H52=1.0925       
O27-C26=1.3993       O27-H53=0.9673       C28-C22=1.5369       C28-C29=1.5292       C28-H54=1.0945       C28-H55=1.0918       
C29-C13=1.5099       C29-C28=1.5292       C29-O30=1.4199       C29-H56=1.0999       O30-C29=1.4199       O30-C31=1.4035       
C31-O30=1.4035       C31-C32=1.5307       C31-O39=1.4033       C31-H57=1.0997       C32-C31=1.5307       C32-C33=1.5277       
C32-H58=1.0892       C32-H59=1.0899       C33-C32=1.5277       C33-N34=1.4577       C33-C35=1.5625       C33-H60=1.1048       
N34-C33=1.4577       N34-H61=1.0148       N34-H62=1.0130       C35-C33=1.5625       C35-O36=1.4029       C35-C37=1.5496       
C35-H63=1.0944       O36-C35=1.4029       O36-H64=0.9681       C37-C35=1.5496       C37-C38=1.5227       C37-O39=1.4211       
C37-H65=1.0993       C38-C37=1.5227       C38-H66=1.0858       C38-H67=1.0865       C38-H68=1.0857       O39-C31=1.4033       
O39-C37=1.4211       H40-C1=1.0947        H41-C1=1.0890        H42-C1=1.0947        H43-C4=1.0783        H44-C5=1.0796        
H45-C6=1.0786        H46-O12=1.0004       H47-O16=1.0002       H48-C21=1.0958       H49-C21=1.0932       H50-O23=0.9641       
H51-C26=1.1035       H52-C26=1.0925       H53-O27=0.9673       H54-C28=1.0945       H55-C28=1.0918       H56-C29=1.0999       
H57-C31=1.0997       H58-C32=1.0892       H59-C32=1.0899       H60-C33=1.1048       H61-N34=1.0148       H62-N34=1.0130       
H63-C35=1.0944       H64-O36=0.9681       H65-C37=1.0993       H66-C38=1.0858       H67-C38=1.0865       H68-C38=1.0857       
B69-B115=1.6087      B69-B121=1.6194      B69-N138=1.4030      N70-B115=1.4242      N70-B127=1.4605      N70-N128=1.4170      
B71-N116=1.4099      B71-B127=1.6124      B71-B139=1.6507      N72-B99=1.4897       N72-B129=1.4577      N72-B131=1.4585      
B73-N106=1.4056      B73-B109=1.5727      B73-B135=1.6416      N74-B95=1.3899       N74-N132=1.4634      N74-B137=1.4250      
B75-N82=1.4742       B75-B91=1.5750       B75-N108=1.4257      N76-B77=1.4426       N76-B89=1.4231       N76-B133=1.4965      
B77-N76=1.4426       B77-B81=2.1352       B77-B117=1.7649      B77-B119=1.6494      N78-B83=1.4399       N78-N122=1.3674      
N78-N134=1.4303      B79-N80=1.4040       B79-N90=1.3946       B79-N118=1.4294      N80-B79=1.4040       N80-B107=1.4479      
N80-N120=1.4344      B81-B77=2.1352       B81-B117=1.5157      B81-B131=1.7967      B81-B133=1.6007      N82-B75=1.4742       
N82-B85=1.3864       N82-N96=1.4692       B83-N78=1.4399       B83-N102=1.4567      B83-B129=1.6053      B83-N134=2.0089      
N84-B87=1.4226       N84-N104=1.4208      N84-B107=1.4593      B85-N82=1.3864       B85-N110=1.4443      B85-N124=2.0132      
B85-N130=1.4602      N86-N88=1.4216       N86-B135=1.4389      N86-N138=1.4097      B87-N84=1.4226       B87-B105=1.6424      
B87-B119=1.6620      N88-N86=1.4216       N88-N92=1.4187       N88-B123=1.4425      B89-N76=1.4231       B89-B103=1.6644      
B89-B113=1.6966      N90-B79=1.3946       N90-B93=1.4331       N90-N118=1.5519      B91-B75=1.5750       B91-N96=1.4857       
B91-N104=1.4209      N92-N88=1.4187       N92-N110=1.3910      N92-N136=1.4841      B93-N90=1.4331       B93-N108=1.4927      
B93-N130=1.3921      N94-B99=1.4134       N94-B115=1.4988      N94-B127=1.4502      B95-N74=1.3899       B95-N98=1.4709       
B95-N112=1.4503      B95-B125=1.9303      N96-N82=1.4692       N96-B91=1.4857       N96-B101=1.4380      B97-N124=1.4542      
B97-N132=1.3875      B97-N136=1.4447      N98-B95=1.4709       N98-B111=1.4199      N98-B125=1.4565      B99-N72=1.4897       
B99-N94=1.4134       B99-N140=1.4511      N100-B111=1.4800     N100-N126=1.4170     N100-B137=1.4001     B101-N96=1.4380      
B101-N128=1.4511     B101-B139=1.7274     N102-B83=1.4567      N102-B103=1.4082     N102-N134=1.4181     B103-B89=1.6644      
B103-N102=1.4082     B103-B111=1.6742     N104-N84=1.4208      N104-B91=1.4209      N104-B139=1.4323     B105-B87=1.6424      
B105-N116=1.4906     B105-B117=1.6059     N106-B73=1.4056      N106-B109=1.4138     N106-N112=1.3683     B107-N80=1.4479      
B107-N84=1.4593      B107-N108=1.4591     N108-B75=1.4257      N108-B93=1.4927      N108-B107=1.4591     B109-B73=1.5727      
B109-N106=1.4138     B109-N114=1.4092     N110-B85=1.4443      N110-N92=1.3910      N110-N124=1.4358     B111-N98=1.4199      
B111-N100=1.4800     B111-B103=1.6742     N112-B95=1.4503      N112-N106=1.3683     N112-B125=1.4639     B113-B89=1.6966      
B113-N120=1.4618     B113-N126=1.4269     N114-B109=1.4092     N114-B121=1.4429     N114-N122=1.4392     B115-B69=1.6087      
B115-N70=1.4242      B115-N94=1.4988      B115-B127=1.9720     N116-B71=1.4099      N116-B105=1.4906     N116-B131=1.4563     
B117-B77=1.7649      B117-B81=1.5157      B117-B105=1.6059     N118-B79=1.4294      N118-N90=1.5519      N118-N126=1.3894     
B119-B77=1.6494      B119-B87=1.6620      B119-N120=1.4028     N120-N80=1.4344      N120-B113=1.4618     N120-B119=1.4028     
B121-B69=1.6194      B121-N114=1.4429     B121-N140=1.4429     N122-N78=1.3674      N122-N114=1.4392     N122-N140=1.4572     
B123-N88=1.4425      B123-N128=1.4393     B123-N138=1.4830     N124-B85=2.0132      N124-B97=1.4542      N124-N110=1.4358     
N124-N130=1.4198     B125-B95=1.9303      B125-N98=1.4565      B125-N112=1.4639     B125-N134=1.3743     N126-N100=1.4170     
N126-B113=1.4269     N126-N118=1.3894     B127-N70=1.4605      B127-B71=1.6124      B127-N94=1.4502      B127-B115=1.9720     
N128-N70=1.4170      N128-B101=1.4511     N128-B123=1.4393     B129-N72=1.4577      B129-B83=1.6053      B129-B133=1.6241     
N130-B85=1.4602      N130-B93=1.3921      N130-N124=1.4198     B131-N72=1.4585      B131-B81=1.7967      B131-N116=1.4563     
N132-N74=1.4634      N132-B97=1.3875      N132-B137=1.4182     B133-N76=1.4965      B133-B81=1.6007      B133-B129=1.6241     
N134-N78=1.4303      N134-B83=2.0089      N134-N102=1.4181     N134-B125=1.3743     B135-B73=1.6416      B135-N86=1.4389      
B135-N136=1.4533     N136-N92=1.4841      N136-B97=1.4447      N136-B135=1.4533     B137-N74=1.4250      B137-N100=1.4001     
B137-N132=1.4182     N138-B69=1.4030      N138-N86=1.4097      N138-B123=1.4830     B139-B71=1.6507      B139-B101=1.7274     
B139-N104=1.4323     N140-B99=1.4511      N140-B121=1.4429     N140-N122=1.4572     
 B  B  Rav=1.6895 sigma=0.1392  Rmin=1.5157  Rmax=2.1352    24
 C  H  Rav=1.0919 sigma=0.0073  Rmin=1.0783  Rmax=1.1048    22
 C  C  Rav=1.4645 sigma=0.0619  Rmin=1.3750  Rmax=1.5625    28
 N  H  Rav=1.0139 sigma=0.0009  Rmin=1.0130  Rmax=1.0148     2
 N  B  Rav=1.4560 sigma=0.1009  Rmin=1.3743  Rmax=2.0132    68
 N  C  Rav=1.4577 sigma=0.0000  Rmin=1.4577  Rmax=1.4577     1
 N  N  Rav=1.4297 sigma=0.0399  Rmin=1.3674  Rmax=1.5519    21
 O  H  Rav=0.9800 sigma=0.0166  Rmin=0.9641  Rmax=1.0004     5
 O  C  Rav=1.3544 sigma=0.0735  Rmin=1.2031  Rmax=1.4211    14
 
 selected bond angles (degree)
 --------------------
H40-C1-O2=111.62               H41-C1-O2=105.33               H41-C1-H40=109.23              H42-C1-O2=111.63               
H42-C1-H40=109.65              H42-C1-H41=109.25              C3-O2-C1=119.72                C4-C3-O2=123.27                
C20-C3-O2=117.43               C20-C3-C4=119.30               C5-C4-C3=120.99                H43-C4-C3=120.13               
H43-C4-C5=118.88               C6-C5-C4=120.18                H44-C5-C4=119.54               H44-C5-C6=120.28               
C7-C6-C5=120.03                H45-C6-C5=121.76               H45-C6-C7=118.20               C8-C7-C6=117.39                
C20-C7-C6=120.87               C20-C7-C8=121.74               O9-C8-C7=119.96                C10-C8-C7=117.64               
C10-C8-O9=122.40               C11-C10-C8=119.17              C17-C10-C8=120.76              C17-C10-C11=120.06             
 
 selected dihedral angles (degree)
 ---------------------------------
C3-O2-C1-H40= 61.17           C3-O2-C1-H41=179.60           C3-O2-C1-H42=298.06           C4-C3-O2-C1=  0.23            
C20-C3-O2-C1=180.04           C5-C4-C3-O2=180.24            C5-C4-C3-C20=  0.43           H43-C4-C3-O2=  0.21           
H43-C4-C3-C20=180.40          C6-C5-C4-C3=  0.02            C6-C5-C4-H43=180.05           H44-C5-C4-C3=180.00           
H44-C5-C4-H43=  0.03          C7-C6-C5-C4=359.64            C7-C6-C5-H44=179.66           H45-C6-C5-C4=179.79           
H45-C6-C5-H44=359.81          C8-C7-C6-C5=180.30            C8-C7-C6-H45=  0.16           C20-C7-C6-C5=  0.24           
C20-C7-C6-H45=180.10          O9-C8-C7-C6=357.43            O9-C8-C7-C20=177.50           C10-C8-C7-C6=176.88           
C10-C8-C7-C20=356.94          C11-C10-C8-C7=182.49          C11-C10-C8-O9=  1.92          C17-C10-C8-C7=  3.02          
C17-C10-C8-O9=182.45          
 
 CMA Distance (Angstroems)
 ---------------------------
R(CMA): 11.2530
           -------------------------------------------------
          |                Final Singlepoint                |
           -------------------------------------------------

          ...................................................
          :                      SETUP                      :
          :.................................................:
          :  # basis functions                 473          :
          :  # atomic orbitals                 473          :
          :  # shells                          251          :
          :  # electrons                       496          :
          :  max. iterations                   500          :
          :  Hamiltonian                  GFN2-xTB          :
          :  restarted?                      false          :
          :  GBSA solvation                  false          :
          :  PC potential                    false          :
          :  electronic temp.          300.0000000     K    :
          :  accuracy                    1.0000000          :
          :  -> integral cutoff          0.2500000E+02      :
          :  -> integral neglect         0.1000000E-07      :
          :  -> SCF convergence          0.1000000E-05 Eh   :
          :  -> wf. convergence          0.1000000E-03 e    :
          :  Broyden damping             0.4000000          :
          :  net charge                          0          :
          :  unpaired electrons                  0          :
          ...................................................

 iter      E             dE          RMSdq      gap      omega  full diag
   1   -273.1890417 -0.273189E+03  0.250E-02    0.17       0.0  T
   2   -273.1890396  0.217156E-05  0.152E-02    0.17       1.0  T
   3   -273.1888676  0.171982E-03  0.194E-02    0.20       1.0  T
   4   -273.1890412 -0.173657E-03  0.265E-03    0.17       3.2  T
   5   -273.1890430 -0.177186E-05  0.116E-03    0.17       7.3  T
   6   -273.1890433 -0.323965E-06  0.607E-04    0.17      13.9  T
   7   -273.1890434 -0.265111E-07  0.448E-04    0.17      18.9  T

   *** convergence criteria satisfied after 7 iterations ***

         #    Occupation            Energy/Eh            Energy/eV
      -------------------------------------------------------------
         1        2.0000           -0.7233552             -19.6835
       ...           ...                  ...                  ...
       242        2.0000           -0.3348661              -9.1122
       243        2.0000           -0.3326597              -9.0521
       244        2.0000           -0.3313098              -9.0154
       245        2.0000           -0.3283985              -8.9362
       246        1.9997           -0.3230835              -8.7916
       247        1.9969           -0.3207840              -8.7290
       248        1.9330           -0.3178193              -8.6483 (HOMO)
       249        0.0704           -0.3114794              -8.4758 (LUMO)
       250                         -0.2906677              -7.9095
       251                         -0.2831458              -7.7048
       252                         -0.2716708              -7.3925
       253                         -0.2643448              -7.1932
       ...                                ...                  ...
       473                          0.9766348              26.5756
      -------------------------------------------------------------
                  HL-Gap            0.0063399 Eh            0.1725 eV
             Fermi-level           -0.3146255 Eh           -8.5614 eV

 SCC (total)                   0 d,  0 h,  0 min,  0.349 sec
 SCC setup                      ...        0 min,  0.001 sec (  0.287%)
 Dispersion                     ...        0 min,  0.002 sec (  0.573%)
 classical contributions        ...        0 min,  0.000 sec (  0.000%)
 integral evaluation            ...        0 min,  0.013 sec (  3.725%)
 iterations                     ...        0 min,  0.280 sec ( 80.229%)
 molecular gradient             ...        0 min,  0.049 sec ( 14.040%)
 printout                       ...        0 min,  0.004 sec (  1.146%)

         :::::::::::::::::::::::::::::::::::::::::::::::::::::
         ::                     SUMMARY                     ::
         :::::::::::::::::::::::::::::::::::::::::::::::::::::
         :: total energy            -270.502326015080 Eh    ::
         :: gradient norm              0.002701904269 Eh/a0 ::
         :: HOMO-LUMO gap              0.172518628263 eV    ::
         ::.................................................::
         :: SCC energy              -273.173388396886 Eh    ::
         :: -> isotropic ES            0.869053454612 Eh    ::
         :: -> anisotropic ES         -0.028195114345 Eh    ::
         :: -> anisotropic XC          0.070854362785 Eh    ::
         :: -> dispersion             -0.226615288618 Eh    ::
         :: repulsion energy           2.671062381806 Eh    ::
         :: add. restraining           0.000000000000 Eh    ::
         :: total charge              -0.000000000000 e     ::
         :::::::::::::::::::::::::::::::::::::::::::::::::::::

           -------------------------------------------------
          |                Property Printout                |
           -------------------------------------------------

    * Orbital Energies and Occupations

         #    Occupation            Energy/Eh            Energy/eV
      -------------------------------------------------------------
         1        2.0000           -0.7233552             -19.6835
       ...           ...                  ...                  ...
       236        2.0000           -0.3478237              -9.4648
       237        2.0000           -0.3466448              -9.4327
       238        2.0000           -0.3422718              -9.3137
       239        2.0000           -0.3400808              -9.2541
       240        2.0000           -0.3385308              -9.2119
       241        2.0000           -0.3364345              -9.1548
       242        2.0000           -0.3348661              -9.1122
       243        2.0000           -0.3326597              -9.0521
       244        2.0000           -0.3313098              -9.0154
       245        2.0000           -0.3283985              -8.9362
       246        1.9997           -0.3230835              -8.7916
       247        1.9969           -0.3207840              -8.7290
       248        1.9330           -0.3178193              -8.6483 (HOMO)
       249        0.0704           -0.3114794              -8.4758 (LUMO)
       250                         -0.2906677              -7.9095
       251                         -0.2831458              -7.7048
       252                         -0.2716708              -7.3925
       253                         -0.2643448              -7.1932
       254                         -0.2600066              -7.0751
       255                         -0.2574640              -7.0060
       256                         -0.2529542              -6.8832
       257                         -0.2425781              -6.6009
       258                         -0.2386971              -6.4953
       259                         -0.2367675              -6.4428
       ...                                ...                  ...
       473                          0.9766348              26.5756
      -------------------------------------------------------------
                  HL-Gap            0.0063399 Eh            0.1725 eV
             Fermi-level           -0.3146255 Eh           -8.5614 eV

     #   Z          covCN         q      C6AA      α(0)
     1   6 C        3.645     0.029    20.422     6.495
     2   8 O        1.706    -0.220    17.649     5.672
     3   6 C        2.865     0.160    24.540     8.120
     4   6 C        2.916    -0.065    29.617     8.924
     5   6 C        2.916    -0.025    28.620     8.773
     6   6 C        2.924    -0.031    28.768     8.796
     7   6 C        2.977    -0.011    28.289     8.724
     8   6 C        2.837     0.217    23.422     7.931
     9   8 O        0.859    -0.429    22.264     6.326
    10   6 C        2.969    -0.066    29.635     8.929
    11   6 C        2.848     0.165    24.439     8.102
    12   8 O        1.655    -0.378    20.437     6.103
    13   6 C        2.965    -0.015    28.391     8.740
    14   6 C        2.966     0.003    27.954     8.672
    15   6 C        2.849     0.154    24.651     8.137
    16   8 O        1.655    -0.384    20.546     6.119
    17   6 C        2.967    -0.063    29.574     8.920
    18   6 C        2.830     0.221    23.354     7.919
    19   8 O        0.859    -0.410    21.874     6.271
    20   6 C        2.970    -0.036    28.892     8.817
    21   6 C        3.815    -0.069    21.817     6.648
    22   6 C        3.777     0.124    18.589     6.143
    23   8 O        1.655    -0.452    21.890     6.316
    24   6 C        2.814     0.217    23.414     7.928
    25   8 O        0.857    -0.332    20.376     6.052
    26   6 C        3.674     0.060    19.795     6.375
    27   8 O        1.656    -0.432    21.470     6.255
    28   6 C        3.811    -0.079    21.999     6.676
    29   6 C        3.753     0.125    18.602     6.150
    30   8 O        1.702    -0.322    19.382     5.944
    31   6 C        3.651     0.244    17.094     5.938
    32   6 C        3.806    -0.085    22.116     6.695
    33   6 C        3.780     0.048    19.794     6.338
    34   7 N        2.633    -0.349    28.978     7.995
    35   6 C        3.725     0.091    19.176     6.253
    36   8 O        1.656    -0.439    21.626     6.278
    37   6 C        3.750     0.103    18.943     6.207
    38   6 C        3.753    -0.115    22.754     6.802
    39   8 O        1.701    -0.335    19.623     5.981
    40   1 H        0.924     0.046     2.371     2.408
    41   1 H        0.925     0.075     2.035     2.231
    42   1 H        0.924     0.046     2.377     2.411
    43   1 H        0.926     0.046     2.372     2.409
    44   1 H        0.926     0.047     2.361     2.403
    45   1 H        0.926     0.070     2.085     2.258
    46   1 H        0.800     0.360     0.566     1.182
    47   1 H        0.800     0.360     0.566     1.182
    48   1 H        0.924     0.064     2.150     2.293
    49   1 H        0.924     0.086     1.922     2.168
    50   1 H        0.805     0.301     0.718     1.331
    51   1 H        0.923     0.046     2.365     2.405
    52   1 H        0.924     0.074     2.041     2.234
    53   1 H        0.805     0.319     0.667     1.282
    54   1 H        0.924     0.061     2.190     2.314
    55   1 H        0.924     0.057     2.230     2.335
    56   1 H        0.923     0.048     2.344     2.394
    57   1 H        0.923     0.044     2.394     2.420
    58   1 H        0.925     0.056     2.245     2.343
    59   1 H        0.925     0.059     2.210     2.325
    60   1 H        0.922     0.008     2.921     2.673
    61   1 H        0.860     0.154     1.375     1.837
    62   1 H        0.860     0.144     1.443     1.881
    63   1 H        0.924     0.036     2.500     2.473
    64   1 H        0.805     0.315     0.677     1.292
    65   1 H        0.923     0.024     2.677     2.559
    66   1 H        0.925     0.067     2.118     2.276
    67   1 H        0.925     0.047     2.364     2.404
    68   1 H        0.925     0.051     2.302     2.373
    69   5 B        2.781     0.077    20.176     7.510
    70   7 N        2.776    -0.226    25.942     7.565
    71   5 B        2.788     0.092    19.931     7.463
    72   7 N        2.524    -0.313    28.086     7.870
    73   5 B        2.779     0.083    20.083     7.493
    74   7 N        2.655    -0.268    26.928     7.707
    75   5 B        2.849     0.242    17.659     7.017
    76   7 N        2.529    -0.271    27.048     7.724
    77   5 B        3.196     0.151    18.918     7.254
    78   7 N        2.980    -0.108    23.365     7.179
    79   5 B        2.644     0.373    16.321     6.813
    80   7 N        2.669    -0.211    25.589     7.513
    81   5 B        3.183     0.024    20.967     7.637
    82   7 N        2.885    -0.222    25.836     7.549
    83   5 B        3.009     0.209    18.074     7.092
    84   7 N        2.660    -0.162    24.502     7.352
    85   5 B        2.908     0.319    16.622     6.804
    86   7 N        3.156    -0.082    22.819     7.095
    87   5 B        2.779     0.094    19.902     7.459
    88   7 N        3.036    -0.126    23.735     7.236
    89   5 B        2.758     0.090    20.001     7.483
    90   7 N        2.634    -0.307    27.911     7.846
    91   5 B        3.038     0.227    17.822     7.042
    92   7 N        2.984     0.004    21.187     6.836
    93   5 B        2.581     0.325    17.314     7.089
    94   7 N        2.597    -0.357    29.218     8.028
    95   5 B        3.285     0.339    16.342     6.742
    96   7 N        2.784    -0.252    26.533     7.650
    97   5 B        2.560     0.319    17.605     7.186
    98   7 N        2.579    -0.366    29.461     8.061
    99   5 B        2.530     0.301    18.231     7.378
   100   7 N        2.665    -0.203    25.427     7.489
   101   5 B        2.697     0.196    18.506     7.220
   102   7 N        2.844    -0.166    24.582     7.364
   103   5 B        2.758     0.082    20.124     7.506
   104   7 N        2.672    -0.172    24.735     7.386
   105   5 B        2.877     0.111    19.565     7.383
   106   7 N        2.663    -0.142    24.074     7.287
   107   5 B        2.594     0.311    17.396     7.087
   108   7 N        2.519    -0.353    29.123     8.014
   109   5 B        2.684     0.184    18.721     7.269
   110   7 N        3.009    -0.127    23.757     7.239
   111   5 B        2.677     0.210    18.360     7.202
   112   7 N        2.716    -0.247    26.417     7.634
   113   5 B        2.647     0.164    19.169     7.381
   114   7 N        2.826    -0.204    25.431     7.490
   115   5 B        3.321     0.230    17.775     7.030
   116   7 N        2.531    -0.284    27.367     7.769
   117   5 B        2.949     0.038    20.743     7.599
   118   7 N        2.784    -0.183    24.957     7.420
   119   5 B        2.796     0.085    20.032     7.480
   120   7 N        2.673    -0.154    24.340     7.327
   121   5 B        3.022     0.210    18.059     7.088
   122   7 N        3.273     0.017    20.949     6.798
   123   5 B        2.869     0.305    16.805     6.843
   124   7 N        3.157    -0.112    23.440     7.191
   125   5 B        3.262     0.320    16.589     6.792
   126   7 N        2.833    -0.060    22.401     7.029
   127   5 B        3.303     0.231    17.762     7.028
   128   7 N        2.656    -0.181    24.921     7.414
   129   5 B        2.837     0.113    19.557     7.385
   130   7 N        2.835    -0.223    25.860     7.553
   131   5 B        2.862     0.252    17.507     6.985
   132   7 N        2.654    -0.228    25.992     7.572
   133   5 B        3.010     0.115    19.469     7.360
   134   7 N        3.153    -0.085    22.884     7.105
   135   5 B        2.674     0.203    18.481     7.228
   136   7 N        2.697    -0.228    25.977     7.570
   137   5 B        2.584     0.369    16.731     6.964
   138   7 N        2.880    -0.180    24.878     7.408
   139   5 B        2.825     0.107    19.659     7.406
   140   7 N        2.829    -0.251    26.518     7.648

 Mol. C6AA /au·bohr⁶  :     314258.284112
 Mol. C8AA /au·bohr⁸  :    8485220.408681
 Mol. α(0) /au        :        870.180449


Wiberg/Mayer (AO) data.
largest (>0.10) Wiberg bond orders for each atom

 ---------------------------------------------------------------------------
     #   Z sym  total        # sym  WBO       # sym  WBO       # sym  WBO
 ---------------------------------------------------------------------------
     1   6 C    3.941 --     2 O    0.979    41 H    0.978    42 H    0.975
                            40 H    0.975
     2   8 O    2.307 --     3 C    1.121     1 C    0.979
     3   6 C    3.935 --     4 C    1.351    20 C    1.285     2 O    1.121
     4   6 C    3.973 --     5 C    1.441     3 C    1.351    43 H    0.964
     5   6 C    3.980 --     4 C    1.441     6 C    1.434    44 H    0.969
     6   6 C    3.978 --     5 C    1.434     7 C    1.386    45 H    0.963
     7   6 C    3.981 --     6 C    1.386    20 C    1.328     8 C    1.049
     8   6 C    3.926 --     9 O    1.621    10 C    1.127     7 C    1.049
     9   8 O    2.028 --     8 C    1.621
    10   6 C    3.978 --    11 C    1.308    17 C    1.252     8 C    1.127
    11   6 C    3.942 --    10 C    1.308    13 C    1.254    12 O    1.183
    12   8 O    2.187 --    11 C    1.183    46 H    0.761
    13   6 C    3.977 --    14 C    1.479    11 C    1.254    29 C    0.988
    14   6 C    3.975 --    13 C    1.479    15 C    1.242    21 C    1.017
    15   6 C    3.943 --    17 C    1.334    14 C    1.242    16 O    1.172
    16   8 O    2.174 --    15 C    1.172    47 H    0.762
    17   6 C    3.978 --    15 C    1.334    10 C    1.252    18 C    1.096
    18   6 C    3.933 --    19 O    1.638    17 C    1.096    20 C    1.074
    19   8 O    2.050 --    18 C    1.638
    20   6 C    3.978 --     7 C    1.328     3 C    1.285    18 C    1.074
    21   6 C    3.990 --    14 C    1.017    22 C    0.971    49 H    0.957
                            48 H    0.949
    22   6 C    3.949 --    23 O    0.974    21 C    0.971    28 C    0.951
                            24 C    0.946
    23   8 O    1.972 --    22 C    0.974    50 H    0.886
    24   6 C    3.908 --    25 O    1.893    26 C    0.963    22 C    0.946
    25   8 O    2.094 --    24 C    1.893
    26   6 C    3.964 --    27 O    1.014    52 H    0.968    24 C    0.963
                            51 H    0.942
    27   8 O    1.966 --    26 C    1.014    53 H    0.864
    28   6 C    3.991 --    29 C    0.986    55 H    0.970    54 H    0.966
                            22 C    0.951
    29   6 C    3.953 --    13 C    0.988    28 C    0.986    30 O    0.964
                            56 H    0.943
    30   8 O    2.092 --    31 C    0.970    29 C    0.964
    31   6 C    3.927 --    32 C    0.980    39 O    0.977    30 O    0.970
                            57 H    0.947
    32   6 C    3.993 --    33 C    0.998    31 C    0.980    58 H    0.973
                            59 H    0.970
    33   6 C    3.987 --    34 N    1.020    32 C    0.998    60 H    0.963
                            35 C    0.955
    34   7 N    3.009 --    33 C    1.020    62 H    0.962    61 H    0.960
    35   6 C    3.964 --    36 O    1.012    63 H    0.967    37 C    0.959
                            33 C    0.955
    36   8 O    1.974 --    35 C    1.012    64 H    0.876
    37   6 C    3.949 --    38 C    1.006    65 H    0.962    39 O    0.961
                            35 C    0.959
    38   6 C    3.992 --    37 C    1.006    68 H    0.984    67 H    0.984
                            66 H    0.982
    39   8 O    2.087 --    31 C    0.977    37 C    0.961
    40   1 H    0.998 --     1 C    0.975
    41   1 H    0.994 --     1 C    0.978
    42   1 H    0.998 --     1 C    0.975
    43   1 H    0.997 --     4 C    0.964
    44   1 H    0.997 --     5 C    0.969
    45   1 H    0.995 --     6 C    0.963
    46   1 H    0.870 --    12 O    0.761
    47   1 H    0.870 --    16 O    0.762
    48   1 H    0.992 --    21 C    0.949
    49   1 H    0.991 --    21 C    0.957
    50   1 H    0.909 --    23 O    0.886
    51   1 H    0.998 --    26 C    0.942
    52   1 H    0.994 --    26 C    0.968
    53   1 H    0.898 --    27 O    0.864
    54   1 H    0.996 --    28 C    0.966
    55   1 H    0.996 --    28 C    0.970
    56   1 H    0.995 --    29 C    0.943
    57   1 H    0.998 --    31 C    0.947
    58   1 H    0.997 --    32 C    0.973
    59   1 H    0.996 --    32 C    0.970
    60   1 H    0.999 --    33 C    0.963
    61   1 H    0.976 --    34 N    0.960
    62   1 H    0.979 --    34 N    0.962
    63   1 H    0.999 --    35 C    0.967
    64   1 H    0.901 --    36 O    0.876
    65   1 H    0.999 --    37 C    0.962
    66   1 H    0.995 --    38 C    0.982
    67   1 H    0.998 --    38 C    0.984
    68   1 H    0.997 --    38 C    0.984
    69   5 B    3.473 --   138 N    1.278   121 B    1.001   115 B    0.969
    70   7 N    3.397 --   115 B    1.143   128 N    1.008   127 B    0.998
    71   5 B    3.466 --   116 N    1.277   139 B    0.978   127 B    0.959
    72   7 N    3.531 --   131 B    1.152   129 B    1.150    99 B    1.019
    73   5 B    3.465 --   106 N    1.242   135 B    0.996   109 B    0.990
    74   7 N    3.266 --    95 B    1.199   137 B    0.969   132 N    0.889
    75   5 B    3.406 --   108 N    1.180    82 N    1.028    91 B    0.964
    76   7 N    3.569 --    89 B    1.276    77 B    1.159   133 B    0.973
    77   5 B    3.392 --    76 N    1.159   119 B    0.932   117 B    0.638
                            81 B    0.294
    78   7 N    3.324 --    83 B    1.113   122 N    1.043   134 N    0.945
    79   5 B    3.432 --    80 N    1.187    90 N    1.125   118 N    0.962
    80   7 N    3.448 --    79 B    1.187   107 B    1.088   120 N    0.967
    81   5 B    3.454 --   117 B    1.284   133 B    1.002   131 B    0.627
                            77 B    0.294
    82   7 N    3.424 --    85 B    1.236    75 B    1.028    96 N    0.930
    83   5 B    3.390 --    78 N    1.113   102 N    1.039   129 B    1.005
    84   7 N    3.511 --    87 B    1.205   107 B    1.124   104 N    0.999
    85   5 B    3.513 --    82 N    1.236   110 N    1.066   130 N    1.004
    86   7 N    3.339 --   135 B    1.137   138 N    0.989    88 N    0.984
    87   5 B    3.413 --    84 N    1.205   105 B    1.008   119 B    0.927
    88   7 N    3.312 --   123 B    1.124    86 N    0.984    92 N    0.974
    89   5 B    3.463 --    76 N    1.276   103 B    0.978   113 B    0.932
    90   7 N    3.221 --    79 B    1.125    93 B    1.071   118 N    0.794
    91   5 B    3.368 --   104 N    1.155    96 N    0.988    75 B    0.964
    92   7 N    3.097 --   110 N    1.013    88 N    0.974   136 N    0.941
    93   5 B    3.510 --   130 N    1.242    90 N    1.071   108 N    0.990
    94   7 N    3.435 --    99 B    1.200   127 B    1.063   115 B    0.927
    95   5 B    3.481 --    74 N    1.199   112 N    1.042    98 N    0.982
    96   7 N    3.280 --   101 B    1.172    91 B    0.988    82 N    0.930
    97   5 B    3.524 --   132 N    1.216   136 N    1.115   124 N    1.034
    98   7 N    3.432 --   111 B    1.221   125 B    0.993    95 B    0.982
    99   5 B    3.519 --    94 N    1.200   140 N    1.099    72 N    1.019
   100   7 N    3.443 --   137 B    1.263   111 B    0.996   126 N    0.990
   101   5 B    3.443 --    96 N    1.172   128 N    1.120   139 B    0.922
   102   7 N    3.470 --   103 B    1.260    83 B    1.039   134 N    0.984
   103   5 B    3.421 --   102 N    1.260    89 B    0.978   111 B    0.959
   104   7 N    3.513 --   139 B    1.170    91 B    1.155    84 N    0.999
   105   5 B    3.347 --   117 B    1.008    87 B    1.008   116 N    0.964
   106   7 N    3.511 --    73 B    1.242   109 B    1.092   112 N    1.037
   107   5 B    3.516 --    84 N    1.124   108 N    1.102    80 N    1.088
   108   7 N    3.478 --    75 B    1.180   107 B    1.102    93 B    0.990
   109   5 B    3.464 --   114 N    1.179   106 N    1.092    73 B    0.990
   110   7 N    3.255 --    85 B    1.066    92 N    1.013   124 N    0.976
   111   5 B    3.391 --    98 N    1.221   100 N    0.996   103 B    0.959
   112   7 N    3.374 --    95 B    1.042   106 N    1.037   125 B    0.985
   113   5 B    3.454 --   126 N    1.191   120 N    1.079    89 B    0.932
   114   7 N    3.408 --   109 B    1.179   121 B    1.073   122 N    0.960
   115   5 B    3.364 --    70 N    1.143    69 B    0.969    94 N    0.927
                           127 B    0.127
   116   7 N    3.562 --    71 B    1.277   131 B    1.105   105 B    0.964
   117   5 B    3.365 --    81 B    1.284   105 B    1.008    77 B    0.638
                           131 B    0.187
   118   7 N    2.988 --   126 N    1.045    79 B    0.962    90 N    0.794
   119   5 B    3.455 --   120 N    1.266    77 B    0.932    87 B    0.927
   120   7 N    3.481 --   119 B    1.266   113 B    1.079    80 N    0.967
   121   5 B    3.445 --   140 N    1.131   114 N    1.073    69 B    1.001
   122   7 N    3.188 --    78 N    1.043   114 N    0.960   140 N    0.951
   123   5 B    3.519 --   128 N    1.168    88 N    1.124   138 N    0.999
   124   7 N    3.216 --    97 B    1.034   130 N    0.984   110 N    0.976
   125   5 B    3.508 --   134 N    1.266    98 N    0.993   112 N    0.985
   126   7 N    3.440 --   113 B    1.191   118 N    1.045   100 N    0.990
   127   5 B    3.326 --    94 N    1.063    70 N    0.998    71 B    0.959
                           115 B    0.127
   128   7 N    3.490 --   123 B    1.168   101 B    1.120    70 N    1.008
   129   5 B    3.384 --    72 N    1.150    83 B    1.005   133 B    1.002
   130   7 N    3.445 --    93 B    1.242    85 B    1.004   124 N    0.984
   131   5 B    3.444 --    72 N    1.152   116 N    1.105    81 B    0.627
                           117 B    0.187   133 B    0.119
   132   7 N    3.335 --    97 B    1.216   137 B    1.032    74 N    0.889
   133   5 B    3.331 --    81 B    1.002   129 B    1.002    76 N    0.973
                           131 B    0.119
   134   7 N    3.440 --   125 B    1.266   102 N    0.984    78 N    0.945
   135   5 B    3.444 --    86 N    1.137   136 N    1.119    73 B    0.996
   136   7 N    3.387 --   135 B    1.119    97 B    1.115    92 N    0.941
   137   5 B    3.439 --   100 N    1.263   132 N    1.032    74 N    0.969
   138   7 N    3.474 --    69 B    1.278   123 B    0.999    86 N    0.989
   139   5 B    3.358 --   104 N    1.170    71 B    0.978   101 B    0.922
   140   7 N    3.419 --   121 B    1.131    99 B    1.099   122 N    0.951
 ---------------------------------------------------------------------------

Topologies differ in total number of bonds
Writing topology from bond orders to xtbtopo.mol

molecular dipole:
                 x           y           z       tot (Debye)
 q only:        1.103       1.341      -6.837
   full:       -1.070      -0.361      -5.114      13.311
molecular quadrupole (traceless):
                xx          xy          yy          xz          yz          zz
 q only:       43.779      12.335      42.322     -22.399     -53.768     -86.102
  q+dip:       60.335      13.500      63.518     -43.827     -79.608    -123.853
   full:       64.048      13.444      59.863     -39.006     -78.101    -123.910

           -------------------------------------------------
          |                Geometry Summary                 |
           -------------------------------------------------

      molecular mass/u    :     1436.9586337
   center of mass at/Å    :       -0.1590304      -0.0155705       4.3725219
  moments of inertia/u·Å² :        0.2104823E+05   0.5801638E+05   0.6183252E+05
rotational constants/cm⁻¹ :        0.8009050E-03   0.2905668E-03   0.2726338E-03

 * 156 selected distances

     #   Z          #   Z                                           value/Å
     1   6 C        2   8 O                                       1.4071129
     2   8 O        3   6 C                                       1.3426621
     3   6 C        4   6 C                                       1.3963549
     4   6 C        5   6 C                                       1.3827465
     5   6 C        6   6 C                                       1.3792064
     6   6 C        7   6 C                                       1.3918319
     8   6 C        9   8 O                                       1.2407313
    10   6 C       11   6 C                                       1.4059368
    11   6 C       12   8 O                                       1.3292396
    11   6 C       13   6 C                                       1.4141347
    13   6 C       14   6 C                                       1.3749584
    14   6 C       15   6 C                                       1.4171702
    15   6 C       16   8 O                                       1.3336864
    10   6 C       17   6 C                                       1.4148777
    15   6 C       17   6 C                                       1.4013241
    18   6 C       19   8 O                                       1.2367788
     3   6 C       20   6 C                                       1.4161335
     7   6 C       20   6 C                                       1.4024700
    21   6 C       22   6 C                                       1.5313795
    22   6 C       23   8 O                                       1.4185970
    24   6 C       25   8 O                                       1.2031145
    26   6 C       27   8 O                                       1.3992618
    22   6 C       28   6 C                                       1.5368699
    28   6 C       29   6 C                                       1.5291716
    29   6 C       30   8 O                                       1.4199168
    30   8 O       31   6 C                                       1.4034647
    31   6 C       32   6 C                                       1.5306525
    32   6 C       33   6 C                                       1.5276831
    33   6 C       34   7 N                                       1.4577183
    35   6 C       36   8 O                                       1.4029374
    37   6 C       38   6 C                                       1.5227251
    31   6 C       39   8 O                                       1.4033412
    37   6 C       39   8 O                                       1.4211383
     1   6 C       40   1 H                                       1.0947125
     1   6 C       41   1 H                                       1.0889827
     1   6 C       42   1 H                                       1.0946858
     4   6 C       43   1 H                                       1.0782542
     5   6 C       44   1 H                                       1.0796348
     6   6 C       45   1 H                                       1.0786401
    12   8 O       46   1 H                                       1.0004206
    16   8 O       47   1 H                                       1.0002127
    21   6 C       48   1 H                                       1.0957595
    21   6 C       49   1 H                                       1.0931888
    23   8 O       50   1 H                                       0.9640786 (min)
    26   6 C       51   1 H                                       1.1034678
    26   6 C       52   1 H                                       1.0925409
    27   8 O       53   1 H                                       0.9673311
    28   6 C       54   1 H                                       1.0945214
    28   6 C       55   1 H                                       1.0917796
    29   6 C       56   1 H                                       1.0999024
    31   6 C       57   1 H                                       1.0996665
    32   6 C       58   1 H                                       1.0891783
    32   6 C       59   1 H                                       1.0899264
    33   6 C       60   1 H                                       1.1047729
    34   7 N       61   1 H                                       1.0148208
    34   7 N       62   1 H                                       1.0130047
    35   6 C       63   1 H                                       1.0943964
    36   8 O       64   1 H                                       0.9680623
    37   6 C       65   1 H                                       1.0992647
    38   6 C       66   1 H                                       1.0857584
    38   6 C       67   1 H                                       1.0864637
    38   6 C       68   1 H                                       1.0857481
    76   7 N       77   5 B                                       1.4425529
    79   5 B       80   7 N                                       1.4040132
    75   5 B       82   7 N                                       1.4742132
    78   7 N       83   5 B                                       1.4398824
    82   7 N       85   5 B                                       1.3863657
    84   7 N       87   5 B                                       1.4225846
    86   7 N       88   7 N                                       1.4215761
    76   7 N       89   5 B                                       1.4231104
    79   5 B       90   7 N                                       1.3945693
    75   5 B       91   5 B                                       1.5750474
    88   7 N       92   7 N                                       1.4187132
    90   7 N       93   5 B                                       1.4330565
    74   7 N       95   5 B                                       1.3899316
    91   5 B       96   7 N                                       1.4856945
    95   5 B       98   7 N                                       1.4708754
    72   7 N       99   5 B                                       1.4897311
    94   7 N       99   5 B                                       1.4133869
    96   7 N      101   5 B                                       1.4380430
    83   5 B      102   7 N                                       1.4567422
    89   5 B      103   5 B                                       1.6643513
   102   7 N      103   5 B                                       1.4081567
    91   5 B      104   7 N                                       1.4208508
    87   5 B      105   5 B                                       1.6423552
    73   5 B      106   7 N                                       1.4056239
    80   7 N      107   5 B                                       1.4479121
    84   7 N      107   5 B                                       1.4593041
    75   5 B      108   7 N                                       1.4257339
    93   5 B      108   7 N                                       1.4926923
   107   5 B      108   7 N                                       1.4591357
    73   5 B      109   5 B                                       1.5726676
   106   7 N      109   5 B                                       1.4137760
    85   5 B      110   7 N                                       1.4443320
    92   7 N      110   7 N                                       1.3909605
    98   7 N      111   5 B                                       1.4199456
   100   7 N      111   5 B                                       1.4799985
   103   5 B      111   5 B                                       1.6741858 (max)
    95   5 B      112   7 N                                       1.4502848
   106   7 N      112   7 N                                       1.3683042
   109   5 B      114   7 N                                       1.4091912
    69   5 B      115   5 B                                       1.6087310
    70   7 N      115   5 B                                       1.4242086
    94   7 N      115   5 B                                       1.4987901
    71   5 B      116   7 N                                       1.4099081
   105   5 B      116   7 N                                       1.4906169
    81   5 B      117   5 B                                       1.5156788
   105   5 B      117   5 B                                       1.6058749
    79   5 B      118   7 N                                       1.4294325
    77   5 B      119   5 B                                       1.6493553
    87   5 B      119   5 B                                       1.6619930
   113   5 B      120   7 N                                       1.4618235
   119   5 B      120   7 N                                       1.4028129
    69   5 B      121   5 B                                       1.6193669
   114   7 N      121   5 B                                       1.4429274
    78   7 N      122   7 N                                       1.3673768
    88   7 N      123   5 B                                       1.4425443
    97   5 B      124   7 N                                       1.4541988
   110   7 N      124   7 N                                       1.4357894
    98   7 N      125   5 B                                       1.4564977
   112   7 N      125   5 B                                       1.4638744
   113   5 B      126   7 N                                       1.4269372
   118   7 N      126   7 N                                       1.3893889
    70   7 N      127   5 B                                       1.4604618
    71   5 B      127   5 B                                       1.6124089
    94   7 N      127   5 B                                       1.4502010
   101   5 B      128   7 N                                       1.4510596
   123   5 B      128   7 N                                       1.4393333
    72   7 N      129   5 B                                       1.4576585
    83   5 B      129   5 B                                       1.6053394
    85   5 B      130   7 N                                       1.4602314
    93   5 B      130   7 N                                       1.3920925
   124   7 N      130   7 N                                       1.4198326
    72   7 N      131   5 B                                       1.4584935
   116   7 N      131   5 B                                       1.4562606
    97   5 B      132   7 N                                       1.3875054
    76   7 N      133   5 B                                       1.4964601
    81   5 B      133   5 B                                       1.6006984
   129   5 B      133   5 B                                       1.6240943
    78   7 N      134   7 N                                       1.4302626
   102   7 N      134   7 N                                       1.4181037
   125   5 B      134   7 N                                       1.3742817
    73   5 B      135   5 B                                       1.6416073
    86   7 N      135   5 B                                       1.4388994
    97   5 B      136   7 N                                       1.4446662
   135   5 B      136   7 N                                       1.4533106
    74   7 N      137   5 B                                       1.4249647
   100   7 N      137   5 B                                       1.4001198
   132   7 N      137   5 B                                       1.4182141
    69   5 B      138   7 N                                       1.4029793
    86   7 N      138   7 N                                       1.4096556
   123   5 B      138   7 N                                       1.4829874
    71   5 B      139   5 B                                       1.6506860
   104   7 N      139   5 B                                       1.4322651
    99   5 B      140   7 N                                       1.4511259
   121   5 B      140   7 N                                       1.4429171

 * 9 distinct bonds (by element types)

   Z      Z             #   av. dist./Å        max./Å        min./Å
   5 B    5 B          17     1.6190848     1.6741858     1.5156788
   1 H    6 C          22     1.0918748     1.1047729     1.0782542
   6 C    6 C          18     1.4430904     1.5368699     1.3749584
   1 H    7 N           2     1.0139128     1.0148208     1.0130047
   5 B    7 N          66     1.4391326     1.4987901     1.3742817
   6 C    7 N           1     1.4577183     1.4577183     1.4577183
   7 N    7 N          11     1.4063603     1.4357894     1.3673768
   1 H    8 O           5     0.9800211     1.0004206     0.9640786
   6 C    8 O          14     1.3544273     1.4211383     1.2031145


optimized geometry written to: xtbopt.xyz


           -------------------------------------------------
          | TOTAL ENERGY             -270.502326015080 Eh   |
          | GRADIENT NORM               0.002701904269 Eh/α |
          | HOMO-LUMO GAP               0.172518628263 eV   |
           -------------------------------------------------

------------------------------------------------------------------------
 * finished run on 2026/08/31 at 22:26:58.309     
------------------------------------------------------------------------
 total:
 * wall-time:     0 d,  0 h,  0 min,  8.739 sec
 *  cpu-time:     0 d,  0 h,  1 min, 26.047 sec
 * ratio c/w:     9.846 speedup
 SCF:
 * wall-time:     0 d,  0 h,  0 min,  1.889 sec
 *  cpu-time:     0 d,  0 h,  0 min, 18.828 sec
 * ratio c/w:     9.967 speedup
 ANC optimizer:
 * wall-time:     0 d,  0 h,  0 min,  6.773 sec
 *  cpu-time:     0 d,  0 h,  1 min,  6.844 sec
 * ratio c/w:     9.869 speedup

normal termination of xtb
