      -----------------------------------------------------------      
     |                   =====================                   |     
     |                           x T B                           |     
     |                   =====================                   |     
     |                         S. Grimme                         |     
     |          Mulliken Center for Theoretical Chemistry        |     
     |                    University of Bonn                     |     
      -----------------------------------------------------------      

   * xtb version 6.7.1pre (5071a88) compiled by 'Marcel@Raven' on 2024-07-23

   xtb is free software: you can redistribute it and/or modify it under
   the terms of the GNU Lesser General Public License as published by
   the Free Software Foundation, either version 3 of the License, or
   (at your option) any later version.
   
   xtb is distributed in the hope that it will be useful,
   but WITHOUT ANY WARRANTY; without even the implied warranty of
   MERCHANTABILITY or FITNESS FOR A PARTICULAR PURPOSE.  See the
   GNU Lesser General Public License for more details.
   
   Cite this work as:
   * C. Bannwarth, E. Caldeweyher, S. Ehlert, A. Hansen, P. Pracht,
     J. Seibert, S. Spicher, S. Grimme, WIREs Comput. Mol. Sci., 2020, 11,
     e01493. DOI: 10.1002/wcms.1493
   
   for GFN2-xTB:
   * C. Bannwarth, S. Ehlert and S. Grimme., J. Chem. Theory Comput., 2019,
     15, 1652-1671. DOI: 10.1021/acs.jctc.8b01176
   for GFN1-xTB:
   * S. Grimme, C. Bannwarth, P. Shushkov, J. Chem. Theory Comput., 2017,
     13, 1989-2009. DOI: 10.1021/acs.jctc.7b00118
   for GFN0-xTB:
   * P. Pracht, E. Caldeweyher, S. Ehlert, S. Grimme, ChemRxiv, 2019, preprint.
     DOI: 10.26434/chemrxiv.8326202.v1
   for GFN-FF:
   * S. Spicher and S. Grimme, Angew. Chem. Int. Ed., 2020, 59, 15665-15673.
     DOI: 10.1002/anie.202004239
   
   for ALPB and GBSA implicit solvation:
   * S. Ehlert, M. Stahn, S. Spicher, S. Grimme, J. Chem. Theory Comput.,
     2021, 17, 4250-4261. DOI: 10.1021/acs.jctc.1c00471
   
   for ddCOSMO and CPCM-X implicit solvation:
   * M. Stahn, S. Ehlert, S. Grimme, J. Phys. Chem. A,
     2023, XX, XXXX-XXXX. DOI: 10.1021/acs.jpca.3c04382
   
   for DFT-D4:
   * E. Caldeweyher, C. Bannwarth and S. Grimme, J. Chem. Phys., 2017,
     147, 034112. DOI: 10.1063/1.4993215
   * E. Caldeweyher, S. Ehlert, A. Hansen, H. Neugebauer, S. Spicher,
     C. Bannwarth and S. Grimme, J. Chem. Phys., 2019, 150, 154122.
     DOI: 10.1063/1.5090222
   * E. Caldeweyher, J.-M. Mewes, S. Ehlert and S. Grimme, Phys. Chem. Chem. Phys.
     2020, 22, 8499-8512. DOI: 10.1039/D0CP00502A
   
   for sTDA-xTB:
   * S. Grimme and C. Bannwarth, J. Chem. Phys., 2016, 145, 054103.
     DOI: 10.1063/1.4959605
   
   in the mass-spec context:
   * V. Asgeirsson, C. Bauer and S. Grimme, Chem. Sci., 2017, 8, 4879.
     DOI: 10.1039/c7sc00601b
   * J. Koopman and S. Grimme, ACS Omega 2019, 4, 12, 15120-15133.
     DOI: 10.1021/acsomega.9b02011
   
   for metadynamics refer to:
   * S. Grimme, J. Chem. Theory Comput., 2019, 155, 2847-2862
     DOI: 10.1021/acs.jctc.9b00143
   
   for SPH calculations refer to:
   * S. Spicher and S. Grimme, J. Chem. Theory Comput., 2021, 17, 1701-1714
     DOI: 10.1021/acs.jctc.0c01306
   
   for ONIOM refer to:
   * C. Plett, A. Katbashev, S. Ehlert, S. Grimme, M. Bursch,
     Phys. Chem. Chem. Phys., 2023, 25, 17860-17868. DOI: 10.1039/D3CP02178E
   
   for DIPRO refer to:
   * J. Kohn, N. Gildemeister, S. Grimme, D. Fazzi, A. Hansen,
     J. Chem. Phys., 2023, just accepted.
   
   for PTB refer to:
   * S. Grimme, M. Mueller, A. Hansen, J. Chem. Phys., 2023, 158, 124111.
     DOI: 10.1063/5.0137838
   
   with help from (in alphabetical order)
   P. Atkinson, C. Bannwarth, F. Bohle, G. Brandenburg, E. Caldeweyher
   M. Checinski, S. Dohm, S. Ehlert, S. Ehrlich, I. Gerasimov, C. Hölzer
   A. Katbashev, J. Kohn, J. Koopman, C. Lavigne, S. Lehtola, F. März, M. Müller,
   F. Musil, H. Neugebauer, J. Pisarek, C. Plett, P. Pracht, F. Pultar,
   J. Seibert, P. Shushkov, S. Spicher, M. Stahn, M. Steiner, T. Strunk,
   J. Stückrath, T. Rose, and J. Unsleber
   
 * started run on 2026/08/31 at 22:26:58.353     
   ID    Z sym.   atoms
    1    6 C      1, 3-8, 10, 11, 13-15, 17, 18, 20-22, 24, 26, 28, 29,
                  31-33, 35, 37, 38
    2    8 O      2, 9, 12, 16, 19, 23, 25, 27, 30, 36, 39
    3    7 N      34, 70, 72, 74, 76, 78, 80, 82, 84, 86, 88, 90, 92, 94, 96,
                  98, 100, 102, 104, 106, 108, 110, 112, 114, 116, 118, 120,
                  122, 124, 126, 128, 130, 132, 134, 136, 138, 140
    4    1 H      40-68
    5    5 B      69, 71, 73, 75, 77, 79, 81, 83, 85, 87, 89, 91, 93, 95, 97,
                  99, 101, 103, 105, 107, 109, 111, 113, 115, 117, 119, 121,
                  123, 125, 127, 129, 131, 133, 135, 137, 139

           -------------------------------------------------
          |                Calculation Setup                |
           -------------------------------------------------

          program call               : "c:\Users\Andre\Proyectos doctorado\kras-pancreatic-gC3N4-ai\tools\xtb\xtb-6.7.1\bin\xtb.exe" "c:\Users\Andre\Proyectos doctorado\nano-qsar-ai-therapeutics\calculations\tnbc\Doxorubicin\Doxorubicin_opt_270deg.xyz" --opt vloose --gfn 2 --chrg 0 --uhf 0 --etemp 300 --iterations 500 --cycles 15 --norestart
          coordinate file            : c:\Users\Andre\Proyectos doctorado\nano-qsar-ai-therapeutics\calculations\tnbc\Doxorubicin\Doxorubicin_opt_270deg.xyz
          omp threads                :                    16


molecular fragmentation (1/2 indicates fragments):
111111111111111111111111111111111111111111111111111111111111111111112222
22222222222222222222222222222222222222222222222222222222222222222222
# atoms in fragment 1/2:    68    72
 fragment masses (1/2) :      543.52      893.44
CMA distance (Bohr)    :  21.398
constraining FC (au)   :  0.0500

           -------------------------------------------------
          |                 G F N 2 - x T B                 |
           -------------------------------------------------

        Reference                      10.1021/acs.jctc.8b01176
      * Hamiltonian:
        H0-scaling (s, p, d)           1.850000    2.230000    2.230000
        zeta-weighting                 0.500000
      * Dispersion:
        s8                             2.700000
        a1                             0.520000
        a2                             5.000000
        s9                             5.000000
      * Repulsion:
        kExp                           1.500000    1.000000
        rExp                           1.000000
      * Coulomb:
        alpha                          2.000000
        third order                    shell-resolved
        anisotropic                    true
        a3                             3.000000
        a5                             4.000000
        cn-shift                       1.200000
        cn-exp                         4.000000
        max-rad                        5.000000


          ...................................................
          :                      SETUP                      :
          :.................................................:
          :  # basis functions                 473          :
          :  # atomic orbitals                 473          :
          :  # shells                          251          :
          :  # electrons                       496          :
          :  max. iterations                   500          :
          :  Hamiltonian                  GFN2-xTB          :
          :  restarted?                      false          :
          :  GBSA solvation                  false          :
          :  PC potential                    false          :
          :  electronic temp.          300.0000000     K    :
          :  accuracy                    1.0000000          :
          :  -> integral cutoff          0.2500000E+02      :
          :  -> integral neglect         0.1000000E-07      :
          :  -> SCF convergence          0.1000000E-05 Eh   :
          :  -> wf. convergence          0.1000000E-03 e    :
          :  Broyden damping             0.4000000          :
          :  net charge                          0          :
          :  unpaired electrons                  0          :
          ...................................................

 iter      E             dE          RMSdq      gap      omega  full diag
   1   -272.1382908 -0.272138E+03  0.105E+01    0.17       0.0  T
   2   -271.7338998  0.404391E+00  0.626E+00    0.16       1.0  T
   3   -144.3313661  0.127403E+03  0.119E+01    0.06       1.0  T
   4   -221.3955429 -0.770642E+02  0.754E+00    0.04       1.0  T
   5   -264.2555090 -0.428600E+02  0.416E+00    0.14       1.0  T
   6   -267.8807153 -0.362521E+01  0.352E+00    0.15       1.0  T
   7   -272.0881182 -0.420740E+01  0.208E+00    0.15       1.0  T
   8   -272.9784123 -0.890294E+00  0.150E+00    0.42       1.0  T
   9   -273.0694794 -0.910671E-01  0.130E+00    0.62       1.0  T
  10   -273.0870584 -0.175791E-01  0.117E+00    0.54       1.0  T
  11   -272.8374191  0.249639E+00  0.974E-01    0.02       1.0  T
  12   -273.0307611 -0.193342E+00  0.827E-01    0.05       1.0  T
  13   -272.3403693  0.690392E+00  0.114E+00    0.24       1.0  T
  14   -272.6844569 -0.344088E+00  0.879E-01    0.09       1.0  T
  15   -273.0884016 -0.403945E+00  0.617E-01    0.09       1.0  T
  16   -272.6077007  0.480701E+00  0.862E-01    0.03       1.0  T
  17   -273.0766816 -0.468981E+00  0.431E-01    0.06       1.0  T
  18   -273.1012649 -0.245833E-01  0.414E-01    0.16       1.0  T
  19   -273.1022294 -0.964462E-03  0.370E-01    0.16       1.0  T
  20   -273.0982119  0.401748E-02  0.259E-01    0.11       1.0  T
  21   -273.0986869 -0.475045E-03  0.197E-01    0.11       1.0  T
  22   -273.1033625 -0.467557E-02  0.135E-01    0.15       1.0  T
  23   -273.1047704 -0.140784E-02  0.104E-01    0.19       1.0  T
  24   -273.1054994 -0.729066E-03  0.908E-02    0.21       1.0  T
  25   -273.1060631 -0.563712E-03  0.815E-02    0.22       1.0  T
  26   -273.1067178 -0.654690E-03  0.729E-02    0.23       1.0  T
  27   -273.1070543 -0.336435E-03  0.675E-02    0.23       1.0  T
  28   -273.1074280 -0.373751E-03  0.595E-02    0.21       1.0  T
  29   -273.1077552 -0.327187E-03  0.503E-02    0.19       1.0  T
  30   -273.1078673 -0.112059E-03  0.460E-02    0.18       1.0  T
  31   -273.1079810 -0.113690E-03  0.405E-02    0.16       1.0  T
  32   -273.1081103 -0.129332E-03  0.358E-02    0.16       1.0  T
  33   -273.1083129 -0.202577E-03  0.265E-02    0.17       1.0  T
  34   -273.1084483 -0.135428E-03  0.143E-02    0.16       1.0  T
  35   -273.1084738 -0.254982E-04  0.974E-03    0.16       1.0  T
  36   -273.1084816 -0.777571E-05  0.724E-03    0.16       1.2  T
  37   -273.1084898 -0.822552E-05  0.468E-03    0.16       1.8  T
  38   -273.1084983 -0.853003E-05  0.340E-03    0.16       2.5  T
  39   -273.1084988 -0.500564E-06  0.311E-03    0.17       2.7  T
  40   -273.1084997 -0.857089E-06  0.270E-03    0.17       3.1  T
  41   -273.1085004 -0.689843E-06  0.186E-03    0.17       4.5  T
  42   -273.1085003  0.703831E-07  0.178E-03    0.17       4.7  T
  43   -273.1085004 -0.845453E-07  0.154E-03    0.17       5.5  T
  44   -273.1085007 -0.339646E-06  0.828E-04    0.17      10.2  T
  45   -273.1085009 -0.213978E-06  0.294E-04    0.17      28.8  T

   *** convergence criteria satisfied after 45 iterations ***

         #    Occupation            Energy/Eh            Energy/eV
      -------------------------------------------------------------
         1        2.0000           -0.7198362             -19.5877
       ...           ...                  ...                  ...
       242        2.0000           -0.3356793              -9.1343
       243        2.0000           -0.3335237              -9.0756
       244        2.0000           -0.3321252              -9.0376
       245        2.0000           -0.3291941              -8.9578
       246        1.9994           -0.3238751              -8.8131
       247        1.9940           -0.3217137              -8.7543
       248        1.9267           -0.3193079              -8.6888 (HOMO)
       249        0.0800           -0.3131831              -8.5221 (LUMO)
       250                         -0.2914469              -7.9307
       251                         -0.2838583              -7.7242
       252                         -0.2729501              -7.4274
       253                         -0.2724447              -7.4136
       ...                                ...                  ...
       473                          0.9756016              26.5475
      -------------------------------------------------------------
                  HL-Gap            0.0061248 Eh            0.1667 eV
             Fermi-level           -0.3162026 Eh           -8.6043 eV

 SCC (total)                   0 d,  0 h,  0 min,  1.873 sec
 SCC setup                      ...        0 min,  0.001 sec (  0.053%)
 Dispersion                     ...        0 min,  0.004 sec (  0.214%)
 classical contributions        ...        0 min,  0.001 sec (  0.053%)
 integral evaluation            ...        0 min,  0.017 sec (  0.908%)
 iterations                     ...        0 min,  1.799 sec ( 96.049%)
 molecular gradient             ...        0 min,  0.046 sec (  2.456%)
 printout                       ...        0 min,  0.005 sec (  0.267%)

         :::::::::::::::::::::::::::::::::::::::::::::::::::::
         ::                     SUMMARY                     ::
         :::::::::::::::::::::::::::::::::::::::::::::::::::::
         :: total energy            -270.480151668434 Eh    ::
         :: gradient norm              0.117943649081 Eh/a0 ::
         :: HOMO-LUMO gap              0.166664698258 eV    ::
         ::.................................................::
         :: SCC energy              -273.092980878888 Eh    ::
         :: -> isotropic ES            0.873682537134 Eh    ::
         :: -> anisotropic ES         -0.027602587058 Eh    ::
         :: -> anisotropic XC          0.074412584232 Eh    ::
         :: -> dispersion             -0.224799301392 Eh    ::
         :: repulsion energy           2.612829210453 Eh    ::
         :: add. restraining           0.000000000000 Eh    ::
         :: total charge              -0.000000000026 e     ::
         :::::::::::::::::::::::::::::::::::::::::::::::::::::

      ----------------------------------------------------------- 
     |                   =====================                   |
     |                        A N C O P T                        |
     |                   =====================                   |
     |               Approximate Normal Coordinate               |
     |                Rational Function Optimizer                |
      ----------------------------------------------------------- 
      ----------------------------------------------------------- 
     |                   =====================                   |
     |                        A N C O P T                        |
     |                   =====================                   |
     |               Approximate Normal Coordinate               |
     |                Rational Function Optimizer                |
      ----------------------------------------------------------- 

          ...................................................
          :                      SETUP                      :
          :.................................................:
          :   optimization level            normal          :
          :   max. optcycles                    15          :
          :   ANC micro-cycles                  15          :
          :   degrees of freedom               414          :
          :.................................................:
          :   RF solver                   davidson          :
          :   write xtbopt.log                true          :
          :   linear?                        false          :
          :   energy convergence         0.5000000E-05 Eh   :
          :   grad. convergence          0.1000000E-02 Eh/α :
          :   maxmium RF displ.          1.0000000          :
          :   Hlow (freq-cutoff)         0.1000000E-01      :
          :   Hmax (freq-cutoff)         5.0000000          :
          :   S6 in model hess.         20.0000000          :
          ...................................................

generating ANC from exact Hessian ...
Using Lindh-Hessian (1995)
 Shifting diagonal of input Hessian by   1.008637723823559E-002
 Lowest  eigenvalues of input Hessian
    0.010000    0.010006    0.010018    0.000000    0.000000    0.000000
    0.000000    0.000000    0.000000    0.010093    0.010102    0.010106
    0.010266    0.010298    0.010375    0.010444    0.010700    0.011298
 Highest eigenvalues
    2.087491    2.121976    2.154604    2.234262    2.260727    2.314980
 

........................................................................
.............................. CYCLE    1 ..............................
........................................................................

 iter      E             dE          RMSdq      gap      omega  full diag
   1   -273.1085010 -0.273109E+03  0.163E-04    0.17       0.0  T
   2   -273.1085007  0.237437E-06  0.779E-04    0.17      10.8  T
   3   -273.1085010 -0.232366E-06  0.307E-04    0.17      27.5  T
     SCC iter.                  ...        0 min,  0.126 sec
     gradient                   ...        0 min,  0.040 sec
 * total energy  :  -270.4801517 Eh     change       -0.3473451E-07 Eh
   gradient norm :     0.1179480 Eh/α   predicted     0.0000000E+00 (-100.00%)
   displ. norm   :     0.3730841 α      lambda       -0.2141837E-01
   maximum displ.:     0.1104230 α      in ANC's #51, #28, #41, ...

........................................................................
.............................. CYCLE    2 ..............................
........................................................................

 iter      E             dE          RMSdq      gap      omega  full diag
   1   -273.1496490 -0.273150E+03  0.147E-01    0.13       0.0  T
   2   -273.1485981  0.105087E-02  0.138E-01    0.41       1.0  T
   3   -273.1518194 -0.322136E-02  0.600E-02    0.19       1.0  T
   4   -273.1354049  0.164146E-01  0.184E-01    0.07       1.0  T
   5   -273.1513459 -0.159410E-01  0.395E-02    0.22       1.0  T
   6   -273.1519136 -0.567668E-03  0.127E-02    0.18       1.0  T
   7   -273.1519368 -0.232624E-04  0.832E-03    0.17       1.0  T
   8   -273.1519555 -0.186727E-04  0.402E-03    0.17       2.1  T
   9   -273.1519595 -0.395438E-05  0.230E-03    0.17       3.7  T
  10   -273.1519603 -0.869519E-06  0.132E-03    0.17       6.4  T
  11   -273.1519607 -0.384032E-06  0.718E-04    0.17      11.8  T
  12   -273.1519609 -0.151287E-06  0.323E-04    0.17      26.1  T
     SCC iter.                  ...        0 min,  0.517 sec
     gradient                   ...        0 min,  0.041 sec
 * total energy  :  -270.4950003 Eh     change       -0.1484864E-01 Eh
   gradient norm :     0.0520581 Eh/α   predicted    -0.1221454E-01 ( -17.74%)
   displ. norm   :     0.3736367 α      lambda       -0.7555016E-02
   maximum displ.:     0.1239347 α      in ANC's #28, #51, #17, ...

........................................................................
.............................. CYCLE    3 ..............................
........................................................................

 iter      E             dE          RMSdq      gap      omega  full diag
   1   -273.1768606 -0.273177E+03  0.111E-01    0.15       0.0  T
   2   -273.1760677  0.792936E-03  0.956E-02    0.28       1.0  T
   3   -273.1743998  0.166787E-02  0.941E-02    0.11       1.0  T
   4   -273.1769533 -0.255347E-02  0.546E-02    0.28       1.0  T
   5   -273.1773385 -0.385206E-03  0.364E-02    0.24       1.0  T
   6   -273.1777576 -0.419055E-03  0.187E-02    0.20       1.0  T
   7   -273.1778818 -0.124201E-03  0.929E-03    0.18       1.0  T
   8   -273.1779159 -0.341011E-04  0.291E-03    0.17       2.9  T
   9   -273.1779163 -0.447208E-06  0.179E-03    0.17       4.7  T
  10   -273.1779171 -0.764993E-06  0.105E-03    0.17       8.0  T
  11   -273.1779173 -0.262660E-06  0.338E-04    0.17      25.0  T
  12   -273.1779174 -0.129066E-07  0.186E-04    0.17      45.4  T
     SCC iter.                  ...        0 min,  0.482 sec
     gradient                   ...        0 min,  0.039 sec
 * total energy  :  -270.4996552 Eh     change       -0.4654897E-02 Eh
   gradient norm :     0.0158552 Eh/α   predicted    -0.4310394E-02 (  -7.40%)
   displ. norm   :     0.2795860 α      lambda       -0.1589140E-02
   maximum displ.:     0.1223602 α      in ANC's #17, #28, #20, ...

........................................................................
.............................. CYCLE    4 ..............................
........................................................................

 iter      E             dE          RMSdq      gap      omega  full diag
   1   -273.1840301 -0.273184E+03  0.497E-02    0.17       0.0  T
   2   -273.1839392  0.909215E-04  0.324E-02    0.19       1.0  T
   3   -273.1817441  0.219506E-02  0.726E-02    0.12       1.0  T
   4   -273.1839204 -0.217630E-02  0.252E-02    0.20       1.0  T
   5   -273.1840459 -0.125459E-03  0.121E-02    0.19       1.0  T
   6   -273.1841021 -0.562227E-04  0.571E-03    0.18       1.5  T
   7   -273.1841136 -0.114811E-04  0.288E-03    0.17       2.9  T
   8   -273.1841163 -0.277973E-05  0.132E-03    0.17       6.4  T
   9   -273.1841170 -0.608923E-06  0.471E-04    0.17      17.9  T
  10   -273.1841169  0.259493E-07  0.440E-04    0.17      19.2  T
     SCC iter.                  ...        0 min,  0.423 sec
     gradient                   ...        0 min,  0.041 sec
 * total energy  :  -270.5007633 Eh     change       -0.1108099E-02 Eh
   gradient norm :     0.0092210 Eh/α   predicted    -0.8567535E-03 ( -22.68%)
   displ. norm   :     0.2889528 α      lambda       -0.8281226E-03
   maximum displ.:     0.1481998 α      in ANC's #17, #13, #20, ...

........................................................................
.............................. CYCLE    5 ..............................
........................................................................

 iter      E             dE          RMSdq      gap      omega  full diag
   1   -273.1865808 -0.273187E+03  0.394E-02    0.17       0.0  T
   2   -273.1865656  0.151430E-04  0.232E-02    0.18       1.0  T
   3   -273.1850216  0.154404E-02  0.584E-02    0.12       1.0  T
   4   -273.1864600 -0.143846E-02  0.190E-02    0.19       1.0  T
   5   -273.1865747 -0.114638E-03  0.730E-03    0.18       1.2  T
   6   -273.1865960 -0.213207E-04  0.299E-03    0.17       2.8  T
   7   -273.1865996 -0.356957E-05  0.117E-03    0.17       7.2  T
   8   -273.1866000 -0.430841E-06  0.398E-04    0.17      21.3  T
   9   -273.1866000  0.155183E-08  0.294E-04    0.17      28.8  T
     SCC iter.                  ...        0 min,  0.346 sec
     gradient                   ...        0 min,  0.039 sec
 * total energy  :  -270.5013147 Eh     change       -0.5513587E-03 Eh
   gradient norm :     0.0079807 Eh/α   predicted    -0.4486379E-03 ( -18.63%)
   displ. norm   :     0.2317460 α      lambda       -0.3634681E-03
   maximum displ.:     0.1182632 α      in ANC's #17, #13, #15, ...

........................................................................
.............................. CYCLE    6 ..............................
........................................................................

 iter      E             dE          RMSdq      gap      omega  full diag
   1   -273.1876862 -0.273188E+03  0.249E-02    0.17       0.0  T
   2   -273.1876793  0.685852E-05  0.151E-02    0.18       1.0  T
   3   -273.1867506  0.928774E-03  0.438E-02    0.13       1.0  T
   4   -273.1876682 -0.917595E-03  0.711E-03    0.18       1.2  T
   5   -273.1876878 -0.196594E-04  0.243E-03    0.17       3.5  T
   6   -273.1876899 -0.207678E-05  0.109E-03    0.17       7.8  T
   7   -273.1876902 -0.296990E-06  0.596E-04    0.17      14.2  T
   8   -273.1876903 -0.651806E-07  0.252E-04    0.17      33.5  T
     SCC iter.                  ...        0 min,  0.306 sec
     gradient                   ...        0 min,  0.040 sec
 * total energy  :  -270.5015728 Eh     change       -0.2581511E-03 Eh
   gradient norm :     0.0057840 Eh/α   predicted    -0.1914945E-03 ( -25.82%)
   displ. norm   :     0.2435043 α      lambda       -0.2660211E-03
   maximum displ.:     0.1216474 α      in ANC's #13, #15, #17, ...

........................................................................
.............................. CYCLE    7 ..............................
........................................................................

 iter      E             dE          RMSdq      gap      omega  full diag
   1   -273.1877830 -0.273188E+03  0.237E-02    0.17       0.0  T
   2   -273.1877667  0.162683E-04  0.154E-02    0.18       1.0  T
   3   -273.1863762  0.139053E-02  0.531E-02    0.12       1.0  T
   4   -273.1877648 -0.138863E-02  0.725E-03    0.18       1.2  T
   5   -273.1877830 -0.181270E-04  0.313E-03    0.17       2.7  T
   6   -273.1877859 -0.297492E-05  0.174E-03    0.17       4.9  T
   7   -273.1877870 -0.110176E-05  0.565E-04    0.17      15.0  T
   8   -273.1877871 -0.592795E-07  0.290E-04    0.17      29.2  T
   9   -273.1877871 -0.781029E-08  0.188E-04    0.17      45.0  T
     SCC iter.                  ...        0 min,  0.419 sec
     gradient                   ...        0 min,  0.041 sec
 * total energy  :  -270.5017615 Eh     change       -0.1887008E-03 Eh
   gradient norm :     0.0041478 Eh/α   predicted    -0.1409032E-03 ( -25.33%)
   displ. norm   :     0.2256684 α      lambda       -0.1817753E-03
   maximum displ.:     0.1232759 α      in ANC's #13, #15, #17, ...

........................................................................
.............................. CYCLE    8 ..............................
........................................................................

 iter      E             dE          RMSdq      gap      omega  full diag
   1   -273.1877832 -0.273188E+03  0.210E-02    0.17       0.0  T
   2   -273.1877769  0.623106E-05  0.131E-02    0.17       1.0  T
   3   -273.1870432  0.733789E-03  0.384E-02    0.13       1.0  T
   4   -273.1877706 -0.727432E-03  0.616E-03    0.18       1.4  T
   5   -273.1877841 -0.135063E-04  0.200E-03    0.17       4.2  T
   6   -273.1877853 -0.120437E-05  0.976E-04    0.17       8.7  T
   7   -273.1877856 -0.261709E-06  0.534E-04    0.17      15.8  T
   8   -273.1877856 -0.478690E-07  0.229E-04    0.17      37.0  T
     SCC iter.                  ...        0 min,  0.315 sec
     gradient                   ...        0 min,  0.039 sec
 * total energy  :  -270.5018936 Eh     change       -0.1320013E-03 Eh
   gradient norm :     0.0040229 Eh/α   predicted    -0.9551765E-04 ( -27.64%)
   displ. norm   :     0.2169792 α      lambda       -0.1417042E-03
   maximum displ.:     0.1198350 α      in ANC's #13, #15, #16, ...

........................................................................
.............................. CYCLE    9 ..............................
........................................................................

 iter      E             dE          RMSdq      gap      omega  full diag
   1   -273.1876840 -0.273188E+03  0.209E-02    0.17       0.0  T
   2   -273.1876834  0.645390E-06  0.122E-02    0.17       1.0  T
   3   -273.1875849  0.985106E-04  0.149E-02    0.19       1.0  T
   4   -273.1876768 -0.918906E-04  0.449E-03    0.16       1.9  T
   5   -273.1876850 -0.821752E-05  0.120E-03    0.17       7.1  T
   6   -273.1876854 -0.422789E-06  0.474E-04    0.17      17.8  T
   7   -273.1876854  0.645741E-10  0.328E-04    0.17      25.8  T
     SCC iter.                  ...        0 min,  0.263 sec
     gradient                   ...        0 min,  0.040 sec
 * total energy  :  -270.5020013 Eh     change       -0.1077268E-03 Eh
   gradient norm :     0.0042456 Eh/α   predicted    -0.7419074E-04 ( -31.13%)
   displ. norm   :     0.2501560 α      lambda       -0.1407474E-03
   maximum displ.:     0.1344130 α      in ANC's #13, #15, #16, ...

........................................................................
.............................. CYCLE   10 ..............................
........................................................................

 iter      E             dE          RMSdq      gap      omega  full diag
   1   -273.1878726 -0.273188E+03  0.241E-02    0.17       0.0  T
   2   -273.1878188  0.538495E-04  0.175E-02    0.16       1.0  T
   3   -273.1874665  0.352284E-03  0.311E-02    0.22       1.0  T
   4   -273.1878490 -0.382499E-03  0.805E-03    0.18       1.0  T
   5   -273.1878751 -0.260915E-04  0.246E-03    0.17       3.4  T
   6   -273.1878775 -0.238547E-05  0.876E-04    0.17       9.6  T
   7   -273.1878775 -0.548012E-07  0.602E-04    0.17      14.0  T
   8   -273.1878776 -0.899564E-07  0.248E-04    0.17      34.1  T
     SCC iter.                  ...        0 min,  0.329 sec
     gradient                   ...        0 min,  0.056 sec
 * total energy  :  -270.5021074 Eh     change       -0.1060951E-03 Eh
   gradient norm :     0.0037431 Eh/α   predicted    -0.7478243E-04 ( -29.51%)
   displ. norm   :     0.2674785 α      lambda       -0.1265500E-03
   maximum displ.:     0.1378789 α      in ANC's #13, #15, #16, ...

........................................................................
.............................. CYCLE   11 ..............................
........................................................................

 iter      E             dE          RMSdq      gap      omega  full diag
   1   -273.1881765 -0.273188E+03  0.261E-02    0.18       0.0  T
   2   -273.1879884  0.188095E-03  0.250E-02    0.15       1.0  T
   3   -273.1878645  0.123930E-03  0.288E-02    0.21       1.0  T
   4   -273.1881302 -0.265637E-03  0.113E-02    0.19       1.0  T
   5   -273.1881756 -0.454160E-04  0.516E-03    0.18       1.6  T
   6   -273.1881873 -0.117708E-04  0.160E-03    0.17       5.3  T
   7   -273.1881882 -0.808722E-06  0.635E-04    0.17      13.3  T
   8   -273.1881882 -0.135035E-07  0.422E-04    0.17      20.0  T
     SCC iter.                  ...        0 min,  0.372 sec
     gradient                   ...        0 min,  0.041 sec
 * total energy  :  -270.5022017 Eh     change       -0.9434328E-04 Eh
   gradient norm :     0.0029532 Eh/α   predicted    -0.6780397E-04 ( -28.13%)
   displ. norm   :     0.2614497 α      lambda       -0.1072708E-03
   maximum displ.:     0.1263917 α      in ANC's #13, #16, #6, ...

........................................................................
.............................. CYCLE   12 ..............................
........................................................................

 iter      E             dE          RMSdq      gap      omega  full diag
   1   -273.1887257 -0.273189E+03  0.259E-02    0.18       0.0  T
   2   -273.1885211  0.204570E-03  0.259E-02    0.15       1.0  T
   3   -273.1884571  0.640576E-04  0.271E-02    0.21       1.0  T
   4   -273.1886852 -0.228119E-03  0.108E-02    0.19       1.0  T
   5   -273.1887256 -0.404215E-04  0.513E-03    0.18       1.6  T
   6   -273.1887374 -0.117612E-04  0.156E-03    0.17       5.4  T
   7   -273.1887382 -0.774310E-06  0.668E-04    0.17      12.6  T
   8   -273.1887382 -0.280824E-07  0.441E-04    0.17      19.2  T
     SCC iter.                  ...        0 min,  0.316 sec
     gradient                   ...        0 min,  0.040 sec
 * total energy  :  -270.5022815 Eh     change       -0.7976570E-04 Eh
   gradient norm :     0.0028232 Eh/α   predicted    -0.5730232E-04 ( -28.16%)
   displ. norm   :     0.2541632 α      lambda       -0.9187988E-04
   maximum displ.:     0.1120275 α      in ANC's #13, #6, #16, ...

........................................................................
.............................. CYCLE   13 ..............................
........................................................................

 iter      E             dE          RMSdq      gap      omega  full diag
   1   -273.1891595 -0.273189E+03  0.252E-02    0.18       0.0  T
   2   -273.1890039  0.155618E-03  0.239E-02    0.15       1.0  T
   3   -273.1888892  0.114689E-03  0.266E-02    0.21       1.0  T
   4   -273.1891265 -0.237367E-03  0.982E-03    0.18       1.0  T
   5   -273.1891595 -0.329397E-04  0.462E-03    0.18       1.8  T
   6   -273.1891691 -0.967304E-05  0.132E-03    0.17       6.4  T
   7   -273.1891696 -0.492142E-06  0.604E-04    0.17      14.0  T
   8   -273.1891697 -0.361639E-07  0.360E-04    0.17      23.5  T
     SCC iter.                  ...        0 min,  0.356 sec
     gradient                   ...        0 min,  0.048 sec
 * total energy  :  -270.5023505 Eh     change       -0.6904085E-04 Eh
   gradient norm :     0.0030427 Eh/α   predicted    -0.4890990E-04 ( -29.16%)
   displ. norm   :     0.2577379 α      lambda       -0.8655005E-04
   maximum displ.:     0.0979879 α      in ANC's #13, #6, #10, ...

........................................................................
.............................. CYCLE   14 ..............................
........................................................................

 iter      E             dE          RMSdq      gap      omega  full diag
   1   -273.1894852 -0.273189E+03  0.249E-02    0.18       0.0  T
   2   -273.1893971  0.881456E-04  0.206E-02    0.16       1.0  T
   3   -273.1891519  0.245165E-03  0.284E-02    0.22       1.0  T
   4   -273.1894561 -0.304186E-03  0.897E-03    0.18       1.0  T
   5   -273.1894847 -0.285829E-04  0.391E-03    0.18       2.2  T
   6   -273.1894917 -0.698401E-05  0.103E-03    0.17       8.2  T
   7   -273.1894918 -0.103321E-06  0.754E-04    0.17      11.2  T
   8   -273.1894919 -0.139460E-06  0.297E-04    0.17      28.4  T
     SCC iter.                  ...        0 min,  0.334 sec
     gradient                   ...        0 min,  0.041 sec
 * total energy  :  -270.5024169 Eh     change       -0.6637057E-04 Eh
   gradient norm :     0.0031134 Eh/α   predicted    -0.4615474E-04 ( -30.46%)
   displ. norm   :     0.2863907 α      lambda       -0.9035063E-04
   maximum displ.:     0.1121689 α      in ANC's #6, #13, #10, ...

........................................................................
.............................. CYCLE   15 ..............................
........................................................................

 iter      E             dE          RMSdq      gap      omega  full diag
   1   -273.1893835 -0.273189E+03  0.264E-02    0.17       0.0  T
   2   -273.1893492  0.343035E-04  0.183E-02    0.16       1.0  T
   3   -273.1889455  0.403649E-03  0.315E-02    0.23       1.0  T
   4   -273.1893648 -0.419274E-03  0.719E-03    0.18       1.2  T
   5   -273.1893848 -0.199754E-04  0.242E-03    0.17       3.5  T
   6   -273.1893871 -0.228990E-05  0.945E-04    0.17       8.9  T
   7   -273.1893871 -0.685483E-07  0.721E-04    0.17      11.7  T
   8   -273.1893873 -0.141784E-06  0.266E-04    0.17      31.7  T
     SCC iter.                  ...        0 min,  0.347 sec
     gradient                   ...        0 min,  0.038 sec
 * total energy  :  -270.5024867 Eh     change       -0.6984521E-04 Eh
   gradient norm :     0.0029783 Eh/α   predicted    -0.4888585E-04 ( -30.01%)
   displ. norm   :     0.2890733 α      lambda       -0.8831873E-04
   maximum displ.:     0.1200294 α      in ANC's #6, #5, #11, ...

   *** FAILED TO CONVERGE GEOMETRY OPTIMIZATION IN 15 ITERATIONS ***


 ANCopt (total)                0 d,  0 h,  0 min,  6.316 sec
 optimizer setup                ...        0 min,  0.002 sec (  0.032%)
 model hessian                  ...        0 min,  0.076 sec (  1.203%)
 ANC generation                 ...        0 min,  0.021 sec (  0.332%)
 coordinate transformation      ...        0 min,  0.003 sec (  0.047%)
 single point calculation       ...        0 min,  6.173 sec ( 97.736%)
 optimization log               ...        0 min,  0.032 sec (  0.507%)
 hessian update                 ...        0 min,  0.004 sec (  0.063%)
 rational function              ...        0 min,  0.004 sec (  0.063%)

================
 final structure:
================
140
 xtb: 6.7.1pre (5071a88)
C            1.63380460125002       -8.26308935877040       13.07173508458726
O            1.29506905505640       -6.92454470893058       12.80057484356078
C            2.25291135366053       -5.98357338499707       12.79514635054792
C            3.59926582549774       -6.25957294597902       13.04172425116024
C            4.54655491752935       -5.25229638894953       13.02922159577887
C            4.17109710893686       -3.95053643956245       12.77140078154442
C            2.83685797558189       -3.64797982553865       12.51529796009737
C            2.50246567608531       -2.24220591627565       12.24127212052344
O            3.38760112517957       -1.37398073878286       12.29045347030479
C            1.12776084087934       -1.93116442606097       11.90772012682635
C            0.78277833907802       -0.60581601994884       11.58961012775627
O            1.67713724519102        0.37662507484055       11.63189727872668
C           -0.54865900736974       -0.28907742016934       11.23362328047732
C           -1.52228443286668       -1.25900983601426       11.27638849425250
C           -1.18874885599126       -2.59496044120364       11.61185643068564
O           -2.18169877871653       -3.48523397674153       11.61799957144378
C            0.13601445073566       -2.94039171881372       11.91102020339729
C            0.45381475082249       -4.32979972240874       12.24115356320971
O           -0.43217993652084       -5.19219484626744       12.27336487928375
C            1.85760912088138       -4.65193623323478       12.51960375992745
C           -2.96783365191220       -0.97707972628964       10.99541541668222
C           -3.32038491888732        0.50906374163918       11.10702295968029
O           -4.61073688884758        0.76619399582878       10.57748125108423
C           -3.26940607862465        0.97354187663667       12.56882797682598
O           -2.48815565878903        0.49650278646102       13.34963265295562
C           -4.18915492874625        2.12849172942896       12.94975053829889
O           -5.55326363863795        1.82770439981071       12.86888625454377
C           -2.27142084245569        1.32194566430309       10.33172752957453
C           -0.85427856385276        1.14634490074107       10.87864161383227
O            0.06420389517526        1.60179457713580        9.89627938379760
C            0.63898703364866        2.85410739033859       10.16208663477068
C            1.69923937550680        3.08387405529986        9.08241325256382
C            1.97205831579328        4.57619632905975        8.90312616010950
N            2.51088226151844        5.11689586465798       10.14501160207099
C            0.65248143189711        5.33702531889481        8.55506584528985
O            0.60988437445141        6.58514962444610        9.19484152128975
C           -0.57188788327969        4.46685105608075        8.93558761321108
C           -1.84948830026464        5.28985765916696        9.03028649828074
O           -0.33202431688279        3.86642472246167       10.20138464325150
H            2.06821049381581       -8.37478829973823       14.07031644965843
H            0.69489506577617       -8.81281329570747       13.02548646107950
H            2.32424669571358       -8.66425322416823       12.32291259522050
H            3.91594719461260       -7.26971015234386       13.24654811163506
H            5.58117754721329       -5.49227788300489       13.22305005600149
H            4.88787490835027       -3.14461098060274       12.75891553323221
H            2.54896717136747       -0.03832721292584       11.89394129236365
H           -1.77923616108212       -4.36167674742579       11.88296755085789
H           -3.20984882474611       -1.33030051599777        9.98681197480396
H           -3.57682625780085       -1.55964222625161       11.69173180737112
H           -4.60478639227955        0.54733774888503        9.63865548268220
H           -3.93121477671545        2.97986512977700       12.29691290507918
H           -3.98827120421405        2.40262563358917       13.98807555900897
H           -5.72406331328799        1.46568461765108       11.98824421934971
H           -2.26611694594964        0.98145706750862        9.29153095914960
H           -2.52946286570437        2.38273565676236       10.34389890480745
H           -0.72571188825191        1.74848746291663       11.79012907127730
H            1.08726868068723        2.85400431920549       11.16636686720533
H            2.60788573699873        2.55765242821328        9.37213367315949
H            1.34284134778916        2.65004092400631        8.14817807673540
H            2.67650045418402        4.69953436290248        8.06101665208144
H            2.86287283319313        6.05608934173797        9.99063318630496
H            3.27488194513613        4.53920985147425       10.47472722911151
H            0.61473394285367        5.55130270883287        7.48255228603256
H            0.67889197297305        6.39750555900238       10.14209602258670
H           -0.70078914188161        3.68202081247698        8.17682797868049
H           -1.75181763675352        6.04125113029948        9.80801299925454
H           -2.68974968495867        4.64447657376900        9.27068306193621
H           -2.03602375126376        5.78499554952181        8.08220743435592
B            3.46167656384653       -1.44264098312155        1.67108213493001
N            3.46236383322812        1.14236205783092        0.98396897220871
B            2.54343623849879        2.37414787521901       -1.21779223349573
N            2.29529256446061       -0.62973121969600       -2.68734621595708
B            0.68769798209476       -3.54926606571935        2.74691681707209
N           -2.93736413002516       -2.63939275705834        1.75106305928475
B           -1.03464135297924        4.09671943648786        1.87326551387371
N           -0.61690077580336        0.02980466945921       -3.89848639921789
B           -0.47064500405777        1.45695095591907       -4.04935917781961
N            1.20915682304535       -3.77322722682972       -1.69587444741964
B           -3.84175657193286        2.22297102861692       -0.45181905371061
N           -2.76898676165274        2.77557713088834       -1.16930271532731
B            1.40875836080519        0.82973013157917       -4.84595281041588
N           -0.23309796606034        3.37492594681623        2.87794990880868
B            0.89859023992780       -2.86760167429046       -2.77124421935478
N           -0.48827077228735        3.77810692159460       -0.96758744985165
B           -0.80906095598129        2.19834652736749        3.33044048897620
N            1.64814060769680       -1.25863538390485        3.53416756281797
B           -0.24487737659851        3.48195314345185       -2.33756795475592
N            1.30399137286455        0.08181440750199        3.85091776141824
B           -1.59650768465451       -0.54781084935776       -3.04296450854661
N           -3.82739331611540        1.78876266927616        0.87353679624711
B            0.34116689026714        4.50770094383115        1.22629784600243
N            0.04182467433054       -0.00044425594605        4.49326944026522
B           -2.70653654118586        2.24024966589701        1.64410378863255
N            3.77354819964992       -0.12129602856707       -0.72106653407651
B           -2.25374911700273       -3.62643983973504        1.05079622962946
N            1.05708718844302        3.74148010336137        2.27847670462233
B           -1.82830501956781       -0.76276328582483        3.26350102057031
N           -2.43614107436436       -3.58780593960782       -0.40817347868047
B            3.02050242739738       -1.06228116490383       -1.46011310261372
N           -3.15637088047020       -1.23855935858476       -0.34212106632754
B            2.03824728845195        2.93372797652881        1.60516381215620
N           -0.50753370605221       -2.88861145228584       -2.39111665556800
B           -1.67335105287440       -2.10107989652242       -2.45027953442522
N            0.59296713980939        3.97609159146102       -0.06734257249674
B            1.09419248757867        2.97128589145188       -3.13964802821870
N            0.07569785642189       -4.34615325428613        1.76417375399438
B           -1.78067790247558        3.46510582602436       -0.36670086871433
N           -2.00870001699454        3.42957909350801        1.07407699261724
B            1.46439880727765       -4.19951461816354        1.54356867454973
N           -0.80215868406249        1.07736178743344        4.24411430151176
B           -2.66601660891641       -2.38923856666087       -1.13345204680590
N           -1.07468952660832       -4.47090605103608        1.03358757882103
B           -2.50261016543307        0.50434013797854       -2.06798367601059
N            2.35032491185522       -3.87272440954679        0.49741579209671
B            3.91711664623712       -0.19067702368599        0.76914929625481
N            1.93222390989906        1.96899087703231       -2.42192152452674
B            1.00525883406674        2.26636619887192       -4.57984922956261
N           -4.18342125593111        0.84281082635667       -0.30484440875081
B           -1.33574251189601        2.46619148710056       -3.07297813352437
N           -2.35660958693176        1.94544791165231       -2.26394766654342
B            3.07308630586632       -2.63270727229023        0.64422673761989
N            2.33390468545733       -3.66096560460392       -0.92625884944233
B            2.22506405824445        0.55981514343253        2.85237380251591
N           -2.02991341292489        0.62688676892200        3.64784850992443
B           -1.10200022246396       -4.17209236263936       -0.39907756136693
N           -3.21655936985445        0.05511041135855       -0.91692988044691
B            3.45155992481274        1.27046875929597       -0.47075257751150
N            2.58846932936909        1.64527466853050        1.98010391873221
B            1.47402647084141       -1.54305367846647       -3.47242106200241
N           -2.10433356465482        1.77095165183542        2.80844931142596
B            2.04456141036236        0.72397587760348       -3.16891240108606
N           -2.72093270672270       -1.32766024385051        2.36351791147033
B            0.66060670916840       -0.52698014500517       -4.44387900387335
N           -0.16906758277510       -3.74740993459618       -1.31457224504999
B            0.48253333317779       -2.09331208859283        3.47645016531092
N           -0.58995764554253       -1.18980039341576        3.87077458050875
B           -3.22464667731480       -1.43751909025033        1.04184611093025
N            2.67272113584161       -0.84228006976623        2.66316799984997
B            1.88168193035267        3.35122188833703       -0.06336602929214
N            2.87749982202197       -2.32004723356532       -0.75062789578712
 
 Bond Distances (Angstroems)
 ---------------------------
C1-O2=1.4071         C1-H40=1.0947        C1-H41=1.0890        C1-H42=1.0947        O2-C1=1.4071         O2-C3=1.3427         
C3-O2=1.3427         C3-C4=1.3963         C3-C20=1.4161        C4-C3=1.3963         C4-C5=1.3828         C4-H43=1.0782        
C5-C4=1.3828         C5-C6=1.3791         C5-H44=1.0796        C6-C5=1.3791         C6-C7=1.3919         C6-H45=1.0786        
C7-C6=1.3919         C7-C8=1.4708         C7-C20=1.4025        C8-C7=1.4708         C8-O9=1.2408         C8-C10=1.4484        
O9-C8=1.2408         C10-C8=1.4484        C10-C11=1.4060       C10-C17=1.4150       C11-C10=1.4060       C11-O12=1.3292       
C11-C13=1.4141       O12-C11=1.3292       O12-H46=1.0005       C13-C11=1.4141       C13-C14=1.3750       C13-C29=1.5099       
C14-C13=1.3750       C14-C15=1.4172       C14-C21=1.4993       C15-C14=1.4172       C15-O16=1.3336       C15-C17=1.4014       
O16-C15=1.3336       O16-H47=1.0002       C17-C10=1.4150       C17-C15=1.4014       C17-C18=1.4630       C18-C17=1.4630       
C18-O19=1.2368       C18-C20=1.4670       O19-C18=1.2368       C20-C3=1.4161        C20-C7=1.4025        C20-C18=1.4670       
C21-C14=1.4993       C21-C22=1.5315       C21-H48=1.0957       C21-H49=1.0932       C22-C21=1.5315       C22-O23=1.4183       
C22-C24=1.5347       C22-C28=1.5369       O23-C22=1.4183       O23-H50=0.9640       C24-C22=1.5347       C24-O25=1.2032       
C24-C26=1.5248       O25-C24=1.2032       C26-C24=1.5248       C26-O27=1.3992       C26-H51=1.1034       C26-H52=1.0925       
O27-C26=1.3992       O27-H53=0.9673       C28-C22=1.5369       C28-C29=1.5291       C28-H54=1.0945       C28-H55=1.0918       
C29-C13=1.5099       C29-C28=1.5291       C29-O30=1.4199       C29-H56=1.1000       O30-C29=1.4199       O30-C31=1.4033       
C31-O30=1.4033       C31-C32=1.5306       C31-O39=1.4033       C31-H57=1.0998       C32-C31=1.5306       C32-C33=1.5276       
C32-H58=1.0893       C32-H59=1.0900       C33-C32=1.5276       C33-N34=1.4577       C33-C35=1.5625       C33-H60=1.1048       
N34-C33=1.4577       N34-H61=1.0148       N34-H62=1.0130       C35-C33=1.5625       C35-O36=1.4032       C35-C37=1.5495       
C35-H63=1.0944       O36-C35=1.4032       O36-H64=0.9681       C37-C35=1.5495       C37-C38=1.5227       C37-O39=1.4214       
C37-H65=1.0992       C38-C37=1.5227       C38-H66=1.0858       C38-H67=1.0864       C38-H68=1.0857       O39-C31=1.4033       
O39-C37=1.4214       H40-C1=1.0947        H41-C1=1.0890        H42-C1=1.0947        H43-C4=1.0782        H44-C5=1.0796        
H45-C6=1.0786        H46-O12=1.0005       H47-O16=1.0002       H48-C21=1.0957       H49-C21=1.0932       H50-O23=0.9640       
H51-C26=1.1034       H52-C26=1.0925       H53-O27=0.9673       H54-C28=1.0945       H55-C28=1.0918       H56-C29=1.1000       
H57-C31=1.0998       H58-C32=1.0893       H59-C32=1.0900       H60-C33=1.1048       H61-N34=1.0148       H62-N34=1.0130       
H63-C35=1.0944       H64-O36=0.9681       H65-C37=1.0992       H66-C38=1.0858       H67-C38=1.0864       H68-C38=1.0857       
B69-B115=1.6088      B69-B121=1.6192      B69-N138=1.4025      N70-B115=1.4248      N70-B127=1.4604      N70-N128=1.4174      
B71-N116=1.4098      B71-B127=1.6127      B71-B139=1.6508      N72-B99=1.4897       N72-B129=1.4577      N72-B131=1.4585      
B73-N106=1.4055      B73-B109=1.5729      B73-B135=1.6414      N74-B95=1.3900       N74-N132=1.4638      N74-B137=1.4248      
B75-N82=1.4741       B75-B91=1.5749       B75-N108=1.4257      N76-B77=1.4425       N76-B89=1.4231       N76-B133=1.4965      
B77-N76=1.4425       B77-B81=2.1354       B77-B117=1.7649      B77-B119=1.6493      N78-B83=1.4398       N78-N122=1.3675      
N78-N134=1.4302      B79-N80=1.4039       B79-N90=1.3947       B79-N118=1.4294      N80-B79=1.4039       N80-B107=1.4479      
N80-N120=1.4344      B81-B77=2.1354       B81-B117=1.5158      B81-B131=1.7966      B81-B133=1.6006      N82-B75=1.4741       
N82-B85=1.3859       N82-N96=1.4691       B83-N78=1.4398       B83-N102=1.4568      B83-B129=1.6054      B83-N134=2.0089      
N84-B87=1.4226       N84-N104=1.4208      N84-B107=1.4592      B85-N82=1.3859       B85-N110=1.4462      B85-N130=1.4604      
N86-N88=1.4197       N86-B135=1.4348      N86-N138=1.4077      B87-N84=1.4226       B87-B105=1.6423      B87-B119=1.6621      
N88-N86=1.4197       N88-N92=1.4186       N88-B123=1.4401      B89-N76=1.4231       B89-B103=1.6643      B89-B113=1.6967      
N90-B79=1.3947       N90-B93=1.4332       N90-N118=1.5525      B91-B75=1.5749       B91-N96=1.4855       B91-N104=1.4211      
N92-N88=1.4186       N92-N110=1.3914      N92-N136=1.4836      B93-N90=1.4332       B93-N108=1.4921      B93-N130=1.3923      
N94-B99=1.4138       N94-B115=1.4987      N94-B127=1.4503      B95-N74=1.3900       B95-N98=1.4708       B95-N112=1.4504      
B95-B125=1.9304      N96-N82=1.4691       N96-B91=1.4855       N96-B101=1.4382      B97-N124=1.4558      B97-N132=1.3878      
B97-N136=1.4438      N98-B95=1.4708       N98-B111=1.4197      N98-B125=1.4565      B99-N72=1.4897       B99-N94=1.4138       
B99-N140=1.4511      N100-B111=1.4801     N100-N126=1.4169     N100-B137=1.3999     B101-N96=1.4382      B101-N128=1.4503     
B101-B139=1.7271     N102-B83=1.4568      N102-B103=1.4081     N102-N134=1.4181     B103-B89=1.6643      B103-N102=1.4081     
B103-B111=1.6741     N104-N84=1.4208      N104-B91=1.4211      N104-B139=1.4322     B105-B87=1.6423      B105-N116=1.4906     
B105-B117=1.6059     N106-B73=1.4055      N106-B109=1.4137     N106-N112=1.3685     B107-N80=1.4479      B107-N84=1.4592      
B107-N108=1.4591     N108-B75=1.4257      N108-B93=1.4921      N108-B107=1.4591     B109-B73=1.5729      B109-N106=1.4137     
B109-N114=1.4093     N110-B85=1.4462      N110-N92=1.3914      N110-N124=1.4373     B111-N98=1.4197      B111-N100=1.4801     
B111-B103=1.6741     N112-B95=1.4504      N112-N106=1.3685     N112-B125=1.4638     B113-B89=1.6967      B113-N120=1.4617     
B113-N126=1.4270     N114-B109=1.4093     N114-B121=1.4428     N114-N122=1.4394     B115-B69=1.6088      B115-N70=1.4248      
B115-N94=1.4987      B115-B127=1.9721     N116-B71=1.4098      N116-B105=1.4906     N116-B131=1.4563     B117-B77=1.7649      
B117-B81=1.5158      B117-B105=1.6059     N118-B79=1.4294      N118-N90=1.5525      N118-N126=1.3892     B119-B77=1.6493      
B119-B87=1.6621      B119-N120=1.4028     N120-N80=1.4344      N120-B113=1.4617     N120-B119=1.4028     B121-B69=1.6192      
B121-N114=1.4428     B121-N140=1.4428     N122-N78=1.3675      N122-N114=1.4394     N122-N140=1.4575     B123-N88=1.4401      
B123-N128=1.4391     B123-N138=1.4839     N124-B97=1.4558      N124-N110=1.4373     N124-N130=1.4209     B125-B95=1.9304      
B125-N98=1.4565      B125-N112=1.4638     B125-N134=1.3744     N126-N100=1.4169     N126-B113=1.4270     N126-N118=1.3892     
B127-N70=1.4604      B127-B71=1.6127      B127-N94=1.4503      B127-B115=1.9721     N128-N70=1.4174      N128-B101=1.4503     
N128-B123=1.4391     B129-N72=1.4577      B129-B83=1.6054      B129-B133=1.6241     N130-B85=1.4604      N130-B93=1.3923      
N130-N124=1.4209     B131-N72=1.4585      B131-B81=1.7966      B131-N116=1.4563     N132-N74=1.4638      N132-B97=1.3878      
N132-B137=1.4187     B133-N76=1.4965      B133-B81=1.6006      B133-B129=1.6241     N134-N78=1.4302      N134-B83=2.0089      
N134-N102=1.4181     N134-B125=1.3744     B135-B73=1.6414      B135-N86=1.4348      B135-N136=1.4567     N136-N92=1.4836      
N136-B97=1.4438      N136-B135=1.4567     B137-N74=1.4248      B137-N100=1.3999     B137-N132=1.4187     N138-B69=1.4025      
N138-N86=1.4077      N138-B123=1.4839     B139-B71=1.6508      B139-B101=1.7271     B139-N104=1.4322     N140-B99=1.4511      
N140-B121=1.4428     N140-N122=1.4575     
 B  B  Rav=1.6895 sigma=0.1392  Rmin=1.5158  Rmax=2.1354    24
 C  H  Rav=1.0919 sigma=0.0073  Rmin=1.0782  Rmax=1.1048    22
 C  C  Rav=1.4645 sigma=0.0619  Rmin=1.3750  Rmax=1.5625    28
 N  H  Rav=1.0139 sigma=0.0009  Rmin=1.0130  Rmax=1.0148     2
 N  B  Rav=1.4476 sigma=0.0751  Rmin=1.3744  Rmax=2.0089    67
 N  C  Rav=1.4577 sigma=0.0000  Rmin=1.4577  Rmax=1.4577     1
 N  N  Rav=1.4297 sigma=0.0400  Rmin=1.3675  Rmax=1.5525    21
 O  H  Rav=0.9800 sigma=0.0166  Rmin=0.9640  Rmax=1.0005     5
 O  C  Rav=1.3544 sigma=0.0735  Rmin=1.2032  Rmax=1.4214    14
 
 selected bond angles (degree)
 --------------------
H40-C1-O2=111.62               H41-C1-O2=105.34               H41-C1-H40=109.23              H42-C1-O2=111.63               
H42-C1-H40=109.65              H42-C1-H41=109.25              C3-O2-C1=119.72                C4-C3-O2=123.27                
C20-C3-O2=117.43               C20-C3-C4=119.30               C5-C4-C3=121.00                H43-C4-C3=120.13               
H43-C4-C5=118.88               C6-C5-C4=120.18                H44-C5-C4=119.53               H44-C5-C6=120.28               
C7-C6-C5=120.04                H45-C6-C5=121.77               H45-C6-C7=118.19               C8-C7-C6=117.39                
C20-C7-C6=120.87               C20-C7-C8=121.74               O9-C8-C7=119.95                C10-C8-C7=117.64               
C10-C8-O9=122.41               C11-C10-C8=119.17              C17-C10-C8=120.77              C17-C10-C11=120.06             
 
 selected dihedral angles (degree)
 ---------------------------------
C3-O2-C1-H40= 61.08           C3-O2-C1-H41=179.50           C3-O2-C1-H42=297.97           C4-C3-O2-C1=  0.34            
C20-C3-O2-C1=180.14           C5-C4-C3-O2=180.24            C5-C4-C3-C20=  0.43           H43-C4-C3-O2=  0.21           
H43-C4-C3-C20=180.40          C6-C5-C4-C3=  0.03            C6-C5-C4-H43=180.06           H44-C5-C4-C3=180.00           
H44-C5-C4-H43=  0.03          C7-C6-C5-C4=359.64            C7-C6-C5-H44=179.66           H45-C6-C5-C4=179.77           
H45-C6-C5-H44=359.80          C8-C7-C6-C5=180.29            C8-C7-C6-H45=  0.16           C20-C7-C6-C5=  0.24           
C20-C7-C6-H45=180.11          O9-C8-C7-C6=357.51            O9-C8-C7-C20=177.56           C10-C8-C7-C6=176.96           
C10-C8-C7-C20=357.01          C11-C10-C8-C7=182.42          C11-C10-C8-O9=  1.86          C17-C10-C8-C7=  2.97          
C17-C10-C8-O9=182.41          
 
 CMA Distance (Angstroems)
 ---------------------------
R(CMA): 11.2482
           -------------------------------------------------
          |                Final Singlepoint                |
           -------------------------------------------------

          ...................................................
          :                      SETUP                      :
          :.................................................:
          :  # basis functions                 473          :
          :  # atomic orbitals                 473          :
          :  # shells                          251          :
          :  # electrons                       496          :
          :  max. iterations                   500          :
          :  Hamiltonian                  GFN2-xTB          :
          :  restarted?                      false          :
          :  GBSA solvation                  false          :
          :  PC potential                    false          :
          :  electronic temp.          300.0000000     K    :
          :  accuracy                    1.0000000          :
          :  -> integral cutoff          0.2500000E+02      :
          :  -> integral neglect         0.1000000E-07      :
          :  -> SCF convergence          0.1000000E-05 Eh   :
          :  -> wf. convergence          0.1000000E-03 e    :
          :  Broyden damping             0.4000000          :
          :  net charge                          0          :
          :  unpaired electrons                  0          :
          ...................................................

 iter      E             dE          RMSdq      gap      omega  full diag
   1   -273.1893800 -0.273189E+03  0.254E-02    0.17       0.0  T
   2   -273.1893739  0.604022E-05  0.158E-02    0.17       1.0  T
   3   -273.1890950  0.278923E-03  0.249E-02    0.21       1.0  T
   4   -273.1893813 -0.286290E-03  0.209E-03    0.17       4.0  T
   5   -273.1893817 -0.409689E-06  0.104E-03    0.17       8.1  T
   6   -273.1893819 -0.165925E-06  0.611E-04    0.17      13.8  T
   7   -273.1893820 -0.633221E-07  0.387E-04    0.17      21.8  T

   *** convergence criteria satisfied after 7 iterations ***

         #    Occupation            Energy/Eh            Energy/eV
      -------------------------------------------------------------
         1        2.0000           -0.7234679             -19.6866
       ...           ...                  ...                  ...
       242        2.0000           -0.3349878              -9.1155
       243        2.0000           -0.3327499              -9.0546
       244        2.0000           -0.3314629              -9.0196
       245        2.0000           -0.3285104              -8.9392
       246        1.9998           -0.3231798              -8.7942
       247        1.9973           -0.3208954              -8.7320
       248        1.9309           -0.3177993              -8.6478 (HOMO)
       249        0.0721           -0.3115140              -8.4767 (LUMO)
       250                         -0.2907738              -7.9124
       251                         -0.2831267              -7.7043
       252                         -0.2717698              -7.3952
       253                         -0.2638190              -7.1789
       ...                                ...                  ...
       473                          0.9763579              26.5680
      -------------------------------------------------------------
                  HL-Gap            0.0062853 Eh            0.1710 eV
             Fermi-level           -0.3146357 Eh           -8.5617 eV

 SCC (total)                   0 d,  0 h,  0 min,  0.382 sec
 SCC setup                      ...        0 min,  0.001 sec (  0.262%)
 Dispersion                     ...        0 min,  0.002 sec (  0.524%)
 classical contributions        ...        0 min,  0.000 sec (  0.000%)
 integral evaluation            ...        0 min,  0.014 sec (  3.665%)
 iterations                     ...        0 min,  0.306 sec ( 80.105%)
 molecular gradient             ...        0 min,  0.054 sec ( 14.136%)
 printout                       ...        0 min,  0.005 sec (  1.309%)

         :::::::::::::::::::::::::::::::::::::::::::::::::::::
         ::                     SUMMARY                     ::
         :::::::::::::::::::::::::::::::::::::::::::::::::::::
         :: total energy            -270.502556066277 Eh    ::
         :: gradient norm              0.002803964414 Eh/a0 ::
         :: HOMO-LUMO gap              0.171030619103 eV    ::
         ::.................................................::
         :: SCC energy              -273.173737119012 Eh    ::
         :: -> isotropic ES            0.868773261033 Eh    ::
         :: -> anisotropic ES         -0.027826475212 Eh    ::
         :: -> anisotropic XC          0.070773083396 Eh    ::
         :: -> dispersion             -0.226728098677 Eh    ::
         :: repulsion energy           2.671181052736 Eh    ::
         :: add. restraining           0.000000000000 Eh    ::
         :: total charge              -0.000000000000 e     ::
         :::::::::::::::::::::::::::::::::::::::::::::::::::::

           -------------------------------------------------
          |                Property Printout                |
           -------------------------------------------------

    * Orbital Energies and Occupations

         #    Occupation            Energy/Eh            Energy/eV
      -------------------------------------------------------------
         1        2.0000           -0.7234679             -19.6866
       ...           ...                  ...                  ...
       236        2.0000           -0.3479681              -9.4687
       237        2.0000           -0.3467939              -9.4367
       238        2.0000           -0.3423049              -9.3146
       239        2.0000           -0.3402099              -9.2576
       240        2.0000           -0.3385282              -9.2118
       241        2.0000           -0.3364991              -9.1566
       242        2.0000           -0.3349878              -9.1155
       243        2.0000           -0.3327499              -9.0546
       244        2.0000           -0.3314629              -9.0196
       245        2.0000           -0.3285104              -8.9392
       246        1.9998           -0.3231798              -8.7942
       247        1.9973           -0.3208954              -8.7320
       248        1.9309           -0.3177993              -8.6478 (HOMO)
       249        0.0721           -0.3115140              -8.4767 (LUMO)
       250                         -0.2907738              -7.9124
       251                         -0.2831267              -7.7043
       252                         -0.2717698              -7.3952
       253                         -0.2638190              -7.1789
       254                         -0.2598827              -7.0718
       255                         -0.2575231              -7.0076
       256                         -0.2530246              -6.8851
       257                         -0.2426996              -6.6042
       258                         -0.2384814              -6.4894
       259                         -0.2368598              -6.4453
       ...                                ...                  ...
       473                          0.9763579              26.5680
      -------------------------------------------------------------
                  HL-Gap            0.0062853 Eh            0.1710 eV
             Fermi-level           -0.3146357 Eh           -8.5617 eV

     #   Z          covCN         q      C6AA      α(0)
     1   6 C        3.645     0.029    20.424     6.495
     2   8 O        1.706    -0.220    17.651     5.672
     3   6 C        2.865     0.160    24.543     8.121
     4   6 C        2.916    -0.065    29.621     8.925
     5   6 C        2.916    -0.025    28.624     8.773
     6   6 C        2.924    -0.031    28.773     8.796
     7   6 C        2.977    -0.011    28.293     8.725
     8   6 C        2.837     0.217    23.426     7.932
     9   8 O        0.859    -0.429    22.273     6.328
    10   6 C        2.969    -0.066    29.640     8.930
    11   6 C        2.848     0.165    24.440     8.102
    12   8 O        1.655    -0.378    20.436     6.103
    13   6 C        2.965    -0.015    28.389     8.740
    14   6 C        2.966     0.003    27.952     8.672
    15   6 C        2.849     0.154    24.653     8.138
    16   8 O        1.655    -0.384    20.540     6.118
    17   6 C        2.967    -0.064    29.581     8.921
    18   6 C        2.830     0.221    23.359     7.920
    19   8 O        0.859    -0.410    21.880     6.271
    20   6 C        2.970    -0.036    28.896     8.817
    21   6 C        3.815    -0.069    21.817     6.648
    22   6 C        3.777     0.124    18.587     6.142
    23   8 O        1.655    -0.452    21.886     6.315
    24   6 C        2.814     0.218    23.413     7.928
    25   8 O        0.857    -0.333    20.382     6.053
    26   6 C        3.674     0.060    19.793     6.375
    27   8 O        1.656    -0.431    21.468     6.255
    28   6 C        3.811    -0.079    21.998     6.676
    29   6 C        3.753     0.125    18.601     6.150
    30   8 O        1.702    -0.322    19.380     5.944
    31   6 C        3.651     0.244    17.092     5.938
    32   6 C        3.806    -0.085    22.110     6.694
    33   6 C        3.780     0.048    19.787     6.337
    34   7 N        2.633    -0.348    28.977     7.995
    35   6 C        3.725     0.091    19.178     6.253
    36   8 O        1.656    -0.439    21.628     6.278
    37   6 C        3.750     0.103    18.946     6.208
    38   6 C        3.753    -0.115    22.751     6.802
    39   8 O        1.701    -0.335    19.621     5.981
    40   1 H        0.924     0.046     2.369     2.407
    41   1 H        0.925     0.075     2.034     2.230
    42   1 H        0.924     0.045     2.379     2.412
    43   1 H        0.926     0.046     2.373     2.409
    44   1 H        0.926     0.047     2.363     2.404
    45   1 H        0.926     0.070     2.086     2.259
    46   1 H        0.800     0.360     0.566     1.182
    47   1 H        0.800     0.360     0.566     1.183
    48   1 H        0.924     0.065     2.147     2.291
    49   1 H        0.924     0.086     1.922     2.168
    50   1 H        0.805     0.301     0.717     1.330
    51   1 H        0.923     0.046     2.367     2.406
    52   1 H        0.924     0.074     2.044     2.236
    53   1 H        0.805     0.319     0.666     1.282
    54   1 H        0.924     0.061     2.185     2.312
    55   1 H        0.924     0.057     2.230     2.335
    56   1 H        0.923     0.048     2.345     2.395
    57   1 H        0.923     0.044     2.397     2.421
    58   1 H        0.925     0.056     2.246     2.344
    59   1 H        0.925     0.059     2.214     2.327
    60   1 H        0.922     0.008     2.931     2.677
    61   1 H        0.860     0.154     1.376     1.838
    62   1 H        0.860     0.144     1.443     1.882
    63   1 H        0.924     0.037     2.496     2.470
    64   1 H        0.805     0.315     0.677     1.292
    65   1 H        0.923     0.024     2.672     2.556
    66   1 H        0.925     0.067     2.119     2.277
    67   1 H        0.925     0.047     2.361     2.403
    68   1 H        0.925     0.051     2.305     2.374
    69   5 B        2.781     0.078    20.172     7.509
    70   7 N        2.775    -0.227    25.949     7.566
    71   5 B        2.788     0.092    19.931     7.463
    72   7 N        2.524    -0.313    28.085     7.870
    73   5 B        2.779     0.084    20.076     7.492
    74   7 N        2.655    -0.268    26.928     7.707
    75   5 B        2.850     0.242    17.655     7.016
    76   7 N        2.529    -0.271    27.046     7.723
    77   5 B        3.195     0.151    18.918     7.254
    78   7 N        2.980    -0.108    23.363     7.179
    79   5 B        2.644     0.373    16.321     6.813
    80   7 N        2.669    -0.210    25.585     7.512
    81   5 B        3.182     0.024    20.967     7.637
    82   7 N        2.884    -0.222    25.834     7.549
    83   5 B        3.009     0.209    18.075     7.092
    84   7 N        2.660    -0.162    24.498     7.351
    85   5 B        2.904     0.319    16.612     6.802
    86   7 N        3.161    -0.076    22.713     7.078
    87   5 B        2.779     0.094    19.902     7.459
    88   7 N        3.040    -0.124    23.679     7.227
    89   5 B        2.758     0.090    20.001     7.483
    90   7 N        2.634    -0.308    27.927     7.849
    91   5 B        3.037     0.227    17.819     7.041
    92   7 N        2.984     0.004    21.178     6.835
    93   5 B        2.582     0.325    17.314     7.089
    94   7 N        2.597    -0.357    29.217     8.028
    95   5 B        3.285     0.339    16.343     6.742
    96   7 N        2.785    -0.251    26.522     7.649
    97   5 B        2.559     0.319    17.605     7.186
    98   7 N        2.579    -0.366    29.454     8.060
    99   5 B        2.529     0.301    18.231     7.378
   100   7 N        2.665    -0.203    25.426     7.489
   101   5 B        2.697     0.195    18.512     7.221
   102   7 N        2.844    -0.166    24.581     7.364
   103   5 B        2.758     0.082    20.125     7.506
   104   7 N        2.672    -0.172    24.731     7.386
   105   5 B        2.876     0.111    19.565     7.383
   106   7 N        2.663    -0.142    24.075     7.287
   107   5 B        2.594     0.311    17.397     7.088
   108   7 N        2.519    -0.352    29.120     8.014
   109   5 B        2.683     0.184    18.719     7.268
   110   7 N        3.006    -0.130    23.809     7.247
   111   5 B        2.677     0.210    18.361     7.202
   112   7 N        2.716    -0.246    26.416     7.633
   113   5 B        2.647     0.164    19.168     7.381
   114   7 N        2.826    -0.204    25.431     7.490
   115   5 B        3.321     0.231    17.771     7.030
   116   7 N        2.531    -0.284    27.367     7.769
   117   5 B        2.949     0.038    20.742     7.599
   118   7 N        2.783    -0.183    24.959     7.420
   119   5 B        2.796     0.085    20.030     7.480
   120   7 N        2.673    -0.154    24.339     7.327
   121   5 B        3.022     0.210    18.056     7.088
   122   7 N        3.274     0.017    20.953     6.799
   123   5 B        2.872     0.305    16.806     6.843
   124   7 N        3.153    -0.116    23.513     7.202
   125   5 B        3.262     0.320    16.589     6.792
   126   7 N        2.833    -0.060    22.398     7.029
   127   5 B        3.303     0.231    17.762     7.028
   128   7 N        2.656    -0.180    24.903     7.412
   129   5 B        2.838     0.113    19.557     7.385
   130   7 N        2.833    -0.223    25.868     7.554
   131   5 B        2.862     0.252    17.507     6.985
   132   7 N        2.654    -0.229    26.012     7.575
   133   5 B        3.011     0.115    19.470     7.360
   134   7 N        3.153    -0.085    22.883     7.105
   135   5 B        2.674     0.201    18.495     7.230
   136   7 N        2.698    -0.229    26.013     7.575
   137   5 B        2.584     0.368    16.735     6.965
   138   7 N        2.882    -0.179    24.867     7.406
   139   5 B        2.825     0.107    19.661     7.406
   140   7 N        2.828    -0.251    26.521     7.649

 Mol. C6AA /au·bohr⁶  :     314261.362745
 Mol. C8AA /au·bohr⁸  :    8485274.950316
 Mol. α(0) /au        :        870.185188


Wiberg/Mayer (AO) data.
largest (>0.10) Wiberg bond orders for each atom

 ---------------------------------------------------------------------------
     #   Z sym  total        # sym  WBO       # sym  WBO       # sym  WBO
 ---------------------------------------------------------------------------
     1   6 C    3.941 --     2 O    0.980    41 H    0.978    42 H    0.975
                            40 H    0.975
     2   8 O    2.306 --     3 C    1.120     1 C    0.980
     3   6 C    3.935 --     4 C    1.351    20 C    1.284     2 O    1.120
     4   6 C    3.973 --     5 C    1.440     3 C    1.351    43 H    0.964
     5   6 C    3.980 --     4 C    1.440     6 C    1.434    44 H    0.969
     6   6 C    3.977 --     5 C    1.434     7 C    1.385    45 H    0.963
     7   6 C    3.981 --     6 C    1.385    20 C    1.328     8 C    1.049
     8   6 C    3.926 --     9 O    1.620    10 C    1.127     7 C    1.049
     9   8 O    2.027 --     8 C    1.620
    10   6 C    3.978 --    11 C    1.308    17 C    1.252     8 C    1.127
    11   6 C    3.942 --    10 C    1.308    13 C    1.254    12 O    1.183
    12   8 O    2.187 --    11 C    1.183    46 H    0.761
    13   6 C    3.977 --    14 C    1.479    11 C    1.254    29 C    0.988
    14   6 C    3.975 --    13 C    1.479    15 C    1.242    21 C    1.017
    15   6 C    3.943 --    17 C    1.334    14 C    1.242    16 O    1.172
    16   8 O    2.174 --    15 C    1.172    47 H    0.762
    17   6 C    3.978 --    15 C    1.334    10 C    1.252    18 C    1.096
    18   6 C    3.933 --    19 O    1.638    17 C    1.096    20 C    1.073
    19   8 O    2.050 --    18 C    1.638
    20   6 C    3.978 --     7 C    1.328     3 C    1.284    18 C    1.073
    21   6 C    3.990 --    14 C    1.017    22 C    0.971    49 H    0.957
                            48 H    0.949
    22   6 C    3.949 --    23 O    0.975    21 C    0.971    28 C    0.951
                            24 C    0.946
    23   8 O    1.973 --    22 C    0.975    50 H    0.885
    24   6 C    3.908 --    25 O    1.893    26 C    0.963    22 C    0.946
    25   8 O    2.094 --    24 C    1.893
    26   6 C    3.964 --    27 O    1.014    52 H    0.968    24 C    0.963
                            51 H    0.942
    27   8 O    1.966 --    26 C    1.014    53 H    0.864
    28   6 C    3.991 --    29 C    0.986    55 H    0.970    54 H    0.966
                            22 C    0.951
    29   6 C    3.953 --    13 C    0.988    28 C    0.986    30 O    0.964
                            56 H    0.943
    30   8 O    2.092 --    31 C    0.970    29 C    0.964
    31   6 C    3.927 --    32 C    0.980    39 O    0.977    30 O    0.970
                            57 H    0.947
    32   6 C    3.993 --    33 C    0.998    31 C    0.980    58 H    0.973
                            59 H    0.971
    33   6 C    3.987 --    34 N    1.020    32 C    0.998    60 H    0.963
                            35 C    0.956
    34   7 N    3.009 --    33 C    1.020    62 H    0.962    61 H    0.960
    35   6 C    3.964 --    36 O    1.012    63 H    0.967    37 C    0.959
                            33 C    0.956
    36   8 O    1.974 --    35 C    1.012    64 H    0.876
    37   6 C    3.949 --    38 C    1.006    65 H    0.962    39 O    0.961
                            35 C    0.959
    38   6 C    3.992 --    37 C    1.006    68 H    0.984    67 H    0.984
                            66 H    0.982
    39   8 O    2.087 --    31 C    0.977    37 C    0.961
    40   1 H    0.998 --     1 C    0.975
    41   1 H    0.994 --     1 C    0.978
    42   1 H    0.998 --     1 C    0.975
    43   1 H    0.997 --     4 C    0.964
    44   1 H    0.997 --     5 C    0.969
    45   1 H    0.995 --     6 C    0.963
    46   1 H    0.870 --    12 O    0.761
    47   1 H    0.870 --    16 O    0.762
    48   1 H    0.992 --    21 C    0.949
    49   1 H    0.991 --    21 C    0.957
    50   1 H    0.909 --    23 O    0.885
    51   1 H    0.998 --    26 C    0.942
    52   1 H    0.994 --    26 C    0.968
    53   1 H    0.898 --    27 O    0.864
    54   1 H    0.996 --    28 C    0.966
    55   1 H    0.996 --    28 C    0.970
    56   1 H    0.995 --    29 C    0.943
    57   1 H    0.998 --    31 C    0.947
    58   1 H    0.997 --    32 C    0.973
    59   1 H    0.996 --    32 C    0.971
    60   1 H    0.999 --    33 C    0.963
    61   1 H    0.976 --    34 N    0.960
    62   1 H    0.979 --    34 N    0.962
    63   1 H    0.999 --    35 C    0.967
    64   1 H    0.901 --    36 O    0.876
    65   1 H    0.999 --    37 C    0.962
    66   1 H    0.995 --    38 C    0.982
    67   1 H    0.998 --    38 C    0.984
    68   1 H    0.997 --    38 C    0.984
    69   5 B    3.472 --   138 N    1.278   121 B    1.000   115 B    0.970
    70   7 N    3.396 --   115 B    1.142   128 N    1.007   127 B    0.999
    71   5 B    3.466 --   116 N    1.277   139 B    0.978   127 B    0.959
    72   7 N    3.531 --   131 B    1.152   129 B    1.149    99 B    1.019
    73   5 B    3.465 --   106 N    1.242   135 B    0.996   109 B    0.990
    74   7 N    3.266 --    95 B    1.200   137 B    0.970   132 N    0.889
    75   5 B    3.406 --   108 N    1.180    82 N    1.028    91 B    0.964
    76   7 N    3.569 --    89 B    1.276    77 B    1.159   133 B    0.973
    77   5 B    3.393 --    76 N    1.159   119 B    0.932   117 B    0.638
                            81 B    0.294
    78   7 N    3.324 --    83 B    1.113   122 N    1.043   134 N    0.945
    79   5 B    3.432 --    80 N    1.187    90 N    1.125   118 N    0.962
    80   7 N    3.448 --    79 B    1.187   107 B    1.088   120 N    0.967
    81   5 B    3.454 --   117 B    1.284   133 B    1.002   131 B    0.627
                            77 B    0.294
    82   7 N    3.426 --    85 B    1.238    75 B    1.028    96 N    0.930
    83   5 B    3.390 --    78 N    1.113   102 N    1.039   129 B    1.005
    84   7 N    3.511 --    87 B    1.205   107 B    1.125   104 N    0.999
    85   5 B    3.512 --    82 N    1.238   110 N    1.063   130 N    1.006
    86   7 N    3.350 --   135 B    1.147   138 N    0.991    88 N    0.985
    87   5 B    3.413 --    84 N    1.205   105 B    1.008   119 B    0.926
    88   7 N    3.318 --   123 B    1.127    86 N    0.985    92 N    0.973
    89   5 B    3.464 --    76 N    1.276   103 B    0.978   113 B    0.932
    90   7 N    3.220 --    79 B    1.125    93 B    1.071   118 N    0.793
    91   5 B    3.368 --   104 N    1.155    96 N    0.988    75 B    0.964
    92   7 N    3.097 --   110 N    1.013    88 N    0.973   136 N    0.942
    93   5 B    3.510 --   130 N    1.241    90 N    1.071   108 N    0.990
    94   7 N    3.435 --    99 B    1.200   127 B    1.063   115 B    0.928
    95   5 B    3.481 --    74 N    1.200   112 N    1.042    98 N    0.981
    96   7 N    3.281 --   101 B    1.171    91 B    0.988    82 N    0.930
    97   5 B    3.524 --   132 N    1.216   136 N    1.118   124 N    1.031
    98   7 N    3.433 --   111 B    1.222   125 B    0.993    95 B    0.981
    99   5 B    3.519 --    94 N    1.200   140 N    1.099    72 N    1.019
   100   7 N    3.443 --   137 B    1.264   111 B    0.996   126 N    0.990
   101   5 B    3.444 --    96 N    1.171   128 N    1.121   139 B    0.922
   102   7 N    3.470 --   103 B    1.260    83 B    1.039   134 N    0.984
   103   5 B    3.421 --   102 N    1.260    89 B    0.978   111 B    0.959
   104   7 N    3.513 --   139 B    1.170    91 B    1.155    84 N    0.999
   105   5 B    3.347 --   117 B    1.008    87 B    1.008   116 N    0.964
   106   7 N    3.511 --    73 B    1.242   109 B    1.092   112 N    1.037
   107   5 B    3.516 --    84 N    1.125   108 N    1.101    80 N    1.088
   108   7 N    3.479 --    75 B    1.180   107 B    1.101    93 B    0.990
   109   5 B    3.464 --   114 N    1.179   106 N    1.092    73 B    0.990
   110   7 N    3.250 --    85 B    1.063    92 N    1.013   124 N    0.975
   111   5 B    3.391 --    98 N    1.222   100 N    0.996   103 B    0.959
   112   7 N    3.373 --    95 B    1.042   106 N    1.037   125 B    0.985
   113   5 B    3.454 --   126 N    1.191   120 N    1.079    89 B    0.932
   114   7 N    3.408 --   109 B    1.179   121 B    1.074   122 N    0.960
   115   5 B    3.364 --    70 N    1.142    69 B    0.970    94 N    0.928
                           127 B    0.127
   116   7 N    3.562 --    71 B    1.277   131 B    1.105   105 B    0.964
   117   5 B    3.365 --    81 B    1.284   105 B    1.008    77 B    0.638
                           131 B    0.187
   118   7 N    2.987 --   126 N    1.045    79 B    0.962    90 N    0.793
   119   5 B    3.455 --   120 N    1.266    77 B    0.932    87 B    0.926
   120   7 N    3.482 --   119 B    1.266   113 B    1.079    80 N    0.967
   121   5 B    3.445 --   140 N    1.131   114 N    1.074    69 B    1.000
   122   7 N    3.187 --    78 N    1.043   114 N    0.960   140 N    0.951
   123   5 B    3.520 --   128 N    1.168    88 N    1.127   138 N    0.995
   124   7 N    3.211 --    97 B    1.031   130 N    0.983   110 N    0.975
   125   5 B    3.508 --   134 N    1.265    98 N    0.993   112 N    0.985
   126   7 N    3.440 --   113 B    1.191   118 N    1.045   100 N    0.990
   127   5 B    3.326 --    94 N    1.063    70 N    0.999    71 B    0.959
                           115 B    0.127
   128   7 N    3.490 --   123 B    1.168   101 B    1.121    70 N    1.007
   129   5 B    3.384 --    72 N    1.149    83 B    1.005   133 B    1.002
   130   7 N    3.445 --    93 B    1.241    85 B    1.006   124 N    0.983
   131   5 B    3.444 --    72 N    1.152   116 N    1.105    81 B    0.627
                           117 B    0.187   133 B    0.119
   132   7 N    3.333 --    97 B    1.216   137 B    1.031    74 N    0.889
   133   5 B    3.331 --    81 B    1.002   129 B    1.002    76 N    0.973
                           131 B    0.119
   134   7 N    3.440 --   125 B    1.265   102 N    0.984    78 N    0.945
   135   5 B    3.445 --    86 N    1.147   136 N    1.109    73 B    0.996
   136   7 N    3.382 --    97 B    1.118   135 B    1.109    92 N    0.942
   137   5 B    3.440 --   100 N    1.264   132 N    1.031    74 N    0.970
   138   7 N    3.473 --    69 B    1.278   123 B    0.995    86 N    0.991
   139   5 B    3.359 --   104 N    1.170    71 B    0.978   101 B    0.922
   140   7 N    3.419 --   121 B    1.131    99 B    1.099   122 N    0.951
 ---------------------------------------------------------------------------

Topologies differ in total number of bonds
Writing topology from bond orders to xtbtopo.mol

molecular dipole:
                 x           y           z       tot (Debye)
 q only:        2.482       1.335      -6.869
   full:        1.718      -0.004      -5.144      13.785
molecular quadrupole (traceless):
                xx          xy          yy          xz          yz          zz
 q only:       23.432     -16.054      63.742      46.152     -42.507     -87.173
  q+dip:       41.084     -17.461      83.706      78.529     -54.829    -124.789
   full:       44.624     -15.668      80.197      80.982     -53.743    -124.821

           -------------------------------------------------
          |                Geometry Summary                 |
           -------------------------------------------------

      molecular mass/u    :     1436.9586337
   center of mass at/Å    :       -0.0202113      -0.1600380       4.3728512
  moments of inertia/u·Å² :        0.2105338E+05   0.5637991E+05   0.6339037E+05
rotational constants/cm⁻¹ :        0.8007092E-03   0.2990007E-03   0.2659336E-03

 * 156 selected distances

     #   Z          #   Z                                           value/Å
     1   6 C        2   8 O                                       1.4071147
     2   8 O        3   6 C                                       1.3427281
     3   6 C        4   6 C                                       1.3962977
     4   6 C        5   6 C                                       1.3827940
     5   6 C        6   6 C                                       1.3791372
     6   6 C        7   6 C                                       1.3918777
     8   6 C        9   8 O                                       1.2408460
    10   6 C       11   6 C                                       1.4059714
    11   6 C       12   8 O                                       1.3292317
    11   6 C       13   6 C                                       1.4141343
    13   6 C       14   6 C                                       1.3749708
    14   6 C       15   6 C                                       1.4172329
    15   6 C       16   8 O                                       1.3336321
    10   6 C       17   6 C                                       1.4149600
    15   6 C       17   6 C                                       1.4013636
    18   6 C       19   8 O                                       1.2368305
     3   6 C       20   6 C                                       1.4161375
     7   6 C       20   6 C                                       1.4024535
    21   6 C       22   6 C                                       1.5314606
    22   6 C       23   8 O                                       1.4182873
    24   6 C       25   8 O                                       1.2031520
    26   6 C       27   8 O                                       1.3992158
    22   6 C       28   6 C                                       1.5369405
    28   6 C       29   6 C                                       1.5291316
    29   6 C       30   8 O                                       1.4198874
    30   8 O       31   6 C                                       1.4033235
    31   6 C       32   6 C                                       1.5305629
    32   6 C       33   6 C                                       1.5276126
    33   6 C       34   7 N                                       1.4577267
    35   6 C       36   8 O                                       1.4031900
    37   6 C       38   6 C                                       1.5226855
    31   6 C       39   8 O                                       1.4032798
    37   6 C       39   8 O                                       1.4213686
     1   6 C       40   1 H                                       1.0946918
     1   6 C       41   1 H                                       1.0889842
     1   6 C       42   1 H                                       1.0947046
     4   6 C       43   1 H                                       1.0782473
     5   6 C       44   1 H                                       1.0796318
     6   6 C       45   1 H                                       1.0786299
    12   8 O       46   1 H                                       1.0004699
    16   8 O       47   1 H                                       1.0001681
    21   6 C       48   1 H                                       1.0957269
    21   6 C       49   1 H                                       1.0932099
    23   8 O       50   1 H                                       0.9640163 (min)
    26   6 C       51   1 H                                       1.1034342
    26   6 C       52   1 H                                       1.0925304
    27   8 O       53   1 H                                       0.9673476
    28   6 C       54   1 H                                       1.0945180
    28   6 C       55   1 H                                       1.0917919
    29   6 C       56   1 H                                       1.0999612
    31   6 C       57   1 H                                       1.0997888
    32   6 C       58   1 H                                       1.0892592
    32   6 C       59   1 H                                       1.0899662
    33   6 C       60   1 H                                       1.1048075
    34   7 N       61   1 H                                       1.0147978
    34   7 N       62   1 H                                       1.0129804
    35   6 C       63   1 H                                       1.0943606
    36   8 O       64   1 H                                       0.9681238
    37   6 C       65   1 H                                       1.0992227
    38   6 C       66   1 H                                       1.0858133
    38   6 C       67   1 H                                       1.0864376
    38   6 C       68   1 H                                       1.0857307
    76   7 N       77   5 B                                       1.4425326
    79   5 B       80   7 N                                       1.4039201
    75   5 B       82   7 N                                       1.4740586
    78   7 N       83   5 B                                       1.4398020
    82   7 N       85   5 B                                       1.3859367
    84   7 N       87   5 B                                       1.4226013
    86   7 N       88   7 N                                       1.4197096
    76   7 N       89   5 B                                       1.4230908
    79   5 B       90   7 N                                       1.3947443
    75   5 B       91   5 B                                       1.5749037
    88   7 N       92   7 N                                       1.4186075
    90   7 N       93   5 B                                       1.4331554
    74   7 N       95   5 B                                       1.3899516
    91   5 B       96   7 N                                       1.4855023
    95   5 B       98   7 N                                       1.4708339
    72   7 N       99   5 B                                       1.4896746
    94   7 N       99   5 B                                       1.4137614
    96   7 N      101   5 B                                       1.4382243
    83   5 B      102   7 N                                       1.4567509
    89   5 B      103   5 B                                       1.6642793
   102   7 N      103   5 B                                       1.4081323
    91   5 B      104   7 N                                       1.4210974
    87   5 B      105   5 B                                       1.6423222
    73   5 B      106   7 N                                       1.4054742
    80   7 N      107   5 B                                       1.4478862
    84   7 N      107   5 B                                       1.4592296
    75   5 B      108   7 N                                       1.4256820
    93   5 B      108   7 N                                       1.4921164
   107   5 B      108   7 N                                       1.4591427
    73   5 B      109   5 B                                       1.5729382
   106   7 N      109   5 B                                       1.4137398
    85   5 B      110   7 N                                       1.4461862
    92   7 N      110   7 N                                       1.3914210
    98   7 N      111   5 B                                       1.4196605
   100   7 N      111   5 B                                       1.4801064
   103   5 B      111   5 B                                       1.6740536 (max)
    95   5 B      112   7 N                                       1.4503797
   106   7 N      112   7 N                                       1.3684703
   109   5 B      114   7 N                                       1.4092882
    69   5 B      115   5 B                                       1.6088265
    70   7 N      115   5 B                                       1.4247600
    94   7 N      115   5 B                                       1.4987225
    71   5 B      116   7 N                                       1.4098441
   105   5 B      116   7 N                                       1.4906454
    81   5 B      117   5 B                                       1.5157660
   105   5 B      117   5 B                                       1.6059268
    79   5 B      118   7 N                                       1.4293981
    77   5 B      119   5 B                                       1.6493273
    87   5 B      119   5 B                                       1.6621032
   113   5 B      120   7 N                                       1.4616806
   119   5 B      120   7 N                                       1.4028094
    69   5 B      121   5 B                                       1.6191642
   114   7 N      121   5 B                                       1.4427683
    78   7 N      122   7 N                                       1.3674681
    88   7 N      123   5 B                                       1.4401215
    97   5 B      124   7 N                                       1.4558491
   110   7 N      124   7 N                                       1.4373040
    98   7 N      125   5 B                                       1.4565046
   112   7 N      125   5 B                                       1.4637504
   113   5 B      126   7 N                                       1.4270445
   118   7 N      126   7 N                                       1.3892238
    70   7 N      127   5 B                                       1.4603915
    71   5 B      127   5 B                                       1.6127197
    94   7 N      127   5 B                                       1.4502907
   101   5 B      128   7 N                                       1.4503230
   123   5 B      128   7 N                                       1.4391459
    72   7 N      129   5 B                                       1.4577307
    83   5 B      129   5 B                                       1.6053672
    85   5 B      130   7 N                                       1.4604358
    93   5 B      130   7 N                                       1.3923325
   124   7 N      130   7 N                                       1.4209202
    72   7 N      131   5 B                                       1.4585251
   116   7 N      131   5 B                                       1.4562547
    97   5 B      132   7 N                                       1.3877546
    76   7 N      133   5 B                                       1.4964920
    81   5 B      133   5 B                                       1.6006428
   129   5 B      133   5 B                                       1.6241269
    78   7 N      134   7 N                                       1.4302310
   102   7 N      134   7 N                                       1.4181123
   125   5 B      134   7 N                                       1.3743542
    73   5 B      135   5 B                                       1.6413756
    86   7 N      135   5 B                                       1.4348021
    97   5 B      136   7 N                                       1.4438305
   135   5 B      136   7 N                                       1.4567300
    74   7 N      137   5 B                                       1.4247879
   100   7 N      137   5 B                                       1.3998614
   132   7 N      137   5 B                                       1.4186661
    69   5 B      138   7 N                                       1.4025401
    86   7 N      138   7 N                                       1.4077491
   123   5 B      138   7 N                                       1.4839363
    71   5 B      139   5 B                                       1.6508461
   104   7 N      139   5 B                                       1.4322235
    99   5 B      140   7 N                                       1.4511357
   121   5 B      140   7 N                                       1.4427856

 * 9 distinct bonds (by element types)

   Z      Z             #   av. dist./Å        max./Å        min./Å
   5 B    5 B          17     1.6190994     1.6740536     1.5157660
   1 H    6 C          22     1.0918840     1.1048075     1.0782473
   6 C    6 C          18     1.4430958     1.5369405     1.3749708
   1 H    7 N           2     1.0138891     1.0147978     1.0129804
   5 B    7 N          66     1.4391196     1.4987225     1.3743542
   6 C    7 N           1     1.4577267     1.4577267     1.4577267
   7 N    7 N          11     1.4062924     1.4373040     1.3674681
   1 H    8 O           5     0.9800252     1.0004699     0.9640163
   6 C    8 O          14     1.3544348     1.4213686     1.2031520


optimized geometry written to: xtbopt.xyz


           -------------------------------------------------
          | TOTAL ENERGY             -270.502556066277 Eh   |
          | GRADIENT NORM               0.002803964414 Eh/α |
          | HOMO-LUMO GAP               0.171030619103 eV   |
           -------------------------------------------------

------------------------------------------------------------------------
 * finished run on 2026/08/31 at 22:27:07.018     
------------------------------------------------------------------------
 total:
 * wall-time:     0 d,  0 h,  0 min,  8.663 sec
 *  cpu-time:     0 d,  0 h,  1 min, 27.500 sec
 * ratio c/w:    10.100 speedup
 SCF:
 * wall-time:     0 d,  0 h,  0 min,  1.875 sec
 *  cpu-time:     0 d,  0 h,  0 min, 18.328 sec
 * ratio c/w:     9.775 speedup
 ANC optimizer:
 * wall-time:     0 d,  0 h,  0 min,  6.709 sec
 *  cpu-time:     0 d,  0 h,  1 min,  8.578 sec
 * ratio c/w:    10.222 speedup

normal termination of xtb
