      -----------------------------------------------------------      
     |                   =====================                   |     
     |                           x T B                           |     
     |                   =====================                   |     
     |                         S. Grimme                         |     
     |          Mulliken Center for Theoretical Chemistry        |     
     |                    University of Bonn                     |     
      -----------------------------------------------------------      

   * xtb version 6.7.1pre (5071a88) compiled by 'Marcel@Raven' on 2024-07-23

   xtb is free software: you can redistribute it and/or modify it under
   the terms of the GNU Lesser General Public License as published by
   the Free Software Foundation, either version 3 of the License, or
   (at your option) any later version.
   
   xtb is distributed in the hope that it will be useful,
   but WITHOUT ANY WARRANTY; without even the implied warranty of
   MERCHANTABILITY or FITNESS FOR A PARTICULAR PURPOSE.  See the
   GNU Lesser General Public License for more details.
   
   Cite this work as:
   * C. Bannwarth, E. Caldeweyher, S. Ehlert, A. Hansen, P. Pracht,
     J. Seibert, S. Spicher, S. Grimme, WIREs Comput. Mol. Sci., 2020, 11,
     e01493. DOI: 10.1002/wcms.1493
   
   for GFN2-xTB:
   * C. Bannwarth, S. Ehlert and S. Grimme., J. Chem. Theory Comput., 2019,
     15, 1652-1671. DOI: 10.1021/acs.jctc.8b01176
   for GFN1-xTB:
   * S. Grimme, C. Bannwarth, P. Shushkov, J. Chem. Theory Comput., 2017,
     13, 1989-2009. DOI: 10.1021/acs.jctc.7b00118
   for GFN0-xTB:
   * P. Pracht, E. Caldeweyher, S. Ehlert, S. Grimme, ChemRxiv, 2019, preprint.
     DOI: 10.26434/chemrxiv.8326202.v1
   for GFN-FF:
   * S. Spicher and S. Grimme, Angew. Chem. Int. Ed., 2020, 59, 15665-15673.
     DOI: 10.1002/anie.202004239
   
   for ALPB and GBSA implicit solvation:
   * S. Ehlert, M. Stahn, S. Spicher, S. Grimme, J. Chem. Theory Comput.,
     2021, 17, 4250-4261. DOI: 10.1021/acs.jctc.1c00471
   
   for ddCOSMO and CPCM-X implicit solvation:
   * M. Stahn, S. Ehlert, S. Grimme, J. Phys. Chem. A,
     2023, XX, XXXX-XXXX. DOI: 10.1021/acs.jpca.3c04382
   
   for DFT-D4:
   * E. Caldeweyher, C. Bannwarth and S. Grimme, J. Chem. Phys., 2017,
     147, 034112. DOI: 10.1063/1.4993215
   * E. Caldeweyher, S. Ehlert, A. Hansen, H. Neugebauer, S. Spicher,
     C. Bannwarth and S. Grimme, J. Chem. Phys., 2019, 150, 154122.
     DOI: 10.1063/1.5090222
   * E. Caldeweyher, J.-M. Mewes, S. Ehlert and S. Grimme, Phys. Chem. Chem. Phys.
     2020, 22, 8499-8512. DOI: 10.1039/D0CP00502A
   
   for sTDA-xTB:
   * S. Grimme and C. Bannwarth, J. Chem. Phys., 2016, 145, 054103.
     DOI: 10.1063/1.4959605
   
   in the mass-spec context:
   * V. Asgeirsson, C. Bauer and S. Grimme, Chem. Sci., 2017, 8, 4879.
     DOI: 10.1039/c7sc00601b
   * J. Koopman and S. Grimme, ACS Omega 2019, 4, 12, 15120-15133.
     DOI: 10.1021/acsomega.9b02011
   
   for metadynamics refer to:
   * S. Grimme, J. Chem. Theory Comput., 2019, 155, 2847-2862
     DOI: 10.1021/acs.jctc.9b00143
   
   for SPH calculations refer to:
   * S. Spicher and S. Grimme, J. Chem. Theory Comput., 2021, 17, 1701-1714
     DOI: 10.1021/acs.jctc.0c01306
   
   for ONIOM refer to:
   * C. Plett, A. Katbashev, S. Ehlert, S. Grimme, M. Bursch,
     Phys. Chem. Chem. Phys., 2023, 25, 17860-17868. DOI: 10.1039/D3CP02178E
   
   for DIPRO refer to:
   * J. Kohn, N. Gildemeister, S. Grimme, D. Fazzi, A. Hansen,
     J. Chem. Phys., 2023, just accepted.
   
   for PTB refer to:
   * S. Grimme, M. Mueller, A. Hansen, J. Chem. Phys., 2023, 158, 124111.
     DOI: 10.1063/5.0137838
   
   with help from (in alphabetical order)
   P. Atkinson, C. Bannwarth, F. Bohle, G. Brandenburg, E. Caldeweyher
   M. Checinski, S. Dohm, S. Ehlert, S. Ehrlich, I. Gerasimov, C. Hölzer
   A. Katbashev, J. Kohn, J. Koopman, C. Lavigne, S. Lehtola, F. März, M. Müller,
   F. Musil, H. Neugebauer, J. Pisarek, C. Plett, P. Pracht, F. Pultar,
   J. Seibert, P. Shushkov, S. Spicher, M. Stahn, M. Steiner, T. Strunk,
   J. Stückrath, T. Rose, and J. Unsleber
   
 * started run on 2026/08/31 at 22:26:40.049     
   ID    Z sym.   atoms
    1    6 C      1, 3-8, 10, 11, 13-15, 17, 18, 20-22, 24, 26, 28, 29,
                  31-33, 35, 37, 38
    2    8 O      2, 9, 12, 16, 19, 23, 25, 27, 30, 36, 39
    3    7 N      34, 70, 72, 74, 76, 78, 80, 82, 84, 86, 88, 90, 92, 94, 96,
                  98, 100, 102, 104, 106, 108, 110, 112, 114, 116, 118, 120,
                  122, 124, 126, 128, 130, 132, 134, 136, 138, 140
    4    1 H      40-68
    5    5 B      69, 71, 73, 75, 77, 79, 81, 83, 85, 87, 89, 91, 93, 95, 97,
                  99, 101, 103, 105, 107, 109, 111, 113, 115, 117, 119, 121,
                  123, 125, 127, 129, 131, 133, 135, 137, 139

           -------------------------------------------------
          |                Calculation Setup                |
           -------------------------------------------------

          program call               : "c:\Users\Andre\Proyectos doctorado\kras-pancreatic-gC3N4-ai\tools\xtb\xtb-6.7.1\bin\xtb.exe" "c:\Users\Andre\Proyectos doctorado\nano-qsar-ai-therapeutics\calculations\tnbc\Doxorubicin\Doxorubicin_opt_90deg.xyz" --opt vloose --gfn 2 --chrg 0 --uhf 0 --etemp 300 --iterations 500 --cycles 15 --norestart
          coordinate file            : c:\Users\Andre\Proyectos doctorado\nano-qsar-ai-therapeutics\calculations\tnbc\Doxorubicin\Doxorubicin_opt_90deg.xyz
          omp threads                :                    16


molecular fragmentation (1/2 indicates fragments):
111111111111111111111111111111111111111111111111111111111111111111112222
22222222222222222222222222222222222222222222222222222222222222222222
# atoms in fragment 1/2:    68    72
 fragment masses (1/2) :      543.52      893.44
CMA distance (Bohr)    :  21.402
constraining FC (au)   :  0.0500

           -------------------------------------------------
          |                 G F N 2 - x T B                 |
           -------------------------------------------------

        Reference                      10.1021/acs.jctc.8b01176
      * Hamiltonian:
        H0-scaling (s, p, d)           1.850000    2.230000    2.230000
        zeta-weighting                 0.500000
      * Dispersion:
        s8                             2.700000
        a1                             0.520000
        a2                             5.000000
        s9                             5.000000
      * Repulsion:
        kExp                           1.500000    1.000000
        rExp                           1.000000
      * Coulomb:
        alpha                          2.000000
        third order                    shell-resolved
        anisotropic                    true
        a3                             3.000000
        a5                             4.000000
        cn-shift                       1.200000
        cn-exp                         4.000000
        max-rad                        5.000000


          ...................................................
          :                      SETUP                      :
          :.................................................:
          :  # basis functions                 473          :
          :  # atomic orbitals                 473          :
          :  # shells                          251          :
          :  # electrons                       496          :
          :  max. iterations                   500          :
          :  Hamiltonian                  GFN2-xTB          :
          :  restarted?                      false          :
          :  GBSA solvation                  false          :
          :  PC potential                    false          :
          :  electronic temp.          300.0000000     K    :
          :  accuracy                    1.0000000          :
          :  -> integral cutoff          0.2500000E+02      :
          :  -> integral neglect         0.1000000E-07      :
          :  -> SCF convergence          0.1000000E-05 Eh   :
          :  -> wf. convergence          0.1000000E-03 e    :
          :  Broyden damping             0.4000000          :
          :  net charge                          0          :
          :  unpaired electrons                  0          :
          ...................................................

 iter      E             dE          RMSdq      gap      omega  full diag
   1   -272.1460597 -0.272146E+03  0.105E+01    0.17       0.0  T
   2   -271.7469233  0.399136E+00  0.626E+00    0.15       1.0  T
   3   -136.9891486  0.134758E+03  0.121E+01    0.01       1.0  T
   4   -223.8086046 -0.868195E+02  0.747E+00    0.10       1.0  T
   5   -267.7128224 -0.439042E+02  0.342E+00    0.05       1.0  T
   6   -269.7873892 -0.207457E+01  0.306E+00    0.12       1.0  T
   7   -272.5806248 -0.279324E+01  0.176E+00    0.06       1.0  T
   8   -273.0625045 -0.481880E+00  0.140E+00    0.80       1.0  T
   9   -273.0700346 -0.753005E-02  0.123E+00    0.67       1.0  T
  10   -273.0817412 -0.117066E-01  0.108E+00    0.47       1.0  T
  11   -272.5098895  0.571852E+00  0.114E+00    0.13       1.0  T
  12   -272.3061240  0.203765E+00  0.122E+00    0.17       1.0  T
  13   -272.5470880 -0.240964E+00  0.103E+00    0.14       1.0  T
  14   -272.5911772 -0.440892E-01  0.969E-01    0.08       1.0  T
  15   -272.5409361  0.502411E-01  0.103E+00    0.20       1.0  T
  16   -273.0208339 -0.479898E+00  0.547E-01    0.03       1.0  T
  17   -272.5947677  0.426066E+00  0.874E-01    0.12       1.0  T
  18   -273.0979304 -0.503163E+00  0.464E-01    0.28       1.0  T
  19   -273.0989594 -0.102891E-02  0.447E-01    0.22       1.0  T
  20   -272.9287588  0.170201E+00  0.536E-01    0.02       1.0  T
  21   -273.0964331 -0.167674E+00  0.275E-01    0.09       1.0  T
  22   -272.8872298  0.209203E+00  0.611E-01    0.03       1.0  T
  23   -273.1063295 -0.219100E+00  0.139E-01    0.16       1.0  T
  24   -273.1065084 -0.178922E-03  0.101E-01    0.14       1.0  T
  25   -273.1057828  0.725620E-03  0.835E-02    0.12       1.0  T
  26   -273.1078011 -0.201824E-02  0.421E-02    0.16       1.0  T
  27   -273.1078757 -0.746102E-04  0.332E-02    0.19       1.0  T
  28   -273.1077736  0.102067E-03  0.350E-02    0.21       1.0  T
  29   -273.1078787 -0.105122E-03  0.313E-02    0.21       1.0  T
  30   -273.1079540 -0.752564E-04  0.280E-02    0.20       1.0  T
  31   -273.1080332 -0.791956E-04  0.237E-02    0.20       1.0  T
  32   -273.1081533 -0.120118E-03  0.173E-02    0.19       1.0  T
  33   -273.1082372 -0.839303E-04  0.116E-02    0.17       1.0  T
  34   -273.1082717 -0.344330E-04  0.678E-03    0.17       1.2  T
  35   -273.1082753 -0.361989E-05  0.496E-03    0.16       1.7  T
  36   -273.1082771 -0.184573E-05  0.367E-03    0.16       2.3  T
  37   -273.1082796 -0.244008E-05  0.261E-03    0.16       3.2  T
  38   -273.1082804 -0.783103E-06  0.184E-03    0.16       4.6  T
  39   -273.1082812 -0.823626E-06  0.133E-03    0.17       6.4  T
  40   -273.1082807  0.494891E-06  0.158E-03    0.17       5.3  T
  41   -273.1082801  0.593248E-06  0.169E-03    0.17       5.0  T
  42   -273.1082806 -0.540067E-06  0.128E-03    0.17       6.6  T
  43   -273.1082809 -0.278438E-06  0.105E-03    0.17       8.0  T
  44   -273.1082812 -0.244336E-06  0.770E-04    0.17      11.0  T
  45   -273.1082813 -0.188474E-06  0.453E-04    0.17      18.6  T

   *** convergence criteria satisfied after 45 iterations ***

         #    Occupation            Energy/Eh            Energy/eV
      -------------------------------------------------------------
         1        2.0000           -0.7201256             -19.5956
       ...           ...                  ...                  ...
       242        2.0000           -0.3356449              -9.1334
       243        2.0000           -0.3334929              -9.0748
       244        2.0000           -0.3320706              -9.0361
       245        2.0000           -0.3293630              -8.9624
       246        1.9994           -0.3240379              -8.8175
       247        1.9935           -0.3216900              -8.7536
       248        1.9265           -0.3193522              -8.6900 (HOMO)
       249        0.0806           -0.3132368              -8.5236 (LUMO)
       250                         -0.2913940              -7.9292
       251                         -0.2837747              -7.7219
       252                         -0.2734315              -7.4404
       253                         -0.2724781              -7.4145
       ...                                ...                  ...
       473                          0.9756405              26.5485
      -------------------------------------------------------------
                  HL-Gap            0.0061154 Eh            0.1664 eV
             Fermi-level           -0.3162493 Eh           -8.6056 eV

 SCC (total)                   0 d,  0 h,  0 min,  2.366 sec
 SCC setup                      ...        0 min,  0.001 sec (  0.042%)
 Dispersion                     ...        0 min,  0.006 sec (  0.254%)
 classical contributions        ...        0 min,  0.000 sec (  0.000%)
 integral evaluation            ...        0 min,  0.017 sec (  0.719%)
 iterations                     ...        0 min,  2.290 sec ( 96.788%)
 molecular gradient             ...        0 min,  0.048 sec (  2.029%)
 printout                       ...        0 min,  0.004 sec (  0.169%)

         :::::::::::::::::::::::::::::::::::::::::::::::::::::
         ::                     SUMMARY                     ::
         :::::::::::::::::::::::::::::::::::::::::::::::::::::
         :: total energy            -270.479911363323 Eh    ::
         :: gradient norm              0.117945440733 Eh/a0 ::
         :: HOMO-LUMO gap              0.166408663530 eV    ::
         ::.................................................::
         :: SCC energy              -273.092740573776 Eh    ::
         :: -> isotropic ES            0.873829645028 Eh    ::
         :: -> anisotropic ES         -0.027793144342 Eh    ::
         :: -> anisotropic XC          0.074387875125 Eh    ::
         :: -> dispersion             -0.224757415159 Eh    ::
         :: repulsion energy           2.612829210453 Eh    ::
         :: add. restraining           0.000000000000 Eh    ::
         :: total charge               0.000000000001 e     ::
         :::::::::::::::::::::::::::::::::::::::::::::::::::::

      ----------------------------------------------------------- 
     |                   =====================                   |
     |                        A N C O P T                        |
     |                   =====================                   |
     |               Approximate Normal Coordinate               |
     |                Rational Function Optimizer                |
      ----------------------------------------------------------- 
      ----------------------------------------------------------- 
     |                   =====================                   |
     |                        A N C O P T                        |
     |                   =====================                   |
     |               Approximate Normal Coordinate               |
     |                Rational Function Optimizer                |
      ----------------------------------------------------------- 

          ...................................................
          :                      SETUP                      :
          :.................................................:
          :   optimization level            normal          :
          :   max. optcycles                    15          :
          :   ANC micro-cycles                  15          :
          :   degrees of freedom               414          :
          :.................................................:
          :   RF solver                   davidson          :
          :   write xtbopt.log                true          :
          :   linear?                        false          :
          :   energy convergence         0.5000000E-05 Eh   :
          :   grad. convergence          0.1000000E-02 Eh/α :
          :   maxmium RF displ.          1.0000000          :
          :   Hlow (freq-cutoff)         0.1000000E-01      :
          :   Hmax (freq-cutoff)         5.0000000          :
          :   S6 in model hess.         20.0000000          :
          ...................................................

generating ANC from exact Hessian ...
Using Lindh-Hessian (1995)
 Shifting diagonal of input Hessian by   1.008565810793759E-002
 Lowest  eigenvalues of input Hessian
    0.010000    0.010005    0.010017    0.000000    0.000000    0.000000
    0.000000    0.000000    0.000000    0.010093    0.010101    0.010106
    0.010265    0.010297    0.010375    0.010444    0.010700    0.011298
 Highest eigenvalues
    2.087489    2.121975    2.154603    2.234262    2.260728    2.314979
 

........................................................................
.............................. CYCLE    1 ..............................
........................................................................

 iter      E             dE          RMSdq      gap      omega  full diag
   1   -273.1082814 -0.273108E+03  0.393E-04    0.17       0.0  T
   2   -273.1082802  0.115456E-05  0.158E-03    0.16       5.4  T
   3   -273.1082814 -0.122655E-05  0.793E-05    0.17     106.5  T
   4   -273.1082814 -0.649607E-09  0.459E-05    0.17     184.0  T
   5   -273.1082814  0.695195E-10  0.455E-05    0.17     185.9  T
     SCC iter.                  ...        0 min,  0.293 sec
     gradient                   ...        0 min,  0.048 sec
 * total energy  :  -270.4799115 Eh     change       -0.9917449E-07 Eh
   gradient norm :     0.1179512 Eh/α   predicted     0.0000000E+00 (-100.00%)
   displ. norm   :     0.3726909 α      lambda       -0.2140467E-01
   maximum displ.:     0.1102065 α      in ANC's #51, #28, #41, ...

........................................................................
.............................. CYCLE    2 ..............................
........................................................................

 iter      E             dE          RMSdq      gap      omega  full diag
   1   -273.1495521 -0.273150E+03  0.147E-01    0.13       0.0  T
   2   -273.1484579  0.109421E-02  0.138E-01    0.41       1.0  T
   3   -273.1517231 -0.326524E-02  0.601E-02    0.18       1.0  T
   4   -273.1366795  0.150437E-01  0.176E-01    0.07       1.0  T
   5   -273.1512189 -0.145394E-01  0.402E-02    0.22       1.0  T
   6   -273.1518112 -0.592310E-03  0.133E-02    0.18       1.0  T
   7   -273.1518370 -0.257932E-04  0.856E-03    0.17       1.0  T
   8   -273.1518570 -0.200397E-04  0.384E-03    0.17       2.2  T
   9   -273.1518606 -0.363246E-05  0.219E-03    0.17       3.9  T
  10   -273.1518614 -0.773654E-06  0.120E-03    0.17       7.0  T
  11   -273.1518617 -0.291291E-06  0.674E-04    0.17      12.5  T
  12   -273.1518618 -0.126860E-06  0.302E-04    0.17      27.9  T
     SCC iter.                  ...        0 min,  0.561 sec
     gradient                   ...        0 min,  0.044 sec
 * total energy  :  -270.4947437 Eh     change       -0.1483229E-01 Eh
   gradient norm :     0.0519911 Eh/α   predicted    -0.1220353E-01 ( -17.72%)
   displ. norm   :     0.3728351 α      lambda       -0.7527183E-02
   maximum displ.:     0.1233228 α      in ANC's #28, #51, #17, ...

........................................................................
.............................. CYCLE    3 ..............................
........................................................................

 iter      E             dE          RMSdq      gap      omega  full diag
   1   -273.1768272 -0.273177E+03  0.111E-01    0.15       0.0  T
   2   -273.1759995  0.827674E-03  0.959E-02    0.28       1.0  T
   3   -273.1741167  0.188283E-02  0.967E-02    0.11       1.0  T
   4   -273.1769101 -0.279336E-02  0.548E-02    0.28       1.0  T
   5   -273.1772892 -0.379189E-03  0.368E-02    0.24       1.0  T
   6   -273.1777169 -0.427688E-03  0.192E-02    0.19       1.0  T
   7   -273.1778457 -0.128725E-03  0.969E-03    0.18       1.0  T
   8   -273.1778834 -0.377172E-04  0.296E-03    0.17       2.9  T
   9   -273.1778838 -0.400700E-06  0.189E-03    0.17       4.5  T
  10   -273.1778847 -0.931439E-06  0.108E-03    0.17       7.8  T
  11   -273.1778850 -0.289762E-06  0.345E-04    0.17      24.5  T
  12   -273.1778850 -0.139923E-07  0.186E-04    0.17      45.5  T
     SCC iter.                  ...        0 min,  0.492 sec
     gradient                   ...        0 min,  0.043 sec
 * total energy  :  -270.4993782 Eh     change       -0.4634458E-02 Eh
   gradient norm :     0.0158447 Eh/α   predicted    -0.4292281E-02 (  -7.38%)
   displ. norm   :     0.2781901 α      lambda       -0.1576135E-02
   maximum displ.:     0.1218807 α      in ANC's #17, #28, #20, ...

........................................................................
.............................. CYCLE    4 ..............................
........................................................................

 iter      E             dE          RMSdq      gap      omega  full diag
   1   -273.1840122 -0.273184E+03  0.495E-02    0.17       0.0  T
   2   -273.1839271  0.851485E-04  0.320E-02    0.19       1.0  T
   3   -273.1817310  0.219605E-02  0.725E-02    0.12       1.0  T
   4   -273.1839011 -0.217011E-02  0.251E-02    0.20       1.0  T
   5   -273.1840288 -0.127670E-03  0.119E-02    0.19       1.0  T
   6   -273.1840834 -0.545574E-04  0.554E-03    0.18       1.5  T
   7   -273.1840944 -0.110305E-04  0.274E-03    0.17       3.1  T
   8   -273.1840970 -0.256138E-05  0.121E-03    0.17       7.0  T
   9   -273.1840974 -0.482862E-06  0.490E-04    0.17      17.2  T
  10   -273.1840974  0.181910E-07  0.439E-04    0.17      19.3  T
     SCC iter.                  ...        0 min,  0.404 sec
     gradient                   ...        0 min,  0.042 sec
 * total energy  :  -270.5004765 Eh     change       -0.1098271E-02 Eh
   gradient norm :     0.0091529 Eh/α   predicted    -0.8491273E-03 ( -22.69%)
   displ. norm   :     0.2869899 α      lambda       -0.8178563E-03
   maximum displ.:     0.1474537 α      in ANC's #17, #13, #15, ...

........................................................................
.............................. CYCLE    5 ..............................
........................................................................

 iter      E             dE          RMSdq      gap      omega  full diag
   1   -273.1865520 -0.273187E+03  0.390E-02    0.17       0.0  T
   2   -273.1865430  0.896426E-05  0.228E-02    0.18       1.0  T
   3   -273.1853705  0.117253E-02  0.515E-02    0.13       1.0  T
   4   -273.1864146 -0.104414E-02  0.195E-02    0.20       1.0  T
   5   -273.1865495 -0.134845E-03  0.664E-03    0.18       1.3  T
   6   -273.1865675 -0.180698E-04  0.254E-03    0.17       3.3  T
   7   -273.1865701 -0.254611E-05  0.101E-03    0.17       8.4  T
   8   -273.1865703 -0.239611E-06  0.454E-04    0.17      18.6  T
   9   -273.1865704 -0.252760E-07  0.306E-04    0.17      27.6  T
     SCC iter.                  ...        0 min,  0.369 sec
     gradient                   ...        0 min,  0.038 sec
 * total energy  :  -270.5010203 Eh     change       -0.5438123E-03 Eh
   gradient norm :     0.0078871 Eh/α   predicted    -0.4426145E-03 ( -18.61%)
   displ. norm   :     0.2294911 α      lambda       -0.3567533E-03
   maximum displ.:     0.1172638 α      in ANC's #17, #13, #15, ...

........................................................................
.............................. CYCLE    6 ..............................
........................................................................

 iter      E             dE          RMSdq      gap      omega  full diag
   1   -273.1876229 -0.273188E+03  0.245E-02    0.17       0.0  T
   2   -273.1876197  0.322486E-05  0.147E-02    0.17       1.0  T
   3   -273.1869937  0.626019E-03  0.360E-02    0.14       1.0  T
   4   -273.1876049 -0.611180E-03  0.697E-03    0.18       1.2  T
   5   -273.1876252 -0.203168E-04  0.196E-03    0.17       4.3  T
   6   -273.1876263 -0.112565E-05  0.978E-04    0.17       8.6  T
   7   -273.1876265 -0.196000E-06  0.559E-04    0.17      15.1  T
   8   -273.1876266 -0.509657E-07  0.247E-04    0.17      34.2  T
     SCC iter.                  ...        0 min,  0.316 sec
     gradient                   ...        0 min,  0.040 sec
 * total energy  :  -270.5012737 Eh     change       -0.2533683E-03 Eh
   gradient norm :     0.0057281 Eh/α   predicted    -0.1877713E-03 ( -25.89%)
   displ. norm   :     0.2414933 α      lambda       -0.2613564E-03
   maximum displ.:     0.1211478 α      in ANC's #13, #15, #17, ...

........................................................................
.............................. CYCLE    7 ..............................
........................................................................

 iter      E             dE          RMSdq      gap      omega  full diag
   1   -273.1876883 -0.273188E+03  0.234E-02    0.17       0.0  T
   2   -273.1876781  0.101247E-04  0.148E-02    0.17       1.0  T
   3   -273.1865069  0.117129E-02  0.486E-02    0.13       1.0  T
   4   -273.1876734 -0.116651E-02  0.663E-03    0.18       1.3  T
   5   -273.1876893 -0.159103E-04  0.248E-03    0.17       3.4  T
   6   -273.1876911 -0.182567E-05  0.133E-03    0.17       6.4  T
   7   -273.1876917 -0.598601E-06  0.479E-04    0.17      17.6  T
   8   -273.1876917 -0.279009E-07  0.268E-04    0.17      31.6  T
     SCC iter.                  ...        0 min,  0.337 sec
     gradient                   ...        0 min,  0.044 sec
 * total energy  :  -270.5014588 Eh     change       -0.1851761E-03 Eh
   gradient norm :     0.0041216 Eh/α   predicted    -0.1383049E-03 ( -25.31%)
   displ. norm   :     0.2217188 α      lambda       -0.1767588E-03
   maximum displ.:     0.1217065 α      in ANC's #13, #15, #17, ...

........................................................................
.............................. CYCLE    8 ..............................
........................................................................

 iter      E             dE          RMSdq      gap      omega  full diag
   1   -273.1876513 -0.273188E+03  0.205E-02    0.17       0.0  T
   2   -273.1876487  0.257264E-05  0.125E-02    0.17       1.0  T
   3   -273.1872164  0.432315E-03  0.296E-02    0.14       1.0  T
   4   -273.1876385 -0.422147E-03  0.605E-03    0.17       1.4  T
   5   -273.1876525 -0.140053E-04  0.163E-03    0.17       5.2  T
   6   -273.1876530 -0.492464E-06  0.101E-03    0.17       8.3  T
   7   -273.1876533 -0.269188E-06  0.461E-04    0.17      18.3  T
   8   -273.1876533 -0.273960E-07  0.235E-04    0.17      36.0  T
     SCC iter.                  ...        0 min,  0.361 sec
     gradient                   ...        0 min,  0.040 sec
 * total energy  :  -270.5015873 Eh     change       -0.1284198E-03 Eh
   gradient norm :     0.0039664 Eh/α   predicted    -0.9272535E-04 ( -27.80%)
   displ. norm   :     0.2128213 α      lambda       -0.1374180E-03
   maximum displ.:     0.1183243 α      in ANC's #13, #15, #16, ...

........................................................................
.............................. CYCLE    9 ..............................
........................................................................

 iter      E             dE          RMSdq      gap      omega  full diag
   1   -273.1875227 -0.273188E+03  0.205E-02    0.17       0.0  T
   2   -273.1875178  0.488489E-05  0.123E-02    0.16       1.0  T
   3   -273.1872912  0.226616E-03  0.225E-02    0.20       1.0  T
   4   -273.1875236 -0.232357E-03  0.212E-03    0.17       4.0  T
   5   -273.1875240 -0.394540E-06  0.103E-03    0.17       8.2  T
   6   -273.1875242 -0.243844E-06  0.594E-04    0.17      14.2  T
   7   -273.1875243 -0.381004E-07  0.405E-04    0.17      20.9  T
     SCC iter.                  ...        0 min,  0.266 sec
     gradient                   ...        0 min,  0.040 sec
 * total energy  :  -270.5016916 Eh     change       -0.1043075E-03 Eh
   gradient norm :     0.0041602 Eh/α   predicted    -0.7182378E-04 ( -31.14%)
   displ. norm   :     0.2437904 α      lambda       -0.1351861E-03
   maximum displ.:     0.1321309 α      in ANC's #13, #15, #16, ...

........................................................................
.............................. CYCLE   10 ..............................
........................................................................

 iter      E             dE          RMSdq      gap      omega  full diag
   1   -273.1876752 -0.273188E+03  0.235E-02    0.17       0.0  T
   2   -273.1875987  0.764596E-04  0.185E-02    0.15       1.0  T
   3   -273.1873006  0.298105E-03  0.301E-02    0.21       1.0  T
   4   -273.1876487 -0.348121E-03  0.855E-03    0.18       1.0  T
   5   -273.1876766 -0.279041E-04  0.314E-03    0.17       2.7  T
   6   -273.1876808 -0.413451E-05  0.108E-03    0.17       7.8  T
   7   -273.1876809 -0.140171E-06  0.675E-04    0.17      12.5  T
   8   -273.1876810 -0.104175E-06  0.313E-04    0.17      27.0  T
     SCC iter.                  ...        0 min,  0.314 sec
     gradient                   ...        0 min,  0.037 sec
 * total energy  :  -270.5017934 Eh     change       -0.1018581E-03 Eh
   gradient norm :     0.0036572 Eh/α   predicted    -0.7161484E-04 ( -29.69%)
   displ. norm   :     0.2590595 α      lambda       -0.1208892E-03
   maximum displ.:     0.1349775 α      in ANC's #13, #15, #16, ...

........................................................................
.............................. CYCLE   11 ..............................
........................................................................

 iter      E             dE          RMSdq      gap      omega  full diag
   1   -273.1879600 -0.273188E+03  0.254E-02    0.17       0.0  T
   2   -273.1877270  0.233000E-03  0.266E-02    0.15       1.0  T
   3   -273.1876918  0.351841E-04  0.271E-02    0.21       1.0  T
   4   -273.1879214 -0.229627E-03  0.108E-02    0.18       1.0  T
   5   -273.1879593 -0.379180E-04  0.536E-03    0.18       1.6  T
   6   -273.1879717 -0.123448E-04  0.190E-03    0.17       4.4  T
   7   -273.1879730 -0.133852E-05  0.629E-04    0.17      13.4  T
   8   -273.1879730  0.171539E-07  0.497E-04    0.17      17.0  T
   9   -273.1879731 -0.613751E-07  0.275E-04    0.17      30.7  T
     SCC iter.                  ...        0 min,  0.384 sec
     gradient                   ...        0 min,  0.039 sec
 * total energy  :  -270.5018837 Eh     change       -0.9025626E-04 Eh
   gradient norm :     0.0028909 Eh/α   predicted    -0.6450300E-04 ( -28.53%)
   displ. norm   :     0.2548925 α      lambda       -0.1030192E-03
   maximum displ.:     0.1249670 α      in ANC's #13, #16, #6, ...

........................................................................
.............................. CYCLE   12 ..............................
........................................................................

 iter      E             dE          RMSdq      gap      omega  full diag
   1   -273.1884837 -0.273188E+03  0.255E-02    0.18       0.0  T
   2   -273.1881996  0.284117E-03  0.288E-02    0.15       1.0  T
   3   -273.1882696 -0.700011E-04  0.250E-02    0.20       1.0  T
   4   -273.1884535 -0.183921E-03  0.102E-02    0.18       1.0  T
   5   -273.1884857 -0.321379E-04  0.530E-03    0.18       1.6  T
   6   -273.1884976 -0.119200E-04  0.199E-03    0.17       4.2  T
   7   -273.1884991 -0.151269E-05  0.660E-04    0.17      12.8  T
   8   -273.1884991  0.216730E-07  0.503E-04    0.17      16.8  T
   9   -273.1884991 -0.657633E-07  0.270E-04    0.17      31.3  T
     SCC iter.                  ...        0 min,  0.360 sec
     gradient                   ...        0 min,  0.041 sec
 * total energy  :  -270.5019600 Eh     change       -0.7628093E-04 Eh
   gradient norm :     0.0027684 Eh/α   predicted    -0.5486437E-04 ( -28.08%)
   displ. norm   :     0.2472983 α      lambda       -0.8729539E-04
   maximum displ.:     0.1111026 α      in ANC's #13, #6, #10, ...

........................................................................
.............................. CYCLE   13 ..............................
........................................................................

 iter      E             dE          RMSdq      gap      omega  full diag
   1   -273.1888906 -0.273189E+03  0.248E-02    0.18       0.0  T
   2   -273.1886849  0.205608E-03  0.258E-02    0.15       1.0  T
   3   -273.1886651  0.198315E-04  0.248E-02    0.20       1.0  T
   4   -273.1888642 -0.199119E-03  0.938E-03    0.18       1.0  T
   5   -273.1888917 -0.274488E-04  0.480E-03    0.18       1.8  T
   6   -273.1889015 -0.985583E-05  0.177E-03    0.17       4.8  T
   7   -273.1889027 -0.113758E-05  0.626E-04    0.17      13.5  T
   8   -273.1889027  0.215721E-08  0.439E-04    0.17      19.3  T
   9   -273.1889027 -0.563085E-07  0.216E-04    0.17      39.2  T
     SCC iter.                  ...        0 min,  0.420 sec
     gradient                   ...        0 min,  0.042 sec
 * total energy  :  -270.5020254 Eh     change       -0.6544038E-04 Eh
   gradient norm :     0.0029767 Eh/α   predicted    -0.4631916E-04 ( -29.22%)
   displ. norm   :     0.2516948 α      lambda       -0.8245705E-04
   maximum displ.:     0.0982073 α      in ANC's #13, #6, #10, ...

........................................................................
.............................. CYCLE   14 ..............................
........................................................................

 iter      E             dE          RMSdq      gap      omega  full diag
   1   -273.1892002 -0.273189E+03  0.247E-02    0.18       0.0  T
   2   -273.1890898  0.110402E-03  0.217E-02    0.15       1.0  T
   3   -273.1888945  0.195293E-03  0.274E-02    0.21       1.0  T
   4   -273.1891728 -0.278253E-03  0.897E-03    0.18       1.0  T
   5   -273.1891993 -0.265396E-04  0.425E-03    0.18       2.0  T
   6   -273.1892073 -0.797639E-05  0.138E-03    0.17       6.1  T
   7   -273.1892078 -0.484156E-06  0.698E-04    0.17      12.1  T
   8   -273.1892079 -0.986450E-07  0.321E-04    0.17      26.3  T
     SCC iter.                  ...        0 min,  0.402 sec
     gradient                   ...        0 min,  0.041 sec
 * total energy  :  -270.5020884 Eh     change       -0.6297449E-04 Eh
   gradient norm :     0.0030370 Eh/α   predicted    -0.4384488E-04 ( -30.38%)
   displ. norm   :     0.2775385 α      lambda       -0.8548561E-04
   maximum displ.:     0.1077324 α      in ANC's #6, #10, #13, ...

........................................................................
.............................. CYCLE   15 ..............................
........................................................................

 iter      E             dE          RMSdq      gap      omega  full diag
   1   -273.1891175 -0.273189E+03  0.261E-02    0.17       0.0  T
   2   -273.1890872  0.303241E-04  0.179E-02    0.16       1.0  T
   3   -273.1886765  0.410700E-03  0.315E-02    0.22       1.0  T
   4   -273.1891021 -0.425604E-03  0.667E-03    0.18       1.3  T
   5   -273.1891188 -0.167001E-04  0.228E-03    0.17       3.7  T
   6   -273.1891207 -0.190952E-05  0.105E-03    0.17       8.1  T
   7   -273.1891208 -0.162219E-06  0.688E-04    0.17      12.3  T
   8   -273.1891210 -0.123544E-06  0.269E-04    0.17      31.4  T
     SCC iter.                  ...        0 min,  0.321 sec
     gradient                   ...        0 min,  0.039 sec
 * total energy  :  -270.5021542 Eh     change       -0.6586445E-04 Eh
   gradient norm :     0.0028826 Eh/α   predicted    -0.4604032E-04 ( -30.10%)
   displ. norm   :     0.2791512 α      lambda       -0.8270623E-04
   maximum displ.:     0.1149752 α      in ANC's #6, #10, #11, ...

   *** FAILED TO CONVERGE GEOMETRY OPTIMIZATION IN 15 ITERATIONS ***


 ANCopt (total)                0 d,  0 h,  0 min,  6.673 sec
 optimizer setup                ...        0 min,  0.001 sec (  0.015%)
 model hessian                  ...        0 min,  0.082 sec (  1.229%)
 ANC generation                 ...        0 min,  0.026 sec (  0.390%)
 coordinate transformation      ...        0 min,  0.002 sec (  0.030%)
 single point calculation       ...        0 min,  6.521 sec ( 97.722%)
 optimization log               ...        0 min,  0.033 sec (  0.495%)
 hessian update                 ...        0 min,  0.002 sec (  0.030%)
 rational function              ...        0 min,  0.003 sec (  0.045%)

================
 final structure:
================
140
 xtb: 6.7.1pre (5071a88)
C           -1.63587674240481        8.26241679965541       13.07129462003830
O           -1.29696860864808        6.92465467805718       12.79684184356647
C           -2.25429279536633        5.98290833457399       12.79296109572349
C           -3.60038613680131        6.25813999495868       13.04148633445452
C           -4.54703743990580        5.25018552328583       13.03088416440129
C           -4.17098764039587        3.94850922910972       12.77355310978720
C           -2.83692109300910        3.64670833704568       12.51569922069119
C           -2.50183146503545        2.24066617481743       12.24345499501383
O           -3.38607870411304        1.37194756990106       12.29516078498626
C           -1.12694669063945        1.93005937275729       11.90976599304201
C           -0.78119030019302        0.60434873888807       11.59406775801765
O           -1.67443129669048       -0.37880761955230       11.63828005461118
C            0.55053379519491        0.28786260794577       11.23887248269443
C            1.52359724901103        1.25836856713259       11.28058090388005
C            1.18897438199153        2.59489821306367       11.61196706736086
O            2.18128235704680        3.48623016612921       11.61534089966246
C           -0.13607779360509        2.94011603610403       11.91020895591851
C           -0.45494346011101        4.33016083095576       12.23655584675005
O            0.43011046274045        5.19385404188997       12.26389717893834
C           -1.85841003221570        4.65143203872598       12.51737392495537
C            2.96984125394985        0.97633241079226       11.00274053789327
C            3.32218200905222       -0.50977801726260       11.11571853474591
O            4.61344419039938       -0.76692620814497       10.58764462145187
C            3.26966975705125       -0.97363717844528       12.57777295607753
O            2.48987708267316       -0.49379509131241       13.35822166359718
C            4.18631679938076       -2.13094799541977       12.95910325278458
O            5.55122308651133       -1.83311490914132       12.87896856010475
C            2.27442889608320       -1.32284648005787       10.33916970324191
C            0.85654612706424       -1.14758893117816       10.88447373192524
O           -0.06034104602180       -1.60250069595449        9.90045452007132
C           -0.63694871751374       -2.85435869237216       10.16539926435726
C           -1.69771511060884       -3.08235665701361        9.08598871056918
C           -1.97419016200186       -4.57415998028167        8.90701449825317
N           -2.51788491690202       -5.11211606597486       10.14801762294608
C           -0.65606390371907       -5.33974950762702        8.56328057590266
O           -0.61505567272624       -6.58395848812757        9.21024102442300
C            0.57015440691559       -4.47012575865851        8.93876806277412
C            1.84717198881995       -5.29423280855146        9.03153038435141
O            0.33382347476141       -3.86717733776121       10.20392521343526
H           -2.06917879912877        8.37183755451283       14.07061543537051
H           -0.69722327949049        8.81258027991724       13.02511708995305
H           -2.32740803385036        8.66506432890760       12.32421986650030
H           -3.91750486175650        7.26816291209308       13.24626836442194
H           -5.58156342927950        5.48957478323794       13.22601942595400
H           -4.88725708573983        3.14209986603387       12.76289057973261
H           -2.54696203760049        0.03527239243357       11.89891394474978
H            1.77733718833287        4.36304060612377       11.87706755017949
H            3.21423299992834        1.32933523802505        9.99461194635794
H            3.57705483390968        1.55911650754036       11.70039431933364
H            4.60794144210504       -0.54901032482684        9.64862288737835
H            3.92698106597863       -2.98176283772149       12.30617566786435
H            3.98432762819045       -2.40456276205931       13.99734011899542
H            5.72328884592833       -1.47157834283885       11.99839390928070
H            2.27002857830283       -0.98161511652704        9.29920688390071
H            2.53255952876184       -2.38359831930382       10.35095574989837
H            0.72680158012606       -1.75014654014465       11.79545035637878
H           -1.08519434969911       -2.85437401928650       11.16963936045089
H           -2.60524861126304       -2.55438514407382        9.37587604564727
H           -1.34141217096968       -2.64903781330504        8.15150568643068
H           -2.67671942068977       -4.69576739457348        8.06320125014860
H           -2.87025963792461       -6.05120982992503        9.99369820077763
H           -3.28304483741608       -4.53335713172311       10.47327866789559
H           -0.61844038985821       -5.56058184786916        7.49207091407253
H           -0.68547433961255       -6.39124572727539       10.15635134506793
H            0.69813362718164       -3.68681038416199        8.17819904440929
H            1.74890253494065       -6.04672705543239        9.80805029280752
H            2.68798419533552       -4.64986368731594        9.27263554514546
H            2.03300042056124       -5.78795596560084        8.08259796079208
B            3.46153326318275       -1.46649990845492        1.66087118280590
N            3.45380886331068        1.11665246255163        0.97314604210218
B            2.53802587087236        2.35244014544331       -1.22680724066335
N            2.28661366071006       -0.65219127954640       -2.69631112091356
B            0.69574688498818       -3.57427681142175        2.74246343187619
N           -2.93746575880864       -2.66714177586442        1.75319120070317
B           -1.03629642598932        4.07410913297087        1.87234887932161
N           -0.62780416668216        0.00654319529335       -3.90115175941713
B           -0.48260579250239        1.43380257927954       -4.05214401176694
N            1.20507384352013       -3.79615719723093       -1.70305418699580
B           -3.84651337933761        2.19750419140508       -0.44757157188251
N           -2.77578322608660        2.75121111563901       -1.16741375361023
B            1.39546018445017        0.80758428577386       -4.85255128357548
N           -0.23124995211742        3.35247029823692        2.87367395948148
B            0.89172018387261       -2.89074092372520       -2.77785705255914
N           -0.49535139354037        3.75486218507052       -0.97047219516512
B           -0.80257648004897        2.17341271069941        3.32622160221509
N            1.66558817962437       -1.28822910787776        3.54567850995684
B           -0.25464811933574        3.45873263667350       -2.34083109030039
N            1.31979778960396        0.05370526142843        3.86258894344304
B           -1.60500951745189       -0.57172265999936       -3.04333265351202
N           -3.82862624304767        1.76320091729175        0.87748277933891
B            0.33820444639855        4.48416335542197        1.22134806072296
N            0.05082453043709       -0.02749567663482        4.49207193606659
B           -2.70647246172212        2.21508463675408        1.64619122079106
N            3.76824751574438       -0.14359524637139       -0.73316629633250
B           -2.25340565240317       -3.65240091903459        1.05045145012444
N            1.05670119834601        3.71809441032805        2.27172546567803
B           -1.81991252114857       -0.79165068517066        3.26227222284484
N           -2.43772117410196       -3.61368044926459       -0.40801259339295
B            3.01447346237473       -1.08481040537496       -1.47059984767309
N           -3.15898919060930       -1.26447057282214       -0.33949904030837
B            2.03489129364586        2.90900686980374        1.59818637923153
N           -0.51346322500239       -2.91200001418016       -2.39431527134986
B           -1.67987202209900       -2.12517574649353       -2.45090020991597
N            0.58790752304888        3.95246311807075       -0.07255332647010
B            1.08341043197319        2.94836570315279       -3.14497707536336
N            0.07921782290096       -4.36834487045316        1.76028429258107
B           -1.78644781372371        3.44136948177285       -0.36634322479594
N           -2.01166592676386        3.40620398809301        1.07475995825847
B            1.46774526913545       -4.22366881019373        1.53591644949354
N           -0.78898819256638        1.04945136494541        4.23225347378763
B           -2.66982709212379       -2.41454729936365       -1.13220397328990
N           -1.07215502728088       -4.49359734911107        1.03200325084070
B           -2.50921664425431        0.47966008071628       -2.06592249577548
N            2.35069877748007       -3.89647661238844        0.48759759787324
B            3.91195103545960       -0.21431121963590        0.75707094817917
N            1.92394469375073        1.94662734821417       -2.42931852840881
B            0.99194528370388        2.24394238017934       -4.58520667817799
N           -4.18644904691949        0.81696357495069       -0.29930849828831
B           -1.34640572994896        2.44256306897028       -3.07411360408292
N           -2.36482154486425        1.92095827523628       -2.26252911287941
B            3.07327637710511       -2.65623676032776        0.63387202816486
N            2.33104407996928       -3.68344255704628       -0.93552763849556
B            2.22428101370413        0.53195141527788        2.84550471167503
N           -2.01575796063015        0.59778463977135        3.64040384854571
B           -1.10268369157923       -4.19594569479279       -0.40107863569070
N           -3.22017830000205        0.02970263013014       -0.91338153306218
B            3.44609830262307        1.24788868667469       -0.48152040636077
N            2.58251801723891        1.61775164091795        1.97193280711277
B            1.46456867188519       -1.56571755252349       -3.48021222745951
N           -2.09836717563384        1.74317205147309        2.80596087794621
B            2.03474857814597        0.70175496906683       -3.17680261529589
N           -2.71373648796833       -1.35594373971337        2.36342044140601
B            0.64866156734459       -0.54964171358709       -4.44953260625124
N           -0.17213910541465       -3.77044732265645       -1.31839663644591
B            0.49341236582563       -2.11946476351079        3.47546172537101
N           -0.57817292802930       -1.21826663698170        3.86647587902459
B           -3.22431682738625       -1.46418903901703        1.04467629040612
N            2.67764224561656       -0.86796435263603        2.65851028810293
B            1.87682121639361        3.32777156458539       -0.07060344772019
N            2.87420997741589       -2.34259816680510       -0.76031577487595
 
 Bond Distances (Angstroems)
 ---------------------------
C1-O2=1.4071         C1-H40=1.0947        C1-H41=1.0890        C1-H42=1.0947        O2-C1=1.4071         O2-C3=1.3429         
C3-O2=1.3429         C3-C4=1.3962         C3-C20=1.4162        C4-C3=1.3962         C4-C5=1.3828         C4-H43=1.0783        
C5-C4=1.3828         C5-C6=1.3791         C5-H44=1.0796        C6-C5=1.3791         C6-C7=1.3919         C6-H45=1.0786        
C7-C6=1.3919         C7-C8=1.4708         C7-C20=1.4025        C8-C7=1.4708         C8-O9=1.2407         C8-C10=1.4485        
O9-C8=1.2407         C10-C8=1.4485        C10-C11=1.4060       C10-C17=1.4149       C11-C10=1.4060       C11-O12=1.3291       
C11-C13=1.4141       O12-C11=1.3291       O12-H46=1.0004       C13-C11=1.4141       C13-C14=1.3749       C13-C29=1.5099       
C14-C13=1.3749       C14-C15=1.4171       C14-C21=1.4995       C15-C14=1.4171       C15-O16=1.3339       C15-C17=1.4014       
O16-C15=1.3339       O16-H47=1.0002       C17-C10=1.4149       C17-C15=1.4014       C17-C18=1.4630       C18-C17=1.4630       
C18-O19=1.2369       C18-C20=1.4669       O19-C18=1.2369       C20-C3=1.4162        C20-C7=1.4025        C20-C18=1.4669       
C21-C14=1.4995       C21-C22=1.5315       C21-H48=1.0957       C21-H49=1.0932       C22-C21=1.5315       C22-O23=1.4186       
C22-C24=1.5348       C22-C28=1.5368       O23-C22=1.4186       O23-H50=0.9640       C24-C22=1.5348       C24-O25=1.2031       
C24-C26=1.5248       O25-C24=1.2031       C26-C24=1.5248       C26-O27=1.3993       C26-H51=1.1034       C26-H52=1.0925       
O27-C26=1.3993       O27-H53=0.9673       C28-C22=1.5368       C28-C29=1.5292       C28-H54=1.0945       C28-H55=1.0918       
C29-C13=1.5099       C29-C28=1.5292       C29-O30=1.4198       C29-H56=1.0999       O30-C29=1.4198       O30-C31=1.4035       
C31-O30=1.4035       C31-C32=1.5305       C31-O39=1.4035       C31-H57=1.0997       C32-C31=1.5305       C32-C33=1.5277       
C32-H58=1.0892       C32-H59=1.0899       C33-C32=1.5277       C33-N34=1.4578       C33-C35=1.5626       C33-H60=1.1047       
N34-C33=1.4578       N34-H61=1.0148       N34-H62=1.0130       C35-C33=1.5626       C35-O36=1.4030       C35-C37=1.5495       
C35-H63=1.0944       O36-C35=1.4030       O36-H64=0.9681       C37-C35=1.5495       C37-C38=1.5227       C37-O39=1.4213       
C37-H65=1.0993       C38-C37=1.5227       C38-H66=1.0858       C38-H67=1.0864       C38-H68=1.0857       O39-C31=1.4035       
O39-C37=1.4213       H40-C1=1.0947        H41-C1=1.0890        H42-C1=1.0947        H43-C4=1.0783        H44-C5=1.0796        
H45-C6=1.0786        H46-O12=1.0004       H47-O16=1.0002       H48-C21=1.0957       H49-C21=1.0932       H50-O23=0.9640       
H51-C26=1.1034       H52-C26=1.0925       H53-O27=0.9673       H54-C28=1.0945       H55-C28=1.0918       H56-C29=1.0999       
H57-C31=1.0997       H58-C32=1.0892       H59-C32=1.0899       H60-C33=1.1047       H61-N34=1.0148       H62-N34=1.0130       
H63-C35=1.0944       H64-O36=0.9681       H65-C37=1.0993       H66-C38=1.0858       H67-C38=1.0864       H68-C38=1.0857       
B69-B115=1.6086      B69-B121=1.6189      B69-N138=1.4029      N70-B115=1.4241      N70-B127=1.4606      N70-N128=1.4170      
B71-N116=1.4099      B71-B127=1.6125      B71-B139=1.6508      N72-B99=1.4897       N72-B129=1.4577      N72-B131=1.4586      
B73-N106=1.4055      B73-B109=1.5727      B73-B135=1.6416      N74-B95=1.3902       N74-N132=1.4634      N74-B137=1.4253      
B75-N82=1.4736       B75-B91=1.5752       B75-N108=1.4260      N76-B77=1.4426       N76-B89=1.4231       N76-B133=1.4965      
B77-N76=1.4426       B77-B81=2.1354       B77-B117=1.7649      B77-B119=1.6493      N78-B83=1.4399       N78-N122=1.3673      
N78-N134=1.4302      B79-N80=1.4040       B79-N90=1.3945       B79-N118=1.4295      N80-B79=1.4040       N80-B107=1.4480      
N80-N120=1.4344      B81-B77=2.1354       B81-B117=1.5157      B81-B131=1.7967      B81-B133=1.6007      N82-B75=1.4736       
N82-B85=1.3861       N82-N96=1.4679       B83-N78=1.4399       B83-N102=1.4567      B83-B129=1.6053      B83-N134=2.0089      
N84-B87=1.4225       N84-N104=1.4208      N84-B107=1.4595      B85-N82=1.3861       B85-N110=1.4437      B85-N124=2.0132      
B85-N130=1.4611      N86-N88=1.4215       N86-B135=1.4387      N86-N138=1.4099      B87-N84=1.4225       B87-B105=1.6424      
B87-B119=1.6620      N88-N86=1.4215       N88-N92=1.4189       N88-B123=1.4427      B89-N76=1.4231       B89-B103=1.6643      
B89-B113=1.6966      N90-B79=1.3945       N90-B93=1.4333       N90-N118=1.5519      B91-B75=1.5752       B91-N96=1.4854       
B91-N104=1.4210      N92-N88=1.4189       N92-N110=1.3902      N92-N136=1.4849      B93-N90=1.4333       B93-N108=1.4927      
B93-N130=1.3920      N94-B99=1.4135       N94-B115=1.4988      N94-B127=1.4503      B95-N74=1.3902       B95-N98=1.4706       
B95-N112=1.4503      B95-B125=1.9304      N96-N82=1.4679       N96-B91=1.4854       N96-B101=1.4371      B97-N124=1.4532      
B97-N132=1.3875      B97-N136=1.4453      N98-B95=1.4706       N98-B111=1.4199      N98-B125=1.4565      B99-N72=1.4897       
B99-N94=1.4135       B99-N140=1.4513      N100-B111=1.4800     N100-N126=1.4170     N100-B137=1.4000     B101-N96=1.4371      
B101-N128=1.4515     B101-B139=1.7278     N102-B83=1.4567      N102-B103=1.4081     N102-N134=1.4181     B103-B89=1.6643      
B103-N102=1.4081     B103-B111=1.6741     N104-N84=1.4208      N104-B91=1.4210      N104-B139=1.4323     B105-B87=1.6424      
B105-N116=1.4907     B105-B117=1.6059     N106-B73=1.4055      N106-B109=1.4140     N106-N112=1.3681     B107-N80=1.4480      
B107-N84=1.4595      B107-N108=1.4590     N108-B75=1.4260      N108-B93=1.4927      N108-B107=1.4590     B109-B73=1.5727      
B109-N106=1.4140     B109-N114=1.4091     N110-B85=1.4437      N110-N92=1.3902      N110-N124=1.4350     B111-N98=1.4199      
B111-N100=1.4800     B111-B103=1.6741     N112-B95=1.4503      N112-N106=1.3681     N112-B125=1.4640     B113-B89=1.6966      
B113-N120=1.4618     B113-N126=1.4270     N114-B109=1.4091     N114-B121=1.4428     N114-N122=1.4391     B115-B69=1.6086      
B115-N70=1.4241      B115-N94=1.4988      B115-B127=1.9721     N116-B71=1.4099      N116-B105=1.4907     N116-B131=1.4563     
B117-B77=1.7649      B117-B81=1.5157      B117-B105=1.6059     N118-B79=1.4295      N118-N90=1.5519      N118-N126=1.3894     
B119-B77=1.6493      B119-B87=1.6620      B119-N120=1.4028     N120-N80=1.4344      N120-B113=1.4618     N120-B119=1.4028     
B121-B69=1.6189      B121-N114=1.4428     B121-N140=1.4428     N122-N78=1.3673      N122-N114=1.4391     N122-N140=1.4573     
B123-N88=1.4427      B123-N128=1.4389     B123-N138=1.4833     N124-B85=2.0132      N124-B97=1.4532      N124-N110=1.4350     
N124-N130=1.4195     B125-B95=1.9304      B125-N98=1.4565      B125-N112=1.4640     B125-N134=1.3742     N126-N100=1.4170     
N126-B113=1.4270     N126-N118=1.3894     B127-N70=1.4606      B127-B71=1.6125      B127-N94=1.4503      B127-B115=1.9721     
N128-N70=1.4170      N128-B101=1.4515     N128-B123=1.4389     B129-N72=1.4577      B129-B83=1.6053      B129-B133=1.6241     
N130-B85=1.4611      N130-B93=1.3920      N130-N124=1.4195     B131-N72=1.4586      B131-B81=1.7967      B131-N116=1.4563     
N132-N74=1.4634      N132-B97=1.3875      N132-B137=1.4183     B133-N76=1.4965      B133-B81=1.6007      B133-B129=1.6241     
N134-N78=1.4302      N134-B83=2.0089      N134-N102=1.4181     N134-B125=1.3742     B135-B73=1.6416      B135-N86=1.4387      
B135-N136=1.4537     N136-N92=1.4849      N136-B97=1.4453      N136-B135=1.4537     B137-N74=1.4253      B137-N100=1.4000     
B137-N132=1.4183     N138-B69=1.4029      N138-N86=1.4099      N138-B123=1.4833     B139-B71=1.6508      B139-B101=1.7278     
B139-N104=1.4323     N140-B99=1.4513      N140-B121=1.4428     N140-N122=1.4573     
 B  B  Rav=1.6895 sigma=0.1392  Rmin=1.5157  Rmax=2.1354    24
 C  H  Rav=1.0919 sigma=0.0073  Rmin=1.0783  Rmax=1.1047    22
 C  C  Rav=1.4645 sigma=0.0619  Rmin=1.3749  Rmax=1.5626    28
 N  H  Rav=1.0139 sigma=0.0009  Rmin=1.0130  Rmax=1.0148     2
 N  B  Rav=1.4559 sigma=0.1009  Rmin=1.3742  Rmax=2.0132    68
 N  C  Rav=1.4578 sigma=0.0000  Rmin=1.4578  Rmax=1.4578     1
 N  N  Rav=1.4296 sigma=0.0400  Rmin=1.3673  Rmax=1.5519    21
 O  H  Rav=0.9800 sigma=0.0166  Rmin=0.9640  Rmax=1.0004     5
 O  C  Rav=1.3545 sigma=0.0735  Rmin=1.2031  Rmax=1.4213    14
 
 selected bond angles (degree)
 --------------------
H40-C1-O2=111.62               H41-C1-O2=105.33               H41-C1-H40=109.23              H42-C1-O2=111.64               
H42-C1-H40=109.64              H42-C1-H41=109.25              C3-O2-C1=119.71                C4-C3-O2=123.27                
C20-C3-O2=117.43               C20-C3-C4=119.31               C5-C4-C3=120.99                H43-C4-C3=120.13               
H43-C4-C5=118.87               C6-C5-C4=120.18                H44-C5-C4=119.54               H44-C5-C6=120.28               
C7-C6-C5=120.04                H45-C6-C5=121.76               H45-C6-C7=118.20               C8-C7-C6=117.38                
C20-C7-C6=120.88               C20-C7-C8=121.74               O9-C8-C7=119.95                C10-C8-C7=117.64               
C10-C8-O9=122.41               C11-C10-C8=119.17              C17-C10-C8=120.77              C17-C10-C11=120.06             
 
 selected dihedral angles (degree)
 ---------------------------------
C3-O2-C1-H40= 60.95           C3-O2-C1-H41=179.38           C3-O2-C1-H42=297.85           C4-C3-O2-C1=  0.48            
C20-C3-O2-C1=180.30           C5-C4-C3-O2=180.26            C5-C4-C3-C20=  0.43           H43-C4-C3-O2=  0.23           
H43-C4-C3-C20=180.41          C6-C5-C4-C3=  0.05            C6-C5-C4-H43=180.07           H44-C5-C4-C3=180.01           
H44-C5-C4-H43=  0.03          C7-C6-C5-C4=359.62            C7-C6-C5-H44=179.66           H45-C6-C5-C4=179.75           
H45-C6-C5-H44=359.79          C8-C7-C6-C5=180.24            C8-C7-C6-H45=  0.11           C20-C7-C6-C5=  0.22           
C20-C7-C6-H45=180.09          O9-C8-C7-C6=357.53            O9-C8-C7-C20=177.55           C10-C8-C7-C6=177.03           
C10-C8-C7-C20=357.05          C11-C10-C8-C7=182.39          C11-C10-C8-O9=  1.88          C17-C10-C8-C7=  2.92          
C17-C10-C8-O9=182.41          
 
 CMA Distance (Angstroems)
 ---------------------------
R(CMA): 11.2573
           -------------------------------------------------
          |                Final Singlepoint                |
           -------------------------------------------------

          ...................................................
          :                      SETUP                      :
          :.................................................:
          :  # basis functions                 473          :
          :  # atomic orbitals                 473          :
          :  # shells                          251          :
          :  # electrons                       496          :
          :  max. iterations                   500          :
          :  Hamiltonian                  GFN2-xTB          :
          :  restarted?                      false          :
          :  GBSA solvation                  false          :
          :  PC potential                    false          :
          :  electronic temp.          300.0000000     K    :
          :  accuracy                    1.0000000          :
          :  -> integral cutoff          0.2500000E+02      :
          :  -> integral neglect         0.1000000E-07      :
          :  -> SCF convergence          0.1000000E-05 Eh   :
          :  -> wf. convergence          0.1000000E-03 e    :
          :  Broyden damping             0.4000000          :
          :  net charge                          0          :
          :  unpaired electrons                  0          :
          ...................................................

 iter      E             dE          RMSdq      gap      omega  full diag
   1   -273.1891072 -0.273189E+03  0.251E-02    0.17       0.0  T
   2   -273.1891031  0.410791E-05  0.155E-02    0.17       1.0  T
   3   -273.1888615  0.241557E-03  0.230E-02    0.21       1.0  T
   4   -273.1891080 -0.246513E-03  0.224E-03    0.17       3.8  T
   5   -273.1891085 -0.535284E-06  0.123E-03    0.17       6.8  T
   6   -273.1891089 -0.317137E-06  0.755E-04    0.17      11.2  T
   7   -273.1891089 -0.777279E-07  0.486E-04    0.17      17.4  T

   *** convergence criteria satisfied after 7 iterations ***

         #    Occupation            Energy/Eh            Energy/eV
      -------------------------------------------------------------
         1        2.0000           -0.7237326             -19.6938
       ...           ...                  ...                  ...
       242        2.0000           -0.3349199              -9.1136
       243        2.0000           -0.3327114              -9.0535
       244        2.0000           -0.3313375              -9.0162
       245        2.0000           -0.3286077              -8.9419
       246        1.9998           -0.3232741              -8.7967
       247        1.9969           -0.3208547              -8.7309
       248        1.9300           -0.3178508              -8.6492 (HOMO)
       249        0.0733           -0.3115949              -8.4789 (LUMO)
       250                         -0.2907103              -7.9106
       251                         -0.2831362              -7.7045
       252                         -0.2717747              -7.3954
       253                         -0.2642941              -7.1918
       ...                                ...                  ...
       473                          0.9764737              26.5712
      -------------------------------------------------------------
                  HL-Gap            0.0062559 Eh            0.1702 eV
             Fermi-level           -0.3147001 Eh           -8.5634 eV

 SCC (total)                   0 d,  0 h,  0 min,  0.357 sec
 SCC setup                      ...        0 min,  0.001 sec (  0.280%)
 Dispersion                     ...        0 min,  0.003 sec (  0.840%)
 classical contributions        ...        0 min,  0.000 sec (  0.000%)
 integral evaluation            ...        0 min,  0.013 sec (  3.641%)
 iterations                     ...        0 min,  0.295 sec ( 82.633%)
 molecular gradient             ...        0 min,  0.042 sec ( 11.765%)
 printout                       ...        0 min,  0.003 sec (  0.840%)

         :::::::::::::::::::::::::::::::::::::::::::::::::::::
         ::                     SUMMARY                     ::
         :::::::::::::::::::::::::::::::::::::::::::::::::::::
         :: total energy            -270.502218840710 Eh    ::
         :: gradient norm              0.002705053466 Eh/a0 ::
         :: HOMO-LUMO gap              0.170232603067 eV    ::
         ::.................................................::
         :: SCC energy              -273.173447051270 Eh    ::
         :: -> isotropic ES            0.868799761501 Eh    ::
         :: -> anisotropic ES         -0.028029322421 Eh    ::
         :: -> anisotropic XC          0.070797654608 Eh    ::
         :: -> dispersion             -0.226658634325 Eh    ::
         :: repulsion energy           2.671228210560 Eh    ::
         :: add. restraining           0.000000000000 Eh    ::
         :: total charge              -0.000000000000 e     ::
         :::::::::::::::::::::::::::::::::::::::::::::::::::::

           -------------------------------------------------
          |                Property Printout                |
           -------------------------------------------------

    * Orbital Energies and Occupations

         #    Occupation            Energy/Eh            Energy/eV
      -------------------------------------------------------------
         1        2.0000           -0.7237326             -19.6938
       ...           ...                  ...                  ...
       236        2.0000           -0.3478610              -9.4658
       237        2.0000           -0.3466966              -9.4341
       238        2.0000           -0.3424537              -9.3186
       239        2.0000           -0.3401602              -9.2562
       240        2.0000           -0.3385725              -9.2130
       241        2.0000           -0.3367348              -9.1630
       242        2.0000           -0.3349199              -9.1136
       243        2.0000           -0.3327114              -9.0535
       244        2.0000           -0.3313375              -9.0162
       245        2.0000           -0.3286077              -8.9419
       246        1.9998           -0.3232741              -8.7967
       247        1.9969           -0.3208547              -8.7309
       248        1.9300           -0.3178508              -8.6492 (HOMO)
       249        0.0733           -0.3115949              -8.4789 (LUMO)
       250                         -0.2907103              -7.9106
       251                         -0.2831362              -7.7045
       252                         -0.2717747              -7.3954
       253                         -0.2642941              -7.1918
       254                         -0.2601304              -7.0785
       255                         -0.2576149              -7.0101
       256                         -0.2530169              -6.8849
       257                         -0.2425351              -6.5997
       258                         -0.2390397              -6.5046
       259                         -0.2367770              -6.4430
       ...                                ...                  ...
       473                          0.9764737              26.5712
      -------------------------------------------------------------
                  HL-Gap            0.0062559 Eh            0.1702 eV
             Fermi-level           -0.3147001 Eh           -8.5634 eV

     #   Z          covCN         q      C6AA      α(0)
     1   6 C        3.645     0.029    20.421     6.495
     2   8 O        1.706    -0.220    17.655     5.673
     3   6 C        2.865     0.160    24.545     8.121
     4   6 C        2.916    -0.065    29.622     8.925
     5   6 C        2.916    -0.025    28.623     8.773
     6   6 C        2.924    -0.031    28.769     8.796
     7   6 C        2.977    -0.011    28.290     8.725
     8   6 C        2.837     0.217    23.424     7.931
     9   8 O        0.859    -0.429    22.259     6.326
    10   6 C        2.969    -0.066    29.636     8.930
    11   6 C        2.848     0.165    24.437     8.102
    12   8 O        1.655    -0.378    20.427     6.101
    13   6 C        2.965    -0.015    28.389     8.740
    14   6 C        2.966     0.003    27.958     8.673
    15   6 C        2.849     0.154    24.656     8.138
    16   8 O        1.655    -0.385    20.552     6.120
    17   6 C        2.967    -0.064    29.577     8.921
    18   6 C        2.830     0.221    23.358     7.920
    19   8 O        0.859    -0.410    21.888     6.273
    20   6 C        2.970    -0.036    28.895     8.817
    21   6 C        3.814    -0.069    21.817     6.648
    22   6 C        3.777     0.124    18.591     6.143
    23   8 O        1.655    -0.452    21.887     6.316
    24   6 C        2.814     0.218    23.413     7.928
    25   8 O        0.857    -0.332    20.373     6.052
    26   6 C        3.674     0.060    19.797     6.376
    27   8 O        1.656    -0.431    21.467     6.255
    28   6 C        3.811    -0.079    22.002     6.677
    29   6 C        3.753     0.125    18.603     6.150
    30   8 O        1.702    -0.322    19.381     5.944
    31   6 C        3.651     0.244    17.095     5.938
    32   6 C        3.806    -0.084    22.105     6.693
    33   6 C        3.780     0.048    19.789     6.337
    34   7 N        2.633    -0.349    28.981     7.995
    35   6 C        3.725     0.091    19.178     6.253
    36   8 O        1.656    -0.439    21.621     6.277
    37   6 C        3.750     0.103    18.948     6.208
    38   6 C        3.753    -0.115    22.770     6.805
    39   8 O        1.701    -0.335    19.622     5.981
    40   1 H        0.924     0.046     2.370     2.408
    41   1 H        0.925     0.075     2.036     2.232
    42   1 H        0.924     0.045     2.382     2.413
    43   1 H        0.926     0.046     2.376     2.410
    44   1 H        0.926     0.047     2.363     2.404
    45   1 H        0.926     0.070     2.084     2.257
    46   1 H        0.800     0.360     0.566     1.182
    47   1 H        0.800     0.360     0.567     1.183
    48   1 H        0.924     0.064     2.153     2.295
    49   1 H        0.924     0.086     1.923     2.168
    50   1 H        0.805     0.301     0.719     1.331
    51   1 H        0.923     0.046     2.365     2.405
    52   1 H        0.924     0.074     2.041     2.234
    53   1 H        0.805     0.319     0.667     1.283
    54   1 H        0.924     0.061     2.191     2.315
    55   1 H        0.924     0.058     2.227     2.333
    56   1 H        0.923     0.048     2.345     2.395
    57   1 H        0.923     0.044     2.395     2.420
    58   1 H        0.925     0.057     2.239     2.340
    59   1 H        0.925     0.058     2.217     2.328
    60   1 H        0.922     0.008     2.922     2.673
    61   1 H        0.860     0.154     1.374     1.836
    62   1 H        0.860     0.144     1.442     1.881
    63   1 H        0.924     0.036     2.503     2.474
    64   1 H        0.805     0.315     0.677     1.292
    65   1 H        0.923     0.023     2.685     2.563
    66   1 H        0.925     0.067     2.113     2.273
    67   1 H        0.925     0.047     2.360     2.402
    68   1 H        0.925     0.052     2.297     2.370
    69   5 B        2.781     0.077    20.179     7.511
    70   7 N        2.775    -0.226    25.943     7.565
    71   5 B        2.788     0.092    19.931     7.463
    72   7 N        2.524    -0.313    28.088     7.871
    73   5 B        2.779     0.082    20.103     7.497
    74   7 N        2.655    -0.268    26.940     7.709
    75   5 B        2.850     0.242    17.657     7.016
    76   7 N        2.529    -0.271    27.047     7.724
    77   5 B        3.195     0.151    18.918     7.254
    78   7 N        2.980    -0.108    23.363     7.179
    79   5 B        2.644     0.373    16.323     6.814
    80   7 N        2.669    -0.211    25.588     7.513
    81   5 B        3.182     0.024    20.967     7.637
    82   7 N        2.887    -0.220    25.780     7.541
    83   5 B        3.009     0.209    18.074     7.092
    84   7 N        2.660    -0.162    24.500     7.351
    85   5 B        2.907     0.319    16.619     6.803
    86   7 N        3.154    -0.082    22.826     7.096
    87   5 B        2.778     0.094    19.903     7.460
    88   7 N        3.037    -0.126    23.731     7.235
    89   5 B        2.758     0.090    20.001     7.483
    90   7 N        2.634    -0.307    27.911     7.846
    91   5 B        3.039     0.227    17.817     7.041
    92   7 N        2.983     0.004    21.189     6.837
    93   5 B        2.581     0.325    17.317     7.090
    94   7 N        2.597    -0.357    29.223     8.029
    95   5 B        3.285     0.339    16.344     6.742
    96   7 N        2.785    -0.250    26.489     7.644
    97   5 B        2.560     0.319    17.610     7.187
    98   7 N        2.579    -0.366    29.457     8.061
    99   5 B        2.530     0.301    18.230     7.378
   100   7 N        2.665    -0.203    25.425     7.489
   101   5 B        2.697     0.196    18.508     7.220
   102   7 N        2.844    -0.166    24.582     7.364
   103   5 B        2.758     0.082    20.124     7.506
   104   7 N        2.672    -0.172    24.736     7.387
   105   5 B        2.877     0.111    19.565     7.383
   106   7 N        2.663    -0.142    24.073     7.287
   107   5 B        2.594     0.311    17.399     7.088
   108   7 N        2.519    -0.352    29.121     8.014
   109   5 B        2.684     0.184    18.720     7.268
   110   7 N        3.010    -0.125    23.703     7.231
   111   5 B        2.677     0.210    18.359     7.202
   112   7 N        2.716    -0.246    26.413     7.633
   113   5 B        2.647     0.164    19.169     7.381
   114   7 N        2.826    -0.204    25.428     7.489
   115   5 B        3.321     0.230    17.777     7.031
   116   7 N        2.531    -0.284    27.368     7.769
   117   5 B        2.949     0.038    20.743     7.599
   118   7 N        2.784    -0.183    24.959     7.420
   119   5 B        2.796     0.085    20.032     7.480
   120   7 N        2.673    -0.154    24.339     7.327
   121   5 B        3.023     0.210    18.060     7.089
   122   7 N        3.274     0.017    20.947     6.798
   123   5 B        2.868     0.305    16.803     6.843
   124   7 N        3.157    -0.111    23.420     7.188
   125   5 B        3.262     0.320    16.588     6.792
   126   7 N        2.833    -0.060    22.402     7.030
   127   5 B        3.303     0.231    17.761     7.028
   128   7 N        2.656    -0.181    24.922     7.414
   129   5 B        2.838     0.113    19.557     7.385
   130   7 N        2.835    -0.223    25.855     7.552
   131   5 B        2.862     0.252    17.506     6.985
   132   7 N        2.654    -0.228    25.999     7.573
   133   5 B        3.010     0.115    19.469     7.360
   134   7 N        3.153    -0.085    22.881     7.104
   135   5 B        2.674     0.202    18.494     7.230
   136   7 N        2.697    -0.230    26.025     7.577
   137   5 B        2.585     0.369    16.730     6.964
   138   7 N        2.880    -0.180    24.882     7.409
   139   5 B        2.825     0.107    19.658     7.406
   140   7 N        2.828    -0.251    26.519     7.648

 Mol. C6AA /au·bohr⁶  :     314258.913649
 Mol. C8AA /au·bohr⁸  :    8485268.920422
 Mol. α(0) /au        :        870.183088


Wiberg/Mayer (AO) data.
largest (>0.10) Wiberg bond orders for each atom

 ---------------------------------------------------------------------------
     #   Z sym  total        # sym  WBO       # sym  WBO       # sym  WBO
 ---------------------------------------------------------------------------
     1   6 C    3.941 --     2 O    0.980    41 H    0.978    42 H    0.975
                            40 H    0.975
     2   8 O    2.306 --     3 C    1.120     1 C    0.980
     3   6 C    3.934 --     4 C    1.352    20 C    1.284     2 O    1.120
     4   6 C    3.973 --     5 C    1.440     3 C    1.352    43 H    0.964
     5   6 C    3.980 --     4 C    1.440     6 C    1.434    44 H    0.969
     6   6 C    3.977 --     5 C    1.434     7 C    1.385    45 H    0.963
     7   6 C    3.980 --     6 C    1.385    20 C    1.328     8 C    1.049
     8   6 C    3.926 --     9 O    1.621    10 C    1.127     7 C    1.049
     9   8 O    2.028 --     8 C    1.621
    10   6 C    3.978 --    11 C    1.308    17 C    1.252     8 C    1.127
    11   6 C    3.942 --    10 C    1.308    13 C    1.253    12 O    1.184
    12   8 O    2.187 --    11 C    1.184    46 H    0.762
    13   6 C    3.976 --    14 C    1.479    11 C    1.253    29 C    0.988
    14   6 C    3.975 --    13 C    1.479    15 C    1.242    21 C    1.017
    15   6 C    3.943 --    17 C    1.334    14 C    1.242    16 O    1.172
    16   8 O    2.173 --    15 C    1.172    47 H    0.762
    17   6 C    3.978 --    15 C    1.334    10 C    1.252    18 C    1.096
    18   6 C    3.932 --    19 O    1.637    17 C    1.096    20 C    1.074
    19   8 O    2.049 --    18 C    1.637
    20   6 C    3.978 --     7 C    1.328     3 C    1.284    18 C    1.074
    21   6 C    3.990 --    14 C    1.017    22 C    0.971    49 H    0.957
                            48 H    0.949
    22   6 C    3.949 --    23 O    0.974    21 C    0.971    28 C    0.952
                            24 C    0.945
    23   8 O    1.972 --    22 C    0.974    50 H    0.886
    24   6 C    3.908 --    25 O    1.893    26 C    0.963    22 C    0.945
    25   8 O    2.094 --    24 C    1.893
    26   6 C    3.964 --    27 O    1.014    52 H    0.968    24 C    0.963
                            51 H    0.942
    27   8 O    1.966 --    26 C    1.014    53 H    0.864
    28   6 C    3.991 --    29 C    0.986    55 H    0.970    54 H    0.966
                            22 C    0.952
    29   6 C    3.953 --    13 C    0.988    28 C    0.986    30 O    0.964
                            56 H    0.943
    30   8 O    2.092 --    31 C    0.970    29 C    0.964
    31   6 C    3.926 --    32 C    0.980    39 O    0.977    30 O    0.970
                            57 H    0.947
    32   6 C    3.993 --    33 C    0.998    31 C    0.980    58 H    0.973
                            59 H    0.971
    33   6 C    3.987 --    34 N    1.020    32 C    0.998    60 H    0.963
                            35 C    0.955
    34   7 N    3.009 --    33 C    1.020    62 H    0.962    61 H    0.960
    35   6 C    3.964 --    36 O    1.012    63 H    0.967    37 C    0.959
                            33 C    0.955
    36   8 O    1.974 --    35 C    1.012    64 H    0.876
    37   6 C    3.949 --    38 C    1.006    65 H    0.962    39 O    0.961
                            35 C    0.959
    38   6 C    3.992 --    37 C    1.006    68 H    0.984    67 H    0.984
                            66 H    0.982
    39   8 O    2.087 --    31 C    0.977    37 C    0.961
    40   1 H    0.998 --     1 C    0.975
    41   1 H    0.994 --     1 C    0.978
    42   1 H    0.998 --     1 C    0.975
    43   1 H    0.997 --     4 C    0.964
    44   1 H    0.997 --     5 C    0.969
    45   1 H    0.995 --     6 C    0.963
    46   1 H    0.870 --    12 O    0.762
    47   1 H    0.870 --    16 O    0.762
    48   1 H    0.992 --    21 C    0.949
    49   1 H    0.991 --    21 C    0.957
    50   1 H    0.909 --    23 O    0.886
    51   1 H    0.998 --    26 C    0.942
    52   1 H    0.994 --    26 C    0.968
    53   1 H    0.898 --    27 O    0.864
    54   1 H    0.996 --    28 C    0.966
    55   1 H    0.996 --    28 C    0.970
    56   1 H    0.995 --    29 C    0.943
    57   1 H    0.998 --    31 C    0.947
    58   1 H    0.997 --    32 C    0.973
    59   1 H    0.996 --    32 C    0.971
    60   1 H    0.999 --    33 C    0.963
    61   1 H    0.976 --    34 N    0.960
    62   1 H    0.979 --    34 N    0.962
    63   1 H    0.999 --    35 C    0.967
    64   1 H    0.901 --    36 O    0.876
    65   1 H    0.999 --    37 C    0.962
    66   1 H    0.995 --    38 C    0.982
    67   1 H    0.998 --    38 C    0.984
    68   1 H    0.997 --    38 C    0.984
    69   5 B    3.474 --   138 N    1.278   121 B    1.001   115 B    0.969
    70   7 N    3.397 --   115 B    1.143   128 N    1.008   127 B    0.998
    71   5 B    3.466 --   116 N    1.277   139 B    0.978   127 B    0.959
    72   7 N    3.531 --   131 B    1.152   129 B    1.150    99 B    1.019
    73   5 B    3.466 --   106 N    1.242   135 B    0.996   109 B    0.990
    74   7 N    3.265 --    95 B    1.199   137 B    0.969   132 N    0.889
    75   5 B    3.406 --   108 N    1.179    82 N    1.029    91 B    0.964
    76   7 N    3.569 --    89 B    1.276    77 B    1.159   133 B    0.973
    77   5 B    3.393 --    76 N    1.159   119 B    0.932   117 B    0.638
                            81 B    0.294
    78   7 N    3.324 --    83 B    1.113   122 N    1.043   134 N    0.945
    79   5 B    3.432 --    80 N    1.187    90 N    1.125   118 N    0.962
    80   7 N    3.448 --    79 B    1.187   107 B    1.088   120 N    0.967
    81   5 B    3.454 --   117 B    1.284   133 B    1.002   131 B    0.627
                            77 B    0.294
    82   7 N    3.426 --    85 B    1.236    75 B    1.029    96 N    0.931
    83   5 B    3.390 --    78 N    1.113   102 N    1.039   129 B    1.005
    84   7 N    3.511 --    87 B    1.205   107 B    1.124   104 N    0.999
    85   5 B    3.513 --    82 N    1.236   110 N    1.067   130 N    1.002
    86   7 N    3.339 --   135 B    1.138   138 N    0.989    88 N    0.984
    87   5 B    3.413 --    84 N    1.205   105 B    1.008   119 B    0.927
    88   7 N    3.311 --   123 B    1.123    86 N    0.984    92 N    0.974
    89   5 B    3.464 --    76 N    1.276   103 B    0.978   113 B    0.932
    90   7 N    3.221 --    79 B    1.125    93 B    1.071   118 N    0.794
    91   5 B    3.367 --   104 N    1.155    96 N    0.987    75 B    0.964
    92   7 N    3.096 --   110 N    1.014    88 N    0.974   136 N    0.940
    93   5 B    3.510 --   130 N    1.243    90 N    1.071   108 N    0.990
    94   7 N    3.435 --    99 B    1.200   127 B    1.063   115 B    0.927
    95   5 B    3.481 --    74 N    1.199   112 N    1.043    98 N    0.982
    96   7 N    3.283 --   101 B    1.174    91 B    0.987    82 N    0.931
    97   5 B    3.525 --   132 N    1.216   136 N    1.113   124 N    1.036
    98   7 N    3.433 --   111 B    1.221   125 B    0.993    95 B    0.982
    99   5 B    3.519 --    94 N    1.200   140 N    1.099    72 N    1.019
   100   7 N    3.443 --   137 B    1.264   111 B    0.996   126 N    0.990
   101   5 B    3.443 --    96 N    1.174   128 N    1.118   139 B    0.922
   102   7 N    3.470 --   103 B    1.260    83 B    1.039   134 N    0.984
   103   5 B    3.421 --   102 N    1.260    89 B    0.978   111 B    0.959
   104   7 N    3.512 --   139 B    1.170    91 B    1.155    84 N    0.999
   105   5 B    3.347 --   117 B    1.008    87 B    1.008   116 N    0.964
   106   7 N    3.511 --    73 B    1.242   109 B    1.092   112 N    1.038
   107   5 B    3.516 --    84 N    1.124   108 N    1.102    80 N    1.088
   108   7 N    3.478 --    75 B    1.179   107 B    1.102    93 B    0.990
   109   5 B    3.464 --   114 N    1.180   106 N    1.092    73 B    0.990
   110   7 N    3.257 --    85 B    1.067    92 N    1.014   124 N    0.977
   111   5 B    3.390 --    98 N    1.221   100 N    0.996   103 B    0.959
   112   7 N    3.374 --    95 B    1.043   106 N    1.038   125 B    0.984
   113   5 B    3.454 --   126 N    1.191   120 N    1.079    89 B    0.932
   114   7 N    3.408 --   109 B    1.180   121 B    1.073   122 N    0.960
   115   5 B    3.364 --    70 N    1.143    69 B    0.969    94 N    0.927
                           127 B    0.127
   116   7 N    3.562 --    71 B    1.277   131 B    1.105   105 B    0.964
   117   5 B    3.365 --    81 B    1.284   105 B    1.008    77 B    0.638
                           131 B    0.187
   118   7 N    2.987 --   126 N    1.044    79 B    0.962    90 N    0.794
   119   5 B    3.455 --   120 N    1.266    77 B    0.932    87 B    0.927
   120   7 N    3.482 --   119 B    1.266   113 B    1.079    80 N    0.967
   121   5 B    3.445 --   140 N    1.131   114 N    1.073    69 B    1.001
   122   7 N    3.188 --    78 N    1.043   114 N    0.960   140 N    0.951
   123   5 B    3.519 --   128 N    1.169    88 N    1.123   138 N    0.999
   124   7 N    3.219 --    97 B    1.036   130 N    0.984   110 N    0.977
   125   5 B    3.508 --   134 N    1.266    98 N    0.993   112 N    0.984
   126   7 N    3.440 --   113 B    1.191   118 N    1.044   100 N    0.990
   127   5 B    3.326 --    94 N    1.063    70 N    0.998    71 B    0.959
                           115 B    0.127
   128   7 N    3.490 --   123 B    1.169   101 B    1.118    70 N    1.008
   129   5 B    3.384 --    72 N    1.150    83 B    1.005   133 B    1.002
   130   7 N    3.445 --    93 B    1.243    85 B    1.002   124 N    0.984
   131   5 B    3.444 --    72 N    1.152   116 N    1.105    81 B    0.627
                           117 B    0.187   133 B    0.119
   132   7 N    3.335 --    97 B    1.216   137 B    1.032    74 N    0.889
   133   5 B    3.331 --    81 B    1.002   129 B    1.002    76 N    0.973
                           131 B    0.119
   134   7 N    3.441 --   125 B    1.266   102 N    0.984    78 N    0.945
   135   5 B    3.445 --    86 N    1.138   136 N    1.118    73 B    0.996
   136   7 N    3.385 --   135 B    1.118    97 B    1.113    92 N    0.940
   137   5 B    3.439 --   100 N    1.264   132 N    1.032    74 N    0.969
   138   7 N    3.473 --    69 B    1.278   123 B    0.999    86 N    0.989
   139   5 B    3.358 --   104 N    1.170    71 B    0.978   101 B    0.922
   140   7 N    3.419 --   121 B    1.131    99 B    1.099   122 N    0.951
 ---------------------------------------------------------------------------

Topologies differ in total number of bonds
Writing topology from bond orders to xtbtopo.mol

molecular dipole:
                 x           y           z       tot (Debye)
 q only:        1.141       2.688      -6.872
   full:       -1.393       2.391      -5.151      14.863
molecular quadrupole (traceless):
                xx          xy          yy          xz          yz          zz
 q only:       23.532     -16.166      63.459     -32.836      14.051     -86.991
  q+dip:       41.284     -17.399      83.559     -67.673      42.043    -124.843
   full:       44.866     -15.573      80.030     -62.367      41.202    -124.896

           -------------------------------------------------
          |                Geometry Summary                 |
           -------------------------------------------------

      molecular mass/u    :     1436.9586337
   center of mass at/Å    :       -0.0152284       0.1232284       4.3720167
  moments of inertia/u·Å² :        0.2106252E+05   0.5645119E+05   0.6344746E+05
rotational constants/cm⁻¹ :        0.8003616E-03   0.2986232E-03   0.2656944E-03

 * 156 selected distances

     #   Z          #   Z                                           value/Å
     1   6 C        2   8 O                                       1.4070504
     2   8 O        3   6 C                                       1.3428966
     3   6 C        4   6 C                                       1.3962396
     4   6 C        5   6 C                                       1.3828354
     5   6 C        6   6 C                                       1.3791281
     6   6 C        7   6 C                                       1.3918715
     8   6 C        9   8 O                                       1.2406607
    10   6 C       11   6 C                                       1.4059594
    11   6 C       12   8 O                                       1.3290715
    11   6 C       13   6 C                                       1.4141487
    13   6 C       14   6 C                                       1.3749452
    14   6 C       15   6 C                                       1.4170748
    15   6 C       16   8 O                                       1.3338514
    10   6 C       17   6 C                                       1.4149333
    15   6 C       17   6 C                                       1.4013876
    18   6 C       19   8 O                                       1.2369455
     3   6 C       20   6 C                                       1.4161571
     7   6 C       20   6 C                                       1.4024824
    21   6 C       22   6 C                                       1.5314806
    22   6 C       23   8 O                                       1.4185717
    24   6 C       25   8 O                                       1.2030900
    26   6 C       27   8 O                                       1.3993197
    22   6 C       28   6 C                                       1.5368459
    28   6 C       29   6 C                                       1.5292036
    29   6 C       30   8 O                                       1.4198313
    30   8 O       31   6 C                                       1.4035031
    31   6 C       32   6 C                                       1.5304692
    32   6 C       33   6 C                                       1.5277264
    33   6 C       34   7 N                                       1.4577688
    35   6 C       36   8 O                                       1.4029597
    37   6 C       38   6 C                                       1.5226725
    31   6 C       39   8 O                                       1.4034546
    37   6 C       39   8 O                                       1.4212748
     1   6 C       40   1 H                                       1.0946990
     1   6 C       41   1 H                                       1.0889824
     1   6 C       42   1 H                                       1.0947426
     4   6 C       43   1 H                                       1.0782609
     5   6 C       44   1 H                                       1.0796431
     6   6 C       45   1 H                                       1.0786343
    12   8 O       46   1 H                                       1.0003511
    16   8 O       47   1 H                                       1.0002346
    21   6 C       48   1 H                                       1.0957471
    21   6 C       49   1 H                                       1.0931910
    23   8 O       50   1 H                                       0.9639915 (min)
    26   6 C       51   1 H                                       1.1033837
    26   6 C       52   1 H                                       1.0925203
    27   8 O       53   1 H                                       0.9673299
    28   6 C       54   1 H                                       1.0945232
    28   6 C       55   1 H                                       1.0917715
    29   6 C       56   1 H                                       1.0999036
    31   6 C       57   1 H                                       1.0997375
    32   6 C       58   1 H                                       1.0892226
    32   6 C       59   1 H                                       1.0899430
    33   6 C       60   1 H                                       1.1046976
    34   7 N       61   1 H                                       1.0148299
    34   7 N       62   1 H                                       1.0130284
    35   6 C       63   1 H                                       1.0943824
    36   8 O       64   1 H                                       0.9681022
    37   6 C       65   1 H                                       1.0992848
    38   6 C       66   1 H                                       1.0857660
    38   6 C       67   1 H                                       1.0864201
    38   6 C       68   1 H                                       1.0857107
    76   7 N       77   5 B                                       1.4425502
    79   5 B       80   7 N                                       1.4040041
    75   5 B       82   7 N                                       1.4736060
    78   7 N       83   5 B                                       1.4398509
    82   7 N       85   5 B                                       1.3861423
    84   7 N       87   5 B                                       1.4225030
    86   7 N       88   7 N                                       1.4215454
    76   7 N       89   5 B                                       1.4230867
    79   5 B       90   7 N                                       1.3945281
    75   5 B       91   5 B                                       1.5751824
    88   7 N       92   7 N                                       1.4188502
    90   7 N       93   5 B                                       1.4332973
    74   7 N       95   5 B                                       1.3901501
    91   5 B       96   7 N                                       1.4853930
    95   5 B       98   7 N                                       1.4705745
    72   7 N       99   5 B                                       1.4897341
    94   7 N       99   5 B                                       1.4134603
    96   7 N      101   5 B                                       1.4370573
    83   5 B      102   7 N                                       1.4567419
    89   5 B      103   5 B                                       1.6642709
   102   7 N      103   5 B                                       1.4081208
    91   5 B      104   7 N                                       1.4209989
    87   5 B      105   5 B                                       1.6424148
    73   5 B      106   7 N                                       1.4054638
    80   7 N      107   5 B                                       1.4480392
    84   7 N      107   5 B                                       1.4595136
    75   5 B      108   7 N                                       1.4260405
    93   5 B      108   7 N                                       1.4926673
   107   5 B      108   7 N                                       1.4590197
    73   5 B      109   5 B                                       1.5727198
   106   7 N      109   5 B                                       1.4139593
    85   5 B      110   7 N                                       1.4437340
    92   7 N      110   7 N                                       1.3901821
    98   7 N      111   5 B                                       1.4199461
   100   7 N      111   5 B                                       1.4799789
   103   5 B      111   5 B                                       1.6741288 (max)
    95   5 B      112   7 N                                       1.4502776
   106   7 N      112   7 N                                       1.3681159
   109   5 B      114   7 N                                       1.4091254
    69   5 B      115   5 B                                       1.6086355
    70   7 N      115   5 B                                       1.4240953
    94   7 N      115   5 B                                       1.4988192
    71   5 B      116   7 N                                       1.4098984
   105   5 B      116   7 N                                       1.4906861
    81   5 B      117   5 B                                       1.5157250
   105   5 B      117   5 B                                       1.6058767
    79   5 B      118   7 N                                       1.4294863
    77   5 B      119   5 B                                       1.6493308
    87   5 B      119   5 B                                       1.6619985
   113   5 B      120   7 N                                       1.4617951
   119   5 B      120   7 N                                       1.4028229
    69   5 B      121   5 B                                       1.6189333
   114   7 N      121   5 B                                       1.4428132
    78   7 N      122   7 N                                       1.3673372
    88   7 N      123   5 B                                       1.4426607
    97   5 B      124   7 N                                       1.4532274
   110   7 N      124   7 N                                       1.4350098
    98   7 N      125   5 B                                       1.4565048
   112   7 N      125   5 B                                       1.4639852
   113   5 B      126   7 N                                       1.4269826
   118   7 N      126   7 N                                       1.3894405
    70   7 N      127   5 B                                       1.4605948
    71   5 B      127   5 B                                       1.6124771
    94   7 N      127   5 B                                       1.4502875
   101   5 B      128   7 N                                       1.4515240
   123   5 B      128   7 N                                       1.4388968
    72   7 N      129   5 B                                       1.4576658
    83   5 B      129   5 B                                       1.6053491
    85   5 B      130   7 N                                       1.4611133
    93   5 B      130   7 N                                       1.3919625
   124   7 N      130   7 N                                       1.4195182
    72   7 N      131   5 B                                       1.4585880
   116   7 N      131   5 B                                       1.4562684
    97   5 B      132   7 N                                       1.3875456
    76   7 N      133   5 B                                       1.4964720
    81   5 B      133   5 B                                       1.6006858
   129   5 B      133   5 B                                       1.6240988
    78   7 N      134   7 N                                       1.4301532
   102   7 N      134   7 N                                       1.4181097
   125   5 B      134   7 N                                       1.3742033
    73   5 B      135   5 B                                       1.6415555
    86   7 N      135   5 B                                       1.4387076
    97   5 B      136   7 N                                       1.4453307
   135   5 B      136   7 N                                       1.4537350
    74   7 N      137   5 B                                       1.4252623
   100   7 N      137   5 B                                       1.4000346
   132   7 N      137   5 B                                       1.4182721
    69   5 B      138   7 N                                       1.4028593
    86   7 N      138   7 N                                       1.4099446
   123   5 B      138   7 N                                       1.4833300
    71   5 B      139   5 B                                       1.6508394
   104   7 N      139   5 B                                       1.4323206
    99   5 B      140   7 N                                       1.4512780
   121   5 B      140   7 N                                       1.4428294

 * 9 distinct bonds (by element types)

   Z      Z             #   av. dist./Å        max./Å        min./Å
   5 B    5 B          17     1.6190719     1.6741288     1.5157250
   1 H    6 C          22     1.0918713     1.1046976     1.0782609
   6 C    6 C          18     1.4430867     1.5368459     1.3749452
   1 H    7 N           2     1.0139291     1.0148299     1.0130284
   5 B    7 N          66     1.4391276     1.4988192     1.3742033
   6 C    7 N           1     1.4577688     1.4577688     1.4577688
   7 N    7 N          11     1.4062006     1.4350098     1.3673372
   1 H    8 O           5     0.9800019     1.0003511     0.9639915
   6 C    8 O          14     1.3544629     1.4212748     1.2030900


optimized geometry written to: xtbopt.xyz


           -------------------------------------------------
          | TOTAL ENERGY             -270.502218840710 Eh   |
          | GRADIENT NORM               0.002705053466 Eh/α |
          | HOMO-LUMO GAP               0.170232603067 eV   |
           -------------------------------------------------

------------------------------------------------------------------------
 * finished run on 2026/08/31 at 22:26:49.528     
------------------------------------------------------------------------
 total:
 * wall-time:     0 d,  0 h,  0 min,  9.478 sec
 *  cpu-time:     0 d,  0 h,  1 min, 33.766 sec
 * ratio c/w:     9.893 speedup
 SCF:
 * wall-time:     0 d,  0 h,  0 min,  2.369 sec
 *  cpu-time:     0 d,  0 h,  0 min, 21.172 sec
 * ratio c/w:     8.937 speedup
 ANC optimizer:
 * wall-time:     0 d,  0 h,  0 min,  7.041 sec
 *  cpu-time:     0 d,  0 h,  1 min, 11.906 sec
 * ratio c/w:    10.213 speedup

normal termination of xtb
