140
 energy: -270.502556066277 gnorm: 0.002803964414 xtb: 6.7.1pre (5071a88)
C            1.63380460125002       -8.26308935877040       13.07173508458726
O            1.29506905505640       -6.92454470893058       12.80057484356078
C            2.25291135366053       -5.98357338499707       12.79514635054792
C            3.59926582549774       -6.25957294597902       13.04172425116024
C            4.54655491752935       -5.25229638894953       13.02922159577887
C            4.17109710893686       -3.95053643956245       12.77140078154442
C            2.83685797558189       -3.64797982553865       12.51529796009737
C            2.50246567608531       -2.24220591627565       12.24127212052344
O            3.38760112517957       -1.37398073878286       12.29045347030479
C            1.12776084087934       -1.93116442606097       11.90772012682635
C            0.78277833907802       -0.60581601994884       11.58961012775627
O            1.67713724519102        0.37662507484055       11.63189727872668
C           -0.54865900736974       -0.28907742016934       11.23362328047732
C           -1.52228443286668       -1.25900983601426       11.27638849425250
C           -1.18874885599126       -2.59496044120364       11.61185643068564
O           -2.18169877871653       -3.48523397674153       11.61799957144378
C            0.13601445073566       -2.94039171881372       11.91102020339729
C            0.45381475082249       -4.32979972240874       12.24115356320971
O           -0.43217993652084       -5.19219484626744       12.27336487928375
C            1.85760912088138       -4.65193623323478       12.51960375992745
C           -2.96783365191220       -0.97707972628964       10.99541541668222
C           -3.32038491888732        0.50906374163918       11.10702295968029
O           -4.61073688884758        0.76619399582878       10.57748125108423
C           -3.26940607862465        0.97354187663667       12.56882797682598
O           -2.48815565878903        0.49650278646102       13.34963265295562
C           -4.18915492874625        2.12849172942896       12.94975053829889
O           -5.55326363863795        1.82770439981071       12.86888625454377
C           -2.27142084245569        1.32194566430309       10.33172752957453
C           -0.85427856385276        1.14634490074107       10.87864161383227
O            0.06420389517526        1.60179457713580        9.89627938379760
C            0.63898703364866        2.85410739033859       10.16208663477068
C            1.69923937550680        3.08387405529986        9.08241325256382
C            1.97205831579328        4.57619632905975        8.90312616010950
N            2.51088226151844        5.11689586465798       10.14501160207099
C            0.65248143189711        5.33702531889481        8.55506584528985
O            0.60988437445141        6.58514962444610        9.19484152128975
C           -0.57188788327969        4.46685105608075        8.93558761321108
C           -1.84948830026464        5.28985765916696        9.03028649828074
O           -0.33202431688279        3.86642472246167       10.20138464325150
H            2.06821049381581       -8.37478829973823       14.07031644965843
H            0.69489506577617       -8.81281329570747       13.02548646107950
H            2.32424669571358       -8.66425322416823       12.32291259522050
H            3.91594719461260       -7.26971015234386       13.24654811163506
H            5.58117754721329       -5.49227788300489       13.22305005600149
H            4.88787490835027       -3.14461098060274       12.75891553323221
H            2.54896717136747       -0.03832721292584       11.89394129236365
H           -1.77923616108212       -4.36167674742579       11.88296755085789
H           -3.20984882474611       -1.33030051599777        9.98681197480396
H           -3.57682625780085       -1.55964222625161       11.69173180737112
H           -4.60478639227955        0.54733774888503        9.63865548268220
H           -3.93121477671545        2.97986512977700       12.29691290507918
H           -3.98827120421405        2.40262563358917       13.98807555900897
H           -5.72406331328799        1.46568461765108       11.98824421934971
H           -2.26611694594964        0.98145706750862        9.29153095914960
H           -2.52946286570437        2.38273565676236       10.34389890480745
H           -0.72571188825191        1.74848746291663       11.79012907127730
H            1.08726868068723        2.85400431920549       11.16636686720533
H            2.60788573699873        2.55765242821328        9.37213367315949
H            1.34284134778916        2.65004092400631        8.14817807673540
H            2.67650045418402        4.69953436290248        8.06101665208144
H            2.86287283319313        6.05608934173797        9.99063318630496
H            3.27488194513613        4.53920985147425       10.47472722911151
H            0.61473394285367        5.55130270883287        7.48255228603256
H            0.67889197297305        6.39750555900238       10.14209602258670
H           -0.70078914188161        3.68202081247698        8.17682797868049
H           -1.75181763675352        6.04125113029948        9.80801299925454
H           -2.68974968495867        4.64447657376900        9.27068306193621
H           -2.03602375126376        5.78499554952181        8.08220743435592
B            3.46167656384653       -1.44264098312155        1.67108213493001
N            3.46236383322812        1.14236205783092        0.98396897220871
B            2.54343623849879        2.37414787521901       -1.21779223349573
N            2.29529256446061       -0.62973121969600       -2.68734621595708
B            0.68769798209476       -3.54926606571935        2.74691681707209
N           -2.93736413002516       -2.63939275705834        1.75106305928475
B           -1.03464135297924        4.09671943648786        1.87326551387371
N           -0.61690077580336        0.02980466945921       -3.89848639921789
B           -0.47064500405777        1.45695095591907       -4.04935917781961
N            1.20915682304535       -3.77322722682972       -1.69587444741964
B           -3.84175657193286        2.22297102861692       -0.45181905371061
N           -2.76898676165274        2.77557713088834       -1.16930271532731
B            1.40875836080519        0.82973013157917       -4.84595281041588
N           -0.23309796606034        3.37492594681623        2.87794990880868
B            0.89859023992780       -2.86760167429046       -2.77124421935478
N           -0.48827077228735        3.77810692159460       -0.96758744985165
B           -0.80906095598129        2.19834652736749        3.33044048897620
N            1.64814060769680       -1.25863538390485        3.53416756281797
B           -0.24487737659851        3.48195314345185       -2.33756795475592
N            1.30399137286455        0.08181440750199        3.85091776141824
B           -1.59650768465451       -0.54781084935776       -3.04296450854661
N           -3.82739331611540        1.78876266927616        0.87353679624711
B            0.34116689026714        4.50770094383115        1.22629784600243
N            0.04182467433054       -0.00044425594605        4.49326944026522
B           -2.70653654118586        2.24024966589701        1.64410378863255
N            3.77354819964992       -0.12129602856707       -0.72106653407651
B           -2.25374911700273       -3.62643983973504        1.05079622962946
N            1.05708718844302        3.74148010336137        2.27847670462233
B           -1.82830501956781       -0.76276328582483        3.26350102057031
N           -2.43614107436436       -3.58780593960782       -0.40817347868047
B            3.02050242739738       -1.06228116490383       -1.46011310261372
N           -3.15637088047020       -1.23855935858476       -0.34212106632754
B            2.03824728845195        2.93372797652881        1.60516381215620
N           -0.50753370605221       -2.88861145228584       -2.39111665556800
B           -1.67335105287440       -2.10107989652242       -2.45027953442522
N            0.59296713980939        3.97609159146102       -0.06734257249674
B            1.09419248757867        2.97128589145188       -3.13964802821870
N            0.07569785642189       -4.34615325428613        1.76417375399438
B           -1.78067790247558        3.46510582602436       -0.36670086871433
N           -2.00870001699454        3.42957909350801        1.07407699261724
B            1.46439880727765       -4.19951461816354        1.54356867454973
N           -0.80215868406249        1.07736178743344        4.24411430151176
B           -2.66601660891641       -2.38923856666087       -1.13345204680590
N           -1.07468952660832       -4.47090605103608        1.03358757882103
B           -2.50261016543307        0.50434013797854       -2.06798367601059
N            2.35032491185522       -3.87272440954679        0.49741579209671
B            3.91711664623712       -0.19067702368599        0.76914929625481
N            1.93222390989906        1.96899087703231       -2.42192152452674
B            1.00525883406674        2.26636619887192       -4.57984922956261
N           -4.18342125593111        0.84281082635667       -0.30484440875081
B           -1.33574251189601        2.46619148710056       -3.07297813352437
N           -2.35660958693176        1.94544791165231       -2.26394766654342
B            3.07308630586632       -2.63270727229023        0.64422673761989
N            2.33390468545733       -3.66096560460392       -0.92625884944233
B            2.22506405824445        0.55981514343253        2.85237380251591
N           -2.02991341292489        0.62688676892200        3.64784850992443
B           -1.10200022246396       -4.17209236263936       -0.39907756136693
N           -3.21655936985445        0.05511041135855       -0.91692988044691
B            3.45155992481274        1.27046875929597       -0.47075257751150
N            2.58846932936909        1.64527466853050        1.98010391873221
B            1.47402647084141       -1.54305367846647       -3.47242106200241
N           -2.10433356465482        1.77095165183542        2.80844931142596
B            2.04456141036236        0.72397587760348       -3.16891240108606
N           -2.72093270672270       -1.32766024385051        2.36351791147033
B            0.66060670916840       -0.52698014500517       -4.44387900387335
N           -0.16906758277510       -3.74740993459618       -1.31457224504999
B            0.48253333317779       -2.09331208859283        3.47645016531092
N           -0.58995764554253       -1.18980039341576        3.87077458050875
B           -3.22464667731480       -1.43751909025033        1.04184611093025
N            2.67272113584161       -0.84228006976623        2.66316799984997
B            1.88168193035267        3.35122188833703       -0.06336602929214
N            2.87749982202197       -2.32004723356532       -0.75062789578712
