      -----------------------------------------------------------      
     |                   =====================                   |     
     |                           x T B                           |     
     |                   =====================                   |     
     |                         S. Grimme                         |     
     |          Mulliken Center for Theoretical Chemistry        |     
     |                    University of Bonn                     |     
      -----------------------------------------------------------      

   * xtb version 6.7.1pre (5071a88) compiled by 'Marcel@Raven' on 2024-07-23

   xtb is free software: you can redistribute it and/or modify it under
   the terms of the GNU Lesser General Public License as published by
   the Free Software Foundation, either version 3 of the License, or
   (at your option) any later version.
   
   xtb is distributed in the hope that it will be useful,
   but WITHOUT ANY WARRANTY; without even the implied warranty of
   MERCHANTABILITY or FITNESS FOR A PARTICULAR PURPOSE.  See the
   GNU Lesser General Public License for more details.
   
   Cite this work as:
   * C. Bannwarth, E. Caldeweyher, S. Ehlert, A. Hansen, P. Pracht,
     J. Seibert, S. Spicher, S. Grimme, WIREs Comput. Mol. Sci., 2020, 11,
     e01493. DOI: 10.1002/wcms.1493
   
   for GFN2-xTB:
   * C. Bannwarth, S. Ehlert and S. Grimme., J. Chem. Theory Comput., 2019,
     15, 1652-1671. DOI: 10.1021/acs.jctc.8b01176
   for GFN1-xTB:
   * S. Grimme, C. Bannwarth, P. Shushkov, J. Chem. Theory Comput., 2017,
     13, 1989-2009. DOI: 10.1021/acs.jctc.7b00118
   for GFN0-xTB:
   * P. Pracht, E. Caldeweyher, S. Ehlert, S. Grimme, ChemRxiv, 2019, preprint.
     DOI: 10.26434/chemrxiv.8326202.v1
   for GFN-FF:
   * S. Spicher and S. Grimme, Angew. Chem. Int. Ed., 2020, 59, 15665-15673.
     DOI: 10.1002/anie.202004239
   
   for ALPB and GBSA implicit solvation:
   * S. Ehlert, M. Stahn, S. Spicher, S. Grimme, J. Chem. Theory Comput.,
     2021, 17, 4250-4261. DOI: 10.1021/acs.jctc.1c00471
   
   for ddCOSMO and CPCM-X implicit solvation:
   * M. Stahn, S. Ehlert, S. Grimme, J. Phys. Chem. A,
     2023, XX, XXXX-XXXX. DOI: 10.1021/acs.jpca.3c04382
   
   for DFT-D4:
   * E. Caldeweyher, C. Bannwarth and S. Grimme, J. Chem. Phys., 2017,
     147, 034112. DOI: 10.1063/1.4993215
   * E. Caldeweyher, S. Ehlert, A. Hansen, H. Neugebauer, S. Spicher,
     C. Bannwarth and S. Grimme, J. Chem. Phys., 2019, 150, 154122.
     DOI: 10.1063/1.5090222
   * E. Caldeweyher, J.-M. Mewes, S. Ehlert and S. Grimme, Phys. Chem. Chem. Phys.
     2020, 22, 8499-8512. DOI: 10.1039/D0CP00502A
   
   for sTDA-xTB:
   * S. Grimme and C. Bannwarth, J. Chem. Phys., 2016, 145, 054103.
     DOI: 10.1063/1.4959605
   
   in the mass-spec context:
   * V. Asgeirsson, C. Bauer and S. Grimme, Chem. Sci., 2017, 8, 4879.
     DOI: 10.1039/c7sc00601b
   * J. Koopman and S. Grimme, ACS Omega 2019, 4, 12, 15120-15133.
     DOI: 10.1021/acsomega.9b02011
   
   for metadynamics refer to:
   * S. Grimme, J. Chem. Theory Comput., 2019, 155, 2847-2862
     DOI: 10.1021/acs.jctc.9b00143
   
   for SPH calculations refer to:
   * S. Spicher and S. Grimme, J. Chem. Theory Comput., 2021, 17, 1701-1714
     DOI: 10.1021/acs.jctc.0c01306
   
   for ONIOM refer to:
   * C. Plett, A. Katbashev, S. Ehlert, S. Grimme, M. Bursch,
     Phys. Chem. Chem. Phys., 2023, 25, 17860-17868. DOI: 10.1039/D3CP02178E
   
   for DIPRO refer to:
   * J. Kohn, N. Gildemeister, S. Grimme, D. Fazzi, A. Hansen,
     J. Chem. Phys., 2023, just accepted.
   
   for PTB refer to:
   * S. Grimme, M. Mueller, A. Hansen, J. Chem. Phys., 2023, 158, 124111.
     DOI: 10.1063/5.0137838
   
   with help from (in alphabetical order)
   P. Atkinson, C. Bannwarth, F. Bohle, G. Brandenburg, E. Caldeweyher
   M. Checinski, S. Dohm, S. Ehlert, S. Ehrlich, I. Gerasimov, C. Hölzer
   A. Katbashev, J. Kohn, J. Koopman, C. Lavigne, S. Lehtola, F. März, M. Müller,
   F. Musil, H. Neugebauer, J. Pisarek, C. Plett, P. Pracht, F. Pultar,
   J. Seibert, P. Shushkov, S. Spicher, M. Stahn, M. Steiner, T. Strunk,
   J. Stückrath, T. Rose, and J. Unsleber
   
 * started run on 2026/08/31 at 21:09:17.195     
   ID    Z sym.   atoms
    1    6 C      1, 2, 4, 6-10, 12, 13, 15-18
    2    7 N      3, 11, 14, 19, 39, 41, 43, 45, 47, 49, 51, 53, 55, 57, 59,
                  61, 63, 65, 67, 69, 71, 73, 75, 77, 79, 81, 83, 85, 87, 89,
                  91, 93, 95, 97, 99, 101, 103, 105, 107, 109
    3    8 O      5
    4    1 H      20-37
    5    5 B      38, 40, 42, 44, 46, 48, 50, 52, 54, 56, 58, 60, 62, 64, 66,
                  68, 70, 72, 74, 76, 78, 80, 82, 84, 86, 88, 90, 92, 94, 96,
                  98, 100, 102, 104, 106, 108

           -------------------------------------------------
          |                Calculation Setup                |
           -------------------------------------------------

          program call               : "c:\Users\Andre\Proyectos doctorado\kras-pancreatic-gC3N4-ai\tools\xtb\xtb-6.7.1\bin\xtb.exe" "c:\Users\Andre\Proyectos doctorado\nano-qsar-ai-therapeutics\calculations\tnbc\Veliparib\Veliparib_B36N36_relaxed_complex.xyz" --gfn 2 --opt normal --chrg 0 --uhf 0 --iterations 50 --norestart
          coordinate file            : c:\Users\Andre\Proyectos doctorado\nano-qsar-ai-therapeutics\calculations\tnbc\Veliparib\Veliparib_B36N36_relaxed_complex.xyz
          omp threads                :                    16


molecular fragmentation (1/2 indicates fragments):
111111111111111111111111111111111111122222222222222222222222222222222222
2222222222222222222222222222222222222
# atoms in fragment 1/2:    37    72
 fragment masses (1/2) :      258.32      893.44
CMA distance (Bohr)    :  15.843
constraining FC (au)   :  0.0500

           -------------------------------------------------
          |                 G F N 2 - x T B                 |
           -------------------------------------------------

        Reference                      10.1021/acs.jctc.8b01176
      * Hamiltonian:
        H0-scaling (s, p, d)           1.850000    2.230000    2.230000
        zeta-weighting                 0.500000
      * Dispersion:
        s8                             2.700000
        a1                             0.520000
        a2                             5.000000
        s9                             5.000000
      * Repulsion:
        kExp                           1.500000    1.000000
        rExp                           1.000000
      * Coulomb:
        alpha                          2.000000
        third order                    shell-resolved
        anisotropic                    true
        a3                             3.000000
        a5                             4.000000
        cn-shift                       1.200000
        cn-exp                         4.000000
        max-rad                        5.000000


          ...................................................
          :                      SETUP                      :
          :.................................................:
          :  # basis functions                 382          :
          :  # atomic orbitals                 382          :
          :  # shells                          200          :
          :  # electrons                       388          :
          :  max. iterations                    50          :
          :  Hamiltonian                  GFN2-xTB          :
          :  restarted?                      false          :
          :  GBSA solvation                  false          :
          :  PC potential                    false          :
          :  electronic temp.          300.0000000     K    :
          :  accuracy                    1.0000000          :
          :  -> integral cutoff          0.2500000E+02      :
          :  -> integral neglect         0.1000000E-07      :
          :  -> SCF convergence          0.1000000E-05 Eh   :
          :  -> wf. convergence          0.1000000E-03 e    :
          :  Broyden damping             0.4000000          :
          :  net charge                          0          :
          :  unpaired electrons                  0          :
          ...................................................

 iter      E             dE          RMSdq      gap      omega  full diag
   1   -206.3618531 -0.206362E+03  0.115E+01    0.51       0.0  T
   2   -206.8275366 -0.465684E+00  0.699E+00    0.44       1.0  T
   3   -204.0516246  0.277591E+01  0.442E+00    0.13       1.0  T
   4   -206.9657262 -0.291410E+01  0.137E+00    0.15       1.0  T
   5   -207.1840724 -0.218346E+00  0.857E-01    0.36       1.0  T
   6   -207.2803398 -0.962674E-01  0.584E-01    0.41       1.0  T
   7   -207.2952998 -0.149601E-01  0.425E-01    0.61       1.0  T
   8   -207.2897985  0.550128E-02  0.343E-01    0.50       1.0  T
   9   -207.2950985 -0.530000E-02  0.178E-01    0.51       1.0  T
  10   -207.3005196 -0.542103E-02  0.576E-02    0.49       1.0  T
  11   -207.3010050 -0.485478E-03  0.294E-02    0.49       1.0  T
  12   -207.3010281 -0.230329E-04  0.217E-02    0.49       1.0  T
  13   -207.3010309 -0.283565E-05  0.102E-02    0.48       1.0  T
  14   -207.3010434 -0.124825E-04  0.281E-03    0.48       3.4  T
  15   -207.3010445 -0.108344E-05  0.122E-03    0.48       7.9  T
  16   -207.3010445 -0.717774E-07  0.814E-04    0.48      11.8  T
  17   -207.3010445 -0.611948E-08  0.390E-04    0.48      24.6  T

   *** convergence criteria satisfied after 17 iterations ***

         #    Occupation            Energy/Eh            Energy/eV
      -------------------------------------------------------------
         1        2.0000           -0.6878834             -18.7183
       ...           ...                  ...                  ...
       188        2.0000           -0.3220073              -8.7623
       189        2.0000           -0.3190120              -8.6808
       190        2.0000           -0.3171792              -8.6309
       191        2.0000           -0.3154370              -8.5835
       192        2.0000           -0.3104007              -8.4464
       193        2.0000           -0.3086033              -8.3975
       194        1.9998           -0.2958459              -8.0504 (HOMO)
       195        0.0002           -0.2782167              -7.5707 (LUMO)
       196                         -0.2696986              -7.3389
       197                         -0.2595521              -7.0628
       198                         -0.2486774              -6.7669
       199                         -0.2461783              -6.6989
       ...                                ...                  ...
       382                          0.9884396              26.8968
      -------------------------------------------------------------
                  HL-Gap            0.0176292 Eh            0.4797 eV
             Fermi-level           -0.2870314 Eh           -7.8105 eV

 SCC (total)                   0 d,  0 h,  0 min,  0.436 sec
 SCC setup                      ...        0 min,  0.001 sec (  0.229%)
 Dispersion                     ...        0 min,  0.003 sec (  0.688%)
 classical contributions        ...        0 min,  0.000 sec (  0.000%)
 integral evaluation            ...        0 min,  0.010 sec (  2.294%)
 iterations                     ...        0 min,  0.393 sec ( 90.138%)
 molecular gradient             ...        0 min,  0.026 sec (  5.963%)
 printout                       ...        0 min,  0.003 sec (  0.688%)

         :::::::::::::::::::::::::::::::::::::::::::::::::::::
         ::                     SUMMARY                     ::
         :::::::::::::::::::::::::::::::::::::::::::::::::::::
         :: total energy            -205.168605914331 Eh    ::
         :: gradient norm              0.081905437276 Eh/a0 ::
         :: HOMO-LUMO gap              0.479716155265 eV    ::
         ::.................................................::
         :: SCC energy              -207.285949627280 Eh    ::
         :: -> isotropic ES            0.698421091793 Eh    ::
         :: -> anisotropic ES         -0.025306604080 Eh    ::
         :: -> anisotropic XC          0.091729256863 Eh    ::
         :: -> dispersion             -0.196089746690 Eh    ::
         :: repulsion energy           2.117343712949 Eh    ::
         :: add. restraining           0.000000000000 Eh    ::
         :: total charge              -0.000000000000 e     ::
         :::::::::::::::::::::::::::::::::::::::::::::::::::::

      ----------------------------------------------------------- 
     |                   =====================                   |
     |                        A N C O P T                        |
     |                   =====================                   |
     |               Approximate Normal Coordinate               |
     |                Rational Function Optimizer                |
      ----------------------------------------------------------- 
      ----------------------------------------------------------- 
     |                   =====================                   |
     |                        A N C O P T                        |
     |                   =====================                   |
     |               Approximate Normal Coordinate               |
     |                Rational Function Optimizer                |
      ----------------------------------------------------------- 

          ...................................................
          :                      SETUP                      :
          :.................................................:
          :   optimization level            normal          :
          :   max. optcycles                   327          :
          :   ANC micro-cycles                  20          :
          :   degrees of freedom               321          :
          :.................................................:
          :   RF solver                   davidson          :
          :   write xtbopt.log                true          :
          :   linear?                        false          :
          :   energy convergence         0.5000000E-05 Eh   :
          :   grad. convergence          0.1000000E-02 Eh/α :
          :   maxmium RF displ.          1.0000000          :
          :   Hlow (freq-cutoff)         0.1000000E-01      :
          :   Hmax (freq-cutoff)         5.0000000          :
          :   S6 in model hess.         20.0000000          :
          ...................................................

generating ANC from exact Hessian ...
Using Lindh-Hessian (1995)
 Shifting diagonal of input Hessian by   1.007574921724921E-002
 Lowest  eigenvalues of input Hessian
    0.010000    0.000000    0.000000    0.000000    0.000000    0.000000
    0.000000    0.010135    0.010231    0.010439    0.010564    0.010831
    0.011013    0.011396    0.012585    0.013931    0.014217    0.015727
 Highest eigenvalues
    2.115247    2.154597    2.195279    2.260778    2.294579    2.315047
 

........................................................................
.............................. CYCLE    1 ..............................
........................................................................

 iter      E             dE          RMSdq      gap      omega  full diag
   1   -207.3010445 -0.207301E+03  0.148E-04    0.48       0.0  T
   2   -207.3010445  0.119189E-08  0.152E-04    0.48      62.9  T
   3   -207.3010446 -0.376951E-08  0.561E-05    0.48     170.6  T
     SCC iter.                  ...        0 min,  0.067 sec
     gradient                   ...        0 min,  0.027 sec
 * total energy  :  -205.1686059 Eh     change       -0.9341676E-08 Eh
   gradient norm :     0.0819070 Eh/α   predicted     0.0000000E+00 (-100.00%)
   displ. norm   :     0.4865533 α      lambda       -0.2269896E-01
   maximum displ.:     0.1707006 α      in ANC's #45, #11, #25, ...

........................................................................
.............................. CYCLE    2 ..............................
........................................................................

 iter      E             dE          RMSdq      gap      omega  full diag
   1   -207.3473674 -0.207347E+03  0.161E-01    0.52       0.0  T
   2   -207.3475701 -0.202696E-03  0.949E-02    0.48       1.0  T
   3   -207.3474480  0.122032E-03  0.476E-02    0.51       1.0  T
   4   -207.3475940 -0.145990E-03  0.165E-02    0.48       1.0  T
   5   -207.3476335 -0.394807E-04  0.637E-03    0.49       1.5  T
   6   -207.3476365 -0.305658E-05  0.412E-03    0.49       2.3  T
   7   -207.3476383 -0.174558E-05  0.245E-03    0.49       3.9  T
   8   -207.3476391 -0.774290E-06  0.108E-03    0.49       8.8  T
   9   -207.3476392 -0.144045E-06  0.446E-04    0.49      21.5  T
  10   -207.3476392 -0.241302E-07  0.226E-04    0.49      42.3  T
     SCC iter.                  ...        0 min,  0.220 sec
     gradient                   ...        0 min,  0.026 sec
 * total energy  :  -205.1841011 Eh     change       -0.1549519E-01 Eh
   gradient norm :     0.0321852 Eh/α   predicted    -0.1403670E-01 (  -9.41%)
   displ. norm   :     0.4230826 α      lambda       -0.6920505E-02
   maximum displ.:     0.1398899 α      in ANC's #9, #11, #45, ...

........................................................................
.............................. CYCLE    3 ..............................
........................................................................

 iter      E             dE          RMSdq      gap      omega  full diag
   1   -207.3628893 -0.207363E+03  0.998E-02    0.53       0.0  T
   2   -207.3629338 -0.445341E-04  0.590E-02    0.50       1.0  T
   3   -207.3628691  0.646403E-04  0.279E-02    0.52       1.0  T
   4   -207.3629385 -0.693799E-04  0.909E-03    0.51       1.1  T
   5   -207.3629506 -0.120943E-04  0.368E-03    0.51       2.6  T
   6   -207.3629515 -0.866882E-06  0.268E-03    0.51       3.6  T
   7   -207.3629524 -0.942856E-06  0.132E-03    0.51       7.3  T
   8   -207.3629526 -0.187347E-06  0.619E-04    0.51      15.5  T
   9   -207.3629527 -0.491080E-07  0.285E-04    0.51      33.7  T
     SCC iter.                  ...        0 min,  0.203 sec
     gradient                   ...        0 min,  0.029 sec
 * total energy  :  -205.1889874 Eh     change       -0.4886319E-02 Eh
   gradient norm :     0.0131427 Eh/α   predicted    -0.4080943E-02 ( -16.48%)
   displ. norm   :     0.4549465 α      lambda       -0.3239623E-02
   maximum displ.:     0.1847758 α      in ANC's #11, #9, #8, ...

........................................................................
.............................. CYCLE    4 ..............................
........................................................................

 iter      E             dE          RMSdq      gap      omega  full diag
   1   -207.3637845 -0.207364E+03  0.814E-02    0.56       0.0  T
   2   -207.3638175 -0.330386E-04  0.477E-02    0.53       1.0  T
   3   -207.3637711  0.464681E-04  0.235E-02    0.55       1.0  T
   4   -207.3638200 -0.489607E-04  0.779E-03    0.53       1.2  T
   5   -207.3638291 -0.911247E-05  0.325E-03    0.53       2.9  T
   6   -207.3638305 -0.134409E-05  0.191E-03    0.53       5.0  T
   7   -207.3638309 -0.407464E-06  0.104E-03    0.53       9.2  T
   8   -207.3638310 -0.818100E-07  0.628E-04    0.53      15.2  T
   9   -207.3638310 -0.583452E-07  0.224E-04    0.53      42.8  T
     SCC iter.                  ...        0 min,  0.223 sec
     gradient                   ...        0 min,  0.025 sec
 * total energy  :  -205.1914093 Eh     change       -0.2421920E-02 Eh
   gradient norm :     0.0131703 Eh/α   predicted    -0.1955678E-02 ( -19.25%)
   displ. norm   :     0.4994054 α      lambda       -0.2143603E-02
   maximum displ.:     0.2324013 α      in ANC's #9, #11, #8, ...

........................................................................
.............................. CYCLE    5 ..............................
........................................................................

 iter      E             dE          RMSdq      gap      omega  full diag
   1   -207.3620732 -0.207362E+03  0.749E-02    0.58       0.0  T
   2   -207.3621091 -0.358766E-04  0.441E-02    0.55       1.0  T
   3   -207.3620724  0.367363E-04  0.217E-02    0.57       1.0  T
   4   -207.3621098 -0.374197E-04  0.781E-03    0.55       1.2  T
   5   -207.3621188 -0.898735E-05  0.360E-03    0.55       2.7  T
   6   -207.3621209 -0.206766E-05  0.174E-03    0.55       5.5  T
   7   -207.3621212 -0.307637E-06  0.103E-03    0.55       9.3  T
   8   -207.3621213 -0.909311E-07  0.605E-04    0.55      15.8  T
   9   -207.3621213 -0.482671E-07  0.229E-04    0.55      41.9  T
     SCC iter.                  ...        0 min,  0.188 sec
     gradient                   ...        0 min,  0.024 sec
 * total energy  :  -205.1930308 Eh     change       -0.1621420E-02 Eh
   gradient norm :     0.0107497 Eh/α   predicted    -0.1339116E-02 ( -17.41%)
   displ. norm   :     0.5066151 α      lambda       -0.1437807E-02
   maximum displ.:     0.2438469 α      in ANC's #9, #8, #11, ...

........................................................................
.............................. CYCLE    6 ..............................
........................................................................

 iter      E             dE          RMSdq      gap      omega  full diag
   1   -207.3597854 -0.207360E+03  0.739E-02    0.60       0.0  T
   2   -207.3598420 -0.565827E-04  0.436E-02    0.56       1.0  T
   3   -207.3598210  0.210290E-04  0.220E-02    0.58       1.0  T
   4   -207.3598426 -0.216454E-04  0.898E-03    0.57       1.1  T
   5   -207.3598547 -0.121291E-04  0.407E-03    0.57       2.4  T
   6   -207.3598578 -0.308135E-05  0.152E-03    0.57       6.3  T
   7   -207.3598580 -0.157663E-06  0.101E-03    0.57       9.5  T
   8   -207.3598581 -0.942916E-07  0.545E-04    0.57      17.6  T
   9   -207.3598581 -0.347625E-07  0.207E-04    0.57      46.2  T
     SCC iter.                  ...        0 min,  0.192 sec
     gradient                   ...        0 min,  0.026 sec
 * total energy  :  -205.1941173 Eh     change       -0.1086502E-02 Eh
   gradient norm :     0.0092307 Eh/α   predicted    -0.9034815E-03 ( -16.84%)
   displ. norm   :     0.5118765 α      lambda       -0.1038364E-02
   maximum displ.:     0.2793439 α      in ANC's #8, #9, #11, ...

........................................................................
.............................. CYCLE    7 ..............................
........................................................................

 iter      E             dE          RMSdq      gap      omega  full diag
   1   -207.3601231 -0.207360E+03  0.690E-02    0.61       0.0  T
   2   -207.3601585 -0.353466E-04  0.410E-02    0.58       1.0  T
   3   -207.3601347  0.237477E-04  0.184E-02    0.60       1.0  T
   4   -207.3601559 -0.211805E-04  0.778E-03    0.58       1.2  T
   5   -207.3601643 -0.841005E-05  0.412E-03    0.59       2.3  T
   6   -207.3601674 -0.303236E-05  0.156E-03    0.59       6.1  T
   7   -207.3601675 -0.149019E-06  0.104E-03    0.59       9.2  T
   8   -207.3601676 -0.118877E-06  0.485E-04    0.59      19.7  T
   9   -207.3601677 -0.254863E-07  0.198E-04    0.59      48.5  T
     SCC iter.                  ...        0 min,  0.197 sec
     gradient                   ...        0 min,  0.025 sec
 * total energy  :  -205.1948745 Eh     change       -0.7572731E-03 Eh
   gradient norm :     0.0076340 Eh/α   predicted    -0.6552175E-03 ( -13.48%)
   displ. norm   :     0.5016656 α      lambda       -0.7290291E-03
   maximum displ.:     0.2814007 α      in ANC's #8, #9, #7, ...

........................................................................
.............................. CYCLE    8 ..............................
........................................................................

 iter      E             dE          RMSdq      gap      omega  full diag
   1   -207.3577159 -0.207358E+03  0.743E-02    0.62       0.0  T
   2   -207.3577760 -0.601506E-04  0.440E-02    0.59       1.0  T
   3   -207.3577578  0.182495E-04  0.219E-02    0.61       1.0  T
   4   -207.3577773 -0.195481E-04  0.893E-03    0.59       1.1  T
   5   -207.3577881 -0.107666E-04  0.451E-03    0.60       2.1  T
   6   -207.3577917 -0.360531E-05  0.165E-03    0.60       5.8  T
   7   -207.3577919 -0.192571E-06  0.102E-03    0.60       9.4  T
   8   -207.3577920 -0.983130E-07  0.498E-04    0.60      19.2  T
   9   -207.3577920 -0.235021E-07  0.241E-04    0.60      39.7  T
     SCC iter.                  ...        0 min,  0.210 sec
     gradient                   ...        0 min,  0.029 sec
 * total energy  :  -205.1953508 Eh     change       -0.4762612E-03 Eh
   gradient norm :     0.0125632 Eh/α   predicted    -0.4562521E-03 (  -4.20%)
   displ. norm   :     0.3817012 α      lambda       -0.5072916E-03
   maximum displ.:     0.2455451 α      in ANC's #8, #9, #7, ...

........................................................................
.............................. CYCLE    9 ..............................
........................................................................

 iter      E             dE          RMSdq      gap      omega  full diag
   1   -207.3604390 -0.207360E+03  0.523E-02    0.62       0.0  T
   2   -207.3604527 -0.137059E-04  0.309E-02    0.60       1.0  T
   3   -207.3604343  0.183771E-04  0.143E-02    0.61       1.0  T
   4   -207.3604522 -0.178463E-04  0.545E-03    0.60       1.8  T
   5   -207.3604562 -0.407584E-05  0.276E-03    0.60       3.5  T
   6   -207.3604572 -0.956339E-06  0.148E-03    0.60       6.5  T
   7   -207.3604574 -0.247484E-06  0.694E-04    0.60      13.8  T
   8   -207.3604575 -0.544351E-07  0.262E-04    0.60      36.6  T
     SCC iter.                  ...        0 min,  0.171 sec
     gradient                   ...        0 min,  0.024 sec
 * total energy  :  -205.1956905 Eh     change       -0.3396705E-03 Eh
   gradient norm :     0.0069037 Eh/α   predicted    -0.2906018E-03 ( -14.45%)
   displ. norm   :     0.3324772 α      lambda       -0.2736975E-03
   maximum displ.:     0.2124331 α      in ANC's #8, #5, #9, ...

........................................................................
.............................. CYCLE   10 ..............................
........................................................................

 iter      E             dE          RMSdq      gap      omega  full diag
   1   -207.3598268 -0.207360E+03  0.443E-02    0.62       0.0  T
   2   -207.3598339 -0.713213E-05  0.259E-02    0.61       1.0  T
   3   -207.3598178  0.160903E-04  0.120E-02    0.62       1.0  T
   4   -207.3598333 -0.154902E-04  0.434E-03    0.61       2.2  T
   5   -207.3598362 -0.292057E-05  0.204E-03    0.61       4.7  T
   6   -207.3598367 -0.481704E-06  0.110E-03    0.61       8.7  T
   7   -207.3598368 -0.944173E-07  0.638E-04    0.61      15.0  T
   8   -207.3598369 -0.518954E-07  0.238E-04    0.61      40.3  T
     SCC iter.                  ...        0 min,  0.182 sec
     gradient                   ...        0 min,  0.024 sec
 * total energy  :  -205.1958910 Eh     change       -0.2005378E-03 Eh
   gradient norm :     0.0043298 Eh/α   predicted    -0.1519809E-03 ( -24.21%)
   displ. norm   :     0.3146399 α      lambda       -0.2477181E-03
   maximum displ.:     0.2059380 α      in ANC's #8, #5, #4, ...

........................................................................
.............................. CYCLE   11 ..............................
........................................................................

 iter      E             dE          RMSdq      gap      omega  full diag
   1   -207.3611410 -0.207361E+03  0.389E-02    0.62       0.0  T
   2   -207.3611452 -0.420602E-05  0.227E-02    0.61       1.0  T
   3   -207.3611242  0.209786E-04  0.132E-02    0.62       1.0  T
   4   -207.3611464 -0.221652E-04  0.378E-03    0.62       2.5  T
   5   -207.3611488 -0.238300E-05  0.155E-03    0.61       6.2  T
   6   -207.3611490 -0.189528E-06  0.919E-04    0.61      10.4  T
   7   -207.3611490 -0.409528E-07  0.627E-04    0.61      15.3  T
     SCC iter.                  ...        0 min,  0.142 sec
     gradient                   ...        0 min,  0.023 sec
 * total energy  :  -205.1960779 Eh     change       -0.1869097E-03 Eh
   gradient norm :     0.0042719 Eh/α   predicted    -0.1361378E-03 ( -27.16%)
   displ. norm   :     0.3302737 α      lambda       -0.2204617E-03
   maximum displ.:     0.2060950 α      in ANC's #8, #5, #4, ...

........................................................................
.............................. CYCLE   12 ..............................
........................................................................

 iter      E             dE          RMSdq      gap      omega  full diag
   1   -207.3610846 -0.207361E+03  0.382E-02    0.62       0.0  T
   2   -207.3610889 -0.433863E-05  0.222E-02    0.62       1.0  T
   3   -207.3610672  0.217719E-04  0.133E-02    0.62       1.0  T
   4   -207.3610879 -0.207340E-04  0.483E-03    0.62       2.0  T
   5   -207.3610921 -0.421426E-05  0.207E-03    0.62       4.6  T
   6   -207.3610926 -0.534871E-06  0.117E-03    0.62       8.2  T
   7   -207.3610928 -0.127716E-06  0.632E-04    0.62      15.1  T
   8   -207.3610928 -0.492115E-07  0.281E-04    0.62      34.1  T
     SCC iter.                  ...        0 min,  0.170 sec
     gradient                   ...        0 min,  0.024 sec
 * total energy  :  -205.1962536 Eh     change       -0.1756480E-03 Eh
   gradient norm :     0.0048339 Eh/α   predicted    -0.1222811E-03 ( -30.38%)
   displ. norm   :     0.3722584 α      lambda       -0.2317154E-03
   maximum displ.:     0.2131396 α      in ANC's #8, #5, #4, ...

........................................................................
.............................. CYCLE   13 ..............................
........................................................................

 iter      E             dE          RMSdq      gap      omega  full diag
   1   -207.3609231 -0.207361E+03  0.439E-02    0.63       0.0  T
   2   -207.3609282 -0.516265E-05  0.257E-02    0.63       1.0  T
   3   -207.3608989  0.293324E-04  0.153E-02    0.63       1.0  T
   4   -207.3609275 -0.286369E-04  0.535E-03    0.63       1.8  T
   5   -207.3609325 -0.495889E-05  0.242E-03    0.63       4.0  T
   6   -207.3609332 -0.693472E-06  0.138E-03    0.63       6.9  T
   7   -207.3609334 -0.201695E-06  0.685E-04    0.63      14.0  T
   8   -207.3609335 -0.575861E-07  0.293E-04    0.63      32.7  T
     SCC iter.                  ...        0 min,  0.166 sec
     gradient                   ...        0 min,  0.025 sec
 * total energy  :  -205.1964363 Eh     change       -0.1826797E-03 Eh
   gradient norm :     0.0051758 Eh/α   predicted    -0.1319147E-03 ( -27.79%)
   displ. norm   :     0.3871514 α      lambda       -0.2140822E-03
   maximum displ.:     0.2019185 α      in ANC's #8, #5, #4, ...

........................................................................
.............................. CYCLE   14 ..............................
........................................................................

 iter      E             dE          RMSdq      gap      omega  full diag
   1   -207.3603883 -0.207360E+03  0.463E-02    0.64       0.0  T
   2   -207.3603937 -0.534490E-05  0.273E-02    0.63       1.0  T
   3   -207.3603613  0.323614E-04  0.158E-02    0.63       1.0  T
   4   -207.3603916 -0.302601E-04  0.600E-03    0.64       1.6  T
   5   -207.3603977 -0.616083E-05  0.281E-03    0.63       3.4  T
   6   -207.3603988 -0.109363E-05  0.136E-03    0.63       7.1  T
   7   -207.3603990 -0.163363E-06  0.693E-04    0.63      13.8  T
   8   -207.3603991 -0.599376E-07  0.283E-04    0.63      33.9  T
     SCC iter.                  ...        0 min,  0.194 sec
     gradient                   ...        0 min,  0.025 sec
 * total energy  :  -205.1966027 Eh     change       -0.1664661E-03 Eh
   gradient norm :     0.0054778 Eh/α   predicted    -0.1230898E-03 ( -26.06%)
   displ. norm   :     0.3745917 α      lambda       -0.1893995E-03
   maximum displ.:     0.1960524 α      in ANC's #5, #8, #4, ...

........................................................................
.............................. CYCLE   15 ..............................
........................................................................

 iter      E             dE          RMSdq      gap      omega  full diag
   1   -207.3603915 -0.207360E+03  0.465E-02    0.64       0.0  T
   2   -207.3603955 -0.396935E-05  0.275E-02    0.64       1.0  T
   3   -207.3603615  0.339780E-04  0.153E-02    0.64       1.0  T
   4   -207.3603927 -0.312082E-04  0.587E-03    0.64       1.6  T
   5   -207.3603986 -0.591191E-05  0.278E-03    0.63       3.5  T
   6   -207.3603997 -0.108637E-05  0.124E-03    0.64       7.7  T
   7   -207.3603998 -0.120505E-06  0.662E-04    0.64      14.5  T
   8   -207.3603999 -0.547238E-07  0.275E-04    0.64      34.8  T
     SCC iter.                  ...        0 min,  0.174 sec
     gradient                   ...        0 min,  0.025 sec
 * total energy  :  -205.1967526 Eh     change       -0.1499149E-03 Eh
   gradient norm :     0.0046272 Eh/α   predicted    -0.1079890E-03 ( -27.97%)
   displ. norm   :     0.3729637 α      lambda       -0.1874205E-03
   maximum displ.:     0.2009116 α      in ANC's #5, #4, #6, ...

........................................................................
.............................. CYCLE   16 ..............................
........................................................................

 iter      E             dE          RMSdq      gap      omega  full diag
   1   -207.3609332 -0.207361E+03  0.461E-02    0.64       0.0  T
   2   -207.3609359 -0.268848E-05  0.274E-02    0.64       1.0  T
   3   -207.3609022  0.337612E-04  0.144E-02    0.63       1.0  T
   4   -207.3609326 -0.304925E-04  0.560E-03    0.64       1.7  T
   5   -207.3609383 -0.560451E-05  0.250E-03    0.64       3.8  T
   6   -207.3609391 -0.830729E-06  0.113E-03    0.64       8.5  T
   7   -207.3609392 -0.799747E-07  0.662E-04    0.64      14.5  T
   8   -207.3609392 -0.595851E-07  0.255E-04    0.64      37.6  T
     SCC iter.                  ...        0 min,  0.185 sec
     gradient                   ...        0 min,  0.027 sec
 * total energy  :  -205.1969052 Eh     change       -0.1525949E-03 Eh
   gradient norm :     0.0043376 Eh/α   predicted    -0.1067490E-03 ( -30.04%)
   displ. norm   :     0.4009984 α      lambda       -0.2035010E-03
   maximum displ.:     0.2180792 α      in ANC's #5, #4, #6, ...

........................................................................
.............................. CYCLE   17 ..............................
........................................................................

 iter      E             dE          RMSdq      gap      omega  full diag
   1   -207.3615681 -0.207362E+03  0.479E-02    0.63       0.0  T
   2   -207.3615700 -0.181849E-05  0.285E-02    0.63       1.0  T
   3   -207.3615345  0.354185E-04  0.140E-02    0.63       1.0  T
   4   -207.3615676 -0.330797E-04  0.487E-03    0.64       2.0  T
   5   -207.3615718 -0.418116E-05  0.223E-03    0.63       4.3  T
   6   -207.3615724 -0.606915E-06  0.110E-03    0.63       8.7  T
   7   -207.3615725 -0.716790E-07  0.681E-04    0.63      14.1  T
   8   -207.3615725 -0.683907E-07  0.226E-04    0.63      42.4  T
     SCC iter.                  ...        0 min,  0.176 sec
     gradient                   ...        0 min,  0.025 sec
 * total energy  :  -205.1970759 Eh     change       -0.1706654E-03 Eh
   gradient norm :     0.0045290 Eh/α   predicted    -0.1181270E-03 ( -30.78%)
   displ. norm   :     0.4588647 α      lambda       -0.2362964E-03
   maximum displ.:     0.2502191 α      in ANC's #5, #4, #6, ...

........................................................................
.............................. CYCLE   18 ..............................
........................................................................

 iter      E             dE          RMSdq      gap      omega  full diag
   1   -207.3623229 -0.207362E+03  0.505E-02    0.63       0.0  T
   2   -207.3623245 -0.159692E-05  0.299E-02    0.63       1.0  T
   3   -207.3622870  0.374858E-04  0.143E-02    0.63       1.0  T
   4   -207.3623232 -0.362597E-04  0.427E-03    0.63       2.2  T
   5   -207.3623264 -0.317003E-05  0.189E-03    0.63       5.1  T
   6   -207.3623268 -0.378917E-06  0.108E-03    0.63       8.9  T
   7   -207.3623268 -0.614444E-07  0.717E-04    0.63      13.4  T
   8   -207.3623269 -0.799484E-07  0.208E-04    0.63      46.1  T
     SCC iter.                  ...        0 min,  0.179 sec
     gradient                   ...        0 min,  0.024 sec
 * total energy  :  -205.1972771 Eh     change       -0.2012506E-03 Eh
   gradient norm :     0.0053689 Eh/α   predicted    -0.1430258E-03 ( -28.93%)
   displ. norm   :     0.5063149 α      lambda       -0.2616415E-03
   maximum displ.:     0.2749114 α      in ANC's #5, #4, #6, ...

........................................................................
.............................. CYCLE   19 ..............................
........................................................................

 iter      E             dE          RMSdq      gap      omega  full diag
   1   -207.3624976 -0.207362E+03  0.515E-02    0.62       0.0  T
   2   -207.3624998 -0.220463E-05  0.304E-02    0.63       1.0  T
   3   -207.3624660  0.337921E-04  0.141E-02    0.62       1.0  T
   4   -207.3624984 -0.324328E-04  0.442E-03    0.63       2.2  T
   5   -207.3625019 -0.349608E-05  0.152E-03    0.63       6.3  T
   6   -207.3625022 -0.264632E-06  0.742E-04    0.63      12.9  T
   7   -207.3625022 -0.225596E-07  0.385E-04    0.63      24.9  T
     SCC iter.                  ...        0 min,  0.170 sec
     gradient                   ...        0 min,  0.024 sec
 * total energy  :  -205.1975004 Eh     change       -0.2232662E-03 Eh
   gradient norm :     0.0054496 Eh/α   predicted    -0.1643598E-03 ( -26.38%)
   displ. norm   :     0.5319357 α      lambda       -0.2678776E-03
   maximum displ.:     0.2900547 α      in ANC's #5, #4, #6, ...

........................................................................
.............................. CYCLE   20 ..............................
........................................................................

 iter      E             dE          RMSdq      gap      omega  full diag
   1   -207.3629810 -0.207363E+03  0.505E-02    0.62       0.0  T
   2   -207.3629843 -0.328529E-05  0.298E-02    0.63       1.0  T
   3   -207.3629574  0.269409E-04  0.133E-02    0.62       1.0  T
   4   -207.3629817 -0.243626E-04  0.512E-03    0.62       1.9  T
   5   -207.3629862 -0.447775E-05  0.182E-03    0.62       5.3  T
   6   -207.3629866 -0.381984E-06  0.943E-04    0.62      10.2  T
   7   -207.3629866 -0.234488E-07  0.698E-04    0.62      13.7  T
     SCC iter.                  ...        0 min,  0.143 sec
     gradient                   ...        0 min,  0.024 sec
 * total energy  :  -205.1977252 Eh     change       -0.2248199E-03 Eh
   gradient norm :     0.0050990 Eh/α   predicted    -0.1718432E-03 ( -23.56%)
   displ. norm   :     0.5363741 α      lambda       -0.2483455E-03
   maximum displ.:     0.2949078 α      in ANC's #5, #4, #6, ...
 * RMSD in coord.:     0.6111148 α      energy gain  -0.2911931E-01 Eh

generating ANC from exact Hessian ...
Using Lindh-Hessian (1995)
 Shifting diagonal of input Hessian by   1.008195223655848E-002
 Lowest  eigenvalues of input Hessian
    0.010000    0.010019    0.010034    0.000000    0.000000    0.000000
    0.000000    0.000000    0.000000    0.010186    0.010409    0.010484
    0.010600    0.011102    0.011505    0.013493    0.013968    0.016024
 Highest eigenvalues
    2.153438    2.156792    2.216280    2.263730    2.316801    2.371853
 

........................................................................
.............................. CYCLE   21 ..............................
........................................................................

 iter      E             dE          RMSdq      gap      omega  full diag
   1   -207.3624235 -0.207362E+03  0.504E-02    0.62       0.0  T
   2   -207.3624267 -0.317043E-05  0.298E-02    0.63       1.0  T
   3   -207.3623977  0.290284E-04  0.135E-02    0.62       1.0  T
   4   -207.3624201 -0.223914E-04  0.681E-03    0.62       1.4  T
   5   -207.3624283 -0.820518E-05  0.191E-03    0.63       5.0  T
   6   -207.3624287 -0.464499E-06  0.898E-04    0.62      10.7  T
   7   -207.3624288 -0.233797E-07  0.597E-04    0.62      16.1  T
     SCC iter.                  ...        0 min,  0.145 sec
     gradient                   ...        0 min,  0.025 sec
 * total energy  :  -205.1979308 Eh     change       -0.2055495E-03 Eh
   gradient norm :     0.0048420 Eh/α   predicted     0.0000000E+00 (-100.00%)
   displ. norm   :     0.0540796 α      lambda       -0.8498489E-04
   maximum displ.:     0.0315980 α      in ANC's #4, #20, #2, ...

........................................................................
.............................. CYCLE   22 ..............................
........................................................................

 iter      E             dE          RMSdq      gap      omega  full diag
   1   -207.3633814 -0.207363E+03  0.143E-02    0.63       0.0  T
   2   -207.3633819 -0.523467E-06  0.854E-03    0.63       1.1  T
   3   -207.3633781  0.380458E-05  0.499E-03    0.63       1.9  T
   4   -207.3633813 -0.321397E-05  0.214E-03    0.63       4.5  T
   5   -207.3633822 -0.885225E-06  0.777E-04    0.63      12.3  T
   6   -207.3633823 -0.877177E-07  0.363E-04    0.63      26.4  T
     SCC iter.                  ...        0 min,  0.121 sec
     gradient                   ...        0 min,  0.023 sec
 * total energy  :  -205.1980048 Eh     change       -0.7405733E-04 Eh
   gradient norm :     0.0030853 Eh/α   predicted    -0.4289340E-04 ( -42.08%)
   displ. norm   :     0.2008848 α      lambda       -0.2209618E-03
   maximum displ.:     0.1186155 α      in ANC's #4, #2, #20, ...

........................................................................
.............................. CYCLE   23 ..............................
........................................................................

 iter      E             dE          RMSdq      gap      omega  full diag
   1   -207.3643881 -0.207364E+03  0.489E-02    0.64       0.0  T
   2   -207.3643920 -0.386084E-05  0.291E-02    0.63       1.0  T
   3   -207.3643239  0.680399E-04  0.201E-02    0.64       1.0  T
   4   -207.3643872 -0.632574E-04  0.708E-03    0.63       1.4  T
   5   -207.3643966 -0.941567E-05  0.281E-03    0.63       3.4  T
   6   -207.3643977 -0.112475E-05  0.130E-03    0.63       7.4  T
   7   -207.3643978 -0.111068E-06  0.822E-04    0.63      11.7  T
   8   -207.3643979 -0.877247E-07  0.273E-04    0.63      35.1  T
     SCC iter.                  ...        0 min,  0.172 sec
     gradient                   ...        0 min,  0.024 sec
 * total energy  :  -205.1981488 Eh     change       -0.1439311E-03 Eh
   gradient norm :     0.0029314 Eh/α   predicted    -0.1149409E-03 ( -20.14%)
   displ. norm   :     0.1434546 α      lambda       -0.7214948E-04
   maximum displ.:     0.0912274 α      in ANC's #4, #2, #8, ...

........................................................................
.............................. CYCLE   24 ..............................
........................................................................

 iter      E             dE          RMSdq      gap      omega  full diag
   1   -207.3640915 -0.207364E+03  0.287E-02    0.64       0.0  T
   2   -207.3640928 -0.129272E-05  0.170E-02    0.64       1.0  T
   3   -207.3640698  0.230009E-04  0.118E-02    0.64       1.0  T
   4   -207.3640915 -0.216908E-04  0.394E-03    0.64       2.4  T
   5   -207.3640944 -0.297431E-05  0.148E-03    0.64       6.5  T
   6   -207.3640947 -0.277897E-06  0.754E-04    0.64      12.7  T
   7   -207.3640947 -0.261334E-07  0.522E-04    0.64      18.4  T
     SCC iter.                  ...        0 min,  0.159 sec
     gradient                   ...        0 min,  0.024 sec
 * total energy  :  -205.1982056 Eh     change       -0.5686783E-04 Eh
   gradient norm :     0.0031951 Eh/α   predicted    -0.3707676E-04 ( -34.80%)
   displ. norm   :     0.1782955 α      lambda       -0.8188692E-04
   maximum displ.:     0.1129893 α      in ANC's #4, #2, #8, ...

........................................................................
.............................. CYCLE   25 ..............................
........................................................................

 iter      E             dE          RMSdq      gap      omega  full diag
   1   -207.3634841 -0.207363E+03  0.296E-02    0.64       0.0  T
   2   -207.3634856 -0.149229E-05  0.174E-02    0.64       1.0  T
   3   -207.3634651  0.205281E-04  0.114E-02    0.64       1.0  T
   4   -207.3634842 -0.190803E-04  0.394E-03    0.64       2.4  T
   5   -207.3634873 -0.308675E-05  0.121E-03    0.64       7.9  T
   6   -207.3634874 -0.145923E-06  0.652E-04    0.64      14.7  T
   7   -207.3634874  0.102686E-07  0.556E-04    0.64      17.2  T
     SCC iter.                  ...        0 min,  0.168 sec
     gradient                   ...        0 min,  0.024 sec
 * total energy  :  -205.1982738 Eh     change       -0.6818471E-04 Eh
   gradient norm :     0.0027107 Eh/α   predicted    -0.4224563E-04 ( -38.04%)
   displ. norm   :     0.2464369 α      lambda       -0.1075418E-03
   maximum displ.:     0.1536359 α      in ANC's #4, #2, #8, ...

........................................................................
.............................. CYCLE   26 ..............................
........................................................................

 iter      E             dE          RMSdq      gap      omega  full diag
   1   -207.3627826 -0.207363E+03  0.353E-02    0.64       0.0  T
   2   -207.3627849 -0.230516E-05  0.207E-02    0.64       1.0  T
   3   -207.3627626  0.222928E-04  0.125E-02    0.64       1.0  T
   4   -207.3627823 -0.196722E-04  0.490E-03    0.64       2.0  T
   5   -207.3627867 -0.437097E-05  0.151E-03    0.64       6.3  T
   6   -207.3627869 -0.185755E-06  0.940E-04    0.64      10.2  T
   7   -207.3627869 -0.452544E-07  0.639E-04    0.64      15.0  T
     SCC iter.                  ...        0 min,  0.152 sec
     gradient                   ...        0 min,  0.025 sec
 * total energy  :  -205.1983619 Eh     change       -0.8808082E-04 Eh
   gradient norm :     0.0025929 Eh/α   predicted    -0.5704060E-04 ( -35.24%)
   displ. norm   :     0.2932395 α      lambda       -0.1139339E-03
   maximum displ.:     0.1815057 α      in ANC's #4, #2, #8, ...

........................................................................
.............................. CYCLE   27 ..............................
........................................................................

 iter      E             dE          RMSdq      gap      omega  full diag
   1   -207.3623258 -0.207362E+03  0.382E-02    0.64       0.0  T
   2   -207.3623282 -0.247361E-05  0.225E-02    0.64       1.0  T
   3   -207.3623053  0.229688E-04  0.128E-02    0.64       1.0  T
   4   -207.3623243 -0.189998E-04  0.566E-03    0.64       1.7  T
   5   -207.3623297 -0.543802E-05  0.184E-03    0.64       5.2  T
   6   -207.3623301 -0.363800E-06  0.107E-03    0.64       8.9  T
   7   -207.3623302 -0.103247E-06  0.592E-04    0.64      16.2  T
   8   -207.3623302 -0.576728E-07  0.175E-04    0.64      54.7  T
     SCC iter.                  ...        0 min,  0.161 sec
     gradient                   ...        0 min,  0.026 sec
 * total energy  :  -205.1984552 Eh     change       -0.9331995E-04 Eh
   gradient norm :     0.0032915 Eh/α   predicted    -0.6186615E-04 ( -33.71%)
   displ. norm   :     0.3135656 α      lambda       -0.1137831E-03
   maximum displ.:     0.1941721 α      in ANC's #4, #2, #8, ...

........................................................................
.............................. CYCLE   28 ..............................
........................................................................

 iter      E             dE          RMSdq      gap      omega  full diag
   1   -207.3622859 -0.207362E+03  0.388E-02    0.64       0.0  T
   2   -207.3622879 -0.204339E-05  0.229E-02    0.64       1.0  T
   3   -207.3622645  0.234771E-04  0.125E-02    0.63       1.0  T
   4   -207.3622831 -0.186019E-04  0.594E-03    0.64       1.6  T
   5   -207.3622892 -0.617133E-05  0.172E-03    0.64       5.6  T
   6   -207.3622896 -0.356017E-06  0.899E-04    0.64      10.7  T
   7   -207.3622896 -0.379723E-07  0.555E-04    0.64      17.3  T
     SCC iter.                  ...        0 min,  0.143 sec
     gradient                   ...        0 min,  0.027 sec
 * total energy  :  -205.1985502 Eh     change       -0.9500830E-04 Eh
   gradient norm :     0.0037174 Eh/α   predicted    -0.6248667E-04 ( -34.23%)
   displ. norm   :     0.3373843 α      lambda       -0.1220963E-03
   maximum displ.:     0.2107356 α      in ANC's #4, #2, #8, ...

........................................................................
.............................. CYCLE   29 ..............................
........................................................................

 iter      E             dE          RMSdq      gap      omega  full diag
   1   -207.3626205 -0.207363E+03  0.411E-02    0.64       0.0  T
   2   -207.3626222 -0.169500E-05  0.243E-02    0.64       1.0  T
   3   -207.3625953  0.269349E-04  0.128E-02    0.63       1.0  T
   4   -207.3626173 -0.220763E-04  0.586E-03    0.64       1.6  T
   5   -207.3626236 -0.622856E-05  0.155E-03    0.64       6.2  T
   6   -207.3626238 -0.253326E-06  0.794E-04    0.64      12.1  T
   7   -207.3626238 -0.184422E-07  0.483E-04    0.64      19.8  T
     SCC iter.                  ...        0 min,  0.147 sec
     gradient                   ...        0 min,  0.028 sec
 * total energy  :  -205.1986534 Eh     change       -0.1031765E-03 Eh
   gradient norm :     0.0034912 Eh/α   predicted    -0.6800001E-04 ( -34.09%)
   displ. norm   :     0.3668845 α      lambda       -0.1306981E-03
   maximum displ.:     0.2325208 α      in ANC's #4, #2, #8, ...

........................................................................
.............................. CYCLE   30 ..............................
........................................................................

 iter      E             dE          RMSdq      gap      omega  full diag
   1   -207.3630762 -0.207363E+03  0.446E-02    0.64       0.0  T
   2   -207.3630779 -0.171828E-05  0.264E-02    0.64       1.0  T
   3   -207.3630529  0.250470E-04  0.120E-02    0.63       1.0  T
   4   -207.3630733 -0.203958E-04  0.566E-03    0.64       1.7  T
   5   -207.3630792 -0.588475E-05  0.161E-03    0.64       6.0  T
   6   -207.3630794 -0.260562E-06  0.755E-04    0.64      12.7  T
   7   -207.3630794 -0.272792E-07  0.371E-04    0.64      25.8  T
     SCC iter.                  ...        0 min,  0.143 sec
     gradient                   ...        0 min,  0.026 sec
 * total energy  :  -205.1987634 Eh     change       -0.1100238E-03 Eh
   gradient norm :     0.0028800 Eh/α   predicted    -0.7414757E-04 ( -32.61%)
   displ. norm   :     0.3725869 α      lambda       -0.1261767E-03
   maximum displ.:     0.2400564 α      in ANC's #4, #2, #8, ...

........................................................................
.............................. CYCLE   31 ..............................
........................................................................

 iter      E             dE          RMSdq      gap      omega  full diag
   1   -207.3635296 -0.207364E+03  0.454E-02    0.63       0.0  T
   2   -207.3635314 -0.177618E-05  0.269E-02    0.64       1.0  T
   3   -207.3635158  0.155752E-04  0.948E-03    0.63       1.0  T
   4   -207.3635278 -0.120041E-04  0.489E-03    0.64       2.0  T
   5   -207.3635321 -0.432447E-05  0.178E-03    0.64       5.4  T
   6   -207.3635325 -0.352416E-06  0.768E-04    0.64      12.5  T
   7   -207.3635325 -0.295419E-07  0.401E-04    0.64      23.9  T
     SCC iter.                  ...        0 min,  0.168 sec
     gradient                   ...        0 min,  0.026 sec
 * total energy  :  -205.1988691 Eh     change       -0.1056641E-03 Eh
   gradient norm :     0.0025181 Eh/α   predicted    -0.7185200E-04 ( -32.00%)
   displ. norm   :     0.3513701 α      lambda       -0.1117323E-03
   maximum displ.:     0.2296878 α      in ANC's #4, #2, #5, ...

........................................................................
.............................. CYCLE   32 ..............................
........................................................................

 iter      E             dE          RMSdq      gap      omega  full diag
   1   -207.3640068 -0.207364E+03  0.427E-02    0.63       0.0  T
   2   -207.3640085 -0.163263E-05  0.253E-02    0.64       1.0  T
   3   -207.3639990  0.947847E-05  0.760E-03    0.63       1.3  T
   4   -207.3640069 -0.796415E-05  0.351E-03    0.64       2.7  T
   5   -207.3640089 -0.197964E-05  0.170E-03    0.64       5.6  T
   6   -207.3640092 -0.320334E-06  0.864E-04    0.64      11.1  T
   7   -207.3640093 -0.458362E-07  0.537E-04    0.64      17.8  T
     SCC iter.                  ...        0 min,  0.148 sec
     gradient                   ...        0 min,  0.024 sec
 * total energy  :  -205.1989634 Eh     change       -0.9434693E-04 Eh
   gradient norm :     0.0025835 Eh/α   predicted    -0.6276444E-04 ( -33.47%)
   displ. norm   :     0.3238833 α      lambda       -0.9931510E-04
   maximum displ.:     0.2139955 α      in ANC's #4, #2, #5, ...

........................................................................
.............................. CYCLE   33 ..............................
........................................................................

 iter      E             dE          RMSdq      gap      omega  full diag
   1   -207.3644867 -0.207364E+03  0.394E-02    0.63       0.0  T
   2   -207.3644882 -0.151012E-05  0.234E-02    0.64       1.0  T
   3   -207.3644798  0.844206E-05  0.739E-03    0.63       1.3  T
   4   -207.3644874 -0.760236E-05  0.315E-03    0.64       3.0  T
   5   -207.3644889 -0.147261E-05  0.119E-03    0.64       8.0  T
   6   -207.3644890 -0.114847E-06  0.710E-04    0.64      13.5  T
   7   -207.3644890 -0.352123E-07  0.386E-04    0.64      24.8  T
     SCC iter.                  ...        0 min,  0.148 sec
     gradient                   ...        0 min,  0.026 sec
 * total energy  :  -205.1990487 Eh     change       -0.8524389E-04 Eh
   gradient norm :     0.0026396 Eh/α   predicted    -0.5486823E-04 ( -35.63%)
   displ. norm   :     0.3098126 α      lambda       -0.9464331E-04
   maximum displ.:     0.2064157 α      in ANC's #4, #2, #9, ...

........................................................................
.............................. CYCLE   34 ..............................
........................................................................

 iter      E             dE          RMSdq      gap      omega  full diag
   1   -207.3648763 -0.207365E+03  0.381E-02    0.63       0.0  T
   2   -207.3648779 -0.156323E-05  0.227E-02    0.64       1.0  T
   3   -207.3648653  0.125225E-04  0.878E-03    0.63       1.1  T
   4   -207.3648769 -0.115574E-04  0.341E-03    0.64       2.8  T
   5   -207.3648788 -0.188644E-05  0.123E-03    0.64       7.8  T
   6   -207.3648789 -0.128854E-06  0.704E-04    0.64      13.6  T
   7   -207.3648790 -0.464422E-07  0.289E-04    0.64      33.2  T
     SCC iter.                  ...        0 min,  0.147 sec
     gradient                   ...        0 min,  0.023 sec
 * total energy  :  -205.1991304 Eh     change       -0.8173185E-04 Eh
   gradient norm :     0.0024525 Eh/α   predicted    -0.5186491E-04 ( -36.54%)
   displ. norm   :     0.3070811 α      lambda       -0.9238060E-04
   maximum displ.:     0.2065280 α      in ANC's #4, #2, #9, ...

........................................................................
.............................. CYCLE   35 ..............................
........................................................................

 iter      E             dE          RMSdq      gap      omega  full diag
   1   -207.3650926 -0.207365E+03  0.389E-02    0.64       0.0  T
   2   -207.3650944 -0.180269E-05  0.231E-02    0.64       1.0  T
   3   -207.3650768  0.176197E-04  0.104E-02    0.64       1.0  T
   4   -207.3650935 -0.166909E-04  0.369E-03    0.64       2.6  T
   5   -207.3650958 -0.231353E-05  0.138E-03    0.64       6.9  T
   6   -207.3650959 -0.175617E-06  0.793E-04    0.64      12.1  T
   7   -207.3650960 -0.549749E-07  0.419E-04    0.64      22.8  T
     SCC iter.                  ...        0 min,  0.147 sec
     gradient                   ...        0 min,  0.023 sec
 * total energy  :  -205.1992096 Eh     change       -0.7922812E-04 Eh
   gradient norm :     0.0021193 Eh/α   predicted    -0.5054805E-04 ( -36.20%)
   displ. norm   :     0.3004335 α      lambda       -0.8604022E-04
   maximum displ.:     0.2044528 α      in ANC's #4, #2, #3, ...

........................................................................
.............................. CYCLE   36 ..............................
........................................................................

 iter      E             dE          RMSdq      gap      omega  full diag
   1   -207.3651300 -0.207365E+03  0.396E-02    0.64       0.0  T
   2   -207.3651319 -0.190953E-05  0.235E-02    0.64       1.0  T
   3   -207.3651090  0.229113E-04  0.118E-02    0.64       1.0  T
   4   -207.3651311 -0.220685E-04  0.399E-03    0.64       2.4  T
   5   -207.3651338 -0.275196E-05  0.147E-03    0.64       6.5  T
   6   -207.3651340 -0.207706E-06  0.835E-04    0.64      11.5  T
   7   -207.3651341 -0.631680E-07  0.416E-04    0.64      23.0  T
     SCC iter.                  ...        0 min,  0.145 sec
     gradient                   ...        0 min,  0.025 sec
 * total energy  :  -205.1992833 Eh     change       -0.7360749E-04 Eh
   gradient norm :     0.0019077 Eh/α   predicted    -0.4690730E-04 ( -36.27%)
   displ. norm   :     0.4277539 α      lambda       -0.7840330E-04
   maximum displ.:     0.2940502 α      in ANC's #4, #2, #3, ...

........................................................................
.............................. CYCLE   37 ..............................
........................................................................

 iter      E             dE          RMSdq      gap      omega  full diag
   1   -207.3649535 -0.207365E+03  0.592E-02    0.64       0.0  T
   2   -207.3649573 -0.385647E-05  0.351E-02    0.64       1.0  T
   3   -207.3648953  0.620470E-04  0.192E-02    0.64       1.0  T
   4   -207.3649537 -0.583732E-04  0.672E-03    0.64       1.4  T
   5   -207.3649615 -0.787842E-05  0.307E-03    0.64       3.1  T
   6   -207.3649628 -0.124859E-05  0.145E-03    0.64       6.6  T
   7   -207.3649629 -0.146160E-06  0.895E-04    0.64      10.7  T
   8   -207.3649630 -0.110288E-06  0.326E-04    0.64      29.4  T
     SCC iter.                  ...        0 min,  0.181 sec
     gradient                   ...        0 min,  0.026 sec
 * total energy  :  -205.1993776 Eh     change       -0.9435766E-04 Eh
   gradient norm :     0.0021884 Eh/α   predicted    -0.4239437E-04 ( -55.07%)
   displ. norm   :     0.2291982 α      lambda       -0.6244185E-04
   maximum displ.:     0.1585140 α      in ANC's #4, #2, #3, ...

........................................................................
.............................. CYCLE   38 ..............................
........................................................................

 iter      E             dE          RMSdq      gap      omega  full diag
   1   -207.3649437 -0.207365E+03  0.324E-02    0.64       0.0  T
   2   -207.3649443 -0.593310E-06  0.193E-02    0.64       1.0  T
   3   -207.3649158  0.284989E-04  0.125E-02    0.64       1.0  T
   4   -207.3649422 -0.264081E-04  0.451E-03    0.64       2.1  T
   5   -207.3649458 -0.360971E-05  0.170E-03    0.64       5.6  T
   6   -207.3649462 -0.390837E-06  0.693E-04    0.64      13.8  T
   7   -207.3649463 -0.199677E-07  0.429E-04    0.64      22.3  T
     SCC iter.                  ...        0 min,  0.142 sec
     gradient                   ...        0 min,  0.024 sec
 * total energy  :  -205.1994354 Eh     change       -0.5782796E-04 Eh
   gradient norm :     0.0022122 Eh/α   predicted    -0.3286199E-04 ( -43.17%)
   displ. norm   :     0.3146154 α      lambda       -0.1013200E-03
   maximum displ.:     0.2142309 α      in ANC's #4, #2, #3, ...

........................................................................
.............................. CYCLE   39 ..............................
........................................................................

 iter      E             dE          RMSdq      gap      omega  full diag
   1   -207.3650844 -0.207365E+03  0.463E-02    0.65       0.0  T
   2   -207.3650852 -0.728452E-06  0.275E-02    0.65       1.0  T
   3   -207.3650191  0.661010E-04  0.189E-02    0.64       1.0  T
   4   -207.3650813 -0.621801E-04  0.635E-03    0.65       1.5  T
   5   -207.3650884 -0.713667E-05  0.216E-03    0.65       4.4  T
   6   -207.3650890 -0.602696E-06  0.935E-04    0.65      10.2  T
   7   -207.3650890 -0.392649E-07  0.559E-04    0.65      17.1  T
     SCC iter.                  ...        0 min,  0.152 sec
     gradient                   ...        0 min,  0.026 sec
 * total energy  :  -205.1995278 Eh     change       -0.9234483E-04 Eh
   gradient norm :     0.0022036 Eh/α   predicted    -0.5568342E-04 ( -39.70%)
   displ. norm   :     0.4587596 α      lambda       -0.1464648E-03
   maximum displ.:     0.3094059 α      in ANC's #4, #2, #3, ...

........................................................................
.............................. CYCLE   40 ..............................
........................................................................

 iter      E             dE          RMSdq      gap      omega  full diag
   1   -207.3645404 -0.207365E+03  0.664E-02    0.66       0.0  T
   2   -207.3645414 -0.937957E-06  0.396E-02    0.65       1.0  T
   3   -207.3643945  0.146882E-03  0.278E-02    0.65       1.0  T
   4   -207.3645353 -0.140802E-03  0.851E-03    0.66       1.1  T
   5   -207.3645477 -0.124741E-04  0.288E-03    0.65       3.3  T
   6   -207.3645487 -0.100199E-05  0.131E-03    0.65       7.3  T
   7   -207.3645488 -0.851227E-07  0.754E-04    0.65      12.7  T
   8   -207.3645489 -0.777174E-07  0.292E-04    0.65      32.8  T
     SCC iter.                  ...        0 min,  0.185 sec
     gradient                   ...        0 min,  0.024 sec
 * total energy  :  -205.1996575 Eh     change       -0.1296989E-03 Eh
   gradient norm :     0.0025223 Eh/α   predicted    -0.8864568E-04 ( -31.65%)
   displ. norm   :     0.5248745 α      lambda       -0.1558765E-03
   maximum displ.:     0.3510627 α      in ANC's #4, #2, #3, ...

........................................................................
.............................. CYCLE   41 ..............................
........................................................................

 iter      E             dE          RMSdq      gap      omega  full diag
   1   -207.3638929 -0.207364E+03  0.747E-02    0.66       0.0  T
   2   -207.3638944 -0.148167E-05  0.445E-02    0.66       1.0  T
   3   -207.3637366  0.157744E-03  0.288E-02    0.65       1.0  T
   4   -207.3638882 -0.151536E-03  0.860E-03    0.66       1.1  T
   5   -207.3639006 -0.124507E-04  0.303E-03    0.66       3.2  T
   6   -207.3639017 -0.108685E-05  0.139E-03    0.66       6.9  T
   7   -207.3639018 -0.121079E-06  0.660E-04    0.66      14.5  T
   8   -207.3639019 -0.516928E-07  0.282E-04    0.66      34.0  T
     SCC iter.                  ...        0 min,  0.172 sec
     gradient                   ...        0 min,  0.027 sec
 * total energy  :  -205.1997963 Eh     change       -0.1387969E-03 Eh
   gradient norm :     0.0030450 Eh/α   predicted    -0.9941038E-04 ( -28.38%)
   displ. norm   :     0.5513738 α      lambda       -0.1641082E-03
   maximum displ.:     0.3667564 α      in ANC's #4, #2, #3, ...

........................................................................
.............................. CYCLE   42 ..............................
........................................................................

 iter      E             dE          RMSdq      gap      omega  full diag
   1   -207.3634207 -0.207363E+03  0.758E-02    0.66       0.0  T
   2   -207.3634224 -0.170592E-05  0.451E-02    0.66       1.0  T
   3   -207.3632878  0.134529E-03  0.265E-02    0.66       1.0  T
   4   -207.3634178 -0.130005E-03  0.759E-03    0.66       1.3  T
   5   -207.3634271 -0.931571E-05  0.288E-03    0.66       3.3  T
   6   -207.3634280 -0.890792E-06  0.137E-03    0.66       7.0  T
   7   -207.3634282 -0.138261E-06  0.564E-04    0.66      17.0  T
   8   -207.3634282 -0.366862E-07  0.230E-04    0.66      41.6  T
     SCC iter.                  ...        0 min,  0.201 sec
     gradient                   ...        0 min,  0.025 sec
 * total energy  :  -205.1999467 Eh     change       -0.1503737E-03 Eh
   gradient norm :     0.0033293 Eh/α   predicted    -0.1070008E-03 ( -28.84%)
   displ. norm   :     0.6094459 α      lambda       -0.1999878E-03
   maximum displ.:     0.4030024 α      in ANC's #4, #2, #3, ...
 * RMSD in coord.:     0.5884190 α      energy gain  -0.2221422E-02 Eh

generating ANC from exact Hessian ...
Using Lindh-Hessian (1995)
 Shifting diagonal of input Hessian by   1.008143533533827E-002
 Lowest  eigenvalues of input Hessian
    0.010000    0.010015    0.000000    0.000000    0.010052    0.000000
    0.000000    0.000000    0.000000    0.010188    0.010436    0.010562
    0.010737    0.011237    0.011537    0.013702    0.014228    0.016121
 Highest eigenvalues
    2.153402    2.155696    2.214925    2.263955    2.322172    2.377528
 

........................................................................
.............................. CYCLE   43 ..............................
........................................................................

 iter      E             dE          RMSdq      gap      omega  full diag
   1   -207.3634753 -0.207363E+03  0.815E-02    0.67       0.0  T
   2   -207.3634778 -0.253037E-05  0.485E-02    0.66       1.0  T
   3   -207.3633734  0.104417E-03  0.234E-02    0.66       1.0  T
   4   -207.3634733 -0.999221E-04  0.714E-03    0.67       1.3  T
   5   -207.3634812 -0.794855E-05  0.291E-03    0.66       3.3  T
   6   -207.3634821 -0.837561E-06  0.139E-03    0.66       6.9  T
   7   -207.3634822 -0.149694E-06  0.505E-04    0.66      19.0  T
   8   -207.3634823 -0.320694E-07  0.184E-04    0.66      52.0  T
     SCC iter.                  ...        0 min,  0.168 sec
     gradient                   ...        0 min,  0.025 sec
 * total energy  :  -205.2001332 Eh     change       -0.1865527E-03 Eh
   gradient norm :     0.0033241 Eh/α   predicted     0.0000000E+00 (-100.00%)
   displ. norm   :     0.0531378 α      lambda       -0.5845825E-04
   maximum displ.:     0.0268552 α      in ANC's #4, #10, #2, ...

........................................................................
.............................. CYCLE   44 ..............................
........................................................................

 iter      E             dE          RMSdq      gap      omega  full diag
   1   -207.3646601 -0.207365E+03  0.107E-02    0.66       0.0  T
   2   -207.3646603 -0.170490E-06  0.642E-03    0.66       1.5  T
   3   -207.3646559  0.443653E-05  0.553E-03    0.66       1.7  T
   4   -207.3646595 -0.366222E-05  0.260E-03    0.66       3.7  T
   5   -207.3646608 -0.125583E-05  0.673E-04    0.66      14.2  T
   6   -207.3646609 -0.721464E-07  0.258E-04    0.66      37.1  T
   7   -207.3646609 -0.271612E-08  0.156E-04    0.66      61.4  T
     SCC iter.                  ...        0 min,  0.142 sec
     gradient                   ...        0 min,  0.026 sec
 * total energy  :  -205.2001863 Eh     change       -0.5305738E-04 Eh
   gradient norm :     0.0025031 Eh/α   predicted    -0.2931612E-04 ( -44.75%)
   displ. norm   :     0.2660841 α      lambda       -0.2348836E-03
   maximum displ.:     0.1352848 α      in ANC's #4, #10, #2, ...

........................................................................
.............................. CYCLE   45 ..............................
........................................................................

 iter      E             dE          RMSdq      gap      omega  full diag
   1   -207.3675016 -0.207368E+03  0.508E-02    0.65       0.0  T
   2   -207.3675059 -0.426949E-05  0.305E-02    0.66       1.0  T
   3   -207.3674088  0.971588E-04  0.258E-02    0.66       1.0  T
   4   -207.3674877 -0.789363E-04  0.125E-02    0.65       1.0  T
   5   -207.3675165 -0.287585E-04  0.330E-03    0.65       2.9  T
   6   -207.3675182 -0.175623E-05  0.125E-03    0.65       7.7  T
   7   -207.3675183 -0.579456E-07  0.768E-04    0.65      12.5  T
   8   -207.3675183 -0.753710E-07  0.358E-04    0.65      26.8  T
     SCC iter.                  ...        0 min,  0.171 sec
     gradient                   ...        0 min,  0.024 sec
 * total energy  :  -205.2003404 Eh     change       -0.1540993E-03 Eh
   gradient norm :     0.0028513 Eh/α   predicted    -0.1257645E-03 ( -18.39%)
   displ. norm   :     0.1720168 α      lambda       -0.7309794E-04
   maximum displ.:     0.0979574 α      in ANC's #4, #2, #10, ...

........................................................................
.............................. CYCLE   46 ..............................
........................................................................

 iter      E             dE          RMSdq      gap      omega  full diag
   1   -207.3676223 -0.207368E+03  0.291E-02    0.65       0.0  T
   2   -207.3676243 -0.196650E-05  0.175E-02    0.65       1.0  T
   3   -207.3675980  0.262551E-04  0.136E-02    0.65       1.0  T
   4   -207.3676180 -0.199970E-04  0.709E-03    0.65       1.4  T
   5   -207.3676273 -0.927476E-05  0.200E-03    0.65       4.8  T
   6   -207.3676280 -0.657432E-06  0.727E-04    0.65      13.2  T
   7   -207.3676280 -0.214795E-07  0.428E-04    0.65      22.4  T
     SCC iter.                  ...        0 min,  0.145 sec
     gradient                   ...        0 min,  0.027 sec
 * total energy  :  -205.2003967 Eh     change       -0.5638317E-04 Eh
   gradient norm :     0.0030491 Eh/α   predicted    -0.3782107E-04 ( -32.92%)
   displ. norm   :     0.1795263 α      lambda       -0.7295510E-04
   maximum displ.:     0.1092293 α      in ANC's #4, #2, #9, ...

........................................................................
.............................. CYCLE   47 ..............................
........................................................................

 iter      E             dE          RMSdq      gap      omega  full diag
   1   -207.3669049 -0.207367E+03  0.274E-02    0.65       0.0  T
   2   -207.3669073 -0.237220E-05  0.164E-02    0.65       1.0  T
   3   -207.3668913  0.159783E-04  0.110E-02    0.65       1.0  T
   4   -207.3669029 -0.116092E-04  0.584E-03    0.65       1.6  T
   5   -207.3669094 -0.641777E-05  0.192E-03    0.65       5.0  T
   6   -207.3669100 -0.594808E-06  0.738E-04    0.65      13.0  T
   7   -207.3669100 -0.298818E-07  0.438E-04    0.65      21.9  T
     SCC iter.                  ...        0 min,  0.159 sec
     gradient                   ...        0 min,  0.029 sec
 * total energy  :  -205.2004577 Eh     change       -0.6093778E-04 Eh
   gradient norm :     0.0024102 Eh/α   predicted    -0.3767739E-04 ( -38.17%)
   displ. norm   :     0.2268533 α      lambda       -0.9406808E-04
   maximum displ.:     0.1428912 α      in ANC's #4, #2, #6, ...

........................................................................
.............................. CYCLE   48 ..............................
........................................................................

 iter      E             dE          RMSdq      gap      omega  full diag
   1   -207.3658456 -0.207366E+03  0.328E-02    0.65       0.0  T
   2   -207.3658490 -0.338020E-05  0.197E-02    0.65       1.0  T
   3   -207.3658347  0.142443E-04  0.109E-02    0.65       1.0  T
   4   -207.3658477 -0.129997E-04  0.429E-03    0.65       2.2  T
   5   -207.3658511 -0.340211E-05  0.169E-03    0.65       5.7  T
   6   -207.3658515 -0.404746E-06  0.853E-04    0.65      11.2  T
   7   -207.3658516 -0.456410E-07  0.551E-04    0.65      17.4  T
     SCC iter.                  ...        0 min,  0.163 sec
     gradient                   ...        0 min,  0.025 sec
 * total energy  :  -205.2005353 Eh     change       -0.7760764E-04 Eh
   gradient norm :     0.0021745 Eh/α   predicted    -0.4945624E-04 ( -36.27%)
   displ. norm   :     0.2582120 α      lambda       -0.9572200E-04
   maximum displ.:     0.1660150 α      in ANC's #4, #2, #5, ...

........................................................................
.............................. CYCLE   49 ..............................
........................................................................

 iter      E             dE          RMSdq      gap      omega  full diag
   1   -207.3652098 -0.207365E+03  0.360E-02    0.65       0.0  T
   2   -207.3652127 -0.290605E-05  0.215E-02    0.65       1.0  T
   3   -207.3651969  0.157564E-04  0.111E-02    0.65       1.0  T
   4   -207.3652104 -0.135067E-04  0.483E-03    0.65       2.0  T
   5   -207.3652143 -0.388846E-05  0.189E-03    0.65       5.1  T
   6   -207.3652148 -0.483342E-06  0.830E-04    0.65      11.5  T
   7   -207.3652148 -0.300849E-07  0.550E-04    0.65      17.4  T
     SCC iter.                  ...        0 min,  0.154 sec
     gradient                   ...        0 min,  0.024 sec
 * total energy  :  -205.2006142 Eh     change       -0.7893832E-04 Eh
   gradient norm :     0.0028916 Eh/α   predicted    -0.5105258E-04 ( -35.33%)
   displ. norm   :     0.2533780 α      lambda       -0.8674554E-04
   maximum displ.:     0.1654238 α      in ANC's #4, #2, #5, ...

........................................................................
.............................. CYCLE   50 ..............................
........................................................................

 iter      E             dE          RMSdq      gap      omega  full diag
   1   -207.3653150 -0.207365E+03  0.341E-02    0.65       0.0  T
   2   -207.3653165 -0.145597E-05  0.203E-02    0.65       1.0  T
   3   -207.3653001  0.163599E-04  0.106E-02    0.65       1.0  T
   4   -207.3653135 -0.133555E-04  0.486E-03    0.65       2.0  T
   5   -207.3653175 -0.407255E-05  0.151E-03    0.65       6.3  T
   6   -207.3653178 -0.279615E-06  0.763E-04    0.65      12.6  T
   7   -207.3653178 -0.331141E-07  0.481E-04    0.65      19.9  T
     SCC iter.                  ...        0 min,  0.146 sec
     gradient                   ...        0 min,  0.023 sec
 * total energy  :  -205.2006889 Eh     change       -0.7466581E-04 Eh
   gradient norm :     0.0032367 Eh/α   predicted    -0.4615781E-04 ( -38.18%)
   displ. norm   :     0.2563640 α      lambda       -0.9145147E-04
   maximum displ.:     0.1692642 α      in ANC's #4, #2, #5, ...

........................................................................
.............................. CYCLE   51 ..............................
........................................................................

 iter      E             dE          RMSdq      gap      omega  full diag
   1   -207.3659658 -0.207366E+03  0.335E-02    0.65       0.0  T
   2   -207.3659665 -0.685129E-06  0.199E-02    0.65       1.0  T
   3   -207.3659460  0.204906E-04  0.113E-02    0.65       1.0  T
   4   -207.3659647 -0.186671E-04  0.407E-03    0.65       2.4  T
   5   -207.3659675 -0.275570E-05  0.137E-03    0.65       7.0  T
   6   -207.3659677 -0.215273E-06  0.737E-04    0.65      13.0  T
   7   -207.3659677 -0.341999E-07  0.423E-04    0.65      22.7  T
     SCC iter.                  ...        0 min,  0.139 sec
     gradient                   ...        0 min,  0.022 sec
 * total energy  :  -205.2007705 Eh     change       -0.8161840E-04 Eh
   gradient norm :     0.0030479 Eh/α   predicted    -0.4873269E-04 ( -40.29%)
   displ. norm   :     0.2953032 α      lambda       -0.1121569E-03
   maximum displ.:     0.1965641 α      in ANC's #4, #2, #5, ...

........................................................................
.............................. CYCLE   52 ..............................
........................................................................

 iter      E             dE          RMSdq      gap      omega  full diag
   1   -207.3667917 -0.207367E+03  0.384E-02    0.66       0.0  T
   2   -207.3667925 -0.880771E-06  0.227E-02    0.65       1.0  T
   3   -207.3667639  0.286704E-04  0.133E-02    0.65       1.0  T
   4   -207.3667910 -0.271243E-04  0.428E-03    0.65       2.2  T
   5   -207.3667938 -0.281680E-05  0.173E-03    0.65       5.5  T
   6   -207.3667942 -0.392363E-06  0.843E-04    0.65      11.4  T
   7   -207.3667942 -0.362299E-07  0.488E-04    0.65      19.6  T
     SCC iter.                  ...        0 min,  0.152 sec
     gradient                   ...        0 min,  0.023 sec
 * total energy  :  -205.2008720 Eh     change       -0.1014567E-03 Eh
   gradient norm :     0.0026979 Eh/α   predicted    -0.6097627E-04 ( -39.90%)
   displ. norm   :     0.3567702 α      lambda       -0.1383818E-03
   maximum displ.:     0.2390654 α      in ANC's #4, #2, #6, ...

........................................................................
.............................. CYCLE   53 ..............................
........................................................................

 iter      E             dE          RMSdq      gap      omega  full diag
   1   -207.3673430 -0.207367E+03  0.460E-02    0.66       0.0  T
   2   -207.3673449 -0.197386E-05  0.272E-02    0.65       1.0  T
   3   -207.3673070  0.379245E-04  0.155E-02    0.66       1.0  T
   4   -207.3673424 -0.354320E-04  0.541E-03    0.66       1.8  T
   5   -207.3673469 -0.445896E-05  0.227E-03    0.65       4.2  T
   6   -207.3673476 -0.710621E-06  0.104E-03    0.65       9.2  T
   7   -207.3673477 -0.532864E-07  0.593E-04    0.65      16.2  T
   8   -207.3673477 -0.508818E-07  0.252E-04    0.65      38.0  T
     SCC iter.                  ...        0 min,  0.270 sec
     gradient                   ...        0 min,  0.028 sec
 * total energy  :  -205.2009976 Eh     change       -0.1256798E-03 Eh
   gradient norm :     0.0026563 Eh/α   predicted    -0.7799834E-04 ( -37.94%)
   displ. norm   :     0.4120446 α      lambda       -0.1582229E-03
   maximum displ.:     0.2777009 α      in ANC's #4, #2, #6, ...

........................................................................
.............................. CYCLE   54 ..............................
........................................................................

 iter      E             dE          RMSdq      gap      omega  full diag
   1   -207.3673942 -0.207367E+03  0.525E-02    0.66       0.0  T
   2   -207.3673975 -0.327611E-05  0.311E-02    0.66       1.0  T
   3   -207.3673557  0.418003E-04  0.164E-02    0.66       1.0  T
   4   -207.3673947 -0.389919E-04  0.598E-03    0.66       1.6  T
   5   -207.3674000 -0.527814E-05  0.271E-03    0.66       3.5  T
   6   -207.3674010 -0.102212E-05  0.118E-03    0.66       8.1  T
   7   -207.3674011 -0.792509E-07  0.638E-04    0.66      15.0  T
   8   -207.3674011 -0.526522E-07  0.287E-04    0.66      33.3  T
     SCC iter.                  ...        0 min,  0.176 sec
     gradient                   ...        0 min,  0.025 sec
 * total energy  :  -205.2011421 Eh     change       -0.1444028E-03 Eh
   gradient norm :     0.0029364 Eh/α   predicted    -0.9254663E-04 ( -35.91%)
   displ. norm   :     0.4452171 α      lambda       -0.1686138E-03
   maximum displ.:     0.3013660 α      in ANC's #4, #2, #6, ...

........................................................................
.............................. CYCLE   55 ..............................
........................................................................

 iter      E             dE          RMSdq      gap      omega  full diag
   1   -207.3670813 -0.207367E+03  0.550E-02    0.67       0.0  T
   2   -207.3670851 -0.381745E-05  0.326E-02    0.66       1.0  T
   3   -207.3670463  0.387302E-04  0.158E-02    0.66       1.0  T
   4   -207.3670821 -0.357769E-04  0.601E-03    0.66       1.6  T
   5   -207.3670875 -0.533994E-05  0.283E-03    0.66       3.4  T
   6   -207.3670886 -0.109465E-05  0.122E-03    0.66       7.8  T
   7   -207.3670887 -0.104350E-06  0.599E-04    0.66      16.0  T
   8   -207.3670887 -0.442461E-07  0.242E-04    0.66      39.5  T
     SCC iter.                  ...        0 min,  0.174 sec
     gradient                   ...        0 min,  0.025 sec
 * total energy  :  -205.2012978 Eh     change       -0.1557496E-03 Eh
   gradient norm :     0.0031665 Eh/α   predicted    -0.1010187E-03 ( -35.14%)
   displ. norm   :     0.4674723 α      lambda       -0.1780171E-03
   maximum displ.:     0.3173491 α      in ANC's #4, #2, #6, ...

........................................................................
.............................. CYCLE   56 ..............................
........................................................................

 iter      E             dE          RMSdq      gap      omega  full diag
   1   -207.3666713 -0.207367E+03  0.563E-02    0.67       0.0  T
   2   -207.3666749 -0.357752E-05  0.334E-02    0.66       1.0  T
   3   -207.3666416  0.332780E-04  0.144E-02    0.66       1.0  T
   4   -207.3666723 -0.307196E-04  0.555E-03    0.67       1.7  T
   5   -207.3666768 -0.451411E-05  0.278E-03    0.66       3.4  T
   6   -207.3666779 -0.101435E-05  0.124E-03    0.66       7.8  T
   7   -207.3666780 -0.129825E-06  0.544E-04    0.66      17.6  T
   8   -207.3666780 -0.385692E-07  0.164E-04    0.66      58.4  T
     SCC iter.                  ...        0 min,  0.178 sec
     gradient                   ...        0 min,  0.025 sec
 * total energy  :  -205.2014640 Eh     change       -0.1661863E-03 Eh
   gradient norm :     0.0031691 Eh/α   predicted    -0.1084634E-03 ( -34.73%)
   displ. norm   :     0.4989934 α      lambda       -0.1936539E-03
   maximum displ.:     0.3392662 α      in ANC's #4, #2, #6, ...

........................................................................
.............................. CYCLE   57 ..............................
........................................................................

 iter      E             dE          RMSdq      gap      omega  full diag
   1   -207.3662831 -0.207366E+03  0.583E-02    0.67       0.0  T
   2   -207.3662863 -0.320615E-05  0.346E-02    0.67       1.0  T
   3   -207.3662530  0.333788E-04  0.139E-02    0.67       1.0  T
   4   -207.3662827 -0.297708E-04  0.574E-03    0.67       1.7  T
   5   -207.3662880 -0.527192E-05  0.281E-03    0.67       3.4  T
   6   -207.3662890 -0.100213E-05  0.125E-03    0.67       7.7  T
   7   -207.3662891 -0.117292E-06  0.602E-04    0.67      15.9  T
   8   -207.3662892 -0.493108E-07  0.224E-04    0.67      42.7  T
     SCC iter.                  ...        0 min,  0.173 sec
     gradient                   ...        0 min,  0.026 sec
 * total energy  :  -205.2016465 Eh     change       -0.1824652E-03 Eh
   gradient norm :     0.0030399 Eh/α   predicted    -0.1209407E-03 ( -33.72%)
   displ. norm   :     0.5466043 α      lambda       -0.2177726E-03
   maximum displ.:     0.3722724 α      in ANC's #4, #2, #6, ...

........................................................................
.............................. CYCLE   58 ..............................
........................................................................

 iter      E             dE          RMSdq      gap      omega  full diag
   1   -207.3659909 -0.207366E+03  0.637E-02    0.67       0.0  T
   2   -207.3659941 -0.319569E-05  0.380E-02    0.67       1.0  T
   3   -207.3659552  0.389428E-04  0.147E-02    0.67       1.0  T
   4   -207.3659899 -0.347473E-04  0.601E-03    0.67       1.6  T
   5   -207.3659958 -0.584666E-05  0.300E-03    0.67       3.2  T
   6   -207.3659969 -0.111725E-05  0.135E-03    0.67       7.1  T
   7   -207.3659970 -0.124552E-06  0.708E-04    0.67      13.5  T
   8   -207.3659971 -0.755101E-07  0.265E-04    0.67      36.1  T
     SCC iter.                  ...        0 min,  0.178 sec
     gradient                   ...        0 min,  0.027 sec
 * total energy  :  -205.2018527 Eh     change       -0.2062258E-03 Eh
   gradient norm :     0.0029755 Eh/α   predicted    -0.1414238E-03 ( -31.42%)
   displ. norm   :     0.6051212 α      lambda       -0.2473146E-03
   maximum displ.:     0.4128326 α      in ANC's #4, #2, #6, ...

........................................................................
.............................. CYCLE   59 ..............................
........................................................................

 iter      E             dE          RMSdq      gap      omega  full diag
   1   -207.3658355 -0.207366E+03  0.701E-02    0.68       0.0  T
   2   -207.3658388 -0.327085E-05  0.418E-02    0.68       1.0  T
   3   -207.3657785  0.603039E-04  0.179E-02    0.67       1.0  T
   4   -207.3658337 -0.552010E-04  0.670E-03    0.68       1.4  T
   5   -207.3658411 -0.742147E-05  0.335E-03    0.67       2.9  T
   6   -207.3658425 -0.134594E-05  0.152E-03    0.67       6.3  T
   7   -207.3658426 -0.120680E-06  0.917E-04    0.68      10.4  T
   8   -207.3658427 -0.141290E-06  0.285E-04    0.68      33.6  T
     SCC iter.                  ...        0 min,  0.176 sec
     gradient                   ...        0 min,  0.025 sec
 * total energy  :  -205.2020871 Eh     change       -0.2343786E-03 Eh
   gradient norm :     0.0030462 Eh/α   predicted    -0.1689405E-03 ( -27.92%)
   displ. norm   :     0.6676430 α      lambda       -0.2779209E-03
   maximum displ.:     0.4563844 α      in ANC's #4, #2, #6, ...

........................................................................
.............................. CYCLE   60 ..............................
........................................................................

 iter      E             dE          RMSdq      gap      omega  full diag
   1   -207.3659156 -0.207366E+03  0.782E-02    0.68       0.0  T
   2   -207.3659193 -0.369175E-05  0.467E-02    0.68       1.0  T
   3   -207.3658390  0.802605E-04  0.205E-02    0.67       1.0  T
   4   -207.3659140 -0.749268E-04  0.716E-03    0.68       1.3  T
   5   -207.3659223 -0.831006E-05  0.370E-03    0.68       2.6  T
   6   -207.3659239 -0.165658E-05  0.171E-03    0.68       5.6  T
   7   -207.3659241 -0.143184E-06  0.106E-03    0.68       9.0  T
   8   -207.3659243 -0.193706E-06  0.301E-04    0.68      31.8  T
   9   -207.3659243 -0.114267E-07  0.137E-04    0.68      69.8  T
     SCC iter.                  ...        0 min,  0.188 sec
     gradient                   ...        0 min,  0.027 sec
 * total energy  :  -205.2023491 Eh     change       -0.2619961E-03 Eh
   gradient norm :     0.0032289 Eh/α   predicted    -0.2009040E-03 ( -23.32%)
   displ. norm   :     0.7211245 α      lambda       -0.3007997E-03
   maximum displ.:     0.4941744 α      in ANC's #4, #2, #6, ...

........................................................................
.............................. CYCLE   61 ..............................
........................................................................

 iter      E             dE          RMSdq      gap      omega  full diag
   1   -207.3662991 -0.207366E+03  0.841E-02    0.68       0.0  T
   2   -207.3663030 -0.391679E-05  0.502E-02    0.68       1.0  T
   3   -207.3662008  0.102140E-03  0.231E-02    0.67       1.0  T
   4   -207.3662976 -0.967511E-04  0.757E-03    0.68       1.3  T
   5   -207.3663068 -0.922055E-05  0.395E-03    0.68       2.4  T
   6   -207.3663087 -0.184869E-05  0.186E-03    0.68       5.1  T
   7   -207.3663088 -0.175015E-06  0.117E-03    0.68       8.2  T
   8   -207.3663091 -0.235430E-06  0.315E-04    0.68      30.4  T
   9   -207.3663091 -0.120616E-07  0.145E-04    0.68      65.9  T
     SCC iter.                  ...        0 min,  0.192 sec
     gradient                   ...        0 min,  0.024 sec
 * total energy  :  -205.2026302 Eh     change       -0.2811526E-03 Eh
   gradient norm :     0.0034403 Eh/α   predicted    -0.2286123E-03 ( -18.69%)
   displ. norm   :     0.7568745 α      lambda       -0.3107736E-03
   maximum displ.:     0.5199758 α      in ANC's #4, #2, #6, ...

........................................................................
.............................. CYCLE   62 ..............................
........................................................................

 iter      E             dE          RMSdq      gap      omega  full diag
   1   -207.3670213 -0.207367E+03  0.885E-02    0.68       0.0  T
   2   -207.3670256 -0.428871E-05  0.529E-02    0.68       1.0  T
   3   -207.3669253  0.100246E-03  0.230E-02    0.68       1.0  T
   4   -207.3670202 -0.949180E-04  0.757E-03    0.69       1.3  T
   5   -207.3670294 -0.913344E-05  0.397E-03    0.68       2.4  T
   6   -207.3670312 -0.181496E-05  0.195E-03    0.68       4.9  T
   7   -207.3670314 -0.218432E-06  0.118E-03    0.68       8.1  T
   8   -207.3670316 -0.239312E-06  0.331E-04    0.68      28.9  T
   9   -207.3670317 -0.137099E-07  0.151E-04    0.68      63.5  T
     SCC iter.                  ...        0 min,  0.199 sec
     gradient                   ...        0 min,  0.026 sec
 * total energy  :  -205.2029182 Eh     change       -0.2879948E-03 Eh
   gradient norm :     0.0036173 Eh/α   predicted    -0.2444034E-03 ( -15.14%)
   displ. norm   :     0.7780209 α      lambda       -0.3111628E-03
   maximum displ.:     0.5359840 α      in ANC's #4, #2, #6, ...

........................................................................
.............................. CYCLE   63 ..............................
........................................................................

 iter      E             dE          RMSdq      gap      omega  full diag
   1   -207.3680092 -0.207368E+03  0.898E-02    0.68       0.0  T
   2   -207.3680137 -0.442054E-05  0.536E-02    0.69       1.0  T
   3   -207.3679241  0.895633E-04  0.218E-02    0.68       1.0  T
   4   -207.3680087 -0.845572E-04  0.735E-03    0.69       1.3  T
   5   -207.3680172 -0.853838E-05  0.385E-03    0.68       2.5  T
   6   -207.3680188 -0.162784E-05  0.198E-03    0.68       4.8  T
   7   -207.3680191 -0.268792E-06  0.113E-03    0.68       8.4  T
   8   -207.3680193 -0.215488E-06  0.345E-04    0.68      27.7  T
   9   -207.3680193 -0.158012E-07  0.152E-04    0.68      62.8  T
     SCC iter.                  ...        0 min,  0.225 sec
     gradient                   ...        0 min,  0.024 sec
 * total energy  :  -205.2032050 Eh     change       -0.2867698E-03 Eh
   gradient norm :     0.0037168 Eh/α   predicted    -0.2497598E-03 ( -12.91%)
   displ. norm   :     0.7853485 α      lambda       -0.3079915E-03
   maximum displ.:     0.5423585 α      in ANC's #4, #2, #6, ...

........................................................................
.............................. CYCLE   64 ..............................
........................................................................

 iter      E             dE          RMSdq      gap      omega  full diag
   1   -207.3691743 -0.207369E+03  0.901E-02    0.68       0.0  T
   2   -207.3691791 -0.479625E-05  0.538E-02    0.69       1.0  T
   3   -207.3691156  0.634237E-04  0.187E-02    0.68       1.0  T
   4   -207.3691745 -0.589040E-04  0.689E-03    0.69       1.4  T
   5   -207.3691817 -0.717595E-05  0.368E-03    0.68       2.6  T
   6   -207.3691832 -0.146337E-05  0.195E-03    0.68       4.9  T
   7   -207.3691835 -0.320968E-06  0.101E-03    0.68       9.5  T
   8   -207.3691837 -0.159266E-06  0.353E-04    0.68      27.1  T
   9   -207.3691837 -0.176231E-07  0.154E-04    0.68      62.0  T
     SCC iter.                  ...        0 min,  0.191 sec
     gradient                   ...        0 min,  0.024 sec
 * total energy  :  -205.2034881 Eh     change       -0.2831234E-03 Eh
   gradient norm :     0.0036743 Eh/α   predicted    -0.2489807E-03 ( -12.06%)
   displ. norm   :     0.7877127 α      lambda       -0.3088827E-03
   maximum displ.:     0.5446764 α      in ANC's #4, #2, #6, ...

........................................................................
.............................. CYCLE   65 ..............................
........................................................................

 iter      E             dE          RMSdq      gap      omega  full diag
   1   -207.3703749 -0.207370E+03  0.897E-02    0.68       0.0  T
   2   -207.3703804 -0.550934E-05  0.535E-02    0.69       1.0  T
   3   -207.3703339  0.464783E-04  0.167E-02    0.68       1.0  T
   4   -207.3703771 -0.431799E-04  0.644E-03    0.69       1.5  T
   5   -207.3703825 -0.540990E-05  0.371E-03    0.68       2.6  T
   6   -207.3703841 -0.158220E-05  0.190E-03    0.68       5.0  T
   7   -207.3703845 -0.369653E-06  0.796E-04    0.68      12.0  T
   8   -207.3703845 -0.845271E-07  0.312E-04    0.68      30.7  T
     SCC iter.                  ...        0 min,  0.168 sec
     gradient                   ...        0 min,  0.026 sec
 * total energy  :  -205.2037708 Eh     change       -0.2826975E-03 Eh
   gradient norm :     0.0034672 Eh/α   predicted    -0.2502725E-03 ( -11.47%)
   displ. norm   :     0.7863268 α      lambda       -0.3106901E-03
   maximum displ.:     0.5432844 α      in ANC's #4, #2, #6, ...

........................................................................
.............................. CYCLE   66 ..............................
........................................................................

 iter      E             dE          RMSdq      gap      omega  full diag
   1   -207.3713193 -0.207371E+03  0.907E-02    0.68       0.0  T
   2   -207.3713261 -0.675621E-05  0.540E-02    0.69       1.0  T
   3   -207.3712742  0.518880E-04  0.183E-02    0.68       1.0  T
   4   -207.3713229 -0.487241E-04  0.688E-03    0.69       1.4  T
   5   -207.3713288 -0.589200E-05  0.383E-03    0.68       2.5  T
   6   -207.3713304 -0.161193E-05  0.193E-03    0.68       5.0  T
   7   -207.3713307 -0.337687E-06  0.909E-04    0.68      10.5  T
   8   -207.3713309 -0.118116E-06  0.375E-04    0.68      25.5  T
     SCC iter.                  ...        0 min,  0.172 sec
     gradient                   ...        0 min,  0.023 sec
 * total energy  :  -205.2040511 Eh     change       -0.2803181E-03 Eh
   gradient norm :     0.0031540 Eh/α   predicted    -0.2514018E-03 ( -10.32%)
   displ. norm   :     0.7775301 α      lambda       -0.2968576E-03
   maximum displ.:     0.5351622 α      in ANC's #4, #2, #6, ...
 * RMSD in coord.:     1.0024163 α      energy gain  -0.4104458E-02 Eh

generating ANC from exact Hessian ...
Using Lindh-Hessian (1995)
 Shifting diagonal of input Hessian by   1.007942532862654E-002
 Lowest  eigenvalues of input Hessian
    0.010000    0.010022    0.000000    0.010042    0.000000    0.000000
    0.000000    0.000000    0.000000    0.010234    0.010536    0.010598
    0.011025    0.011363    0.011652    0.013654    0.014536    0.016137
 Highest eigenvalues
    2.152171    2.158849    2.219677    2.264087    2.329379    2.372823
 

........................................................................
.............................. CYCLE   67 ..............................
........................................................................

 iter      E             dE          RMSdq      gap      omega  full diag
   1   -207.3714428 -0.207371E+03  0.920E-02    0.69       0.0  T
   2   -207.3714509 -0.809689E-05  0.547E-02    0.69       1.0  T
   3   -207.3713735  0.774723E-04  0.224E-02    0.68       1.0  T
   4   -207.3714441 -0.706279E-04  0.862E-03    0.69       1.1  T
   5   -207.3714549 -0.107761E-04  0.408E-03    0.69       2.3  T
   6   -207.3714568 -0.190691E-05  0.200E-03    0.69       4.8  T
   7   -207.3714570 -0.207729E-06  0.121E-03    0.69       7.9  T
   8   -207.3714572 -0.246977E-06  0.448E-04    0.69      21.4  T
   9   -207.3714573 -0.297548E-07  0.160E-04    0.69      59.8  T
     SCC iter.                  ...        0 min,  0.201 sec
     gradient                   ...        0 min,  0.025 sec
 * total energy  :  -205.2043109 Eh     change       -0.2597538E-03 Eh
   gradient norm :     0.0029418 Eh/α   predicted     0.0000000E+00 (-100.00%)
   displ. norm   :     0.0415512 α      lambda       -0.3848859E-04
   maximum displ.:     0.0226320 α      in ANC's #4, #7, #2, ...

........................................................................
.............................. CYCLE   68 ..............................
........................................................................

 iter      E             dE          RMSdq      gap      omega  full diag
   1   -207.3719040 -0.207372E+03  0.910E-03    0.69       0.0  T
   2   -207.3719041 -0.108917E-06  0.549E-03    0.69       1.7  T
   3   -207.3719010  0.312916E-05  0.467E-03    0.69       2.1  T
   4   -207.3719039 -0.286449E-05  0.181E-03    0.69       5.3  T
   5   -207.3719044 -0.532508E-06  0.588E-04    0.69      16.3  T
   6   -207.3719044 -0.544640E-07  0.267E-04    0.69      35.9  T
     SCC iter.                  ...        0 min,  0.153 sec
     gradient                   ...        0 min,  0.024 sec
 * total energy  :  -205.2043456 Eh     change       -0.3469026E-04 Eh
   gradient norm :     0.0019544 Eh/α   predicted    -0.1938063E-04 ( -44.13%)
   displ. norm   :     0.2961215 α      lambda       -0.1402512E-03
   maximum displ.:     0.1601312 α      in ANC's #4, #7, #2, ...

........................................................................
.............................. CYCLE   69 ..............................
........................................................................

 iter      E             dE          RMSdq      gap      omega  full diag
   1   -207.3723460 -0.207372E+03  0.615E-02    0.70       0.0  T
   2   -207.3723509 -0.494714E-05  0.370E-02    0.69       1.0  T
   3   -207.3722170  0.133898E-03  0.301E-02    0.70       1.0  T
   4   -207.3723406 -0.123590E-03  0.113E-02    0.70       1.0  T
   5   -207.3723616 -0.210412E-04  0.376E-03    0.69       2.5  T
   6   -207.3723637 -0.209534E-05  0.181E-03    0.69       5.3  T
   7   -207.3723641 -0.392491E-06  0.878E-04    0.69      10.9  T
   8   -207.3723642 -0.723431E-07  0.410E-04    0.69      23.4  T
     SCC iter.                  ...        0 min,  0.191 sec
     gradient                   ...        0 min,  0.026 sec
 * total energy  :  -205.2044448 Eh     change       -0.9921781E-04 Eh
   gradient norm :     0.0042791 Eh/α   predicted    -0.7286035E-04 ( -26.57%)
   displ. norm   :     0.0477543 α      lambda       -0.2922763E-04
   maximum displ.:     0.0311347 α      in ANC's #4, #2, #6, ...

........................................................................
.............................. CYCLE   70 ..............................
........................................................................

 iter      E             dE          RMSdq      gap      omega  full diag
   1   -207.3721186 -0.207372E+03  0.759E-03    0.69       0.0  T
   2   -207.3721187 -0.732180E-07  0.455E-03    0.69       2.1  T
   3   -207.3721168  0.188275E-05  0.325E-03    0.69       2.9  T
   4   -207.3721185 -0.169562E-05  0.126E-03    0.69       7.6  T
   5   -207.3721188 -0.315714E-06  0.444E-04    0.69      21.6  T
   6   -207.3721188 -0.261809E-07  0.204E-04    0.69      46.9  T
     SCC iter.                  ...        0 min,  0.139 sec
     gradient                   ...        0 min,  0.025 sec
 * total energy  :  -205.2044714 Eh     change       -0.2658945E-04 Eh
   gradient norm :     0.0030852 Eh/α   predicted    -0.1464793E-04 ( -44.91%)
   displ. norm   :     0.1810043 α      lambda       -0.9700742E-04
   maximum displ.:     0.1122859 α      in ANC's #4, #2, #6, ...

........................................................................
.............................. CYCLE   71 ..............................
........................................................................

 iter      E             dE          RMSdq      gap      omega  full diag
   1   -207.3712494 -0.207371E+03  0.270E-02    0.69       0.0  T
   2   -207.3712506 -0.123229E-05  0.161E-02    0.69       1.0  T
   3   -207.3712331  0.174738E-04  0.102E-02    0.69       1.0  T
   4   -207.3712477 -0.145578E-04  0.452E-03    0.69       2.1  T
   5   -207.3712519 -0.416838E-05  0.148E-03    0.69       6.5  T
   6   -207.3712522 -0.299424E-06  0.667E-04    0.69      14.4  T
   7   -207.3712522 -0.307079E-07  0.399E-04    0.69      24.0  T
     SCC iter.                  ...        0 min,  0.157 sec
     gradient                   ...        0 min,  0.026 sec
 * total energy  :  -205.2045399 Eh     change       -0.6849605E-04 Eh
   gradient norm :     0.0019006 Eh/α   predicted    -0.5009414E-04 ( -26.87%)
   displ. norm   :     0.2883643 α      lambda       -0.5337428E-04
   maximum displ.:     0.1795888 α      in ANC's #4, #2, #6, ...

........................................................................
.............................. CYCLE   72 ..............................
........................................................................

 iter      E             dE          RMSdq      gap      omega  full diag
   1   -207.3702763 -0.207370E+03  0.411E-02    0.69       0.0  T
   2   -207.3702786 -0.233562E-05  0.245E-02    0.68       1.0  T
   3   -207.3702395  0.391233E-04  0.152E-02    0.69       1.0  T
   4   -207.3702751 -0.356176E-04  0.558E-03    0.69       1.7  T
   5   -207.3702817 -0.657591E-05  0.175E-03    0.69       5.5  T
   6   -207.3702820 -0.326971E-06  0.102E-03    0.69       9.4  T
   7   -207.3702821 -0.766222E-07  0.616E-04    0.69      15.5  T
   8   -207.3702821 -0.448414E-07  0.221E-04    0.69      43.4  T
     SCC iter.                  ...        0 min,  0.172 sec
     gradient                   ...        0 min,  0.025 sec
 * total energy  :  -205.2045938 Eh     change       -0.5393303E-04 Eh
   gradient norm :     0.0042496 Eh/α   predicted    -0.2767549E-04 ( -48.69%)
   displ. norm   :     0.1449516 α      lambda       -0.4237720E-04
   maximum displ.:     0.0911375 α      in ANC's #4, #2, #6, ...

........................................................................
.............................. CYCLE   73 ..............................
........................................................................

 iter      E             dE          RMSdq      gap      omega  full diag
   1   -207.3705023 -0.207371E+03  0.189E-02    0.69       0.0  T
   2   -207.3705029 -0.585141E-06  0.112E-02    0.69       1.0  T
   3   -207.3704984  0.452718E-05  0.555E-03    0.69       1.7  T
   4   -207.3705024 -0.407856E-05  0.218E-03    0.69       4.4  T
   5   -207.3705033 -0.863146E-06  0.716E-04    0.69      13.4  T
   6   -207.3705034 -0.512904E-07  0.406E-04    0.69      23.6  T
     SCC iter.                  ...        0 min,  0.130 sec
     gradient                   ...        0 min,  0.026 sec
 * total energy  :  -205.2046323 Eh     change       -0.3846813E-04 Eh
   gradient norm :     0.0036974 Eh/α   predicted    -0.2163825E-04 ( -43.75%)
   displ. norm   :     0.2685571 α      lambda       -0.8812505E-04
   maximum displ.:     0.1695604 α      in ANC's #4, #2, #6, ...

........................................................................
.............................. CYCLE   74 ..............................
........................................................................

 iter      E             dE          RMSdq      gap      omega  full diag
   1   -207.3714378 -0.207371E+03  0.321E-02    0.69       0.0  T
   2   -207.3714398 -0.194748E-05  0.191E-02    0.69       1.0  T
   3   -207.3714285  0.113157E-04  0.903E-03    0.69       1.1  T
   4   -207.3714372 -0.871491E-05  0.458E-03    0.69       2.1  T
   5   -207.3714408 -0.360301E-05  0.137E-03    0.69       7.0  T
   6   -207.3714410 -0.253525E-06  0.645E-04    0.69      14.9  T
   7   -207.3714411 -0.224654E-07  0.398E-04    0.69      24.0  T
     SCC iter.                  ...        0 min,  0.165 sec
     gradient                   ...        0 min,  0.025 sec
 * total energy  :  -205.2047051 Eh     change       -0.7282778E-04 Eh
   gradient norm :     0.0017051 Eh/α   predicted    -0.4724342E-04 ( -35.13%)
   displ. norm   :     0.5260527 α      lambda       -0.8460142E-04
   maximum displ.:     0.3366012 α      in ANC's #4, #2, #6, ...

........................................................................
.............................. CYCLE   75 ..............................
........................................................................

 iter      E             dE          RMSdq      gap      omega  full diag
   1   -207.3718953 -0.207372E+03  0.587E-02    0.70       0.0  T
   2   -207.3719012 -0.589310E-05  0.347E-02    0.70       1.0  T
   3   -207.3718799  0.212980E-04  0.126E-02    0.70       1.0  T
   4   -207.3718996 -0.196248E-04  0.515E-03    0.70       1.9  T
   5   -207.3719034 -0.386059E-05  0.241E-03    0.70       4.0  T
   6   -207.3719042 -0.746987E-06  0.109E-03    0.70       8.8  T
   7   -207.3719042 -0.415893E-07  0.745E-04    0.70      12.9  T
   8   -207.3719043 -0.807959E-07  0.305E-04    0.70      31.4  T
     SCC iter.                  ...        0 min,  0.171 sec
     gradient                   ...        0 min,  0.026 sec
 * total energy  :  -205.2048027 Eh     change       -0.9758857E-04 Eh
   gradient norm :     0.0031796 Eh/α   predicted    -0.4750388E-04 ( -51.32%)
   displ. norm   :     0.2796780 α      lambda       -0.6094642E-04
   maximum displ.:     0.1819421 α      in ANC's #4, #2, #6, ...

........................................................................
.............................. CYCLE   76 ..............................
........................................................................

 iter      E             dE          RMSdq      gap      omega  full diag
   1   -207.3722424 -0.207372E+03  0.284E-02    0.70       0.0  T
   2   -207.3722434 -0.100471E-05  0.168E-02    0.70       1.0  T
   3   -207.3722395  0.391671E-05  0.523E-03    0.70       1.8  T
   4   -207.3722435 -0.403960E-05  0.169E-03    0.70       5.7  T
   5   -207.3722438 -0.304678E-06  0.908E-04    0.70      10.5  T
   6   -207.3722439 -0.672112E-07  0.622E-04    0.70      15.4  T
     SCC iter.                  ...        0 min,  0.127 sec
     gradient                   ...        0 min,  0.025 sec
 * total energy  :  -205.2048609 Eh     change       -0.5821171E-04 Eh
   gradient norm :     0.0032608 Eh/α   predicted    -0.3285749E-04 ( -43.56%)
   displ. norm   :     0.3196889 α      lambda       -0.8663740E-04
   maximum displ.:     0.2084342 α      in ANC's #4, #2, #3, ...

........................................................................
.............................. CYCLE   77 ..............................
........................................................................

 iter      E             dE          RMSdq      gap      omega  full diag
   1   -207.3727776 -0.207373E+03  0.310E-02    0.70       0.0  T
   2   -207.3727787 -0.106044E-05  0.184E-02    0.70       1.0  T
   3   -207.3727703  0.841209E-05  0.740E-03    0.70       1.3  T
   4   -207.3727778 -0.754780E-05  0.316E-03    0.70       3.0  T
   5   -207.3727793 -0.145591E-05  0.125E-03    0.70       7.7  T
   6   -207.3727795 -0.192859E-06  0.654E-04    0.70      14.6  T
   7   -207.3727795 -0.283475E-07  0.367E-04    0.70      26.1  T
     SCC iter.                  ...        0 min,  0.148 sec
     gradient                   ...        0 min,  0.025 sec
 * total energy  :  -205.2049437 Eh     change       -0.8276908E-04 Eh
   gradient norm :     0.0025478 Eh/α   predicted    -0.4774651E-04 ( -42.31%)
   displ. norm   :     0.4399856 α      lambda       -0.1252195E-03
   maximum displ.:     0.2870562 α      in ANC's #4, #2, #3, ...

........................................................................
.............................. CYCLE   78 ..............................
........................................................................

 iter      E             dE          RMSdq      gap      omega  full diag
   1   -207.3730061 -0.207373E+03  0.419E-02    0.70       0.0  T
   2   -207.3730079 -0.177452E-05  0.249E-02    0.70       1.0  T
   3   -207.3729877  0.201468E-04  0.113E-02    0.70       1.0  T
   4   -207.3730072 -0.194529E-04  0.387E-03    0.70       2.5  T
   5   -207.3730093 -0.214564E-05  0.163E-03    0.70       5.9  T
   6   -207.3730096 -0.270101E-06  0.979E-04    0.70       9.8  T
   7   -207.3730097 -0.591712E-07  0.585E-04    0.70      16.4  T
     SCC iter.                  ...        0 min,  0.156 sec
     gradient                   ...        0 min,  0.025 sec
 * total energy  :  -205.2050612 Eh     change       -0.1175255E-03 Eh
   gradient norm :     0.0017238 Eh/α   predicted    -0.7473160E-04 ( -36.41%)
   displ. norm   :     0.7774546 α      lambda       -0.1427320E-03
   maximum displ.:     0.5078737 α      in ANC's #4, #2, #3, ...

........................................................................
.............................. CYCLE   79 ..............................
........................................................................

 iter      E             dE          RMSdq      gap      omega  full diag
   1   -207.3728664 -0.207373E+03  0.725E-02    0.71       0.0  T
   2   -207.3728714 -0.499940E-05  0.432E-02    0.70       1.0  T
   3   -207.3727976  0.738283E-04  0.213E-02    0.70       1.0  T
   4   -207.3728701 -0.725051E-04  0.662E-03    0.70       1.4  T
   5   -207.3728770 -0.685347E-05  0.265E-03    0.70       3.6  T
   6   -207.3728776 -0.653785E-06  0.159E-03    0.70       6.0  T
   7   -207.3728777 -0.907457E-07  0.106E-03    0.70       9.0  T
   8   -207.3728779 -0.189451E-06  0.414E-04    0.70      23.1  T
   9   -207.3728779 -0.282825E-07  0.138E-04    0.70      69.5  T
     SCC iter.                  ...        0 min,  0.209 sec
     gradient                   ...        0 min,  0.030 sec
 * total energy  :  -205.2052548 Eh     change       -0.1936547E-03 Eh
   gradient norm :     0.0025778 Eh/α   predicted    -0.9053917E-04 ( -53.25%)
   displ. norm   :     0.5119174 α      lambda       -0.1364113E-03
   maximum displ.:     0.3346280 α      in ANC's #4, #2, #3, ...

........................................................................
.............................. CYCLE   80 ..............................
........................................................................

 iter      E             dE          RMSdq      gap      omega  full diag
   1   -207.3732076 -0.207373E+03  0.460E-02    0.71       0.0  T
   2   -207.3732096 -0.200272E-05  0.275E-02    0.70       1.0  T
   3   -207.3731771  0.324944E-04  0.139E-02    0.70       1.0  T
   4   -207.3732093 -0.321855E-04  0.409E-03    0.71       2.3  T
   5   -207.3732122 -0.284150E-05  0.163E-03    0.70       5.9  T
   6   -207.3732124 -0.275261E-06  0.823E-04    0.70      11.6  T
   7   -207.3732125 -0.479119E-07  0.405E-04    0.70      23.6  T
     SCC iter.                  ...        0 min,  0.146 sec
     gradient                   ...        0 min,  0.024 sec
 * total energy  :  -205.2053873 Eh     change       -0.1324920E-03 Eh
   gradient norm :     0.0032605 Eh/α   predicted    -0.8608465E-04 ( -35.03%)
   displ. norm   :     0.5776204 α      lambda       -0.1720739E-03
   maximum displ.:     0.3774707 α      in ANC's #4, #2, #3, ...

........................................................................
.............................. CYCLE   81 ..............................
........................................................................

 iter      E             dE          RMSdq      gap      omega  full diag
   1   -207.3737057 -0.207374E+03  0.510E-02    0.71       0.0  T
   2   -207.3737085 -0.274844E-05  0.304E-02    0.71       1.0  T
   3   -207.3736660  0.424306E-04  0.158E-02    0.71       1.0  T
   4   -207.3737080 -0.419522E-04  0.473E-03    0.71       2.0  T
   5   -207.3737120 -0.398880E-05  0.186E-03    0.71       5.2  T
   6   -207.3737123 -0.314950E-06  0.102E-03    0.71       9.4  T
   7   -207.3737123 -0.562152E-07  0.683E-04    0.71      14.0  T
   8   -207.3737124 -0.610886E-07  0.301E-04    0.71      31.9  T
     SCC iter.                  ...        0 min,  0.169 sec
     gradient                   ...        0 min,  0.024 sec
 * total energy  :  -205.2055585 Eh     change       -0.1711297E-03 Eh
   gradient norm :     0.0036565 Eh/α   predicted    -0.1147491E-03 ( -32.95%)
   displ. norm   :     0.7455840 α      lambda       -0.2524211E-03
   maximum displ.:     0.4874457 α      in ANC's #4, #2, #3, ...

........................................................................
.............................. CYCLE   82 ..............................
........................................................................

 iter      E             dE          RMSdq      gap      omega  full diag
   1   -207.3743306 -0.207374E+03  0.652E-02    0.72       0.0  T
   2   -207.3743354 -0.486306E-05  0.390E-02    0.71       1.0  T
   3   -207.3742584  0.770173E-04  0.211E-02    0.71       1.0  T
   4   -207.3743328 -0.743971E-04  0.685E-03    0.71       1.4  T
   5   -207.3743416 -0.875416E-05  0.288E-03    0.71       3.3  T
   6   -207.3743424 -0.798149E-06  0.166E-03    0.71       5.8  T
   7   -207.3743426 -0.201076E-06  0.105E-03    0.71       9.1  T
   8   -207.3743427 -0.156841E-06  0.351E-04    0.71      27.3  T
   9   -207.3743428 -0.185780E-07  0.136E-04    0.71      70.2  T
     SCC iter.                  ...        0 min,  0.190 sec
     gradient                   ...        0 min,  0.024 sec
 * total energy  :  -205.2058113 Eh     change       -0.2527990E-03 Eh
   gradient norm :     0.0041302 Eh/α   predicted    -0.1963765E-03 ( -22.32%)
   displ. norm   :     0.7494148 α      lambda       -0.2553219E-03
   maximum displ.:     0.4900701 α      in ANC's #4, #2, #3, ...

........................................................................
.............................. CYCLE   83 ..............................
........................................................................

 iter      E             dE          RMSdq      gap      omega  full diag
   1   -207.3733834 -0.207373E+03  0.652E-02    0.72       0.0  T
   2   -207.3733885 -0.512258E-05  0.389E-02    0.71       1.0  T
   3   -207.3733171  0.714347E-04  0.204E-02    0.72       1.0  T
   4   -207.3733856 -0.684963E-04  0.682E-03    0.72       1.4  T
   5   -207.3733943 -0.871211E-05  0.282E-03    0.71       3.4  T
   6   -207.3733951 -0.750499E-06  0.164E-03    0.72       5.8  T
   7   -207.3733952 -0.194493E-06  0.105E-03    0.72       9.1  T
   8   -207.3733954 -0.158732E-06  0.344E-04    0.72      27.9  T
   9   -207.3733954 -0.172475E-07  0.138E-04    0.72      69.3  T
     SCC iter.                  ...        0 min,  0.191 sec
     gradient                   ...        0 min,  0.025 sec
 * total energy  :  -205.2060666 Eh     change       -0.2553161E-03 Eh
   gradient norm :     0.0053919 Eh/α   predicted    -0.1993609E-03 ( -21.92%)
   displ. norm   :     0.9388556 α      lambda       -0.3631761E-03
   maximum displ.:     0.6201049 α      in ANC's #4, #2, #3, ...

........................................................................
.............................. CYCLE   84 ..............................
........................................................................

 iter      E             dE          RMSdq      gap      omega  full diag
   1   -207.3715789 -0.207372E+03  0.817E-02    0.73       0.0  T
   2   -207.3715882 -0.931141E-05  0.487E-02    0.72       1.0  T
   3   -207.3714691  0.119110E-03  0.265E-02    0.72       1.0  T
   4   -207.3715793 -0.110277E-03  0.984E-03    0.73       1.0  T
   5   -207.3715979 -0.185552E-04  0.395E-03    0.72       2.4  T
   6   -207.3715996 -0.167718E-05  0.211E-03    0.72       4.5  T
   7   -207.3715999 -0.316363E-06  0.130E-03    0.72       7.4  T
   8   -207.3716001 -0.237051E-06  0.435E-04    0.72      22.0  T
   9   -207.3716001 -0.269364E-07  0.178E-04    0.72      53.7  T
     SCC iter.                  ...        0 min,  0.195 sec
     gradient                   ...        0 min,  0.025 sec
 * total energy  :  -205.2064215 Eh     change       -0.3549743E-03 Eh
   gradient norm :     0.0077899 Eh/α   predicted    -0.3416528E-03 (  -3.75%)
   displ. norm   :     0.7664668 α      lambda       -0.6754291E-03
   maximum displ.:     0.4450985 α      in ANC's #4, #2, #8, ...

........................................................................
.............................. CYCLE   85 ..............................
........................................................................

 iter      E             dE          RMSdq      gap      omega  full diag
   1   -207.3765261 -0.207377E+03  0.110E-01    0.74       0.0  T
   2   -207.3765650 -0.389664E-04  0.651E-02    0.73       1.0  T
   3   -207.3762939  0.271077E-03  0.449E-02    0.73       1.0  T
   4   -207.3764690 -0.175101E-03  0.262E-02    0.74       1.0  T
   5   -207.3765952 -0.126184E-03  0.721E-03    0.73       1.3  T
   6   -207.3766033 -0.806210E-05  0.232E-03    0.73       4.1  T
   7   -207.3766035 -0.160522E-06  0.133E-03    0.73       7.2  T
   8   -207.3766036 -0.179133E-06  0.526E-04    0.73      18.2  T
   9   -207.3766037 -0.402793E-07  0.262E-04    0.73      36.6  T
     SCC iter.                  ...        0 min,  0.207 sec
     gradient                   ...        0 min,  0.026 sec
 * total energy  :  -205.2067668 Eh     change       -0.3452129E-03 Eh
   gradient norm :     0.0143510 Eh/α   predicted    -0.5361176E-03 (  55.30%)
   displ. norm   :     0.7250574 α      lambda       -0.4477533E-03
   maximum displ.:     0.4801134 α      in ANC's #4, #2, #3, ...

........................................................................
.............................. CYCLE   86 ..............................
........................................................................

 iter      E             dE          RMSdq      gap      omega  full diag
   1   -207.3713801 -0.207371E+03  0.632E-02    0.74       0.0  T
   2   -207.3713889 -0.883582E-05  0.377E-02    0.73       1.0  T
   3   -207.3713330  0.558606E-04  0.196E-02    0.74       1.0  T
   4   -207.3713794 -0.463362E-04  0.862E-03    0.74       1.1  T
   5   -207.3713946 -0.152576E-04  0.269E-03    0.73       3.6  T
   6   -207.3713954 -0.801140E-06  0.142E-03    0.73       6.7  T
   7   -207.3713954  0.209403E-08  0.122E-03    0.73       7.9  T
   8   -207.3713957 -0.222062E-06  0.356E-04    0.73      26.9  T
   9   -207.3713957 -0.196530E-07  0.131E-04    0.73      72.9  T
     SCC iter.                  ...        0 min,  0.212 sec
     gradient                   ...        0 min,  0.026 sec
 * total energy  :  -205.2071491 Eh     change       -0.3823213E-03 Eh
   gradient norm :     0.0113259 Eh/α   predicted    -0.3415735E-03 ( -10.66%)
   displ. norm   :     0.6889575 α      lambda       -0.4529723E-03
   maximum displ.:     0.4699897 α      in ANC's #4, #2, #3, ...

........................................................................
.............................. CYCLE   87 ..............................
........................................................................

 iter      E             dE          RMSdq      gap      omega  full diag
   1   -207.3669554 -0.207367E+03  0.600E-02    0.74       0.0  T
   2   -207.3669622 -0.677435E-05  0.356E-02    0.74       1.0  T
   3   -207.3669306  0.316125E-04  0.151E-02    0.74       1.0  T
   4   -207.3669611 -0.305396E-04  0.542E-03    0.74       1.8  T
   5   -207.3669661 -0.493531E-05  0.213E-03    0.74       4.5  T
   6   -207.3669665 -0.430036E-06  0.121E-03    0.74       7.9  T
   7   -207.3669666 -0.978140E-07  0.666E-04    0.74      14.4  T
   8   -207.3669666 -0.609688E-07  0.279E-04    0.74      34.4  T
     SCC iter.                  ...        0 min,  0.170 sec
     gradient                   ...        0 min,  0.025 sec
 * total energy  :  -205.2075223 Eh     change       -0.3731740E-03 Eh
   gradient norm :     0.0105795 Eh/α   predicted    -0.3339972E-03 ( -10.50%)
   displ. norm   :     0.6513287 α      lambda       -0.4734672E-03
   maximum displ.:     0.4414719 α      in ANC's #4, #2, #3, ...

........................................................................
.............................. CYCLE   88 ..............................
........................................................................

 iter      E             dE          RMSdq      gap      omega  full diag
   1   -207.3660782 -0.207366E+03  0.606E-02    0.75       0.0  T
   2   -207.3660912 -0.130407E-04  0.356E-02    0.74       1.0  T
   3   -207.3660649  0.262974E-04  0.161E-02    0.75       1.0  T
   4   -207.3660907 -0.257369E-04  0.597E-03    0.74       1.6  T
   5   -207.3660967 -0.604720E-05  0.178E-03    0.74       5.4  T
   6   -207.3660969 -0.178547E-06  0.103E-03    0.74       9.3  T
   7   -207.3660969 -0.318105E-07  0.640E-04    0.74      15.0  T
   8   -207.3660970 -0.608095E-07  0.316E-04    0.74      30.3  T
     SCC iter.                  ...        0 min,  0.163 sec
     gradient                   ...        0 min,  0.025 sec
 * total energy  :  -205.2079351 Eh     change       -0.4128896E-03 Eh
   gradient norm :     0.0096282 Eh/α   predicted    -0.3371659E-03 ( -18.34%)
   displ. norm   :     0.6524166 α      lambda       -0.6227809E-03
   maximum displ.:     0.4234946 α      in ANC's #4, #2, #8, ...

........................................................................
.............................. CYCLE   89 ..............................
........................................................................

 iter      E             dE          RMSdq      gap      omega  full diag
   1   -207.3686921 -0.207369E+03  0.694E-02    0.75       0.0  T
   2   -207.3687022 -0.100552E-04  0.408E-02    0.75       1.0  T
   3   -207.3686385  0.637086E-04  0.210E-02    0.76       1.0  T
   4   -207.3686933 -0.548642E-04  0.889E-03    0.75       1.1  T
   5   -207.3687068 -0.134940E-04  0.364E-03    0.75       2.6  T
   6   -207.3687087 -0.192885E-05  0.172E-03    0.75       5.6  T
   7   -207.3687089 -0.135513E-06  0.111E-03    0.75       8.7  T
   8   -207.3687091 -0.170209E-06  0.414E-04    0.75      23.1  T
   9   -207.3687091 -0.263032E-07  0.140E-04    0.75      68.4  T
     SCC iter.                  ...        0 min,  0.188 sec
     gradient                   ...        0 min,  0.026 sec
 * total energy  :  -205.2084583 Eh     change       -0.5232009E-03 Eh
   gradient norm :     0.0089897 Eh/α   predicted    -0.4439369E-03 ( -15.15%)
   displ. norm   :     0.7374406 α      lambda       -0.6210516E-03
   maximum displ.:     0.4840383 α      in ANC's #4, #2, #3, ...

........................................................................
.............................. CYCLE   90 ..............................
........................................................................

 iter      E             dE          RMSdq      gap      omega  full diag
   1   -207.3707409 -0.207371E+03  0.724E-02    0.76       0.0  T
   2   -207.3707518 -0.109105E-04  0.428E-02    0.75       1.0  T
   3   -207.3706970  0.548880E-04  0.199E-02    0.76       1.0  T
   4   -207.3707481 -0.511908E-04  0.746E-03    0.75       1.3  T
   5   -207.3707573 -0.914967E-05  0.287E-03    0.75       3.3  T
   6   -207.3707582 -0.903355E-06  0.165E-03    0.75       5.8  T
   7   -207.3707583 -0.135657E-06  0.109E-03    0.75       8.8  T
   8   -207.3707585 -0.172185E-06  0.452E-04    0.75      21.2  T
   9   -207.3707585 -0.318724E-07  0.154E-04    0.75      62.2  T
     SCC iter.                  ...        0 min,  0.198 sec
     gradient                   ...        0 min,  0.025 sec
 * total energy  :  -205.2089898 Eh     change       -0.5314241E-03 Eh
   gradient norm :     0.0082371 Eh/α   predicted    -0.4794003E-03 (  -9.79%)
   displ. norm   :     0.5739573 α      lambda       -0.6484717E-03
   maximum displ.:     0.3549104 α      in ANC's #4, #2, #3, ...

........................................................................
.............................. CYCLE   91 ..............................
........................................................................

 iter      E             dE          RMSdq      gap      omega  full diag
   1   -207.3819857 -0.207382E+03  0.834E-02    0.76       0.0  T
   2   -207.3819962 -0.104680E-04  0.498E-02    0.76       1.0  T
   3   -207.3818271  0.169052E-03  0.352E-02    0.76       1.0  T
   4   -207.3819843 -0.157133E-03  0.127E-02    0.75       1.0  T
   5   -207.3820139 -0.296667E-04  0.529E-03    0.76       1.8  T
   6   -207.3820179 -0.401355E-05  0.240E-03    0.76       4.0  T
   7   -207.3820182 -0.304503E-06  0.162E-03    0.76       5.9  T
   8   -207.3820186 -0.367387E-06  0.575E-04    0.76      16.7  T
   9   -207.3820187 -0.482160E-07  0.167E-04    0.76      57.4  T
     SCC iter.                  ...        0 min,  0.191 sec
     gradient                   ...        0 min,  0.025 sec
 * total energy  :  -205.2094012 Eh     change       -0.4113890E-03 Eh
   gradient norm :     0.0091807 Eh/α   predicted    -0.4310513E-03 (   4.78%)
   displ. norm   :     0.8305438 α      lambda       -0.5790907E-03
   maximum displ.:     0.5611392 α      in ANC's #4, #2, #3, ...

........................................................................
.............................. CYCLE   92 ..............................
........................................................................

 iter      E             dE          RMSdq      gap      omega  full diag
   1   -207.3752449 -0.207375E+03  0.718E-02    0.77       0.0  T
   2   -207.3752543 -0.936049E-05  0.427E-02    0.76       1.0  T
   3   -207.3752076  0.466322E-04  0.182E-02    0.76       1.0  T
   4   -207.3752437 -0.361243E-04  0.926E-03    0.76       1.0  T
   5   -207.3752579 -0.141247E-04  0.359E-03    0.76       2.7  T
   6   -207.3752596 -0.171263E-05  0.140E-03    0.76       6.8  T
   7   -207.3752596 -0.575077E-07  0.818E-04    0.76      11.7  T
   8   -207.3752597 -0.903365E-07  0.316E-04    0.76      30.3  T
     SCC iter.                  ...        0 min,  0.178 sec
     gradient                   ...        0 min,  0.024 sec
 * total energy  :  -205.2098487 Eh     change       -0.4474950E-03 Eh
   gradient norm :     0.0098621 Eh/α   predicted    -0.4892820E-03 (   9.34%)
   displ. norm   :     0.5768014 α      lambda       -0.4660774E-03
   maximum displ.:     0.3695651 α      in ANC's #4, #2, #3, ...
 * RMSD in coord.:     1.1760608 α      energy gain  -0.5797544E-02 Eh

generating ANC from exact Hessian ...
Using Lindh-Hessian (1995)
 Shifting diagonal of input Hessian by   1.007934803455947E-002
 Lowest  eigenvalues of input Hessian
    0.010000    0.010007    0.000000    0.000000    0.000000    0.000000
    0.000000    0.000000    0.010142    0.010435    0.010575    0.010671
    0.011222    0.011484    0.011897    0.013563    0.014954    0.016480
 Highest eigenvalues
    2.152250    2.153032    2.218040    2.265488    2.329018    2.371005
 

........................................................................
.............................. CYCLE   93 ..............................
........................................................................

 iter      E             dE          RMSdq      gap      omega  full diag
   1   -207.3747140 -0.207375E+03  0.600E-02    0.76       0.0  T
   2   -207.3747225 -0.855431E-05  0.359E-02    0.76       1.0  T
   3   -207.3746633  0.592294E-04  0.215E-02    0.76       1.0  T
   4   -207.3747091 -0.458292E-04  0.105E-02    0.76       1.0  T
   5   -207.3747279 -0.188131E-04  0.357E-03    0.76       2.7  T
   6   -207.3747296 -0.164412E-05  0.161E-03    0.76       6.0  T
   7   -207.3747297 -0.142657E-06  0.106E-03    0.76       9.0  T
   8   -207.3747299 -0.183950E-06  0.388E-04    0.76      24.7  T
   9   -207.3747299 -0.232374E-07  0.112E-04    0.76      85.5  T
     SCC iter.                  ...        0 min,  0.201 sec
     gradient                   ...        0 min,  0.027 sec
 * total energy  :  -205.2102200 Eh     change       -0.3713404E-03 Eh
   gradient norm :     0.0076157 Eh/α   predicted     0.0000000E+00 (-100.00%)
   displ. norm   :     0.0741965 α      lambda       -0.1706742E-03
   maximum displ.:     0.0308351 α      in ANC's #7, #4, #8, ...

........................................................................
.............................. CYCLE   94 ..............................
........................................................................

 iter      E             dE          RMSdq      gap      omega  full diag
   1   -207.3788002 -0.207379E+03  0.163E-02    0.76       0.0  T
   2   -207.3788016 -0.138285E-05  0.975E-03    0.76       1.0  T
   3   -207.3787986  0.302460E-05  0.531E-03    0.76       1.8  T
   4   -207.3788002 -0.156926E-05  0.309E-03    0.76       3.1  T
   5   -207.3788021 -0.193967E-05  0.978E-04    0.76       9.8  T
   6   -207.3788022 -0.137572E-06  0.441E-04    0.76      21.7  T
   7   -207.3788022 -0.117398E-07  0.283E-04    0.76      33.8  T
     SCC iter.                  ...        0 min,  0.165 sec
     gradient                   ...        0 min,  0.026 sec
 * total energy  :  -205.2103545 Eh     change       -0.1345295E-03 Eh
   gradient norm :     0.0034209 Eh/α   predicted    -0.8865539E-04 ( -34.10%)
   displ. norm   :     0.1712758 α      lambda       -0.1974920E-03
   maximum displ.:     0.0771929 α      in ANC's #7, #4, #8, ...

........................................................................
.............................. CYCLE   95 ..............................
........................................................................

 iter      E             dE          RMSdq      gap      omega  full diag
   1   -207.3828475 -0.207383E+03  0.289E-02    0.76       0.0  T
   2   -207.3828506 -0.309840E-05  0.172E-02    0.76       1.0  T
   3   -207.3828393  0.112597E-04  0.962E-03    0.76       1.0  T
   4   -207.3828479 -0.863026E-05  0.451E-03    0.76       2.1  T
   5   -207.3828522 -0.424156E-05  0.138E-03    0.76       7.0  T
   6   -207.3828524 -0.248052E-06  0.581E-04    0.76      16.5  T
   7   -207.3828524  0.532668E-08  0.444E-04    0.76      21.6  T
     SCC iter.                  ...        0 min,  0.150 sec
     gradient                   ...        0 min,  0.025 sec
 * total energy  :  -205.2104985 Eh     change       -0.1439637E-03 Eh
   gradient norm :     0.0038401 Eh/α   predicted    -0.1016452E-03 ( -29.40%)
   displ. norm   :     0.2537380 α      lambda       -0.1895840E-03
   maximum displ.:     0.1162561 α      in ANC's #4, #7, #8, ...

........................................................................
.............................. CYCLE   96 ..............................
........................................................................

 iter      E             dE          RMSdq      gap      omega  full diag
   1   -207.3843762 -0.207384E+03  0.391E-02    0.76       0.0  T
   2   -207.3843800 -0.376722E-05  0.232E-02    0.76       1.0  T
   3   -207.3843528  0.272583E-04  0.140E-02    0.76       1.0  T
   4   -207.3843761 -0.232998E-04  0.606E-03    0.76       1.6  T
   5   -207.3843829 -0.680596E-05  0.197E-03    0.76       4.9  T
   6   -207.3843833 -0.396957E-06  0.105E-03    0.76       9.1  T
   7   -207.3843833 -0.415577E-07  0.741E-04    0.76      12.9  T
   8   -207.3843834 -0.865861E-07  0.277E-04    0.76      34.6  T
     SCC iter.                  ...        0 min,  0.167 sec
     gradient                   ...        0 min,  0.025 sec
 * total energy  :  -205.2106544 Eh     change       -0.1559547E-03 Eh
   gradient norm :     0.0059868 Eh/α   predicted    -0.1009284E-03 ( -35.28%)
   displ. norm   :     0.4237720 α      lambda       -0.2865018E-03
   maximum displ.:     0.1985759 α      in ANC's #4, #7, #5, ...

........................................................................
.............................. CYCLE   97 ..............................
........................................................................

 iter      E             dE          RMSdq      gap      omega  full diag
   1   -207.3828592 -0.207383E+03  0.635E-02    0.75       0.0  T
   2   -207.3828674 -0.823068E-05  0.376E-02    0.75       1.0  T
   3   -207.3827938  0.736218E-04  0.225E-02    0.76       1.0  T
   4   -207.3828599 -0.660702E-04  0.898E-03    0.75       1.1  T
   5   -207.3828744 -0.144659E-04  0.319E-03    0.75       3.0  T
   6   -207.3828754 -0.101709E-05  0.174E-03    0.75       5.5  T
   7   -207.3828755 -0.133930E-06  0.118E-03    0.75       8.1  T
   8   -207.3828757 -0.221544E-06  0.453E-04    0.75      21.1  T
   9   -207.3828758 -0.329625E-07  0.156E-04    0.75      61.6  T
     SCC iter.                  ...        0 min,  0.191 sec
     gradient                   ...        0 min,  0.026 sec
 * total energy  :  -205.2108864 Eh     change       -0.2319851E-03 Eh
   gradient norm :     0.0064559 Eh/α   predicted    -0.1689767E-03 ( -27.16%)
   displ. norm   :     0.4807343 α      lambda       -0.2802400E-03
   maximum displ.:     0.2317853 α      in ANC's #4, #7, #5, ...

........................................................................
.............................. CYCLE   98 ..............................
........................................................................

 iter      E             dE          RMSdq      gap      omega  full diag
   1   -207.3790613 -0.207379E+03  0.686E-02    0.75       0.0  T
   2   -207.3790694 -0.814035E-05  0.406E-02    0.75       1.0  T
   3   -207.3789762  0.932907E-04  0.249E-02    0.76       1.0  T
   4   -207.3790625 -0.863872E-04  0.928E-03    0.75       1.0  T
   5   -207.3790773 -0.147709E-04  0.350E-03    0.75       2.7  T
   6   -207.3790785 -0.119410E-05  0.196E-03    0.75       4.9  T
   7   -207.3790787 -0.239560E-06  0.125E-03    0.75       7.7  T
   8   -207.3790790 -0.248882E-06  0.473E-04    0.75      20.3  T
   9   -207.3790790 -0.351899E-07  0.164E-04    0.75      58.6  T
     SCC iter.                  ...        0 min,  0.196 sec
     gradient                   ...        0 min,  0.025 sec
 * total energy  :  -205.2110969 Eh     change       -0.2104451E-03 Eh
   gradient norm :     0.0063326 Eh/α   predicted    -0.1725038E-03 ( -18.03%)
   displ. norm   :     0.3826022 α      lambda       -0.2069419E-03
   maximum displ.:     0.1898411 α      in ANC's #4, #7, #5, ...

........................................................................
.............................. CYCLE   99 ..............................
........................................................................

 iter      E             dE          RMSdq      gap      omega  full diag
   1   -207.3767404 -0.207377E+03  0.512E-02    0.75       0.0  T
   2   -207.3767443 -0.390985E-05  0.302E-02    0.75       1.0  T
   3   -207.3766952  0.491594E-04  0.180E-02    0.75       1.0  T
   4   -207.3767411 -0.459061E-04  0.656E-03    0.75       1.5  T
   5   -207.3767480 -0.693464E-05  0.269E-03    0.75       3.6  T
   6   -207.3767488 -0.748679E-06  0.146E-03    0.75       6.6  T
   7   -207.3767489 -0.150412E-06  0.886E-04    0.75      10.8  T
   8   -207.3767490 -0.129233E-06  0.330E-04    0.75      29.0  T
     SCC iter.                  ...        0 min,  0.183 sec
     gradient                   ...        0 min,  0.028 sec
 * total energy  :  -205.2112589 Eh     change       -0.1620171E-03 Eh
   gradient norm :     0.0057150 Eh/α   predicted    -0.1186179E-03 ( -26.79%)
   displ. norm   :     0.3845287 α      lambda       -0.2310611E-03
   maximum displ.:     0.1952547 α      in ANC's #4, #5, #11, ...

........................................................................
.............................. CYCLE  100 ..............................
........................................................................

 iter      E             dE          RMSdq      gap      omega  full diag
   1   -207.3763585 -0.207376E+03  0.497E-02    0.75       0.0  T
   2   -207.3763625 -0.397264E-05  0.293E-02    0.75       1.0  T
   3   -207.3763274  0.351131E-04  0.157E-02    0.75       1.0  T
   4   -207.3763599 -0.325273E-04  0.585E-03    0.75       1.6  T
   5   -207.3763653 -0.540447E-05  0.253E-03    0.75       3.8  T
   6   -207.3763660 -0.724427E-06  0.123E-03    0.75       7.8  T
   7   -207.3763661 -0.484739E-07  0.873E-04    0.75      11.0  T
   8   -207.3763662 -0.131013E-06  0.312E-04    0.75      30.7  T
     SCC iter.                  ...        0 min,  0.179 sec
     gradient                   ...        0 min,  0.026 sec
 * total energy  :  -205.2114434 Eh     change       -0.1844872E-03 Eh
   gradient norm :     0.0059688 Eh/α   predicted    -0.1326139E-03 ( -28.12%)
   displ. norm   :     0.4722707 α      lambda       -0.2647300E-03
   maximum displ.:     0.2435264 α      in ANC's #4, #11, #5, ...

........................................................................
.............................. CYCLE  101 ..............................
........................................................................

 iter      E             dE          RMSdq      gap      omega  full diag
   1   -207.3767183 -0.207377E+03  0.603E-02    0.75       0.0  T
   2   -207.3767241 -0.574378E-05  0.355E-02    0.75       1.0  T
   3   -207.3766857  0.384156E-04  0.166E-02    0.75       1.0  T
   4   -207.3767225 -0.368741E-04  0.578E-03    0.75       1.7  T
   5   -207.3767274 -0.483139E-05  0.284E-03    0.75       3.4  T
   6   -207.3767283 -0.952979E-06  0.130E-03    0.75       7.4  T
   7   -207.3767283 -0.203760E-07  0.971E-04    0.75       9.9  T
   8   -207.3767285 -0.151626E-06  0.380E-04    0.75      25.2  T
     SCC iter.                  ...        0 min,  0.167 sec
     gradient                   ...        0 min,  0.024 sec
 * total energy  :  -205.2116595 Eh     change       -0.2161714E-03 Eh
   gradient norm :     0.0074061 Eh/α   predicted    -0.1618980E-03 ( -25.11%)
   displ. norm   :     0.4997773 α      lambda       -0.2950179E-03
   maximum displ.:     0.2594925 α      in ANC's #4, #11, #5, ...

........................................................................
.............................. CYCLE  102 ..............................
........................................................................

 iter      E             dE          RMSdq      gap      omega  full diag
   1   -207.3792395 -0.207379E+03  0.625E-02    0.76       0.0  T
   2   -207.3792454 -0.589825E-05  0.369E-02    0.76       1.0  T
   3   -207.3792111  0.342692E-04  0.160E-02    0.76       1.0  T
   4   -207.3792464 -0.353020E-04  0.463E-03    0.76       2.1  T
   5   -207.3792491 -0.268168E-05  0.220E-03    0.76       4.3  T
   6   -207.3792495 -0.416535E-06  0.125E-03    0.76       7.7  T
   7   -207.3792496 -0.122527E-06  0.730E-04    0.76      13.1  T
   8   -207.3792497 -0.654277E-07  0.297E-04    0.76      32.3  T
     SCC iter.                  ...        0 min,  0.165 sec
     gradient                   ...        0 min,  0.026 sec
 * total energy  :  -205.2118926 Eh     change       -0.2331029E-03 Eh
   gradient norm :     0.0071635 Eh/α   predicted    -0.1843757E-03 ( -20.90%)
   displ. norm   :     0.5690422 α      lambda       -0.2720826E-03
   maximum displ.:     0.2998394 α      in ANC's #4, #11, #5, ...

........................................................................
.............................. CYCLE  103 ..............................
........................................................................

 iter      E             dE          RMSdq      gap      omega  full diag
   1   -207.3788962 -0.207379E+03  0.666E-02    0.76       0.0  T
   2   -207.3789027 -0.651361E-05  0.392E-02    0.76       1.0  T
   3   -207.3788716  0.311077E-04  0.149E-02    0.76       1.0  T
   4   -207.3789021 -0.305860E-04  0.524E-03    0.76       1.8  T
   5   -207.3789052 -0.304592E-05  0.297E-03    0.76       3.2  T
   6   -207.3789061 -0.941071E-06  0.152E-03    0.76       6.3  T
   7   -207.3789063 -0.194272E-06  0.815E-04    0.76      11.8  T
   8   -207.3789064 -0.849766E-07  0.391E-04    0.76      24.5  T
     SCC iter.                  ...        0 min,  0.169 sec
     gradient                   ...        0 min,  0.023 sec
 * total energy  :  -205.2120976 Eh     change       -0.2049585E-03 Eh
   gradient norm :     0.0080047 Eh/α   predicted    -0.1800929E-03 ( -12.13%)
   displ. norm   :     0.4469523 α      lambda       -0.3286730E-03
   maximum displ.:     0.2269429 α      in ANC's #4, #11, #5, ...

........................................................................
.............................. CYCLE  104 ..............................
........................................................................

 iter      E             dE          RMSdq      gap      omega  full diag
   1   -207.3875199 -0.207388E+03  0.578E-02    0.77       0.0  T
   2   -207.3875297 -0.982355E-05  0.347E-02    0.77       1.0  T
   3   -207.3874895  0.402377E-04  0.179E-02    0.76       1.0  T
   4   -207.3875237 -0.342364E-04  0.778E-03    0.77       1.2  T
   5   -207.3875346 -0.108441E-04  0.278E-03    0.76       3.4  T
   6   -207.3875355 -0.999511E-06  0.144E-03    0.77       6.7  T
   7   -207.3875357 -0.105403E-06  0.103E-03    0.77       9.3  T
   8   -207.3875358 -0.137416E-06  0.406E-04    0.77      23.6  T
   9   -207.3875358 -0.248404E-07  0.153E-04    0.77      62.7  T
     SCC iter.                  ...        0 min,  0.198 sec
     gradient                   ...        0 min,  0.026 sec
 * total energy  :  -205.2122469 Eh     change       -0.1492514E-03 Eh
   gradient norm :     0.0063922 Eh/α   predicted    -0.1972061E-03 (  32.13%)
   displ. norm   :     0.5175723 α      lambda       -0.2490536E-03
   maximum displ.:     0.2718420 α      in ANC's #4, #5, #3, ...

........................................................................
.............................. CYCLE  105 ..............................
........................................................................

 iter      E             dE          RMSdq      gap      omega  full diag
   1   -207.3815435 -0.207382E+03  0.573E-02    0.77       0.0  T
   2   -207.3815490 -0.547593E-05  0.335E-02    0.76       1.0  T
   3   -207.3815213  0.276249E-04  0.137E-02    0.77       1.0  T
   4   -207.3815437 -0.223896E-04  0.672E-03    0.77       1.4  T
   5   -207.3815508 -0.706852E-05  0.263E-03    0.76       3.6  T
   6   -207.3815515 -0.695202E-06  0.140E-03    0.77       6.8  T
   7   -207.3815516 -0.119786E-06  0.811E-04    0.77      11.8  T
   8   -207.3815517 -0.108043E-06  0.330E-04    0.77      29.0  T
     SCC iter.                  ...        0 min,  0.193 sec
     gradient                   ...        0 min,  0.026 sec
 * total energy  :  -205.2124069 Eh     change       -0.1600739E-03 Eh
   gradient norm :     0.0076966 Eh/α   predicted    -0.1578949E-03 (  -1.36%)
   displ. norm   :     0.2403093 α      lambda       -0.1805266E-03
   maximum displ.:     0.1241889 α      in ANC's #4, #5, #2, ...

........................................................................
.............................. CYCLE  106 ..............................
........................................................................

 iter      E             dE          RMSdq      gap      omega  full diag
   1   -207.3803234 -0.207380E+03  0.312E-02    0.77       0.0  T
   2   -207.3803275 -0.407675E-05  0.184E-02    0.76       1.0  T
   3   -207.3803108  0.166994E-04  0.117E-02    0.76       1.0  T
   4   -207.3803175 -0.675651E-05  0.793E-03    0.77       1.2  T
   5   -207.3803293 -0.117387E-04  0.192E-03    0.76       5.0  T
   6   -207.3803298 -0.521288E-06  0.716E-04    0.76      13.4  T
   7   -207.3803298 -0.185440E-07  0.380E-04    0.76      25.2  T
     SCC iter.                  ...        0 min,  0.146 sec
     gradient                   ...        0 min,  0.025 sec
 * total energy  :  -205.2125422 Eh     change       -0.1353024E-03 Eh
   gradient norm :     0.0088633 Eh/α   predicted    -0.9549076E-04 ( -29.42%)
   displ. norm   :     0.3247003 α      lambda       -0.2835928E-03
   maximum displ.:     0.1563879 α      in ANC's #4, #2, #5, ...

........................................................................
.............................. CYCLE  107 ..............................
........................................................................

 iter      E             dE          RMSdq      gap      omega  full diag
   1   -207.3808873 -0.207381E+03  0.501E-02    0.76       0.0  T
   2   -207.3808967 -0.935621E-05  0.295E-02    0.76       1.0  T
   3   -207.3808418  0.548769E-04  0.206E-02    0.76       1.0  T
   4   -207.3808724 -0.305667E-04  0.127E-02    0.76       1.0  T
   5   -207.3809027 -0.303550E-04  0.345E-03    0.76       2.8  T
   6   -207.3809044 -0.166720E-05  0.124E-03    0.76       7.7  T
   7   -207.3809044 -0.201062E-07  0.878E-04    0.76      10.9  T
   8   -207.3809045 -0.979267E-07  0.363E-04    0.76      26.4  T
     SCC iter.                  ...        0 min,  0.181 sec
     gradient                   ...        0 min,  0.027 sec
 * total energy  :  -205.2127200 Eh     change       -0.1777160E-03 Eh
   gradient norm :     0.0052101 Eh/α   predicted    -0.1567467E-03 ( -11.80%)
   displ. norm   :     0.4322011 α      lambda       -0.1409378E-03
   maximum displ.:     0.2291029 α      in ANC's #4, #5, #2, ...

........................................................................
.............................. CYCLE  108 ..............................
........................................................................

 iter      E             dE          RMSdq      gap      omega  full diag
   1   -207.3807939 -0.207381E+03  0.466E-02    0.76       0.0  T
   2   -207.3807979 -0.394145E-05  0.273E-02    0.76       1.0  T
   3   -207.3807640  0.338821E-04  0.144E-02    0.76       1.0  T
   4   -207.3807895 -0.255350E-04  0.749E-03    0.76       1.3  T
   5   -207.3808001 -0.105390E-04  0.238E-03    0.76       4.0  T
   6   -207.3808007 -0.641449E-06  0.112E-03    0.76       8.6  T
   7   -207.3808007 -0.477963E-07  0.707E-04    0.76      13.5  T
   8   -207.3808008 -0.664463E-07  0.270E-04    0.76      35.5  T
     SCC iter.                  ...        0 min,  0.171 sec
     gradient                   ...        0 min,  0.025 sec
 * total energy  :  -205.2128283 Eh     change       -0.1083502E-03 Eh
   gradient norm :     0.0051560 Eh/α   predicted    -0.8364142E-04 ( -22.80%)
   displ. norm   :     0.3236794 α      lambda       -0.1529200E-03
   maximum displ.:     0.1649718 α      in ANC's #4, #2, #5, ...

........................................................................
.............................. CYCLE  109 ..............................
........................................................................

 iter      E             dE          RMSdq      gap      omega  full diag
   1   -207.3852608 -0.207385E+03  0.422E-02    0.76       0.0  T
   2   -207.3852660 -0.520339E-05  0.249E-02    0.76       1.0  T
   3   -207.3852360  0.300389E-04  0.148E-02    0.76       1.0  T
   4   -207.3852594 -0.234349E-04  0.703E-03    0.76       1.4  T
   5   -207.3852689 -0.951881E-05  0.271E-03    0.76       3.5  T
   6   -207.3852699 -0.104323E-05  0.120E-03    0.76       8.0  T
   7   -207.3852700 -0.578795E-07  0.822E-04    0.76      11.7  T
   8   -207.3852701 -0.933848E-07  0.291E-04    0.76      33.0  T
     SCC iter.                  ...        0 min,  0.163 sec
     gradient                   ...        0 min,  0.024 sec
 * total energy  :  -205.2129106 Eh     change       -0.8233125E-04 Eh
   gradient norm :     0.0037272 Eh/α   predicted    -0.8447218E-04 (   2.60%)
   displ. norm   :     0.4602886 α      lambda       -0.1058243E-03
   maximum displ.:     0.2413966 α      in ANC's #4, #2, #5, ...

........................................................................
.............................. CYCLE  110 ..............................
........................................................................

 iter      E             dE          RMSdq      gap      omega  full diag
   1   -207.3823301 -0.207382E+03  0.472E-02    0.77       0.0  T
   2   -207.3823348 -0.476665E-05  0.277E-02    0.76       1.0  T
   3   -207.3823211  0.136876E-04  0.101E-02    0.77       1.0  T
   4   -207.3823318 -0.106794E-04  0.508E-03    0.76       1.9  T
   5   -207.3823360 -0.418967E-05  0.224E-03    0.76       4.3  T
   6   -207.3823366 -0.593457E-06  0.119E-03    0.76       8.0  T
   7   -207.3823367 -0.880229E-07  0.709E-04    0.76      13.5  T
   8   -207.3823367 -0.683451E-07  0.261E-04    0.76      36.8  T
     SCC iter.                  ...        0 min,  0.177 sec
     gradient                   ...        0 min,  0.028 sec
 * total energy  :  -205.2129485 Eh     change       -0.3790321E-04 Eh
   gradient norm :     0.0046665 Eh/α   predicted    -0.6412326E-04 (  69.18%)
   displ. norm   :     0.0672293 α      lambda       -0.4767768E-04
   maximum displ.:     0.0330159 α      in ANC's #4, #5, #6, ...

........................................................................
.............................. CYCLE  111 ..............................
........................................................................

 iter      E             dE          RMSdq      gap      omega  full diag
   1   -207.3839886 -0.207384E+03  0.937E-03    0.76       0.0  T
   2   -207.3839888 -0.204376E-06  0.552E-03    0.76       1.7  T
   3   -207.3839862  0.260299E-05  0.394E-03    0.76       2.4  T
   4   -207.3839883 -0.209572E-05  0.191E-03    0.76       5.0  T
   5   -207.3839890 -0.663797E-06  0.419E-04    0.76      22.9  T
   6   -207.3839890 -0.165224E-07  0.207E-04    0.76      46.3  T
     SCC iter.                  ...        0 min,  0.121 sec
     gradient                   ...        0 min,  0.024 sec
 * total energy  :  -205.2129838 Eh     change       -0.3522513E-04 Eh
   gradient norm :     0.0024903 Eh/α   predicted    -0.2394757E-04 ( -32.02%)
   displ. norm   :     0.1284829 α      lambda       -0.6206828E-04
   maximum displ.:     0.0688041 α      in ANC's #2, #7, #1, ...

........................................................................
.............................. CYCLE  112 ..............................
........................................................................

 iter      E             dE          RMSdq      gap      omega  full diag
   1   -207.3852273 -0.207385E+03  0.149E-02    0.77       0.0  T
   2   -207.3852277 -0.430715E-06  0.889E-03    0.76       1.1  T
   3   -207.3852192  0.851929E-05  0.719E-03    0.77       1.3  T
   4   -207.3852262 -0.705377E-05  0.336E-03    0.76       2.9  T
   5   -207.3852283 -0.205387E-05  0.735E-04    0.76      13.0  T
   6   -207.3852283 -0.623598E-07  0.314E-04    0.76      30.5  T
   7   -207.3852283  0.561158E-09  0.213E-04    0.76      45.1  T
     SCC iter.                  ...        0 min,  0.155 sec
     gradient                   ...        0 min,  0.027 sec
 * total energy  :  -205.2130287 Eh     change       -0.4498363E-04 Eh
   gradient norm :     0.0021353 Eh/α   predicted    -0.3154883E-04 ( -29.87%)
   displ. norm   :     0.2321254 α      lambda       -0.6492539E-04
   maximum displ.:     0.1230961 α      in ANC's #2, #7, #1, ...

........................................................................
.............................. CYCLE  113 ..............................
........................................................................

 iter      E             dE          RMSdq      gap      omega  full diag
   1   -207.3853233 -0.207385E+03  0.233E-02    0.77       0.0  T
   2   -207.3853241 -0.840669E-06  0.138E-02    0.77       1.0  T
   3   -207.3853075  0.165760E-04  0.982E-03    0.77       1.0  T
   4   -207.3853217 -0.141947E-04  0.435E-03    0.77       2.2  T
   5   -207.3853251 -0.340514E-05  0.108E-03    0.77       8.9  T
   6   -207.3853253 -0.114883E-06  0.507E-04    0.77      18.9  T
   7   -207.3853253 -0.382883E-08  0.325E-04    0.77      29.5  T
     SCC iter.                  ...        0 min,  0.180 sec
     gradient                   ...        0 min,  0.024 sec
 * total energy  :  -205.2130753 Eh     change       -0.4657425E-04 Eh
   gradient norm :     0.0033167 Eh/α   predicted    -0.3421475E-04 ( -26.54%)
   displ. norm   :     0.3104083 α      lambda       -0.7092307E-04
   maximum displ.:     0.1625182 α      in ANC's #2, #7, #1, ...

........................................................................
.............................. CYCLE  114 ..............................
........................................................................

 iter      E             dE          RMSdq      gap      omega  full diag
   1   -207.3840989 -0.207384E+03  0.271E-02    0.77       0.0  T
   2   -207.3840998 -0.962826E-06  0.160E-02    0.77       1.0  T
   3   -207.3840823  0.175347E-04  0.100E-02    0.78       1.0  T
   4   -207.3840974 -0.150893E-04  0.442E-03    0.77       2.2  T
   5   -207.3841010 -0.358120E-05  0.118E-03    0.77       8.1  T
   6   -207.3841011 -0.119321E-06  0.569E-04    0.77      16.8  T
   7   -207.3841011 -0.123044E-07  0.307E-04    0.77      31.2  T
     SCC iter.                  ...        0 min,  0.177 sec
     gradient                   ...        0 min,  0.025 sec
 * total energy  :  -205.2131254 Eh     change       -0.5011659E-04 Eh
   gradient norm :     0.0036155 Eh/α   predicted    -0.3887931E-04 ( -22.42%)
   displ. norm   :     0.3290049 α      lambda       -0.6390550E-04
   maximum displ.:     0.1764664 α      in ANC's #2, #7, #1, ...

........................................................................
.............................. CYCLE  115 ..............................
........................................................................

 iter      E             dE          RMSdq      gap      omega  full diag
   1   -207.3825911 -0.207383E+03  0.284E-02    0.78       0.0  T
   2   -207.3825924 -0.125791E-05  0.166E-02    0.77       1.0  T
   3   -207.3825835  0.890375E-05  0.746E-03    0.78       1.3  T
   4   -207.3825912 -0.767754E-05  0.335E-03    0.77       2.9  T
   5   -207.3825931 -0.190486E-05  0.139E-03    0.77       6.9  T
   6   -207.3825933 -0.227539E-06  0.663E-04    0.77      14.4  T
   7   -207.3825933 -0.238911E-07  0.345E-04    0.77      27.7  T
     SCC iter.                  ...        0 min,  0.166 sec
     gradient                   ...        0 min,  0.027 sec
 * total energy  :  -205.2131719 Eh     change       -0.4643900E-04 Eh
   gradient norm :     0.0042642 Eh/α   predicted    -0.3541442E-04 ( -23.74%)
   displ. norm   :     0.2814098 α      lambda       -0.6905144E-04
   maximum displ.:     0.1584578 α      in ANC's #2, #7, #1, ...

........................................................................
.............................. CYCLE  116 ..............................
........................................................................

 iter      E             dE          RMSdq      gap      omega  full diag
   1   -207.3820130 -0.207382E+03  0.246E-02    0.78       0.0  T
   2   -207.3820144 -0.142378E-05  0.145E-02    0.77       1.0  T
   3   -207.3820075  0.686070E-05  0.722E-03    0.78       1.3  T
   4   -207.3820137 -0.613125E-05  0.297E-03    0.77       3.2  T
   5   -207.3820151 -0.145553E-05  0.108E-03    0.77       8.9  T
   6   -207.3820152 -0.114506E-06  0.608E-04    0.77      15.8  T
   7   -207.3820152 -0.155560E-07  0.409E-04    0.77      23.4  T
     SCC iter.                  ...        0 min,  0.229 sec
     gradient                   ...        0 min,  0.026 sec
 * total energy  :  -205.2132235 Eh     change       -0.5164435E-04 Eh
   gradient norm :     0.0037500 Eh/α   predicted    -0.3726140E-04 ( -27.85%)
   displ. norm   :     0.2860153 α      lambda       -0.8487429E-04
   maximum displ.:     0.1684395 α      in ANC's #2, #7, #1, ...

........................................................................
.............................. CYCLE  117 ..............................
........................................................................

 iter      E             dE          RMSdq      gap      omega  full diag
   1   -207.3827630 -0.207383E+03  0.301E-02    0.77       0.0  T
   2   -207.3827651 -0.206936E-05  0.177E-02    0.77       1.0  T
   3   -207.3827476  0.174040E-04  0.111E-02    0.77       1.0  T
   4   -207.3827612 -0.135818E-04  0.545E-03    0.77       1.8  T
   5   -207.3827663 -0.505267E-05  0.163E-03    0.77       5.9  T
   6   -207.3827667 -0.383878E-06  0.774E-04    0.77      12.4  T
   7   -207.3827667 -0.376209E-07  0.452E-04    0.77      21.2  T
     SCC iter.                  ...        0 min,  0.168 sec
     gradient                   ...        0 min,  0.025 sec
 * total energy  :  -205.2132796 Eh     change       -0.5609057E-04 Eh
   gradient norm :     0.0041639 Eh/α   predicted    -0.4590902E-04 ( -18.15%)
   displ. norm   :     0.2863739 α      lambda       -0.6538172E-04
   maximum displ.:     0.1716380 α      in ANC's #2, #1, #7, ...

........................................................................
.............................. CYCLE  118 ..............................
........................................................................

 iter      E             dE          RMSdq      gap      omega  full diag
   1   -207.3833335 -0.207383E+03  0.282E-02    0.77       0.0  T
   2   -207.3833349 -0.139204E-05  0.166E-02    0.77       1.0  T
   3   -207.3833145  0.203637E-04  0.114E-02    0.77       1.0  T
   4   -207.3833316 -0.170715E-04  0.507E-03    0.77       1.9  T
   5   -207.3833361 -0.450078E-05  0.132E-03    0.77       7.3  T
   6   -207.3833363 -0.220190E-06  0.684E-04    0.77      14.0  T
   7   -207.3833363 -0.260841E-07  0.401E-04    0.77      23.9  T
     SCC iter.                  ...        0 min,  0.208 sec
     gradient                   ...        0 min,  0.026 sec
 * total energy  :  -205.2133261 Eh     change       -0.4647815E-04 Eh
   gradient norm :     0.0037756 Eh/α   predicted    -0.3537458E-04 ( -23.89%)
   displ. norm   :     0.3068026 α      lambda       -0.6907945E-04
   maximum displ.:     0.1909183 α      in ANC's #2, #1, #7, ...

........................................................................
.............................. CYCLE  119 ..............................
........................................................................

 iter      E             dE          RMSdq      gap      omega  full diag
   1   -207.3847143 -0.207385E+03  0.285E-02    0.77       0.0  T
   2   -207.3847159 -0.160290E-05  0.169E-02    0.77       1.0  T
   3   -207.3846940  0.219134E-04  0.117E-02    0.77       1.0  T
   4   -207.3847113 -0.173057E-04  0.574E-03    0.77       1.7  T
   5   -207.3847173 -0.600091E-05  0.117E-03    0.77       8.2  T
   6   -207.3847175 -0.139008E-06  0.660E-04    0.77      14.5  T
   7   -207.3847175 -0.206122E-07  0.388E-04    0.77      24.7  T
     SCC iter.                  ...        0 min,  0.167 sec
     gradient                   ...        0 min,  0.027 sec
 * total energy  :  -205.2133803 Eh     change       -0.5420506E-04 Eh
   gradient norm :     0.0035138 Eh/α   predicted    -0.3779349E-04 ( -30.28%)
   displ. norm   :     0.4295265 α      lambda       -0.8374981E-04
   maximum displ.:     0.2646675 α      in ANC's #2, #1, #7, ...

........................................................................
.............................. CYCLE  120 ..............................
........................................................................

 iter      E             dE          RMSdq      gap      omega  full diag
   1   -207.3844695 -0.207384E+03  0.374E-02    0.77       0.0  T
   2   -207.3844717 -0.218418E-05  0.221E-02    0.77       1.0  T
   3   -207.3844479  0.238122E-04  0.120E-02    0.77       1.0  T
   4   -207.3844670 -0.191011E-04  0.584E-03    0.77       1.6  T
   5   -207.3844731 -0.606911E-05  0.150E-03    0.77       6.4  T
   6   -207.3844733 -0.218132E-06  0.788E-04    0.77      12.1  T
   7   -207.3844733 -0.326017E-07  0.423E-04    0.77      22.6  T
     SCC iter.                  ...        0 min,  0.199 sec
     gradient                   ...        0 min,  0.029 sec
 * total energy  :  -205.2134407 Eh     change       -0.6038608E-04 Eh
   gradient norm :     0.0032647 Eh/α   predicted    -0.4960227E-04 ( -17.86%)
   displ. norm   :     0.3665899 α      lambda       -0.7326645E-04
   maximum displ.:     0.2377532 α      in ANC's #2, #1, #7, ...
 * RMSD in coord.:     0.7263969 α      energy gain  -0.3592027E-02 Eh

generating ANC from exact Hessian ...
Using Lindh-Hessian (1995)
 Shifting diagonal of input Hessian by   1.007171627645263E-002
 Lowest  eigenvalues of input Hessian
    0.010000    0.010007    0.000000    0.000000    0.000000    0.000000
    0.000000    0.000000    0.010147    0.010410    0.010635    0.010838
    0.010959    0.011149    0.011856    0.013486    0.014798    0.016628
 Highest eigenvalues
    2.153795    2.161682    2.224756    2.263375    2.319440    2.374498
 

........................................................................
.............................. CYCLE  121 ..............................
........................................................................

 iter      E             dE          RMSdq      gap      omega  full diag
   1   -207.3861397 -0.207386E+03  0.311E-02    0.77       0.0  T
   2   -207.3861419 -0.224788E-05  0.184E-02    0.77       1.0  T
   3   -207.3861340  0.794526E-05  0.768E-03    0.77       1.2  T
   4   -207.3861394 -0.546996E-05  0.437E-03    0.77       2.2  T
   5   -207.3861425 -0.303832E-05  0.167E-03    0.77       5.8  T
   6   -207.3861429 -0.366456E-06  0.777E-04    0.77      12.3  T
   7   -207.3861429 -0.504589E-07  0.376E-04    0.77      25.5  T
     SCC iter.                  ...        0 min,  0.180 sec
     gradient                   ...        0 min,  0.026 sec
 * total energy  :  -205.2134883 Eh     change       -0.4766337E-04 Eh
   gradient norm :     0.0031628 Eh/α   predicted     0.0000000E+00 (-100.00%)
   displ. norm   :     0.0213444 α      lambda       -0.2070284E-04
   maximum displ.:     0.0101329 α      in ANC's #2, #10, #8, ...

........................................................................
.............................. CYCLE  122 ..............................
........................................................................

 iter      E             dE          RMSdq      gap      omega  full diag
   1   -207.3852279 -0.207385E+03  0.693E-03    0.77       0.0  T
   2   -207.3852279 -0.217035E-07  0.421E-03    0.77       2.3  T
   3   -207.3852250  0.297535E-05  0.434E-03    0.77       2.2  T
   4   -207.3852277 -0.279281E-05  0.157E-03    0.77       6.1  T
   5   -207.3852282 -0.426410E-06  0.358E-04    0.77      26.7  T
   6   -207.3852282 -0.175619E-07  0.161E-04    0.77      59.6  T
     SCC iter.                  ...        0 min,  0.160 sec
     gradient                   ...        0 min,  0.025 sec
 * total energy  :  -205.2135045 Eh     change       -0.1617592E-04 Eh
   gradient norm :     0.0014951 Eh/α   predicted    -0.1077538E-04 ( -33.39%)
   displ. norm   :     0.0650275 α      lambda       -0.1774721E-04
   maximum displ.:     0.0346582 α      in ANC's #2, #10, #8, ...

........................................................................
.............................. CYCLE  123 ..............................
........................................................................

 iter      E             dE          RMSdq      gap      omega  full diag
   1   -207.3841674 -0.207384E+03  0.174E-02    0.78       0.0  T
   2   -207.3841668  0.679710E-06  0.107E-02    0.77       1.0  T
   3   -207.3841402  0.265823E-04  0.127E-02    0.78       1.0  T
   4   -207.3841672 -0.269880E-04  0.327E-03    0.77       2.9  T
   5   -207.3841689 -0.175534E-05  0.841E-04    0.77      11.4  T
   6   -207.3841690 -0.100016E-06  0.351E-04    0.77      27.3  T
   7   -207.3841690 -0.619937E-08  0.198E-04    0.77      48.3  T
     SCC iter.                  ...        0 min,  0.160 sec
     gradient                   ...        0 min,  0.024 sec
 * total energy  :  -205.2135181 Eh     change       -0.1361854E-04 Eh
   gradient norm :     0.0019107 Eh/α   predicted    -0.9566264E-05 ( -29.76%)
   displ. norm   :     0.0330603 α      lambda       -0.6077426E-05
   maximum displ.:     0.0200233 α      in ANC's #2, #8, #10, ...

........................................................................
.............................. CYCLE  124 ..............................
........................................................................

 iter      E             dE          RMSdq      gap      omega  full diag
   1   -207.3846727 -0.207385E+03  0.635E-03    0.77       0.0  T
   2   -207.3846725  0.151247E-06  0.393E-03    0.77       2.4  T
   3   -207.3846685  0.406210E-05  0.490E-03    0.78       2.0  T
   4   -207.3846727 -0.420598E-05  0.104E-03    0.77       9.2  T
   5   -207.3846729 -0.175398E-06  0.300E-04    0.77      31.9  T
   6   -207.3846729 -0.129790E-07  0.131E-04    0.77      73.2  T
     SCC iter.                  ...        0 min,  0.147 sec
     gradient                   ...        0 min,  0.026 sec
 * total energy  :  -205.2135263 Eh     change       -0.8195509E-05 Eh
   gradient norm :     0.0012784 Eh/α   predicted    -0.3214684E-05 ( -60.78%)
   displ. norm   :     0.1175400 α      lambda       -0.1719553E-04
   maximum displ.:     0.0686960 α      in ANC's #2, #8, #10, ...

........................................................................
.............................. CYCLE  125 ..............................
........................................................................

 iter      E             dE          RMSdq      gap      omega  full diag
   1   -207.3856962 -0.207386E+03  0.197E-02    0.77       0.0  T
   2   -207.3856946  0.160270E-05  0.121E-02    0.77       1.0  T
   3   -207.3856548  0.397799E-04  0.153E-02    0.78       1.0  T
   4   -207.3856961 -0.413378E-04  0.323E-03    0.77       3.0  T
   5   -207.3856978 -0.167508E-05  0.886E-04    0.77      10.8  T
   6   -207.3856979 -0.104671E-06  0.418E-04    0.77      22.9  T
   7   -207.3856979 -0.733252E-08  0.228E-04    0.77      42.0  T
     SCC iter.                  ...        0 min,  0.172 sec
     gradient                   ...        0 min,  0.026 sec
 * total energy  :  -205.2135430 Eh     change       -0.1669324E-04 Eh
   gradient norm :     0.0013421 Eh/α   predicted    -0.8670300E-05 ( -48.06%)
   displ. norm   :     0.1221129 α      lambda       -0.1166149E-04
   maximum displ.:     0.0730657 α      in ANC's #2, #8, #5, ...

........................................................................
.............................. CYCLE  126 ..............................
........................................................................

 iter      E             dE          RMSdq      gap      omega  full diag
   1   -207.3857390 -0.207386E+03  0.186E-02    0.77       0.0  T
   2   -207.3857384  0.630482E-06  0.113E-02    0.77       1.0  T
   3   -207.3857107  0.276758E-04  0.125E-02    0.78       1.0  T
   4   -207.3857386 -0.279243E-04  0.291E-03    0.77       3.3  T
   5   -207.3857400 -0.142010E-05  0.838E-04    0.77      11.4  T
   6   -207.3857401 -0.931518E-07  0.388E-04    0.77      24.7  T
   7   -207.3857401 -0.672571E-08  0.194E-04    0.77      49.3  T
     SCC iter.                  ...        0 min,  0.180 sec
     gradient                   ...        0 min,  0.026 sec
 * total energy  :  -205.2135548 Eh     change       -0.1178389E-04 Eh
   gradient norm :     0.0015850 Eh/α   predicted    -0.5876990E-05 ( -50.13%)
   displ. norm   :     0.1118262 α      lambda       -0.9453457E-05
   maximum displ.:     0.0690802 α      in ANC's #2, #8, #5, ...

........................................................................
.............................. CYCLE  127 ..............................
........................................................................

 iter      E             dE          RMSdq      gap      omega  full diag
   1   -207.3855705 -0.207386E+03  0.130E-02    0.77       0.0  T
   2   -207.3855705  0.133991E-08  0.773E-03    0.77       1.2  T
   3   -207.3855626  0.789812E-05  0.655E-03    0.77       1.5  T
   4   -207.3855702 -0.758512E-05  0.206E-03    0.77       4.7  T
   5   -207.3855709 -0.742069E-06  0.658E-04    0.77      14.6  T
   6   -207.3855710 -0.544895E-07  0.318E-04    0.77      30.2  T
     SCC iter.                  ...        0 min,  0.149 sec
     gradient                   ...        0 min,  0.027 sec
 * total energy  :  -205.2135666 Eh     change       -0.1183834E-04 Eh
   gradient norm :     0.0012373 Eh/α   predicted    -0.4753170E-05 ( -59.85%)
   displ. norm   :     0.1417068 α      lambda       -0.1297001E-04
   maximum displ.:     0.0907143 α      in ANC's #2, #8, #5, ...

........................................................................
.............................. CYCLE  128 ..............................
........................................................................

 iter      E             dE          RMSdq      gap      omega  full diag
   1   -207.3852199 -0.207385E+03  0.149E-02    0.77       0.0  T
   2   -207.3852201 -0.134697E-06  0.889E-03    0.77       1.1  T
   3   -207.3852124  0.765998E-05  0.668E-03    0.77       1.4  T
   4   -207.3852196 -0.715547E-05  0.228E-03    0.77       4.2  T
   5   -207.3852204 -0.879507E-06  0.617E-04    0.77      15.5  T
   6   -207.3852205 -0.380981E-07  0.369E-04    0.77      26.0  T
     SCC iter.                  ...        0 min,  0.187 sec
     gradient                   ...        0 min,  0.034 sec
 * total energy  :  -205.2135817 Eh     change       -0.1503211E-04 Eh
   gradient norm :     0.0008621 Eh/α   predicted    -0.6547774E-05 ( -56.44%)
   displ. norm   :     0.1379950 α      lambda       -0.1060190E-04
   maximum displ.:     0.0920288 α      in ANC's #2, #8, #6, ...

........................................................................
.............................. CYCLE  129 ..............................
........................................................................

 iter      E             dE          RMSdq      gap      omega  full diag
   1   -207.3849447 -0.207385E+03  0.155E-02    0.77       0.0  T
   2   -207.3849440  0.691890E-06  0.947E-03    0.77       1.0  T
   3   -207.3849190  0.249714E-04  0.118E-02    0.77       1.0  T
   4   -207.3849450 -0.259896E-04  0.163E-03    0.77       5.9  T
   5   -207.3849454 -0.362956E-06  0.551E-04    0.77      17.4  T
   6   -207.3849454 -0.215854E-07  0.336E-04    0.77      28.5  T
     SCC iter.                  ...        0 min,  0.196 sec
     gradient                   ...        0 min,  0.029 sec
 * total energy  :  -205.2135938 Eh     change       -0.1210762E-04 Eh
   gradient norm :     0.0011470 Eh/α   predicted    -0.5349892E-05 ( -55.81%)
   displ. norm   :     0.1065959 α      lambda       -0.7930661E-05
   maximum displ.:     0.0741207 α      in ANC's #2, #6, #8, ...

........................................................................
.............................. CYCLE  130 ..............................
........................................................................

 iter      E             dE          RMSdq      gap      omega  full diag
   1   -207.3849949 -0.207385E+03  0.127E-02    0.77       0.0  T
   2   -207.3849941  0.767336E-06  0.783E-03    0.77       1.2  T
   3   -207.3849745  0.195646E-04  0.105E-02    0.77       1.0  T
   4   -207.3849951 -0.206035E-04  0.136E-03    0.77       7.0  T
   5   -207.3849954 -0.255204E-06  0.444E-04    0.77      21.6  T
   6   -207.3849954 -0.157996E-07  0.254E-04    0.77      37.7  T
     SCC iter.                  ...        0 min,  0.222 sec
     gradient                   ...        0 min,  0.035 sec
 * total energy  :  -205.2136040 Eh     change       -0.1017305E-04 Eh
   gradient norm :     0.0011288 Eh/α   predicted    -0.3986697E-05 ( -60.81%)
   displ. norm   :     0.1049308 α      lambda       -0.8943640E-05
   maximum displ.:     0.0746146 α      in ANC's #2, #6, #7, ...

........................................................................
.............................. CYCLE  131 ..............................
........................................................................

 iter      E             dE          RMSdq      gap      omega  full diag
   1   -207.3852494 -0.207385E+03  0.133E-02    0.77       0.0  T
   2   -207.3852488  0.618857E-06  0.820E-03    0.77       1.2  T
   3   -207.3852305  0.182920E-04  0.103E-02    0.77       1.0  T
   4   -207.3852495 -0.189407E-04  0.200E-03    0.77       4.8  T
   5   -207.3852501 -0.629101E-06  0.533E-04    0.77      18.0  T
   6   -207.3852501 -0.325869E-07  0.273E-04    0.77      35.1  T
     SCC iter.                  ...        0 min,  0.208 sec
     gradient                   ...        0 min,  0.028 sec
 * total energy  :  -205.2136156 Eh     change       -0.1166032E-04 Eh
   gradient norm :     0.0008668 Eh/α   predicted    -0.4494718E-05 ( -61.45%)
   displ. norm   :     0.1249693 α      lambda       -0.9960455E-05
   maximum displ.:     0.0895313 α      in ANC's #2, #6, #4, ...

........................................................................
.............................. CYCLE  132 ..............................
........................................................................

 iter      E             dE          RMSdq      gap      omega  full diag
   1   -207.3854413 -0.207385E+03  0.149E-02    0.77       0.0  T
   2   -207.3854413  0.714059E-08  0.911E-03    0.77       1.1  T
   3   -207.3854289  0.123934E-04  0.841E-03    0.77       1.1  T
   4   -207.3854404 -0.114717E-04  0.306E-03    0.77       3.1  T
   5   -207.3854421 -0.171623E-05  0.731E-04    0.77      13.1  T
   6   -207.3854422 -0.697831E-07  0.344E-04    0.77      27.8  T
   7   -207.3854422 -0.754605E-08  0.214E-04    0.77      44.8  T
     SCC iter.                  ...        0 min,  0.228 sec
     gradient                   ...        0 min,  0.028 sec
 * total energy  :  -205.2136283 Eh     change       -0.1265998E-04 Eh
   gradient norm :     0.0006917 Eh/α   predicted    -0.5017253E-05 ( -60.37%)
   displ. norm   :     0.1205042 α      lambda       -0.8193587E-05
   maximum displ.:     0.0876218 α      in ANC's #2, #6, #4, ...

........................................................................
.............................. CYCLE  133 ..............................
........................................................................

 iter      E             dE          RMSdq      gap      omega  full diag
   1   -207.3855907 -0.207386E+03  0.134E-02    0.77       0.0  T
   2   -207.3855909 -0.217043E-06  0.812E-03    0.77       1.2  T
   3   -207.3855860  0.484361E-05  0.546E-03    0.77       1.8  T
   4   -207.3855904 -0.434324E-05  0.208E-03    0.77       4.6  T
   5   -207.3855913 -0.895122E-06  0.704E-04    0.77      13.6  T
   6   -207.3855913 -0.625976E-07  0.362E-04    0.77      26.4  T
     SCC iter.                  ...        0 min,  0.205 sec
     gradient                   ...        0 min,  0.031 sec
 * total energy  :  -205.2136387 Eh     change       -0.1043483E-04 Eh
   gradient norm :     0.0007133 Eh/α   predicted    -0.4125553E-05 ( -60.46%)
   displ. norm   :     0.0968093 α      lambda       -0.6123963E-05
   maximum displ.:     0.0716161 α      in ANC's #2, #4, #6, ...

........................................................................
.............................. CYCLE  134 ..............................
........................................................................

 iter      E             dE          RMSdq      gap      omega  full diag
   1   -207.3856433 -0.207386E+03  0.102E-02    0.77       0.0  T
   2   -207.3856434 -0.502747E-07  0.615E-03    0.77       1.6  T
   3   -207.3856395  0.385268E-05  0.503E-03    0.77       1.9  T
   4   -207.3856431 -0.360996E-05  0.178E-03    0.77       5.4  T
   5   -207.3856437 -0.526668E-06  0.536E-04    0.77      17.9  T
   6   -207.3856437 -0.400310E-07  0.287E-04    0.77      33.4  T
     SCC iter.                  ...        0 min,  0.203 sec
     gradient                   ...        0 min,  0.033 sec
 * total energy  :  -205.2136467 Eh     change       -0.7993127E-05 Eh
   gradient norm :     0.0006866 Eh/α   predicted    -0.3077239E-05 ( -61.50%)
   displ. norm   :     0.0798685 α      lambda       -0.5176163E-05
   maximum displ.:     0.0600988 α      in ANC's #2, #4, #1, ...

........................................................................
.............................. CYCLE  135 ..............................
........................................................................

 iter      E             dE          RMSdq      gap      omega  full diag
   1   -207.3856192 -0.207386E+03  0.825E-03    0.77       0.0  T
   2   -207.3856189  0.246961E-06  0.503E-03    0.77       1.9  T
   3   -207.3856126  0.635221E-05  0.632E-03    0.77       1.5  T
   4   -207.3856192 -0.660506E-05  0.126E-03    0.77       7.6  T
   5   -207.3856194 -0.247891E-06  0.385E-04    0.77      24.9  T
   6   -207.3856194 -0.184944E-07  0.232E-04    0.77      41.3  T
     SCC iter.                  ...        0 min,  0.209 sec
     gradient                   ...        0 min,  0.031 sec
 * total energy  :  -205.2136536 Eh     change       -0.6898291E-05 Eh
   gradient norm :     0.0005569 Eh/α   predicted    -0.2598311E-05 ( -62.33%)
   displ. norm   :     0.0726159 α      lambda       -0.4788412E-05
   maximum displ.:     0.0552494 α      in ANC's #2, #4, #1, ...

........................................................................
.............................. CYCLE  136 ..............................
........................................................................

 iter      E             dE          RMSdq      gap      omega  full diag
   1   -207.3855735 -0.207386E+03  0.711E-03    0.77       0.0  T
   2   -207.3855732  0.282093E-06  0.434E-03    0.77       2.2  T
   3   -207.3855678  0.544466E-05  0.589E-03    0.77       1.6  T
   4   -207.3855736 -0.578211E-05  0.101E-03    0.77       9.5  T
   5   -207.3855737 -0.152672E-06  0.323E-04    0.77      29.6  T
   6   -207.3855737 -0.123803E-07  0.190E-04    0.77      50.3  T
     SCC iter.                  ...        0 min,  0.180 sec
     gradient                   ...        0 min,  0.029 sec
 * total energy  :  -205.2136601 Eh     change       -0.6524872E-05 Eh
   gradient norm :     0.0004522 Eh/α   predicted    -0.2402471E-05 ( -63.18%)
   displ. norm   :     0.0713269 α      lambda       -0.4672999E-05
   maximum displ.:     0.0541020 α      in ANC's #2, #4, #1, ...

........................................................................
.............................. CYCLE  137 ..............................
........................................................................

 iter      E             dE          RMSdq      gap      omega  full diag
   1   -207.3855075 -0.207386E+03  0.632E-03    0.77       0.0  T
   2   -207.3855074  0.189506E-06  0.385E-03    0.77       2.5  T
   3   -207.3855032  0.415713E-05  0.511E-03    0.77       1.9  T
   4   -207.3855076 -0.438429E-05  0.932E-04    0.77      10.3  T
   5   -207.3855077 -0.128000E-06  0.314E-04    0.77      30.5  T
   6   -207.3855077 -0.136681E-07  0.153E-04    0.77      62.7  T
     SCC iter.                  ...        0 min,  0.189 sec
     gradient                   ...        0 min,  0.030 sec
 * total energy  :  -205.2136666 Eh     change       -0.6463684E-05 Eh
   gradient norm :     0.0004219 Eh/α   predicted    -0.2343880E-05 ( -63.74%)
   displ. norm   :     0.0739921 α      lambda       -0.4799133E-05
   maximum displ.:     0.0554943 α      in ANC's #2, #4, #1, ...

........................................................................
.............................. CYCLE  138 ..............................
........................................................................

 iter      E             dE          RMSdq      gap      omega  full diag
   1   -207.3854734 -0.207385E+03  0.572E-03    0.77       0.0  T
   2   -207.3854733  0.181338E-07  0.343E-03    0.77       2.8  T
   3   -207.3854713  0.205239E-05  0.356E-03    0.77       2.7  T
   4   -207.3854733 -0.198868E-05  0.111E-03    0.77       8.6  T
   5   -207.3854735 -0.209174E-06  0.336E-04    0.77      28.5  T
   6   -207.3854735 -0.179681E-07  0.134E-04    0.77      71.3  T
     SCC iter.                  ...        0 min,  0.167 sec
     gradient                   ...        0 min,  0.028 sec
 * total energy  :  -205.2136733 Eh     change       -0.6686136E-05 Eh
   gradient norm :     0.0004589 Eh/α   predicted    -0.2408589E-05 ( -63.98%)
   displ. norm   :     0.0805993 α      lambda       -0.5125801E-05
   maximum displ.:     0.0595802 α      in ANC's #2, #1, #4, ...

........................................................................
.............................. CYCLE  139 ..............................
........................................................................

 iter      E             dE          RMSdq      gap      omega  full diag
   1   -207.3854655 -0.207385E+03  0.580E-03    0.77       0.0  T
   2   -207.3854656 -0.683278E-07  0.347E-03    0.77       2.8  T
   3   -207.3854651  0.555512E-06  0.207E-03    0.77       4.6  T
   4   -207.3854655 -0.488288E-06  0.813E-04    0.77      11.8  T
   5   -207.3854657 -0.117188E-06  0.370E-04    0.77      25.9  T
     SCC iter.                  ...        0 min,  0.130 sec
     gradient                   ...        0 min,  0.027 sec
 * total energy  :  -205.2136804 Eh     change       -0.7156313E-05 Eh
   gradient norm :     0.0004881 Eh/α   predicted    -0.2573332E-05 ( -64.04%)
   displ. norm   :     0.0892193 α      lambda       -0.5524703E-05
   maximum displ.:     0.0652907 α      in ANC's #2, #1, #4, ...

........................................................................
.............................. CYCLE  140 ..............................
........................................................................

 iter      E             dE          RMSdq      gap      omega  full diag
   1   -207.3854641 -0.207385E+03  0.625E-03    0.77       0.0  T
   2   -207.3854641 -0.103077E-07  0.377E-03    0.77       2.5  T
   3   -207.3854623  0.174486E-05  0.342E-03    0.77       2.8  T
   4   -207.3854640 -0.165565E-05  0.122E-03    0.77       7.9  T
   5   -207.3854642 -0.235093E-06  0.414E-04    0.77      23.1  T
   6   -207.3854642 -0.272858E-07  0.188E-04    0.77      51.0  T
     SCC iter.                  ...        0 min,  0.156 sec
     gradient                   ...        0 min,  0.027 sec
 * total energy  :  -205.2136882 Eh     change       -0.7789254E-05 Eh
   gradient norm :     0.0004803 Eh/α   predicted    -0.2775703E-05 ( -64.36%)
   displ. norm   :     0.0971318 α      lambda       -0.5840584E-05
   maximum displ.:     0.0707752 α      in ANC's #2, #1, #4, ...

........................................................................
.............................. CYCLE  141 ..............................
........................................................................

 iter      E             dE          RMSdq      gap      omega  full diag
   1   -207.3855138 -0.207386E+03  0.698E-03    0.77       0.0  T
   2   -207.3855137  0.133582E-06  0.427E-03    0.77       2.2  T
   3   -207.3855097  0.392475E-05  0.504E-03    0.77       1.9  T
   4   -207.3855137 -0.400341E-05  0.131E-03    0.77       7.3  T
   5   -207.3855140 -0.272470E-06  0.397E-04    0.77      24.2  T
   6   -207.3855140 -0.223343E-07  0.211E-04    0.77      45.3  T
     SCC iter.                  ...        0 min,  0.203 sec
     gradient                   ...        0 min,  0.029 sec
 * total energy  :  -205.2136964 Eh     change       -0.8201928E-05 Eh
   gradient norm :     0.0004489 Eh/α   predicted    -0.2936039E-05 ( -64.20%)
   displ. norm   :     0.0994051 α      lambda       -0.5814995E-05
   maximum displ.:     0.0723836 α      in ANC's #2, #1, #4, ...

........................................................................
.............................. CYCLE  142 ..............................
........................................................................

 iter      E             dE          RMSdq      gap      omega  full diag
   1   -207.3855178 -0.207386E+03  0.723E-03    0.77       0.0  T
   2   -207.3855176  0.131231E-06  0.442E-03    0.77       2.2  T
   3   -207.3855134  0.422683E-05  0.520E-03    0.77       1.8  T
   4   -207.3855177 -0.430474E-05  0.127E-03    0.77       7.5  T
   5   -207.3855180 -0.263036E-06  0.383E-04    0.77      25.0  T
   6   -207.3855180 -0.179690E-07  0.216E-04    0.77      44.3  T
     SCC iter.                  ...        0 min,  0.146 sec
     gradient                   ...        0 min,  0.028 sec
 * total energy  :  -205.2137045 Eh     change       -0.8084165E-05 Eh
   gradient norm :     0.0003700 Eh/α   predicted    -0.2925075E-05 ( -63.82%)
   displ. norm   :     0.1024274 α      lambda       -0.5755474E-05
   maximum displ.:     0.0748602 α      in ANC's #2, #1, #4, ...

........................................................................
.............................. CYCLE  143 ..............................
........................................................................

 iter      E             dE          RMSdq      gap      omega  full diag
   1   -207.3855712 -0.207386E+03  0.748E-03    0.77       0.0  T
   2   -207.3855710  0.189974E-06  0.459E-03    0.77       2.1  T
   3   -207.3855658  0.515715E-05  0.569E-03    0.77       1.7  T
   4   -207.3855712 -0.534021E-05  0.116E-03    0.77       8.2  T
   5   -207.3855714 -0.214075E-06  0.379E-04    0.77      25.3  T
   6   -207.3855714 -0.165578E-07  0.216E-04    0.77      44.3  T
     SCC iter.                  ...        0 min,  0.151 sec
     gradient                   ...        0 min,  0.030 sec
 * total energy  :  -205.2137126 Eh     change       -0.8047594E-05 Eh
   gradient norm :     0.0003320 Eh/α   predicted    -0.2895448E-05 ( -64.02%)
   displ. norm   :     0.0977246 α      lambda       -0.5405742E-05
   maximum displ.:     0.0717622 α      in ANC's #2, #1, #4, ...

........................................................................
.............................. CYCLE  144 ..............................
........................................................................

 iter      E             dE          RMSdq      gap      omega  full diag
   1   -207.3855987 -0.207386E+03  0.688E-03    0.77       0.0  T
   2   -207.3855986  0.519157E-07  0.420E-03    0.77       2.3  T
   3   -207.3855953  0.329808E-05  0.443E-03    0.77       2.2  T
   4   -207.3855986 -0.330686E-05  0.103E-03    0.77       9.3  T
   5   -207.3855988 -0.174958E-06  0.331E-04    0.77      28.9  T
   6   -207.3855988 -0.120197E-07  0.169E-04    0.77      56.8  T
     SCC iter.                  ...        0 min,  0.141 sec
     gradient                   ...        0 min,  0.028 sec
 * total energy  :  -205.2137202 Eh     change       -0.7616222E-05 Eh
   gradient norm :     0.0003263 Eh/α   predicted    -0.2716753E-05 ( -64.33%)
   displ. norm   :     0.0953200 α      lambda       -0.5317041E-05
   maximum displ.:     0.0700977 α      in ANC's #2, #1, #4, ...

........................................................................
.............................. CYCLE  145 ..............................
........................................................................

 iter      E             dE          RMSdq      gap      omega  full diag
   1   -207.3856185 -0.207386E+03  0.680E-03    0.77       0.0  T
   2   -207.3856185 -0.100746E-08  0.414E-03    0.77       2.3  T
   3   -207.3856164  0.211684E-05  0.346E-03    0.77       2.8  T
   4   -207.3856185 -0.206100E-05  0.932E-04    0.77      10.3  T
   5   -207.3856186 -0.147271E-06  0.293E-04    0.77      32.7  T
   6   -207.3856186 -0.936680E-08  0.132E-04    0.77      72.5  T
     SCC iter.                  ...        0 min,  0.152 sec
     gradient                   ...        0 min,  0.026 sec
 * total energy  :  -205.2137278 Eh     change       -0.7579813E-05 Eh
   gradient norm :     0.0003458 Eh/α   predicted    -0.2674059E-05 ( -64.72%)
   displ. norm   :     0.1004717 α      lambda       -0.5746471E-05
   maximum displ.:     0.0738091 α      in ANC's #2, #1, #4, ...

........................................................................
.............................. CYCLE  146 ..............................
........................................................................

 iter      E             dE          RMSdq      gap      omega  full diag
   1   -207.3856305 -0.207386E+03  0.725E-03    0.77       0.0  T
   2   -207.3856306 -0.503373E-07  0.438E-03    0.77       2.2  T
   3   -207.3856300  0.543723E-06  0.180E-03    0.77       5.3  T
   4   -207.3856305 -0.441874E-06  0.871E-04    0.77      11.0  T
   5   -207.3856306 -0.126713E-06  0.309E-04    0.77      31.0  T
     SCC iter.                  ...        0 min,  0.121 sec
     gradient                   ...        0 min,  0.026 sec
 * total energy  :  -205.2137360 Eh     change       -0.8201068E-05 Eh
   gradient norm :     0.0003687 Eh/α   predicted    -0.2886913E-05 ( -64.80%)
   displ. norm   :     0.1123027 α      lambda       -0.6482790E-05
   maximum displ.:     0.0822271 α      in ANC's #2, #1, #6, ...

........................................................................
.............................. CYCLE  147 ..............................
........................................................................

 iter      E             dE          RMSdq      gap      omega  full diag
   1   -207.3856111 -0.207386E+03  0.848E-03    0.77       0.0  T
   2   -207.3856111 -0.537963E-07  0.511E-03    0.77       1.9  T
   3   -207.3856103  0.861633E-06  0.222E-03    0.77       4.3  T
   4   -207.3856111 -0.835837E-06  0.716E-04    0.77      13.4  T
   5   -207.3856112 -0.699390E-07  0.356E-04    0.77      26.9  T
     SCC iter.                  ...        0 min,  0.139 sec
     gradient                   ...        0 min,  0.026 sec
 * total energy  :  -205.2137452 Eh     change       -0.9269843E-05 Eh
   gradient norm :     0.0003674 Eh/α   predicted    -0.3261318E-05 ( -64.82%)
   displ. norm   :     0.1273387 α      lambda       -0.7260024E-05
   maximum displ.:     0.0929175 α      in ANC's #2, #1, #6, ...

........................................................................
.............................. CYCLE  148 ..............................
........................................................................

 iter      E             dE          RMSdq      gap      omega  full diag
   1   -207.3855926 -0.207386E+03  0.102E-02    0.77       0.0  T
   2   -207.3855927 -0.625544E-07  0.612E-03    0.77       1.6  T
   3   -207.3855913  0.142044E-05  0.293E-03    0.77       3.3  T
   4   -207.3855927 -0.140212E-05  0.821E-04    0.77      11.7  T
   5   -207.3855928 -0.871976E-07  0.424E-04    0.77      22.6  T
   6   -207.3855928 -0.179681E-07  0.241E-04    0.77      39.7  T
     SCC iter.                  ...        0 min,  0.156 sec
     gradient                   ...        0 min,  0.026 sec
 * total energy  :  -205.2137556 Eh     change       -0.1036596E-04 Eh
   gradient norm :     0.0003396 Eh/α   predicted    -0.3658175E-05 ( -64.71%)
   displ. norm   :     0.1403825 α      lambda       -0.7744297E-05
   maximum displ.:     0.1021494 α      in ANC's #2, #1, #6, ...

........................................................................
.............................. CYCLE  149 ..............................
........................................................................

 iter      E             dE          RMSdq      gap      omega  full diag
   1   -207.3855923 -0.207386E+03  0.114E-02    0.77       0.0  T
   2   -207.3855924 -0.565856E-07  0.680E-03    0.77       1.4  T
   3   -207.3855894  0.294619E-05  0.422E-03    0.77       2.3  T
   4   -207.3855923 -0.283464E-05  0.124E-03    0.77       7.7  T
   5   -207.3855925 -0.234344E-06  0.473E-04    0.77      20.3  T
   6   -207.3855925 -0.220676E-07  0.274E-04    0.77      35.0  T
     SCC iter.                  ...        0 min,  0.152 sec
     gradient                   ...        0 min,  0.026 sec
 * total energy  :  -205.2137666 Eh     change       -0.1103307E-04 Eh
   gradient norm :     0.0003141 Eh/α   predicted    -0.3908645E-05 ( -64.57%)
   displ. norm   :     0.1466544 α      lambda       -0.7824939E-05
   maximum displ.:     0.1064484 α      in ANC's #2, #1, #6, ...

........................................................................
.............................. CYCLE  150 ..............................
........................................................................

 iter      E             dE          RMSdq      gap      omega  full diag
   1   -207.3855714 -0.207386E+03  0.126E-02    0.77       0.0  T
   2   -207.3855715 -0.801357E-07  0.752E-03    0.77       1.3  T
   3   -207.3855690  0.253702E-05  0.401E-03    0.77       2.4  T
   4   -207.3855714 -0.239823E-05  0.127E-03    0.77       7.6  T
   5   -207.3855716 -0.244050E-06  0.505E-04    0.77      19.0  T
   6   -207.3855716 -0.288573E-07  0.266E-04    0.77      36.0  T
     SCC iter.                  ...        0 min,  0.167 sec
     gradient                   ...        0 min,  0.026 sec
 * total energy  :  -205.2137778 Eh     change       -0.1116027E-04 Eh
   gradient norm :     0.0002955 Eh/α   predicted    -0.3952103E-05 ( -64.59%)
   displ. norm   :     0.1488042 α      lambda       -0.7755443E-05
   maximum displ.:     0.1078446 α      in ANC's #2, #1, #6, ...
 * RMSD in coord.:     0.1442868 α      energy gain  -0.3371083E-03 Eh

generating ANC from exact Hessian ...
Using Lindh-Hessian (1995)
 Shifting diagonal of input Hessian by   1.007205817819583E-002
 Lowest  eigenvalues of input Hessian
    0.010000    0.000000    0.000000    0.000000    0.000000    0.000000
    0.000000    0.010096    0.010159    0.010421    0.010672    0.010856
    0.010982    0.011159    0.011868    0.013494    0.014726    0.016651
 Highest eigenvalues
    2.153409    2.161781    2.224599    2.263386    2.318712    2.371790
 

........................................................................
.............................. CYCLE  151 ..............................
........................................................................

 iter      E             dE          RMSdq      gap      omega  full diag
   1   -207.3855875 -0.207386E+03  0.126E-02    0.77       0.0  T
   2   -207.3855876 -0.852993E-07  0.747E-03    0.77       1.3  T
   3   -207.3855852  0.238206E-05  0.388E-03    0.78       2.5  T
   4   -207.3855875 -0.226070E-05  0.123E-03    0.77       7.8  T
   5   -207.3855877 -0.218755E-06  0.510E-04    0.77      18.8  T
   6   -207.3855877 -0.267530E-07  0.291E-04    0.77      32.9  T
     SCC iter.                  ...        0 min,  0.162 sec
     gradient                   ...        0 min,  0.026 sec
 * total energy  :  -205.2137889 Eh     change       -0.1114593E-04 Eh
   gradient norm :     0.0004130 Eh/α   predicted     0.0000000E+00 (-100.00%)
   displ. norm   :     0.0463207 α      lambda       -0.9886089E-05
   maximum displ.:     0.0446607 α      in ANC's #2, #4, #1, ...

........................................................................
.............................. CYCLE  152 ..............................
........................................................................

 iter      E             dE          RMSdq      gap      omega  full diag
   1   -207.3856480 -0.207386E+03  0.531E-03    0.77       0.0  T
   2   -207.3856480 -0.592308E-09  0.319E-03    0.77       3.0  T
   3   -207.3856471  0.927248E-06  0.221E-03    0.77       4.3  T
   4   -207.3856480 -0.946855E-06  0.427E-04    0.77      22.5  T
   5   -207.3856480 -0.164254E-07  0.258E-04    0.77      37.1  T
     SCC iter.                  ...        0 min,  0.133 sec
     gradient                   ...        0 min,  0.030 sec
 * total energy  :  -205.2138036 Eh     change       -0.1470499E-04 Eh
   gradient norm :     0.0003726 Eh/α   predicted    -0.4952215E-05 ( -66.32%)
   displ. norm   :     0.0597695 α      lambda       -0.1246700E-04
   maximum displ.:     0.0533665 α      in ANC's #2, #4, #1, ...

........................................................................
.............................. CYCLE  153 ..............................
........................................................................

 iter      E             dE          RMSdq      gap      omega  full diag
   1   -207.3856875 -0.207386E+03  0.679E-03    0.77       0.0  T
   2   -207.3856875 -0.240395E-07  0.407E-03    0.77       2.4  T
   3   -207.3856868  0.750447E-06  0.210E-03    0.77       4.6  T
   4   -207.3856875 -0.721287E-06  0.644E-04    0.77      14.9  T
   5   -207.3856876 -0.575170E-07  0.296E-04    0.77      32.3  T
     SCC iter.                  ...        0 min,  0.138 sec
     gradient                   ...        0 min,  0.024 sec
 * total energy  :  -205.2138221 Eh     change       -0.1845833E-04 Eh
   gradient norm :     0.0003375 Eh/α   predicted    -0.6243481E-05 ( -66.18%)
   displ. norm   :     0.0819317 α      lambda       -0.1621598E-04
   maximum displ.:     0.0685807 α      in ANC's #2, #4, #1, ...

........................................................................
.............................. CYCLE  154 ..............................
........................................................................

 iter      E             dE          RMSdq      gap      omega  full diag
   1   -207.3856597 -0.207386E+03  0.854E-03    0.77       0.0  T
   2   -207.3856598 -0.427590E-07  0.511E-03    0.77       1.9  T
   3   -207.3856585  0.127745E-05  0.271E-03    0.77       3.5  T
   4   -207.3856598 -0.124670E-05  0.806E-04    0.77      11.9  T
   5   -207.3856598 -0.865853E-07  0.378E-04    0.77      25.3  T
   6   -207.3856599 -0.130546E-07  0.227E-04    0.77      42.2  T
     SCC iter.                  ...        0 min,  0.147 sec
     gradient                   ...        0 min,  0.027 sec
 * total energy  :  -205.2138460 Eh     change       -0.2390109E-04 Eh
   gradient norm :     0.0003262 Eh/α   predicted    -0.8132667E-05 ( -65.97%)
   displ. norm   :     0.1102534 α      lambda       -0.2070244E-04
   maximum displ.:     0.0883330 α      in ANC's #2, #4, #1, ...

........................................................................
.............................. CYCLE  155 ..............................
........................................................................

 iter      E             dE          RMSdq      gap      omega  full diag
   1   -207.3856893 -0.207386E+03  0.111E-02    0.77       0.0  T
   2   -207.3856894 -0.911070E-07  0.662E-03    0.77       1.4  T
   3   -207.3856880  0.139477E-05  0.287E-03    0.77       3.3  T
   4   -207.3856892 -0.121349E-05  0.121E-03    0.77       7.9  T
   5   -207.3856894 -0.244812E-06  0.464E-04    0.77      20.7  T
   6   -207.3856895 -0.236028E-07  0.220E-04    0.77      43.5  T
     SCC iter.                  ...        0 min,  0.160 sec
     gradient                   ...        0 min,  0.026 sec
 * total energy  :  -205.2138763 Eh     change       -0.3029313E-04 Eh
   gradient norm :     0.0003611 Eh/α   predicted    -0.1040928E-04 ( -65.64%)
   displ. norm   :     0.1421709 α      lambda       -0.2547969E-04
   maximum displ.:     0.1105943 α      in ANC's #2, #4, #1, ...

........................................................................
.............................. CYCLE  156 ..............................
........................................................................

 iter      E             dE          RMSdq      gap      omega  full diag
   1   -207.3857281 -0.207386E+03  0.147E-02    0.77       0.0  T
   2   -207.3857282 -0.170039E-06  0.875E-03    0.77       1.1  T
   3   -207.3857275  0.784700E-06  0.236E-03    0.77       4.1  T
   4   -207.3857282 -0.762304E-06  0.864E-04    0.77      11.1  T
   5   -207.3857283 -0.786512E-07  0.504E-04    0.77      19.0  T
     SCC iter.                  ...        0 min,  0.136 sec
     gradient                   ...        0 min,  0.029 sec
 * total energy  :  -205.2139134 Eh     change       -0.3708201E-04 Eh
   gradient norm :     0.0004311 Eh/α   predicted    -0.1285841E-04 ( -65.32%)
   displ. norm   :     0.1720914 α      lambda       -0.2955729E-04
   maximum displ.:     0.1312005 α      in ANC's #2, #4, #1, ...

........................................................................
.............................. CYCLE  157 ..............................
........................................................................

 iter      E             dE          RMSdq      gap      omega  full diag
   1   -207.3856859 -0.207386E+03  0.168E-02    0.77       0.0  T
   2   -207.3856861 -0.185206E-06  0.998E-03    0.78       1.0  T
   3   -207.3856840  0.207894E-05  0.361E-03    0.77       2.7  T
   4   -207.3856858 -0.183916E-05  0.147E-03    0.78       6.5  T
   5   -207.3856862 -0.324845E-06  0.717E-04    0.77      13.4  T
   6   -207.3856862 -0.637099E-07  0.330E-04    0.77      29.0  T
     SCC iter.                  ...        0 min,  0.168 sec
     gradient                   ...        0 min,  0.029 sec
 * total energy  :  -205.2139567 Eh     change       -0.4336720E-04 Eh
   gradient norm :     0.0004641 Eh/α   predicted    -0.1497361E-04 ( -65.47%)
   displ. norm   :     0.2004618 α      lambda       -0.3344459E-04
   maximum displ.:     0.1506299 α      in ANC's #2, #4, #1, ...

........................................................................
.............................. CYCLE  158 ..............................
........................................................................

 iter      E             dE          RMSdq      gap      omega  full diag
   1   -207.3857077 -0.207386E+03  0.196E-02    0.78       0.0  T
   2   -207.3857080 -0.251452E-06  0.117E-02    0.78       1.0  T
   3   -207.3857062  0.176868E-05  0.341E-03    0.78       2.8  T
   4   -207.3857077 -0.150726E-05  0.158E-03    0.77       6.1  T
   5   -207.3857081 -0.341964E-06  0.778E-04    0.78      12.3  T
   6   -207.3857081 -0.723588E-07  0.347E-04    0.78      27.6  T
     SCC iter.                  ...        0 min,  0.176 sec
     gradient                   ...        0 min,  0.032 sec
 * total energy  :  -205.2140060 Eh     change       -0.4925660E-04 Eh
   gradient norm :     0.0005187 Eh/α   predicted    -0.1702172E-04 ( -65.44%)
   displ. norm   :     0.2282306 α      lambda       -0.3762146E-04
   maximum displ.:     0.1695047 α      in ANC's #2, #4, #1, ...

........................................................................
.............................. CYCLE  159 ..............................
........................................................................

 iter      E             dE          RMSdq      gap      omega  full diag
   1   -207.3857230 -0.207386E+03  0.224E-02    0.78       0.0  T
   2   -207.3857233 -0.285334E-06  0.133E-02    0.78       1.0  T
   3   -207.3857203  0.304500E-05  0.439E-03    0.78       2.2  T
   4   -207.3857228 -0.256635E-05  0.200E-03    0.78       4.8  T
   5   -207.3857235 -0.620027E-06  0.785E-04    0.78      12.2  T
   6   -207.3857235 -0.612446E-07  0.385E-04    0.78      24.9  T
     SCC iter.                  ...        0 min,  0.170 sec
     gradient                   ...        0 min,  0.028 sec
 * total energy  :  -205.2140616 Eh     change       -0.5556379E-04 Eh
   gradient norm :     0.0005638 Eh/α   predicted    -0.1924639E-04 ( -65.36%)
   displ. norm   :     0.2583683 α      lambda       -0.4247825E-04
   maximum displ.:     0.1901886 α      in ANC's #2, #4, #1, ...

........................................................................
.............................. CYCLE  160 ..............................
........................................................................

 iter      E             dE          RMSdq      gap      omega  full diag
   1   -207.3857249 -0.207386E+03  0.250E-02    0.78       0.0  T
   2   -207.3857253 -0.340566E-06  0.149E-02    0.78       1.0  T
   3   -207.3857217  0.352572E-05  0.465E-03    0.78       2.1  T
   4   -207.3857247 -0.300392E-05  0.212E-03    0.78       4.5  T
   5   -207.3857254 -0.682659E-06  0.893E-04    0.78      10.7  T
   6   -207.3857255 -0.833371E-07  0.415E-04    0.78      23.1  T
     SCC iter.                  ...        0 min,  0.139 sec
     gradient                   ...        0 min,  0.027 sec
 * total energy  :  -205.2141244 Eh     change       -0.6287063E-04 Eh
   gradient norm :     0.0005868 Eh/α   predicted    -0.2186950E-04 ( -65.22%)
   displ. norm   :     0.2930667 α      lambda       -0.4829932E-04
   maximum displ.:     0.2143880 α      in ANC's #2, #4, #1, ...

........................................................................
.............................. CYCLE  161 ..............................
........................................................................

 iter      E             dE          RMSdq      gap      omega  full diag
   1   -207.3857408 -0.207386E+03  0.284E-02    0.78       0.0  T
   2   -207.3857412 -0.377569E-06  0.169E-02    0.78       1.0  T
   3   -207.3857347  0.649279E-05  0.623E-03    0.78       1.5  T
   4   -207.3857406 -0.591373E-05  0.240E-03    0.78       4.0  T
   5   -207.3857415 -0.844582E-06  0.983E-04    0.78       9.7  T
   6   -207.3857416 -0.894455E-07  0.512E-04    0.78      18.7  T
     SCC iter.                  ...        0 min,  0.139 sec
     gradient                   ...        0 min,  0.027 sec
 * total energy  :  -205.2141959 Eh     change       -0.7150200E-04 Eh
   gradient norm :     0.0005921 Eh/α   predicted    -0.2507153E-04 ( -64.94%)
   displ. norm   :     0.3318309 α      lambda       -0.5484413E-04
   maximum displ.:     0.2418636 α      in ANC's #2, #4, #1, ...

........................................................................
.............................. CYCLE  162 ..............................
........................................................................

 iter      E             dE          RMSdq      gap      omega  full diag
   1   -207.3857554 -0.207386E+03  0.319E-02    0.78       0.0  T
   2   -207.3857559 -0.519204E-06  0.190E-02    0.78       1.0  T
   3   -207.3857501  0.583484E-05  0.589E-03    0.78       1.6  T
   4   -207.3857552 -0.512271E-05  0.256E-03    0.78       3.7  T
   5   -207.3857562 -0.954059E-06  0.117E-03    0.78       8.2  T
   6   -207.3857563 -0.150222E-06  0.550E-04    0.78      17.4  T
   7   -207.3857563 -0.236587E-07  0.252E-04    0.78      38.1  T
     SCC iter.                  ...        0 min,  0.157 sec
     gradient                   ...        0 min,  0.026 sec
 * total energy  :  -205.2142771 Eh     change       -0.8117101E-04 Eh
   gradient norm :     0.0005810 Eh/α   predicted    -0.2876442E-04 ( -64.56%)
   displ. norm   :     0.3724047 α      lambda       -0.6168709E-04
   maximum displ.:     0.2710307 α      in ANC's #2, #4, #1, ...

........................................................................
.............................. CYCLE  163 ..............................
........................................................................

 iter      E             dE          RMSdq      gap      omega  full diag
   1   -207.3857593 -0.207386E+03  0.357E-02    0.78       0.0  T
   2   -207.3857600 -0.633881E-06  0.213E-02    0.78       1.0  T
   3   -207.3857516  0.836943E-05  0.709E-03    0.78       1.4  T
   4   -207.3857592 -0.758086E-05  0.285E-03    0.78       3.4  T
   5   -207.3857603 -0.109545E-05  0.135E-03    0.78       7.1  T
   6   -207.3857605 -0.209024E-06  0.633E-04    0.78      15.1  T
   7   -207.3857605 -0.345830E-07  0.241E-04    0.78      39.7  T
     SCC iter.                  ...        0 min,  0.168 sec
     gradient                   ...        0 min,  0.024 sec
 * total energy  :  -205.2143682 Eh     change       -0.9108237E-04 Eh
   gradient norm :     0.0005880 Eh/α   predicted    -0.3274478E-04 ( -64.05%)
   displ. norm   :     0.4090324 α      lambda       -0.6789724E-04
   maximum displ.:     0.2977661 α      in ANC's #2, #1, #4, ...

........................................................................
.............................. CYCLE  164 ..............................
........................................................................

 iter      E             dE          RMSdq      gap      omega  full diag
   1   -207.3858023 -0.207386E+03  0.390E-02    0.78       0.0  T
   2   -207.3858031 -0.788422E-06  0.232E-02    0.78       1.0  T
   3   -207.3857952  0.786102E-05  0.701E-03    0.78       1.4  T
   4   -207.3858025 -0.725077E-05  0.278E-03    0.78       3.4  T
   5   -207.3858033 -0.875272E-06  0.155E-03    0.78       6.2  T
   6   -207.3858036 -0.291687E-06  0.724E-04    0.78      13.2  T
   7   -207.3858037 -0.480372E-07  0.292E-04    0.78      32.8  T
     SCC iter.                  ...        0 min,  0.174 sec
     gradient                   ...        0 min,  0.030 sec
 * total energy  :  -205.2144683 Eh     change       -0.1001385E-03 Eh
   gradient norm :     0.0005741 Eh/α   predicted    -0.3647714E-04 ( -63.57%)
   displ. norm   :     0.4439128 α      lambda       -0.7388122E-04
   maximum displ.:     0.3236056 α      in ANC's #2, #1, #4, ...

........................................................................
.............................. CYCLE  165 ..............................
........................................................................

 iter      E             dE          RMSdq      gap      omega  full diag
   1   -207.3858423 -0.207386E+03  0.422E-02    0.78       0.0  T
   2   -207.3858433 -0.963040E-06  0.251E-02    0.78       1.0  T
   3   -207.3858347  0.858524E-05  0.737E-03    0.78       1.3  T
   4   -207.3858425 -0.785126E-05  0.301E-03    0.78       3.2  T
   5   -207.3858435 -0.101946E-05  0.169E-03    0.78       5.7  T
   6   -207.3858439 -0.343891E-06  0.798E-04    0.78      12.0  T
   7   -207.3858439 -0.620012E-07  0.304E-04    0.78      31.5  T
     SCC iter.                  ...        0 min,  0.179 sec
     gradient                   ...        0 min,  0.027 sec
 * total energy  :  -205.2145774 Eh     change       -0.1090538E-03 Eh
   gradient norm :     0.0006302 Eh/α   predicted    -0.4017910E-04 ( -63.16%)
   displ. norm   :     0.4757446 α      lambda       -0.7988794E-04
   maximum displ.:     0.3473799 α      in ANC's #2, #1, #4, ...

........................................................................
.............................. CYCLE  166 ..............................
........................................................................

 iter      E             dE          RMSdq      gap      omega  full diag
   1   -207.3859327 -0.207386E+03  0.448E-02    0.78       0.0  T
   2   -207.3859338 -0.106026E-05  0.267E-02    0.78       1.0  T
   3   -207.3859232  0.105382E-04  0.808E-03    0.78       1.2  T
   4   -207.3859330 -0.982863E-05  0.314E-03    0.78       3.0  T
   5   -207.3859341 -0.106185E-05  0.181E-03    0.78       5.3  T
   6   -207.3859345 -0.394313E-06  0.860E-04    0.78      11.1  T
   7   -207.3859346 -0.699012E-07  0.352E-04    0.78      27.2  T
     SCC iter.                  ...        0 min,  0.168 sec
     gradient                   ...        0 min,  0.029 sec
 * total energy  :  -205.2146953 Eh     change       -0.1179576E-03 Eh
   gradient norm :     0.0006704 Eh/α   predicted    -0.4396528E-04 ( -62.73%)
   displ. norm   :     0.5120860 α      lambda       -0.8721140E-04
   maximum displ.:     0.3745940 α      in ANC's #2, #1, #4, ...

........................................................................
.............................. CYCLE  167 ..............................
........................................................................

 iter      E             dE          RMSdq      gap      omega  full diag
   1   -207.3859878 -0.207386E+03  0.482E-02    0.78       0.0  T
   2   -207.3859892 -0.134199E-05  0.288E-02    0.78       1.0  T
   3   -207.3859799  0.929728E-05  0.777E-03    0.78       1.2  T
   4   -207.3859885 -0.857984E-05  0.321E-03    0.78       3.0  T
   5   -207.3859895 -0.103544E-05  0.193E-03    0.78       5.0  T
   6   -207.3859899 -0.436434E-06  0.962E-04    0.78      10.0  T
   7   -207.3859900 -0.104781E-06  0.327E-04    0.78      29.3  T
     SCC iter.                  ...        0 min,  0.180 sec
     gradient                   ...        0 min,  0.028 sec
 * total energy  :  -205.2148243 Eh     change       -0.1289206E-03 Eh
   gradient norm :     0.0007793 Eh/α   predicted    -0.4869303E-04 ( -62.23%)
   displ. norm   :     0.5580555 α      lambda       -0.9670053E-04
   maximum displ.:     0.4087716 α      in ANC's #2, #1, #4, ...

........................................................................
.............................. CYCLE  168 ..............................
........................................................................

 iter      E             dE          RMSdq      gap      omega  full diag
   1   -207.3860956 -0.207386E+03  0.521E-02    0.78       0.0  T
   2   -207.3860971 -0.151362E-05  0.311E-02    0.78       1.0  T
   3   -207.3860841  0.130066E-04  0.903E-03    0.78       1.1  T
   4   -207.3860961 -0.119716E-04  0.368E-03    0.78       2.6  T
   5   -207.3860976 -0.145485E-05  0.213E-03    0.78       4.5  T
   6   -207.3860981 -0.552679E-06  0.101E-03    0.78       9.5  T
   7   -207.3860982 -0.107065E-06  0.360E-04    0.78      26.6  T
   8   -207.3860982 -0.196242E-07  0.155E-04    0.78      62.0  T
     SCC iter.                  ...        0 min,  0.197 sec
     gradient                   ...        0 min,  0.024 sec
 * total energy  :  -205.2149676 Eh     change       -0.1433380E-03 Eh
   gradient norm :     0.0008620 Eh/α   predicted    -0.5504251E-04 ( -61.60%)
   displ. norm   :     0.6197224 α      lambda       -0.1097055E-03
   maximum displ.:     0.4547993 α      in ANC's #2, #1, #4, ...

........................................................................
.............................. CYCLE  169 ..............................
........................................................................

 iter      E             dE          RMSdq      gap      omega  full diag
   1   -207.3861147 -0.207386E+03  0.577E-02    0.78       0.0  T
   2   -207.3861166 -0.192811E-05  0.345E-02    0.78       1.0  T
   3   -207.3861008  0.158231E-04  0.989E-03    0.78       1.0  T
   4   -207.3861154 -0.146024E-04  0.404E-03    0.78       2.4  T
   5   -207.3861171 -0.170285E-05  0.242E-03    0.78       4.0  T
   6   -207.3861178 -0.740591E-06  0.112E-03    0.78       8.5  T
   7   -207.3861179 -0.138799E-06  0.364E-04    0.78      26.3  T
   8   -207.3861180 -0.185383E-07  0.132E-04    0.78      72.7  T
     SCC iter.                  ...        0 min,  0.192 sec
     gradient                   ...        0 min,  0.029 sec
 * total energy  :  -205.2151303 Eh     change       -0.1626952E-03 Eh
   gradient norm :     0.0009865 Eh/α   predicted    -0.6421575E-04 ( -60.53%)
   displ. norm   :     0.6970899 α      lambda       -0.1263585E-03
   maximum displ.:     0.5129684 α      in ANC's #2, #1, #4, ...

........................................................................
.............................. CYCLE  170 ..............................
........................................................................

 iter      E             dE          RMSdq      gap      omega  full diag
   1   -207.3861544 -0.207386E+03  0.651E-02    0.78       0.0  T
   2   -207.3861569 -0.249608E-05  0.389E-02    0.78       1.0  T
   3   -207.3861381  0.188068E-04  0.108E-02    0.78       1.0  T
   4   -207.3861551 -0.170526E-04  0.461E-03    0.78       2.1  T
   5   -207.3861575 -0.233761E-05  0.270E-03    0.78       3.6  T
   6   -207.3861584 -0.913332E-06  0.127E-03    0.78       7.6  T
   7   -207.3861586 -0.176351E-06  0.419E-04    0.78      22.8  T
   8   -207.3861586 -0.242125E-07  0.150E-04    0.78      63.6  T
     SCC iter.                  ...        0 min,  0.213 sec
     gradient                   ...        0 min,  0.029 sec
 * total energy  :  -205.2153175 Eh     change       -0.1872248E-03 Eh
   gradient norm :     0.0011107 Eh/α   predicted    -0.7682412E-04 ( -58.97%)
   displ. norm   :     0.7917852 α      lambda       -0.1465768E-03
   maximum displ.:     0.5849306 α      in ANC's #2, #1, #4, ...

........................................................................
.............................. CYCLE  171 ..............................
........................................................................

 iter      E             dE          RMSdq      gap      omega  full diag
   1   -207.3860850 -0.207386E+03  0.738E-02    0.78       0.0  T
   2   -207.3860883 -0.328630E-05  0.441E-02    0.78       1.0  T
   3   -207.3860609  0.273982E-04  0.130E-02    0.78       1.0  T
   4   -207.3860855 -0.245577E-04  0.561E-03    0.78       1.7  T
   5   -207.3860892 -0.371727E-05  0.309E-03    0.78       3.1  T
   6   -207.3860904 -0.120396E-05  0.142E-03    0.78       6.8  T
   7   -207.3860906 -0.207649E-06  0.483E-04    0.78      19.8  T
   8   -207.3860907 -0.342415E-07  0.179E-04    0.78      53.4  T
     SCC iter.                  ...        0 min,  0.216 sec
     gradient                   ...        0 min,  0.027 sec
 * total energy  :  -205.2155342 Eh     change       -0.2166433E-03 Eh
   gradient norm :     0.0012489 Eh/α   predicted    -0.9370874E-04 ( -56.75%)
   displ. norm   :     0.9076356 α      lambda       -0.1713373E-03
   maximum displ.:     0.6744567 α      in ANC's #2, #1, #4, ...

........................................................................
.............................. CYCLE  172 ..............................
........................................................................

 iter      E             dE          RMSdq      gap      omega  full diag
   1   -207.3860044 -0.207386E+03  0.852E-02    0.78       0.0  T
   2   -207.3860088 -0.446386E-05  0.509E-02    0.79       1.0  T
   3   -207.3859735  0.353282E-04  0.147E-02    0.79       1.0  T
   4   -207.3860052 -0.316471E-04  0.638E-03    0.78       1.5  T
   5   -207.3860100 -0.480652E-05  0.358E-03    0.79       2.7  T
   6   -207.3860116 -0.162697E-05  0.166E-03    0.78       5.8  T
   7   -207.3860119 -0.291648E-06  0.572E-04    0.79      16.7  T
   8   -207.3860119 -0.450922E-07  0.207E-04    0.79      46.3  T
     SCC iter.                  ...        0 min,  0.241 sec
     gradient                   ...        0 min,  0.029 sec
 * total energy  :  -205.2157861 Eh     change       -0.2519206E-03 Eh
   gradient norm :     0.0014234 Eh/α   predicted    -0.1170343E-03 ( -53.54%)
   displ. norm   :     1.0160986 α      lambda       -0.1947798E-03
   maximum displ.:     0.7615322 α      in ANC's #2, #1, #4, ...

........................................................................
.............................. CYCLE  173 ..............................
........................................................................

 iter      E             dE          RMSdq      gap      omega  full diag
   1   -207.3859452 -0.207386E+03  0.957E-02    0.79       0.0  T
   2   -207.3859512 -0.591928E-05  0.572E-02    0.79       1.0  T
   3   -207.3859065  0.446200E-04  0.167E-02    0.79       1.0  T
   4   -207.3859456 -0.391047E-04  0.752E-03    0.79       1.3  T
   5   -207.3859526 -0.698413E-05  0.402E-03    0.79       2.4  T
   6   -207.3859546 -0.202343E-05  0.186E-03    0.79       5.1  T
   7   -207.3859550 -0.362618E-06  0.638E-04    0.79      15.0  T
   8   -207.3859551 -0.601018E-07  0.226E-04    0.79      42.3  T
     SCC iter.                  ...        0 min,  0.227 sec
     gradient                   ...        0 min,  0.027 sec
 * total energy  :  -205.2160705 Eh     change       -0.2844403E-03 Eh
   gradient norm :     0.0014928 Eh/α   predicted    -0.1420783E-03 ( -50.05%)
   displ. norm   :     1.1500733 α      lambda       -0.2214400E-03
   maximum displ.:     0.8700525 α      in ANC's #2, #1, #4, ...

........................................................................
.............................. CYCLE  174 ..............................
........................................................................

 iter      E             dE          RMSdq      gap      omega  full diag
   1   -207.3857930 -0.207386E+03  0.109E-01    0.79       0.0  T
   2   -207.3858007 -0.771237E-05  0.654E-02    0.79       1.0  T
   3   -207.3857361  0.645680E-04  0.198E-02    0.79       1.0  T
   4   -207.3857930 -0.568939E-04  0.879E-03    0.79       1.1  T
   5   -207.3858028 -0.981104E-05  0.464E-03    0.79       2.1  T
   6   -207.3858056 -0.276377E-05  0.212E-03    0.79       4.5  T
   7   -207.3858060 -0.448135E-06  0.764E-04    0.79      12.5  T
   8   -207.3858061 -0.813272E-07  0.274E-04    0.79      34.9  T
     SCC iter.                  ...        0 min,  0.236 sec
     gradient                   ...        0 min,  0.025 sec
 * total energy  :  -205.2163912 Eh     change       -0.3206868E-03 Eh
   gradient norm :     0.0017688 Eh/α   predicted    -0.1758055E-03 ( -45.18%)
   displ. norm   :     1.2824271 α      lambda       -0.2481900E-03
   maximum displ.:     0.9827472 α      in ANC's #2, #1, #4, ...

........................................................................
.............................. CYCLE  175 ..............................
........................................................................

 iter      E             dE          RMSdq      gap      omega  full diag
   1   -207.3858938 -0.207386E+03  0.123E-01    0.79       0.0  T
   2   -207.3859042 -0.104450E-04  0.734E-02    0.79       1.0  T
   3   -207.3858328  0.714502E-04  0.214E-02    0.79       1.0  T
   4   -207.3858957 -0.628888E-04  0.957E-03    0.79       1.0  T
   5   -207.3859066 -0.109410E-04  0.525E-03    0.79       1.8  T
   6   -207.3859101 -0.346941E-05  0.246E-03    0.79       3.9  T
   7   -207.3859107 -0.646154E-06  0.844E-04    0.79      11.4  T
   8   -207.3859108 -0.106157E-06  0.290E-04    0.79      33.0  T
     SCC iter.                  ...        0 min,  0.230 sec
     gradient                   ...        0 min,  0.027 sec
 * total energy  :  -205.2167471 Eh     change       -0.3558826E-03 Eh
   gradient norm :     0.0017376 Eh/α   predicted    -0.2148009E-03 ( -39.64%)
   displ. norm   :     1.3113982 α      lambda       -0.2521561E-03
   maximum displ.:     1.0166525 α      in ANC's #2, #1, #4, ...

........................................................................
.............................. CYCLE  176 ..............................
........................................................................

 iter      E             dE          RMSdq      gap      omega  full diag
   1   -207.3862441 -0.207386E+03  0.127E-01    0.79       0.0  T
   2   -207.3862554 -0.113139E-04  0.758E-02    0.79       1.0  T
   3   -207.3861727  0.827453E-04  0.227E-02    0.79       1.0  T
   4   -207.3862451 -0.724066E-04  0.102E-02    0.79       1.0  T
   5   -207.3862582 -0.131201E-04  0.545E-03    0.79       1.8  T
   6   -207.3862620 -0.380489E-05  0.255E-03    0.79       3.8  T
   7   -207.3862627 -0.653781E-06  0.964E-04    0.79       9.9  T
   8   -207.3862628 -0.130722E-06  0.351E-04    0.79      27.3  T
     SCC iter.                  ...        0 min,  0.220 sec
     gradient                   ...        0 min,  0.027 sec
 * total energy  :  -205.2171072 Eh     change       -0.3600760E-03 Eh
   gradient norm :     0.0021423 Eh/α   predicted    -0.2224406E-03 ( -38.22%)
   displ. norm   :     0.8507371 α      lambda       -0.2580431E-03
   maximum displ.:     0.6715770 α      in ANC's #2, #1, #4, ...

........................................................................
.............................. CYCLE  177 ..............................
........................................................................

 iter      E             dE          RMSdq      gap      omega  full diag
   1   -207.3892669 -0.207389E+03  0.835E-02    0.79       0.0  T
   2   -207.3892725 -0.552804E-05  0.499E-02    0.79       1.0  T
   3   -207.3892384  0.340239E-04  0.150E-02    0.79       1.0  T
   4   -207.3892704 -0.319645E-04  0.592E-03    0.79       1.6  T
   5   -207.3892739 -0.349971E-05  0.357E-03    0.79       2.7  T
   6   -207.3892754 -0.149796E-05  0.187E-03    0.79       5.1  T
   7   -207.3892758 -0.427072E-06  0.638E-04    0.79      15.0  T
   8   -207.3892759 -0.599684E-07  0.205E-04    0.79      46.7  T
     SCC iter.                  ...        0 min,  0.211 sec
     gradient                   ...        0 min,  0.029 sec
 * total energy  :  -205.2173482 Eh     change       -0.2410525E-03 Eh
   gradient norm :     0.0013664 Eh/α   predicted    -0.2223982E-03 (  -7.74%)
   displ. norm   :     1.3964118 α      lambda       -0.2719523E-03
   maximum displ.:     1.0964278 α      in ANC's #2, #1, #4, ...

........................................................................
.............................. CYCLE  178 ..............................
........................................................................

 iter      E             dE          RMSdq      gap      omega  full diag
   1   -207.3850391 -0.207385E+03  0.137E-01    0.79       0.0  T
   2   -207.3850540 -0.149719E-04  0.817E-02    0.79       1.0  T
   3   -207.3849746  0.794778E-04  0.231E-02    0.79       1.0  T
   4   -207.3850481 -0.735193E-04  0.954E-03    0.79       1.0  T
   5   -207.3850575 -0.944471E-05  0.566E-03    0.80       1.7  T
   6   -207.3850611 -0.361240E-05  0.306E-03    0.79       3.1  T
   7   -207.3850623 -0.115563E-05  0.103E-03    0.79       9.3  T
   8   -207.3850625 -0.156074E-06  0.335E-04    0.79      28.6  T
   9   -207.3850625 -0.397165E-08  0.220E-04    0.79      43.6  T
     SCC iter.                  ...        0 min,  0.290 sec
     gradient                   ...        0 min,  0.030 sec
 * total energy  :  -205.2177103 Eh     change       -0.3620995E-03 Eh
   gradient norm :     0.0045283 Eh/α   predicted    -0.2538198E-03 ( -29.90%)
   displ. norm   :     0.8042072 α      lambda       -0.2677281E-03
   maximum displ.:     0.6422615 α      in ANC's #2, #1, #4, ...

........................................................................
.............................. CYCLE  179 ..............................
........................................................................

 iter      E             dE          RMSdq      gap      omega  full diag
   1   -207.3859188 -0.207386E+03  0.801E-02    0.79       0.0  T
   2   -207.3859246 -0.576278E-05  0.479E-02    0.80       1.0  T
   3   -207.3858979  0.266873E-04  0.136E-02    0.79       1.0  T
   4   -207.3859239 -0.259546E-04  0.501E-03    0.79       1.9  T
   5   -207.3859269 -0.302620E-05  0.245E-03    0.79       3.9  T
   6   -207.3859270 -0.156763E-06  0.189E-03    0.79       5.1  T
   7   -207.3859275 -0.490437E-06  0.805E-04    0.79      11.9  T
   8   -207.3859276 -0.105347E-06  0.264E-04    0.79      36.3  T
     SCC iter.                  ...        0 min,  0.212 sec
     gradient                   ...        0 min,  0.032 sec
 * total energy  :  -205.2179482 Eh     change       -0.2378569E-03 Eh
   gradient norm :     0.0046395 Eh/α   predicted    -0.2204385E-03 (  -7.32%)
   displ. norm   :     0.7515190 α      lambda       -0.2848828E-03
   maximum displ.:     0.6055619 α      in ANC's #2, #1, #4, ...

........................................................................
.............................. CYCLE  180 ..............................
........................................................................

 iter      E             dE          RMSdq      gap      omega  full diag
   1   -207.3894584 -0.207389E+03  0.761E-02    0.79       0.0  T
   2   -207.3894641 -0.570562E-05  0.456E-02    0.80       1.0  T
   3   -207.3894356  0.285428E-04  0.141E-02    0.79       1.0  T
   4   -207.3894635 -0.278947E-04  0.499E-03    0.80       1.9  T
   5   -207.3894667 -0.322395E-05  0.230E-03    0.79       4.2  T
   6   -207.3894669 -0.210473E-06  0.161E-03    0.80       6.0  T
   7   -207.3894672 -0.305621E-06  0.739E-04    0.80      13.0  T
   8   -207.3894673 -0.800254E-07  0.282E-04    0.80      33.9  T
     SCC iter.                  ...        0 min,  0.208 sec
     gradient                   ...        0 min,  0.026 sec
 * total energy  :  -205.2182053 Eh     change       -0.2571452E-03 Eh
   gradient norm :     0.0030980 Eh/α   predicted    -0.2228884E-03 ( -13.32%)
   displ. norm   :     0.8597864 α      lambda       -0.2991517E-03
   maximum displ.:     0.6930519 α      in ANC's #2, #1, #4, ...

........................................................................
.............................. CYCLE  181 ..............................
........................................................................

 iter      E             dE          RMSdq      gap      omega  full diag
   1   -207.3903576 -0.207390E+03  0.871E-02    0.79       0.0  T
   2   -207.3903648 -0.714758E-05  0.522E-02    0.80       1.0  T
   3   -207.3903293  0.355075E-04  0.157E-02    0.79       1.0  T
   4   -207.3903647 -0.354564E-04  0.532E-03    0.80       1.8  T
   5   -207.3903682 -0.350032E-05  0.238E-03    0.80       4.0  T
   6   -207.3903684 -0.140506E-06  0.164E-03    0.80       5.8  T
   7   -207.3903687 -0.327652E-06  0.755E-04    0.80      12.7  T
   8   -207.3903688 -0.874637E-07  0.280E-04    0.80      34.2  T
     SCC iter.                  ...        0 min,  0.214 sec
     gradient                   ...        0 min,  0.027 sec
 * total energy  :  -205.2184877 Eh     change       -0.2823545E-03 Eh
   gradient norm :     0.0016624 Eh/α   predicted    -0.2601477E-03 (  -7.86%)
   displ. norm   :     1.3422190 α      lambda       -0.3057624E-03
   maximum displ.:     1.0794584 α      in ANC's #2, #1, #4, ...

........................................................................
.............................. CYCLE  182 ..............................
........................................................................

 iter      E             dE          RMSdq      gap      omega  full diag
   1   -207.3894196 -0.207389E+03  0.138E-01    0.79       0.0  T
   2   -207.3894375 -0.178324E-04  0.824E-02    0.80       1.0  T
   3   -207.3893462  0.912045E-04  0.251E-02    0.79       1.0  T
   4   -207.3894335 -0.872173E-04  0.941E-03    0.80       1.0  T
   5   -207.3894432 -0.972758E-05  0.535E-03    0.79       1.8  T
   6   -207.3894457 -0.248514E-05  0.331E-03    0.80       2.9  T
   7   -207.3894471 -0.143266E-05  0.121E-03    0.80       7.9  T
   8   -207.3894473 -0.208302E-06  0.415E-04    0.80      23.1  T
   9   -207.3894473 -0.105968E-07  0.265E-04    0.80      36.2  T
     SCC iter.                  ...        0 min,  0.243 sec
     gradient                   ...        0 min,  0.028 sec
 * total energy  :  -205.2189100 Eh     change       -0.4222933E-03 Eh
   gradient norm :     0.0037135 Eh/α   predicted    -0.2752925E-03 ( -34.81%)
   displ. norm   :     0.8148116 α      lambda       -0.3170000E-03
   maximum displ.:     0.6444353 α      in ANC's #2, #1, #4, ...

........................................................................
.............................. CYCLE  183 ..............................
........................................................................

 iter      E             dE          RMSdq      gap      omega  full diag
   1   -207.3930501 -0.207393E+03  0.862E-02    0.79       0.0  T
   2   -207.3930571 -0.696922E-05  0.517E-02    0.80       1.0  T
   3   -207.3929981  0.590250E-04  0.196E-02    0.79       1.0  T
   4   -207.3930472 -0.491111E-04  0.901E-03    0.80       1.1  T
   5   -207.3930595 -0.123348E-04  0.397E-03    0.80       2.4  T
   6   -207.3930615 -0.202904E-05  0.172E-03    0.80       5.6  T
   7   -207.3930617 -0.198214E-06  0.864E-04    0.80      11.1  T
   8   -207.3930619 -0.107369E-06  0.329E-04    0.80      29.1  T
     SCC iter.                  ...        0 min,  0.235 sec
     gradient                   ...        0 min,  0.027 sec
 * total energy  :  -205.2191867 Eh     change       -0.2767554E-03 Eh
   gradient norm :     0.0033705 Eh/α   predicted    -0.2637300E-03 (  -4.71%)
   displ. norm   :     0.8896992 α      lambda       -0.3053622E-03
   maximum displ.:     0.7095110 α      in ANC's #2, #1, #4, ...
 * RMSD in coord.:     1.4864386 α      energy gain  -0.5408934E-02 Eh

generating ANC from exact Hessian ...
Using Lindh-Hessian (1995)
 Shifting diagonal of input Hessian by   1.008774534819307E-002
 Lowest  eigenvalues of input Hessian
    0.010000    0.000000    0.000000    0.000000    0.000000    0.000000
    0.000000    0.010153    0.010220    0.010454    0.010621    0.011035
    0.011154    0.011525    0.011838    0.013672    0.014959    0.016412
 Highest eigenvalues
    2.154419    2.156606    2.218300    2.268368    2.324706    2.361424
 

........................................................................
.............................. CYCLE  184 ..............................
........................................................................

 iter      E             dE          RMSdq      gap      omega  full diag
   1   -207.3874775 -0.207387E+03  0.918E-02    0.79       0.0  T
   2   -207.3874846 -0.710695E-05  0.550E-02    0.80       1.0  T
   3   -207.3874537  0.309641E-04  0.149E-02    0.79       1.0  T
   4   -207.3874846 -0.309586E-04  0.516E-03    0.80       1.9  T
   5   -207.3874877 -0.304681E-05  0.248E-03    0.80       3.9  T
   6   -207.3874875  0.182324E-06  0.214E-03    0.80       4.5  T
   7   -207.3874882 -0.708520E-06  0.840E-04    0.80      11.4  T
   8   -207.3874883 -0.111114E-06  0.239E-04    0.80      40.0  T
     SCC iter.                  ...        0 min,  0.221 sec
     gradient                   ...        0 min,  0.027 sec
 * total energy  :  -205.2194471 Eh     change       -0.2604069E-03 Eh
   gradient norm :     0.0037756 Eh/α   predicted     0.0000000E+00 (-100.00%)
   displ. norm   :     0.0540891 α      lambda       -0.7426737E-04
   maximum displ.:     0.0336138 α      in ANC's #4, #5, #6, ...

........................................................................
.............................. CYCLE  185 ..............................
........................................................................

 iter      E             dE          RMSdq      gap      omega  full diag
   1   -207.3907629 -0.207391E+03  0.945E-03    0.80       0.0  T
   2   -207.3907631 -0.175134E-06  0.561E-03    0.80       1.7  T
   3   -207.3907617  0.141602E-05  0.311E-03    0.80       3.1  T
   4   -207.3907627 -0.103806E-05  0.165E-03    0.80       5.8  T
   5   -207.3907632 -0.462071E-06  0.425E-04    0.80      22.5  T
   6   -207.3907632 -0.232988E-07  0.205E-04    0.80      46.6  T
     SCC iter.                  ...        0 min,  0.168 sec
     gradient                   ...        0 min,  0.027 sec
 * total energy  :  -205.2195061 Eh     change       -0.5897445E-04 Eh
   gradient norm :     0.0018321 Eh/α   predicted    -0.3745631E-04 ( -36.49%)
   displ. norm   :     0.2204217 α      lambda       -0.1117996E-03
   maximum displ.:     0.1366458 α      in ANC's #4, #5, #6, ...

........................................................................
.............................. CYCLE  186 ..............................
........................................................................

 iter      E             dE          RMSdq      gap      omega  full diag
   1   -207.3968169 -0.207397E+03  0.300E-02    0.80       0.0  T
   2   -207.3968185 -0.157591E-05  0.179E-02    0.80       1.0  T
   3   -207.3968047  0.137917E-04  0.973E-03    0.80       1.0  T
   4   -207.3968151 -0.103791E-04  0.505E-03    0.80       1.9  T
   5   -207.3968193 -0.420763E-05  0.144E-03    0.80       6.6  T
   6   -207.3968196 -0.288051E-06  0.655E-04    0.80      14.6  T
   7   -207.3968196 -0.248353E-07  0.315E-04    0.80      30.4  T
     SCC iter.                  ...        0 min,  0.200 sec
     gradient                   ...        0 min,  0.035 sec
 * total energy  :  -205.2196222 Eh     change       -0.1161244E-03 Eh
   gradient norm :     0.0040690 Eh/α   predicted    -0.5710847E-04 ( -50.82%)
   displ. norm   :     0.2182178 α      lambda       -0.1298839E-03
   maximum displ.:     0.1337186 α      in ANC's #4, #5, #6, ...

........................................................................
.............................. CYCLE  187 ..............................
........................................................................

 iter      E             dE          RMSdq      gap      omega  full diag
   1   -207.3977767 -0.207398E+03  0.263E-02    0.80       0.0  T
   2   -207.3977778 -0.111653E-05  0.156E-02    0.80       1.0  T
   3   -207.3977672  0.106493E-04  0.846E-03    0.80       1.1  T
   4   -207.3977756 -0.846140E-05  0.413E-03    0.80       2.3  T
   5   -207.3977784 -0.277154E-05  0.125E-03    0.80       7.7  T
   6   -207.3977786 -0.191430E-06  0.647E-04    0.80      14.8  T
   7   -207.3977786 -0.201964E-07  0.390E-04    0.80      24.5  T
     SCC iter.                  ...        0 min,  0.209 sec
     gradient                   ...        0 min,  0.028 sec
 * total energy  :  -205.2197512 Eh     change       -0.1289388E-03 Eh
   gradient norm :     0.0047523 Eh/α   predicted    -0.6803781E-04 ( -47.23%)
   displ. norm   :     0.9058007 α      lambda       -0.5736519E-03
   maximum displ.:     0.5626047 α      in ANC's #4, #5, #6, ...

........................................................................
.............................. CYCLE  188 ..............................
........................................................................

 iter      E             dE          RMSdq      gap      omega  full diag
   1   -207.3948755 -0.207395E+03  0.109E-01    0.80       0.0  T
   2   -207.3948975 -0.219562E-04  0.647E-02    0.80       1.0  T
   3   -207.3947363  0.161186E-03  0.334E-02    0.81       1.0  T
   4   -207.3948543 -0.118018E-03  0.179E-02    0.80       1.0  T
   5   -207.3949072 -0.528402E-04  0.510E-03    0.80       1.9  T
   6   -207.3949103 -0.312342E-05  0.257E-03    0.80       3.7  T
   7   -207.3949106 -0.275839E-06  0.154E-03    0.80       6.2  T
   8   -207.3949110 -0.410524E-06  0.543E-04    0.80      17.6  T
   9   -207.3949110 -0.439258E-07  0.224E-04    0.80      42.7  T
     SCC iter.                  ...        0 min,  0.251 sec
     gradient                   ...        0 min,  0.025 sec
 * total energy  :  -205.2202476 Eh     change       -0.4964102E-03 Eh
   gradient norm :     0.0077275 Eh/α   predicted    -0.5221616E-03 (   5.19%)
   displ. norm   :     0.6893350 α      lambda       -0.3511079E-03
   maximum displ.:     0.4360930 α      in ANC's #4, #5, #6, ...

........................................................................
.............................. CYCLE  189 ..............................
........................................................................

 iter      E             dE          RMSdq      gap      omega  full diag
   1   -207.3888810 -0.207389E+03  0.808E-02    0.80       0.0  T
   2   -207.3888935 -0.124514E-04  0.478E-02    0.80       1.0  T
   3   -207.3888154  0.780864E-04  0.234E-02    0.81       1.0  T
   4   -207.3888711 -0.557577E-04  0.129E-02    0.80       1.0  T
   5   -207.3888985 -0.273331E-04  0.379E-03    0.80       2.5  T
   6   -207.3889002 -0.170241E-05  0.189E-03    0.80       5.1  T
   7   -207.3889003 -0.148238E-06  0.114E-03    0.80       8.4  T
   8   -207.3889005 -0.217241E-06  0.421E-04    0.80      22.7  T
   9   -207.3889006 -0.272444E-07  0.170E-04    0.80      56.5  T
     SCC iter.                  ...        0 min,  0.251 sec
     gradient                   ...        0 min,  0.025 sec
 * total energy  :  -205.2204453 Eh     change       -0.1977165E-03 Eh
   gradient norm :     0.0125478 Eh/α   predicted    -0.2589830E-03 (  30.99%)
   displ. norm   :     0.1844028 α      lambda       -0.3670342E-03
   maximum displ.:     0.1173017 α      in ANC's #4, #5, #2, ...

........................................................................
.............................. CYCLE  190 ..............................
........................................................................

 iter      E             dE          RMSdq      gap      omega  full diag
   1   -207.3881663 -0.207388E+03  0.226E-02    0.80       0.0  T
   2   -207.3881678 -0.146099E-05  0.133E-02    0.80       1.0  T
   3   -207.3881646  0.313013E-05  0.524E-03    0.80       1.8  T
   4   -207.3881675 -0.290876E-05  0.215E-03    0.80       4.5  T
   5   -207.3881682 -0.673741E-06  0.946E-04    0.80      10.1  T
   6   -207.3881683 -0.780650E-07  0.567E-04    0.80      16.9  T
     SCC iter.                  ...        0 min,  0.154 sec
     gradient                   ...        0 min,  0.027 sec
 * total energy  :  -205.2207210 Eh     change       -0.2756967E-03 Eh
   gradient norm :     0.0082522 Eh/α   predicted    -0.1897578E-03 ( -31.17%)
   displ. norm   :     0.4480500 α      lambda       -0.4786694E-03
   maximum displ.:     0.2882796 α      in ANC's #4, #5, #2, ...

........................................................................
.............................. CYCLE  191 ..............................
........................................................................

 iter      E             dE          RMSdq      gap      omega  full diag
   1   -207.3877211 -0.207388E+03  0.459E-02    0.80       0.0  T
   2   -207.3877260 -0.490962E-05  0.274E-02    0.80       1.0  T
   3   -207.3877143  0.117316E-04  0.971E-03    0.80       1.0  T
   4   -207.3877259 -0.116246E-04  0.360E-03    0.80       2.7  T
   5   -207.3877276 -0.167273E-05  0.162E-03    0.80       5.9  T
   6   -207.3877277 -0.110860E-06  0.124E-03    0.80       7.8  T
   7   -207.3877279 -0.184063E-06  0.583E-04    0.80      16.4  T
   8   -207.3877279 -0.461253E-07  0.196E-04    0.80      48.8  T
     SCC iter.                  ...        0 min,  0.236 sec
     gradient                   ...        0 min,  0.028 sec
 * total energy  :  -205.2211214 Eh     change       -0.4003924E-03 Eh
   gradient norm :     0.0062944 Eh/α   predicted    -0.2874015E-03 ( -28.22%)
   displ. norm   :     0.6852388 α      lambda       -0.6455714E-03
   maximum displ.:     0.4440313 α      in ANC's #4, #5, #6, ...

........................................................................
.............................. CYCLE  192 ..............................
........................................................................

 iter      E             dE          RMSdq      gap      omega  full diag
   1   -207.3878037 -0.207388E+03  0.695E-02    0.80       0.0  T
   2   -207.3878152 -0.114712E-04  0.412E-02    0.80       1.0  T
   3   -207.3877671  0.481004E-04  0.180E-02    0.80       1.0  T
   4   -207.3878049 -0.378312E-04  0.924E-03    0.80       1.0  T
   5   -207.3878179 -0.129329E-04  0.386E-03    0.80       2.5  T
   6   -207.3878199 -0.204182E-05  0.160E-03    0.80       6.0  T
   7   -207.3878201 -0.196625E-06  0.893E-04    0.80      10.7  T
   8   -207.3878202 -0.743551E-07  0.488E-04    0.80      19.6  T
     SCC iter.                  ...        0 min,  0.212 sec
     gradient                   ...        0 min,  0.027 sec
 * total energy  :  -205.2217203 Eh     change       -0.5989659E-03 Eh
   gradient norm :     0.0075864 Eh/α   predicted    -0.4743539E-03 ( -20.80%)
   displ. norm   :     0.7438251 α      lambda       -0.9004953E-03
   maximum displ.:     0.4797287 α      in ANC's #4, #5, #6, ...

........................................................................
.............................. CYCLE  193 ..............................
........................................................................

 iter      E             dE          RMSdq      gap      omega  full diag
   1   -207.3924849 -0.207392E+03  0.872E-02    0.79       0.0  T
   2   -207.3925081 -0.231666E-04  0.512E-02    0.80       1.0  T
   3   -207.3923021  0.206045E-03  0.365E-02    0.78       1.0  T
   4   -207.3924789 -0.176892E-03  0.159E-02    0.80       1.0  T
   5   -207.3925192 -0.403023E-04  0.542E-03    0.79       1.8  T
   6   -207.3925235 -0.423496E-05  0.251E-03    0.79       3.8  T
   7   -207.3925242 -0.677975E-06  0.122E-03    0.79       7.8  T
   8   -207.3925243 -0.131710E-06  0.691E-04    0.79      13.9  T
   9   -207.3925244 -0.719898E-07  0.235E-04    0.79      40.8  T
     SCC iter.                  ...        0 min,  0.238 sec
     gradient                   ...        0 min,  0.028 sec
 * total energy  :  -205.2224970 Eh     change       -0.7766185E-03 Eh
   gradient norm :     0.0088316 Eh/α   predicted    -0.6994400E-03 (  -9.94%)
   displ. norm   :     0.8433542 α      lambda       -0.8590673E-03
   maximum displ.:     0.5618350 α      in ANC's #4, #5, #6, ...

........................................................................
.............................. CYCLE  194 ..............................
........................................................................

 iter      E             dE          RMSdq      gap      omega  full diag
   1   -207.3890855 -0.207389E+03  0.978E-02    0.79       0.0  T
   2   -207.3891329 -0.474163E-04  0.552E-02    0.79       1.0  T
   3   -207.3889605  0.172486E-03  0.357E-02    0.78       1.0  T
   4   -207.3890787 -0.118201E-03  0.203E-02    0.79       1.0  T
   5   -207.3891453 -0.666049E-04  0.622E-03    0.79       1.5  T
   6   -207.3891508 -0.550139E-05  0.284E-03    0.79       3.4  T
   7   -207.3891517 -0.892104E-06  0.144E-03    0.79       6.7  T
   8   -207.3891518 -0.187708E-06  0.788E-04    0.79      12.2  T
   9   -207.3891519 -0.887436E-07  0.286E-04    0.79      33.5  T
     SCC iter.                  ...        0 min,  0.257 sec
     gradient                   ...        0 min,  0.027 sec
 * total energy  :  -205.2231602 Eh     change       -0.6632357E-03 Eh
   gradient norm :     0.0118525 Eh/α   predicted    -0.7350573E-03 (  10.83%)
   displ. norm   :     0.6203250 α      lambda       -0.1482178E-02
   maximum displ.:     0.3245698 α      in ANC's #4, #12, #3, ...

........................................................................
.............................. CYCLE  195 ..............................
........................................................................

 iter      E             dE          RMSdq      gap      omega  full diag
   1   -207.4065060 -0.207407E+03  0.171E-01    0.78       0.0  T
   2   -207.4066510 -0.144944E-03  0.101E-01    0.79       1.0  T
   3   -207.4057706  0.880386E-03  0.816E-02    0.76       1.0  T
   4   -207.4064011 -0.630520E-03  0.446E-02    0.80       1.0  T
   5   -207.4067319 -0.330826E-03  0.131E-02    0.78       1.0  T
   6   -207.4067558 -0.238506E-04  0.641E-03    0.79       1.5  T
   7   -207.4067596 -0.387133E-05  0.337E-03    0.79       2.8  T
   8   -207.4067612 -0.157390E-05  0.126E-03    0.79       7.6  T
   9   -207.4067615 -0.240704E-06  0.444E-04    0.79      21.6  T
  10   -207.4067615 -0.209926E-07  0.195E-04    0.79      49.1  T
     SCC iter.                  ...        0 min,  0.277 sec
     gradient                   ...        0 min,  0.028 sec
 * total energy  :  -205.2231883 Eh     change       -0.2814239E-04 Eh
   gradient norm :     0.0182712 Eh/α   predicted    -0.1026267E-02 (3546.70%)
   displ. norm   :     0.3793860 α      lambda       -0.1301074E-02
   maximum displ.:     0.2272549 α      in ANC's #4, #5, #2, ...

........................................................................
.............................. CYCLE  196 ..............................
........................................................................

 iter      E             dE          RMSdq      gap      omega  full diag
   1   -207.3926808 -0.207393E+03  0.705E-02    0.79       0.0  T
   2   -207.3926980 -0.171743E-04  0.411E-02    0.79       1.0  T
   3   -207.3925959  0.102096E-03  0.275E-02    0.79       1.0  T
   4   -207.3926611 -0.651690E-04  0.161E-02    0.78       1.0  T
   5   -207.3927063 -0.452243E-04  0.376E-03    0.79       2.5  T
   6   -207.3927080 -0.174981E-05  0.179E-03    0.79       5.3  T
   7   -207.3927081 -0.846218E-07  0.120E-03    0.79       8.0  T
   8   -207.3927083 -0.205781E-06  0.497E-04    0.79      19.3  T
   9   -207.3927084 -0.362948E-07  0.189E-04    0.79      50.7  T
     SCC iter.                  ...        0 min,  0.242 sec
     gradient                   ...        0 min,  0.024 sec
 * total energy  :  -205.2239155 Eh     change       -0.7271336E-03 Eh
   gradient norm :     0.0091707 Eh/α   predicted    -0.7441755E-03 (   2.34%)
   displ. norm   :     0.1487240 α      lambda       -0.2767328E-03
   maximum displ.:     0.0770225 α      in ANC's #4, #2, #5, ...

........................................................................
.............................. CYCLE  197 ..............................
........................................................................

 iter      E             dE          RMSdq      gap      omega  full diag
   1   -207.3886223 -0.207389E+03  0.279E-02    0.79       0.0  T
   2   -207.3886235 -0.122881E-05  0.167E-02    0.79       1.0  T
   3   -207.3885866  0.368637E-04  0.154E-02    0.79       1.0  T
   4   -207.3886204 -0.337936E-04  0.576E-03    0.79       1.7  T
   5   -207.3886259 -0.545374E-05  0.160E-03    0.79       6.0  T
   6   -207.3886262 -0.344842E-06  0.811E-04    0.79      11.8  T
   7   -207.3886263 -0.611855E-07  0.417E-04    0.79      23.0  T
     SCC iter.                  ...        0 min,  0.184 sec
     gradient                   ...        0 min,  0.027 sec
 * total energy  :  -205.2241445 Eh     change       -0.2290654E-03 Eh
   gradient norm :     0.0070867 Eh/α   predicted    -0.1414287E-03 ( -38.26%)
   displ. norm   :     0.4678784 α      lambda       -0.5629341E-03
   maximum displ.:     0.2764137 α      in ANC's #4, #5, #2, ...

........................................................................
.............................. CYCLE  198 ..............................
........................................................................

 iter      E             dE          RMSdq      gap      omega  full diag
   1   -207.3829592 -0.207383E+03  0.791E-02    0.79       0.0  T
   2   -207.3830035 -0.443068E-04  0.442E-02    0.79       1.0  T
   3   -207.3829163  0.872549E-04  0.282E-02    0.80       1.0  T
   4   -207.3829284 -0.120884E-04  0.220E-02    0.78       1.0  T
   5   -207.3830144 -0.860661E-04  0.525E-03    0.79       1.8  T
   6   -207.3830185 -0.402645E-05  0.193E-03    0.79       5.0  T
   7   -207.3830185 -0.581208E-07  0.115E-03    0.79       8.3  T
   8   -207.3830187 -0.136973E-06  0.623E-04    0.79      15.4  T
   9   -207.3830187 -0.622161E-07  0.225E-04    0.79      42.6  T
     SCC iter.                  ...        0 min,  0.244 sec
     gradient                   ...        0 min,  0.031 sec
 * total energy  :  -205.2245572 Eh     change       -0.4126666E-03 Eh
   gradient norm :     0.0072781 Eh/α   predicted    -0.3430856E-03 ( -16.86%)
   displ. norm   :     0.4157119 α      lambda       -0.3409899E-03
   maximum displ.:     0.2323425 α      in ANC's #4, #5, #2, ...

........................................................................
.............................. CYCLE  199 ..............................
........................................................................

 iter      E             dE          RMSdq      gap      omega  full diag
   1   -207.3817303 -0.207382E+03  0.728E-02    0.79       0.0  T
   2   -207.3817712 -0.409358E-04  0.403E-02    0.79       1.0  T
   3   -207.3816990  0.722368E-04  0.263E-02    0.80       1.0  T
   4   -207.3817004 -0.146431E-05  0.214E-02    0.79       1.0  T
   5   -207.3817816 -0.811708E-04  0.472E-03    0.79       2.0  T
   6   -207.3817847 -0.314888E-05  0.175E-03    0.79       5.5  T
   7   -207.3817848 -0.653575E-07  0.932E-04    0.79      10.3  T
   8   -207.3817849 -0.628152E-07  0.567E-04    0.79      16.9  T
     SCC iter.                  ...        0 min,  0.204 sec
     gradient                   ...        0 min,  0.033 sec
 * total energy  :  -205.2248142 Eh     change       -0.2569863E-03 Eh
   gradient norm :     0.0081303 Eh/α   predicted    -0.1999621E-03 ( -22.19%)
   displ. norm   :     0.3391564 α      lambda       -0.2867550E-03
   maximum displ.:     0.1835593 α      in ANC's #2, #5, #4, ...

........................................................................
.............................. CYCLE  200 ..............................
........................................................................

 iter      E             dE          RMSdq      gap      omega  full diag
   1   -207.3846850 -0.207385E+03  0.655E-02    0.80       0.0  T
   2   -207.3847078 -0.227877E-04  0.370E-02    0.79       1.0  T
   3   -207.3845986  0.109238E-03  0.290E-02    0.80       1.0  T
   4   -207.3846632 -0.645574E-04  0.180E-02    0.79       1.0  T
   5   -207.3847191 -0.559385E-04  0.375E-03    0.79       2.6  T
   6   -207.3847209 -0.182318E-05  0.167E-03    0.79       5.8  T
   7   -207.3847210 -0.606952E-07  0.103E-03    0.79       9.3  T
   8   -207.3847211 -0.137211E-06  0.481E-04    0.79      19.9  T
   9   -207.3847212 -0.388321E-07  0.167E-04    0.79      57.4  T
     SCC iter.                  ...        0 min,  0.251 sec
     gradient                   ...        0 min,  0.027 sec
 * total energy  :  -205.2250172 Eh     change       -0.2030458E-03 Eh
   gradient norm :     0.0071299 Eh/α   predicted    -0.1598735E-03 ( -21.26%)
   displ. norm   :     0.5113711 α      lambda       -0.2987203E-03
   maximum displ.:     0.2972023 α      in ANC's #4, #5, #2, ...

........................................................................
.............................. CYCLE  201 ..............................
........................................................................

 iter      E             dE          RMSdq      gap      omega  full diag
   1   -207.3857484 -0.207386E+03  0.772E-02    0.79       0.0  T
   2   -207.3858033 -0.549117E-04  0.411E-02    0.79       1.0  T
   3   -207.3857628  0.404949E-04  0.249E-02    0.80       1.0  T
   4   -207.3857422  0.205533E-04  0.199E-02    0.79       1.0  T
   5   -207.3858139 -0.716455E-04  0.554E-03    0.79       1.7  T
   6   -207.3858184 -0.448170E-05  0.203E-03    0.79       4.7  T
   7   -207.3858184 -0.918032E-07  0.135E-03    0.79       7.1  T
   8   -207.3858187 -0.232515E-06  0.594E-04    0.79      16.1  T
   9   -207.3858187 -0.510645E-07  0.244E-04    0.79      39.2  T
     SCC iter.                  ...        0 min,  0.246 sec
     gradient                   ...        0 min,  0.031 sec
 * total energy  :  -205.2251516 Eh     change       -0.1343994E-03 Eh
   gradient norm :     0.0063732 Eh/α   predicted    -0.1884207E-03 (  40.19%)
   displ. norm   :     0.2123804 α      lambda       -0.2864201E-03
   maximum displ.:     0.1161436 α      in ANC's #2, #7, #6, ...

........................................................................
.............................. CYCLE  202 ..............................
........................................................................

 iter      E             dE          RMSdq      gap      omega  full diag
   1   -207.3928909 -0.207393E+03  0.473E-02    0.80       0.0  T
   2   -207.3928956 -0.471596E-05  0.285E-02    0.79       1.0  T
   3   -207.3927961  0.995382E-04  0.268E-02    0.80       1.0  T
   4   -207.3928835 -0.874239E-04  0.114E-02    0.79       1.0  T
   5   -207.3929047 -0.211957E-04  0.313E-03    0.80       3.1  T
   6   -207.3929063 -0.157907E-05  0.129E-03    0.79       7.4  T
   7   -207.3929064 -0.137870E-06  0.745E-04    0.79      12.9  T
   8   -207.3929065 -0.607299E-07  0.341E-04    0.79      28.0  T
     SCC iter.                  ...        0 min,  0.224 sec
     gradient                   ...        0 min,  0.026 sec
 * total energy  :  -205.2252915 Eh     change       -0.1398987E-03 Eh
   gradient norm :     0.0054081 Eh/α   predicted    -0.1496753E-03 (   6.99%)
   displ. norm   :     0.1332042 α      lambda       -0.1224787E-03
   maximum displ.:     0.0815799 α      in ANC's #2, #4, #5, ...

........................................................................
.............................. CYCLE  203 ..............................
........................................................................

 iter      E             dE          RMSdq      gap      omega  full diag
   1   -207.3920677 -0.207392E+03  0.233E-02    0.79       0.0  T
   2   -207.3920686 -0.830469E-06  0.138E-02    0.79       1.0  T
   3   -207.3920654  0.316031E-05  0.478E-03    0.79       2.0  T
   4   -207.3920684 -0.303683E-05  0.177E-03    0.79       5.4  T
   5   -207.3920689 -0.410542E-06  0.886E-04    0.79      10.8  T
   6   -207.3920689 -0.779030E-07  0.525E-04    0.79      18.2  T
     SCC iter.                  ...        0 min,  0.168 sec
     gradient                   ...        0 min,  0.079 sec
 * total energy  :  -205.2253772 Eh     change       -0.8568893E-04 Eh
   gradient norm :     0.0048500 Eh/α   predicted    -0.6232637E-04 ( -27.26%)
   displ. norm   :     0.2073806 α      lambda       -0.1553189E-03
   maximum displ.:     0.1291593 α      in ANC's #2, #4, #3, ...

........................................................................
.............................. CYCLE  204 ..............................
........................................................................

 iter      E             dE          RMSdq      gap      omega  full diag
   1   -207.3894349 -0.207389E+03  0.395E-02    0.79       0.0  T
   2   -207.3894379 -0.293952E-05  0.235E-02    0.79       1.0  T
   3   -207.3894291  0.876358E-05  0.850E-03    0.79       1.1  T
   4   -207.3894370 -0.791977E-05  0.363E-03    0.79       2.6  T
   5   -207.3894385 -0.146103E-05  0.210E-03    0.79       4.6  T
   6   -207.3894391 -0.609006E-06  0.860E-04    0.79      11.1  T
   7   -207.3894391 -0.422634E-07  0.481E-04    0.79      19.9  T
     SCC iter.                  ...        0 min,  0.228 sec
     gradient                   ...        0 min,  0.028 sec
 * total energy  :  -205.2254894 Eh     change       -0.1122210E-03 Eh
   gradient norm :     0.0040715 Eh/α   predicted    -0.8100023E-04 ( -27.82%)
   displ. norm   :     0.2393596 α      lambda       -0.1123788E-03
   maximum displ.:     0.1536067 α      in ANC's #2, #4, #3, ...

........................................................................
.............................. CYCLE  205 ..............................
........................................................................

 iter      E             dE          RMSdq      gap      omega  full diag
   1   -207.3881659 -0.207388E+03  0.410E-02    0.79       0.0  T
   2   -207.3881681 -0.222467E-05  0.244E-02    0.79       1.0  T
   3   -207.3881537  0.143983E-04  0.988E-03    0.79       1.0  T
   4   -207.3881643 -0.106127E-04  0.530E-03    0.80       1.8  T
   5   -207.3881689 -0.458734E-05  0.187E-03    0.79       5.1  T
   6   -207.3881693 -0.414640E-06  0.863E-04    0.79      11.1  T
   7   -207.3881693 -0.339894E-07  0.519E-04    0.79      18.5  T
     SCC iter.                  ...        0 min,  0.255 sec
     gradient                   ...        0 min,  0.028 sec
 * total energy  :  -205.2255681 Eh     change       -0.7863512E-04 Eh
   gradient norm :     0.0039389 Eh/α   predicted    -0.5940981E-04 ( -24.45%)
   displ. norm   :     0.2375652 α      lambda       -0.8877052E-04
   maximum displ.:     0.1525792 α      in ANC's #2, #3, #4, ...

........................................................................
.............................. CYCLE  206 ..............................
........................................................................

 iter      E             dE          RMSdq      gap      omega  full diag
   1   -207.3880795 -0.207388E+03  0.368E-02    0.79       0.0  T
   2   -207.3880806 -0.109859E-05  0.219E-02    0.79       1.0  T
   3   -207.3880643  0.163583E-04  0.996E-03    0.79       1.0  T
   4   -207.3880784 -0.141747E-04  0.421E-03    0.80       2.3  T
   5   -207.3880813 -0.282444E-05  0.149E-03    0.79       6.4  T
   6   -207.3880815 -0.231459E-06  0.803E-04    0.79      11.9  T
   7   -207.3880815 -0.473927E-07  0.396E-04    0.79      24.2  T
     SCC iter.                  ...        0 min,  0.197 sec
     gradient                   ...        0 min,  0.030 sec
 * total energy  :  -205.2256320 Eh     change       -0.6391658E-04 Eh
   gradient norm :     0.0033282 Eh/α   predicted    -0.4689519E-04 ( -26.63%)
   displ. norm   :     0.2587401 α      lambda       -0.8991624E-04
   maximum displ.:     0.1651773 α      in ANC's #2, #3, #4, ...

........................................................................
.............................. CYCLE  207 ..............................
........................................................................

 iter      E             dE          RMSdq      gap      omega  full diag
   1   -207.3892648 -0.207389E+03  0.379E-02    0.80       0.0  T
   2   -207.3892660 -0.114562E-05  0.225E-02    0.80       1.0  T
   3   -207.3892440  0.219096E-04  0.115E-02    0.79       1.0  T
   4   -207.3892636 -0.195870E-04  0.446E-03    0.80       2.1  T
   5   -207.3892668 -0.317655E-05  0.162E-03    0.79       5.9  T
   6   -207.3892671 -0.301340E-06  0.830E-04    0.79      11.5  T
   7   -207.3892672 -0.509987E-07  0.353E-04    0.79      27.1  T
     SCC iter.                  ...        0 min,  0.196 sec
     gradient                   ...        0 min,  0.030 sec
 * total energy  :  -205.2256993 Eh     change       -0.6730192E-04 Eh
   gradient norm :     0.0029531 Eh/α   predicted    -0.4797178E-04 ( -28.72%)
   displ. norm   :     0.2755291 α      lambda       -0.7908188E-04
   maximum displ.:     0.1728465 α      in ANC's #2, #3, #4, ...

........................................................................
.............................. CYCLE  208 ..............................
........................................................................

 iter      E             dE          RMSdq      gap      omega  full diag
   1   -207.3904645 -0.207390E+03  0.394E-02    0.80       0.0  T
   2   -207.3904660 -0.144859E-05  0.233E-02    0.80       1.0  T
   3   -207.3904458  0.201828E-04  0.114E-02    0.79       1.0  T
   4   -207.3904635 -0.176456E-04  0.464E-03    0.80       2.1  T
   5   -207.3904668 -0.335202E-05  0.188E-03    0.79       5.1  T
   6   -207.3904673 -0.462970E-06  0.886E-04    0.80      10.8  T
   7   -207.3904673 -0.639670E-07  0.335E-04    0.80      28.6  T
     SCC iter.                  ...        0 min,  0.202 sec
     gradient                   ...        0 min,  0.026 sec
 * total energy  :  -205.2257567 Eh     change       -0.5743056E-04 Eh
   gradient norm :     0.0029183 Eh/α   predicted    -0.4254359E-04 ( -25.92%)
   displ. norm   :     0.2564203 α      lambda       -0.5925463E-04
   maximum displ.:     0.1574542 α      in ANC's #2, #3, #4, ...

........................................................................
.............................. CYCLE  209 ..............................
........................................................................

 iter      E             dE          RMSdq      gap      omega  full diag
   1   -207.3913687 -0.207391E+03  0.362E-02    0.80       0.0  T
   2   -207.3913700 -0.130491E-05  0.215E-02    0.80       1.0  T
   3   -207.3913505  0.194343E-04  0.113E-02    0.79       1.0  T
   4   -207.3913679 -0.173518E-04  0.439E-03    0.80       2.2  T
   5   -207.3913708 -0.290622E-05  0.185E-03    0.79       5.2  T
   6   -207.3913713 -0.485842E-06  0.822E-04    0.79      11.7  T
   7   -207.3913713 -0.508198E-07  0.362E-04    0.79      26.5  T
     SCC iter.                  ...        0 min,  0.181 sec
     gradient                   ...        0 min,  0.027 sec
 * total energy  :  -205.2257992 Eh     change       -0.4249633E-04 Eh
   gradient norm :     0.0029183 Eh/α   predicted    -0.3157631E-04 ( -25.70%)
   displ. norm   :     0.2471568 α      lambda       -0.4767512E-04
   maximum displ.:     0.1491774 α      in ANC's #2, #3, #4, ...

........................................................................
.............................. CYCLE  210 ..............................
........................................................................

 iter      E             dE          RMSdq      gap      omega  full diag
   1   -207.3910638 -0.207391E+03  0.343E-02    0.79       0.0  T
   2   -207.3910651 -0.126819E-05  0.204E-02    0.79       1.0  T
   3   -207.3910541  0.109859E-04  0.875E-03    0.79       1.1  T
   4   -207.3910643 -0.101935E-04  0.321E-03    0.79       3.0  T
   5   -207.3910656 -0.134346E-05  0.163E-03    0.79       5.9  T
   6   -207.3910659 -0.324452E-06  0.855E-04    0.79      11.2  T
   7   -207.3910660 -0.767008E-07  0.348E-04    0.79      27.5  T
     SCC iter.                  ...        0 min,  0.180 sec
     gradient                   ...        0 min,  0.027 sec
 * total energy  :  -205.2258336 Eh     change       -0.3438607E-04 Eh
   gradient norm :     0.0024723 Eh/α   predicted    -0.2529752E-04 ( -26.43%)
   displ. norm   :     0.1944318 α      lambda       -0.3763686E-04
   maximum displ.:     0.1119021 α      in ANC's #2, #3, #4, ...

........................................................................
.............................. CYCLE  211 ..............................
........................................................................

 iter      E             dE          RMSdq      gap      omega  full diag
   1   -207.3908085 -0.207391E+03  0.268E-02    0.79       0.0  T
   2   -207.3908095 -0.100074E-05  0.160E-02    0.79       1.0  T
   3   -207.3908030  0.647198E-05  0.662E-03    0.79       1.4  T
   4   -207.3908089 -0.586728E-05  0.254E-03    0.79       3.8  T
   5   -207.3908100 -0.108227E-05  0.974E-04    0.79       9.8  T
   6   -207.3908101 -0.931192E-07  0.581E-04    0.79      16.5  T
   7   -207.3908101 -0.304788E-07  0.321E-04    0.79      29.9  T
     SCC iter.                  ...        0 min,  0.182 sec
     gradient                   ...        0 min,  0.026 sec
 * total energy  :  -205.2258606 Eh     change       -0.2702491E-04 Eh
   gradient norm :     0.0020145 Eh/α   predicted    -0.1953311E-04 ( -27.72%)
   displ. norm   :     0.1276470 α      lambda       -0.2454536E-04
   maximum displ.:     0.0697068 α      in ANC's #2, #4, #3, ...

........................................................................
.............................. CYCLE  212 ..............................
........................................................................

 iter      E             dE          RMSdq      gap      omega  full diag
   1   -207.3901465 -0.207390E+03  0.180E-02    0.79       0.0  T
   2   -207.3901472 -0.713283E-06  0.107E-02    0.79       1.0  T
   3   -207.3901442  0.304456E-05  0.453E-03    0.79       2.1  T
   4   -207.3901455 -0.131340E-05  0.315E-03    0.79       3.0  T
   5   -207.3901474 -0.192685E-05  0.803E-04    0.79      11.9  T
   6   -207.3901475 -0.689009E-07  0.413E-04    0.79      23.2  T
   7   -207.3901475 -0.994189E-08  0.247E-04    0.79      38.8  T
     SCC iter.                  ...        0 min,  0.188 sec
     gradient                   ...        0 min,  0.025 sec
 * total energy  :  -205.2258783 Eh     change       -0.1760918E-04 Eh
   gradient norm :     0.0017162 Eh/α   predicted    -0.1247404E-04 ( -29.16%)
   displ. norm   :     0.1294519 α      lambda       -0.1689141E-04
   maximum displ.:     0.0666593 α      in ANC's #5, #2, #4, ...

........................................................................
.............................. CYCLE  213 ..............................
........................................................................

 iter      E             dE          RMSdq      gap      omega  full diag
   1   -207.3898957 -0.207390E+03  0.197E-02    0.79       0.0  T
   2   -207.3898969 -0.114777E-05  0.115E-02    0.79       1.0  T
   3   -207.3898855  0.113288E-04  0.854E-03    0.80       1.1  T
   4   -207.3898935 -0.797852E-05  0.475E-03    0.79       2.0  T
   5   -207.3898977 -0.418702E-05  0.981E-04    0.79       9.8  T
   6   -207.3898978 -0.107319E-06  0.456E-04    0.79      21.0  T
   7   -207.3898978 -0.666336E-08  0.289E-04    0.79      33.2  T
     SCC iter.                  ...        0 min,  0.238 sec
     gradient                   ...        0 min,  0.027 sec
 * total energy  :  -205.2258929 Eh     change       -0.1469150E-04 Eh
   gradient norm :     0.0018388 Eh/α   predicted    -0.8510325E-05 ( -42.07%)
   displ. norm   :     0.0587171 α      lambda       -0.9647345E-05
   maximum displ.:     0.0336497 α      in ANC's #5, #2, #4, ...

........................................................................
.............................. CYCLE  214 ..............................
........................................................................

 iter      E             dE          RMSdq      gap      omega  full diag
   1   -207.3899459 -0.207390E+03  0.109E-02    0.79       0.0  T
   2   -207.3899462 -0.312567E-06  0.640E-03    0.79       1.5  T
   3   -207.3899411  0.513404E-05  0.608E-03    0.80       1.6  T
   4   -207.3899454 -0.435480E-05  0.279E-03    0.79       3.4  T
   5   -207.3899467 -0.133050E-05  0.690E-04    0.79      13.9  T
   6   -207.3899468 -0.653390E-07  0.305E-04    0.79      31.4  T
   7   -207.3899468 -0.596921E-08  0.155E-04    0.79      61.7  T
     SCC iter.                  ...        0 min,  0.183 sec
     gradient                   ...        0 min,  0.026 sec
 * total energy  :  -205.2259024 Eh     change       -0.9467377E-05 Eh
   gradient norm :     0.0016053 Eh/α   predicted    -0.4835610E-05 ( -48.92%)
   displ. norm   :     0.0809040 α      lambda       -0.1125832E-04
   maximum displ.:     0.0407939 α      in ANC's #2, #5, #4, ...

........................................................................
.............................. CYCLE  215 ..............................
........................................................................

 iter      E             dE          RMSdq      gap      omega  full diag
   1   -207.3905754 -0.207391E+03  0.150E-02    0.80       0.0  T
   2   -207.3905761 -0.738957E-06  0.897E-03    0.80       1.1  T
   3   -207.3905690  0.713546E-05  0.745E-03    0.80       1.3  T
   4   -207.3905740 -0.500963E-05  0.412E-03    0.79       2.3  T
   5   -207.3905769 -0.295050E-05  0.974E-04    0.80       9.8  T
   6   -207.3905771 -0.138179E-06  0.433E-04    0.80      22.1  T
   7   -207.3905771 -0.132264E-07  0.235E-04    0.80      40.8  T
     SCC iter.                  ...        0 min,  0.182 sec
     gradient                   ...        0 min,  0.026 sec
 * total energy  :  -205.2259122 Eh     change       -0.9752535E-05 Eh
   gradient norm :     0.0012020 Eh/α   predicted    -0.5649662E-05 ( -42.07%)
   displ. norm   :     0.0556574 α      lambda       -0.4525263E-05
   maximum displ.:     0.0305274 α      in ANC's #2, #5, #4, ...

........................................................................
.............................. CYCLE  216 ..............................
........................................................................

 iter      E             dE          RMSdq      gap      omega  full diag
   1   -207.3907716 -0.207391E+03  0.925E-03    0.80       0.0  T
   2   -207.3907718 -0.197854E-06  0.564E-03    0.80       1.7  T
   3   -207.3907699  0.199164E-05  0.369E-03    0.80       2.6  T
   4   -207.3907712 -0.134236E-05  0.210E-03    0.79       4.6  T
   5   -207.3907720 -0.783880E-06  0.455E-04    0.80      21.0  T
   6   -207.3907720 -0.274425E-07  0.220E-04    0.80      43.5  T
     SCC iter.                  ...        0 min,  0.177 sec
     gradient                   ...        0 min,  0.036 sec
 * total energy  :  -205.2259171 Eh     change       -0.4966392E-05 Eh
   gradient norm :     0.0010093 Eh/α   predicted    -0.2270061E-05 ( -54.29%)
   displ. norm   :     0.0956072 α      lambda       -0.6332296E-05
   maximum displ.:     0.0546996 α      in ANC's #2, #5, #1, ...

........................................................................
.............................. CYCLE  217 ..............................
........................................................................

 iter      E             dE          RMSdq      gap      omega  full diag
   1   -207.3906590 -0.207391E+03  0.148E-02    0.80       0.0  T
   2   -207.3906595 -0.494879E-06  0.898E-03    0.80       1.1  T
   3   -207.3906572  0.230218E-05  0.418E-03    0.80       2.3  T
   4   -207.3906586 -0.141011E-05  0.248E-03    0.79       3.9  T
   5   -207.3906597 -0.105333E-05  0.763E-04    0.80      12.6  T
   6   -207.3906597 -0.891278E-07  0.290E-04    0.80      33.0  T
   7   -207.3906598 -0.538719E-08  0.145E-04    0.80      66.0  T
     SCC iter.                  ...        0 min,  0.228 sec
     gradient                   ...        0 min,  0.030 sec
 * total energy  :  -205.2259227 Eh     change       -0.5531642E-05 Eh
   gradient norm :     0.0011260 Eh/α   predicted    -0.3182587E-05 ( -42.47%)
   displ. norm   :     0.0651984 α      lambda       -0.3715301E-05
   maximum displ.:     0.0381173 α      in ANC's #2, #1, #4, ...

........................................................................
.............................. CYCLE  218 ..............................
........................................................................

 iter      E             dE          RMSdq      gap      omega  full diag
   1   -207.3906411 -0.207391E+03  0.980E-03    0.79       0.0  T
   2   -207.3906412 -0.146065E-06  0.593E-03    0.80       1.6  T
   3   -207.3906404  0.821262E-06  0.244E-03    0.79       3.9  T
   4   -207.3906411 -0.723848E-06  0.986E-04    0.80       9.7  T
   5   -207.3906413 -0.161368E-06  0.353E-04    0.79      27.1  T
     SCC iter.                  ...        0 min,  0.170 sec
     gradient                   ...        0 min,  0.029 sec
 * total energy  :  -205.2259263 Eh     change       -0.3620855E-05 Eh
   gradient norm :     0.0009693 Eh/α   predicted    -0.1864747E-05 ( -48.50%)
   displ. norm   :     0.0666709 α      lambda       -0.3454466E-05
   maximum displ.:     0.0379190 α      in ANC's #2, #1, #4, ...

   *** GEOMETRY OPTIMIZATION CONVERGED AFTER 218 ITERATIONS ***

------------------------------------------------------------------------
 total energy gain   :        -0.0573204 Eh      -35.9691 kcal/mol
 total RMSD          :         4.5965009 a0        2.4324 Å
 total power (kW/mol):        -0.6903422 (step)   -3.0532 (real)
------------------------------------------------------------------------

 ANCopt (total)                0 d,  0 h,  0 min, 49.291 sec
 optimizer setup                ...        0 min,  0.001 sec (  0.002%)
 model hessian                  ...        0 min,  0.523 sec (  1.061%)
 ANC generation                 ...        0 min,  0.094 sec (  0.191%)
 coordinate transformation      ...        0 min,  0.016 sec (  0.032%)
 single point calculation       ...        0 min, 48.214 sec ( 97.815%)
 optimization log               ...        0 min,  0.326 sec (  0.661%)
 hessian update                 ...        0 min,  0.032 sec (  0.065%)
 rational function              ...        0 min,  0.054 sec (  0.110%)

================
 final structure:
================
109
 xtb: 6.7.1pre (5071a88)
C           -4.27280813066433       -1.23282084277206        8.55346786686835
C           -3.57261475449454       -0.62828043083742        7.33669155602080
N           -2.24354767977697       -1.22334806115693        7.20361966045286
C           -2.03411408550840       -2.49268229606735        6.81051783966265
O           -2.93143401081883       -3.27661095035924        6.52752598127265
C           -0.59640088520747       -2.87614280890641        6.75360697756404
C           -0.24545421089563       -4.14929389656700        6.32842183341798
C            1.08018114456139       -4.55176194766261        6.20229190197932
C            2.12472079371472       -3.69109115766825        6.48616195197828
C            1.78907544768173       -2.41857015734229        6.91573603921717
N            2.54348649083819       -1.33148366419625        7.28546197076524
C            1.67452123031915       -0.33062168551013        7.61407749042742
C            2.14009977586710        1.01179922420148        8.02809524522417
N            0.42988179457528       -0.70077405488615        7.51378227901106
C            0.44810973931682       -2.00147161952292        7.06644642539462
C           -3.43070560878834        0.89657059026780        7.38915061894358
C           -3.33624926062714        1.30162474353679        5.91252450470206
C           -3.94816020929776        0.11597712985160        5.15000781722531
N           -4.38482303380010       -0.80748795645916        6.15512974398887
H           -5.28175153421556       -0.83978144971483        8.63263001839567
H           -4.32191629254467       -2.31124860101342        8.43410872539022
H           -3.71539679962207       -0.99884865810153        9.45678763617204
H           -1.42177484528303       -0.64600336542752        7.35662076622625
H           -1.04621839321914       -4.82976063580187        6.08186270460776
H            1.29702947534802       -5.55306920058726        5.86241621784107
H            3.15458754391779       -3.99304988545177        6.37044600881926
H            3.54293776362533       -1.24851303828705        7.21520198758812
H            2.53693451460316        1.53974038873541        7.16089037784877
H            1.30420227452787        1.57609027882296        8.42849898009749
H            2.92418980312836        0.93225634746595        8.77930444105607
H           -2.56265768275093        1.20579335533404        7.96627041417589
H           -4.32703204807751        1.31498942223784        7.84651964780484
H           -3.87108551985089        2.22589818202332        5.70738019062596
H           -2.29879197243835        1.43977448936834        5.61578203536212
H           -4.77962805943430        0.39882543902394        4.50073126445978
H           -3.16280349146726       -0.31957585682496        4.46277532961104
H           -4.41874972107902       -1.77800083874626        5.86392099402334
B            4.57995786911835       -0.47199203285397        1.10053178218972
N            4.02706060836737        1.90246471780962        0.00221043013663
B            2.15297595274500        2.62190416019723       -1.78239510038791
N            1.62264132829610       -0.62982737638599       -2.40157299245230
B            2.75481646498024       -2.32338871775926        3.62750710306288
N           -1.04934189861439       -1.68698867494344        4.15250725906274
B            0.03913767960262        4.92769660188262        2.15604164862711
N           -1.58112430622057       -0.28096408532621       -2.34630801089131
B           -1.65512597605679        1.08198491694433       -2.81053696322792
N            1.37957636533864       -3.50076912768203       -0.46244976676785
B           -3.27354329651855        2.56745216863023        1.66575299352874
N           -2.66228664350932        2.96606003082624        0.46718758445902
B           -0.22832276285965        0.31772695584681       -4.20368541714279
N            1.25621761509775        4.44648003769036        2.83175902794833
B            0.55637754986528       -2.85084042384301       -1.45094554441700
N           -0.62165338546086        4.01475703800838       -0.52539433011870
B            1.04777884355867        3.37758362307090        3.68934768124059
N            3.76977121273594        0.09564284769343        3.51823626390762
B           -0.94446059473114        3.43194535656243       -1.78300063708946
N            3.43724593672868        1.47519004317259        3.68620360706844
B           -2.04679556662824       -0.67048597926565       -1.05827787177990
N           -2.67133671322854        2.43421957192676        2.91701985986826
B            0.96929794210041        5.20799655020408        0.91673964094375
N            2.53506608250426        1.50187559925209        4.78442401506624
B           -1.37705595026696        3.04488767365647        3.02144139161172
N            3.72867780907151        0.30653089733603       -1.40154534113507
B           -0.62781400020721       -2.79186423544503        3.42201942099093
N            2.13667331302816        4.69793647287720        1.68189592654488
B            0.40553436562676        0.46237739695386        4.61212996568386
N           -1.39974545273658       -3.08122961868312        2.20763579342203
B            2.83360394690507       -0.77897323562030       -1.54745044916057
N           -2.27179100932330       -0.78964917613763        2.13012546146622
B            2.81930398762451        3.76973575470330        0.82033471830997
N           -0.55068086066456       -2.80159601789820       -0.50755352061303
B           -1.70780671489506       -2.05729840404283       -0.20525841162574
N            0.71117692890437        4.41337500412683       -0.23262874801927
B           -0.01961342434734        2.77513862279021       -2.97056261372060
N            1.85677377818439       -3.30737958505427        3.18097557417538
B           -1.50477597306949        3.82222350726789        0.61973376366579
N           -1.10777895421856        4.09544277747427        1.99677586863063
B            3.00647455712242       -3.21750673496506        2.36204625477442
N            1.55329379057197        2.49007000818682        4.71185153316068
B           -2.02657690500902       -2.05990045247018        1.43825200902167
N            0.52789831130964       -3.59378657377107        3.06069654194831
B           -2.56358233165273        0.55474710939345       -0.00547772898074
N            3.34052388769951       -3.11634103842128        0.99571561905379
B            4.48053018029420        0.55882648541034       -0.12999389149483
N            1.13996574127629        1.96136370452136       -2.50650217624866
B           -0.62709867839706        1.77360426581734       -4.06871406273603
N           -3.38690232013560        1.24738545079677        2.19914362648474
B           -2.13028090265896        2.26788050371718       -1.76839539690962
N           -2.66017358845295        1.92180111559996       -0.51655318625654
B            3.92277413835705       -1.86074717191649        0.58627762399651
N            2.70413511423718       -3.20946466658077       -0.29207956799231
B            3.75190915065987        1.71924093259436        2.29547148297317
N            0.24011310361413        1.90484358652943        4.80712637148627
B           -0.12843664444774       -3.62244298831095        1.75381497532750
N           -2.68686900672436        0.35354949749432        1.40227378664874
B            3.39576464222433        1.71398646854810       -1.30213832900272
N            3.59972878639926        2.59537887204685        1.16360769997201
B            0.64681719416743       -1.70106433268911       -2.56737244049313
N           -0.29508629126047        2.83553875781012        3.87151416438567
B            1.05538369349918        0.58474930406450       -2.97609725140880
N           -0.70571029240677       -0.28655138617925        4.29647641221132
B           -0.59744249538018       -0.92861035201242       -3.26980990847357
N            0.29165442849325       -3.40138003176162        0.46286870097747
B            2.73176319854245       -0.74690879284809        4.07109772561586
N            1.82512033995925        0.19212336277519        4.69245638827336
B           -1.82142665366989       -0.68206819394145        3.47911448169679
N            4.24096745848064        0.32411144559005        2.20530715868486
B            1.93995746973343        3.81755300479301       -0.66527058365320
N            3.13036126198750       -1.85440832708256       -0.62018454110812
 
 Bond Distances (Angstroems)
 ---------------------------
C1-C2=1.5285         C1-H20=1.0857        C1-H21=1.0861        C1-H22=1.0869        C2-C1=1.5285         C2-N3=1.4623         
C2-C16=1.5323        C2-N19=1.4450        N3-C2=1.4623         N3-C4=1.3452         N3-H23=1.0159        C4-N3=1.3452         
C4-O5=1.2247         C4-C6=1.4891         O5-C4=1.2247         C6-C4=1.4891         C6-C7=1.3874         C6-C15=1.3978        
C7-C6=1.3874         C7-C8=1.3911         C7-H24=1.0794        C8-C7=1.3911         C8-C9=1.3829         C8-H25=1.0794        
C9-C8=1.3829         C9-C10=1.3844        C9-H26=1.0794        C10-C9=1.3844        C10-N11=1.3739       C10-C15=1.4124       
N11-C10=1.3739       N11-C12=1.3656       N11-H27=1.0053       C12-N11=1.3656       C12-C13=1.4800       C12-N14=1.3024       
C13-C12=1.4800       C13-H28=1.0901       C13-H29=1.0851       C13-H30=1.0888       N14-C12=1.3024       N14-C15=1.3756       
C15-C6=1.3978        C15-C10=1.4124       C15-N14=1.3756       C16-C2=1.5323        C16-C17=1.5341       C16-H31=1.0873       
C16-H32=1.0898       C17-C16=1.5341       C17-C18=1.5368       C17-H33=1.0874       C17-H34=1.0879       C18-C17=1.5368       
C18-N19=1.4331       C18-H35=1.0922       C18-H36=1.1308       N19-C2=1.4450        N19-C18=1.4331       N19-H37=1.0138       
H20-C1=1.0857        H21-C1=1.0861        H22-C1=1.0869        H23-N3=1.0159        H24-C7=1.0794        H25-C8=1.0794        
H26-C9=1.0794        H27-N11=1.0053       H28-C13=1.0901       H29-C13=1.0851       H30-C13=1.0888       H31-C16=1.0873       
H32-C16=1.0898       H33-C17=1.0874       H34-C17=1.0879       H35-C18=1.0922       H36-C18=1.1308       H37-N19=1.0138       
B38-B84=1.6083       B38-B90=1.6202       B38-N107=1.4033      N39-B84=1.4242       N39-B96=1.4613       N39-N97=1.4183       
B40-N85=1.4096       B40-B96=1.6123       B40-B108=1.6501      N41-B68=1.4894       N41-B98=1.4585       N41-B100=1.4584      
B42-N75=1.4050       B42-B78=1.5698       B42-B104=1.6379      N43-B64=1.3900       N43-N101=1.4491      N43-B106=1.4351      
B44-N51=1.4729       B44-B60=1.5747       B44-N77=1.4260       N45-B46=1.4417       N45-B58=1.4239       N45-B102=1.4966      
B46-N45=1.4417       B46-B50=2.1356       B46-B86=1.7658       B46-B88=1.6487       N47-B52=1.4412       N47-N91=1.3669       
N47-N103=1.4317      B48-N49=1.4032       B48-N59=1.3950       B48-N87=1.4283       N49-B48=1.4032       N49-B76=1.4478       
N49-N89=1.4347       B50-B46=2.1356       B50-B86=1.5155       B50-B100=1.7962      B50-B102=1.6005      N51-B44=1.4729       
N51-B54=1.3862       N51-N65=1.4699       B52-N47=1.4412       B52-N71=1.4553       B52-B98=1.6052       B52-N103=2.0089      
N53-B56=1.4232       N53-N73=1.4216       N53-B76=1.4589       B54-N51=1.3862       B54-N79=1.4452       B54-N99=1.4595       
N55-N57=1.4290       N55-B104=1.4467      N55-N107=1.4135      B56-N53=1.4232       B56-B74=1.6423       B56-B88=1.6618       
N57-N55=1.4290       N57-N61=1.4215       N57-B92=1.4466       B58-N45=1.4239       B58-B72=1.6631       B58-B82=1.6961       
N59-B48=1.3950       N59-B62=1.4349       N59-N87=1.5608       B60-B44=1.5747       B60-N65=1.4861       B60-N73=1.4209       
N61-N57=1.4215       N61-N79=1.3949       N61-N105=1.4926      B62-N59=1.4349       B62-N77=1.4920       B62-N99=1.3918       
N63-B68=1.4145       N63-B84=1.4986       N63-B96=1.4497       B64-N43=1.3900       B64-N67=1.4678       B64-N81=1.4523       
B64-B94=1.9293       N65-N51=1.4699       N65-B60=1.4861       N65-B70=1.4387       B66-N93=1.4650       B66-N101=1.3767      
B66-N105=1.4473      N67-B64=1.4678       N67-B80=1.4241       N67-B94=1.4543       B68-N41=1.4894       B68-N63=1.4145       
B68-N109=1.4507      N69-B80=1.4671       N69-N95=1.4174       N69-B106=1.4262      B70-N65=1.4387       B70-N97=1.4512       
B70-B108=1.7270      N71-B52=1.4553       N71-B72=1.4087       N71-N103=1.4181      B72-B58=1.6631       B72-N71=1.4087       
B72-B80=1.6741       N73-N53=1.4216       N73-B60=1.4209       N73-B108=1.4325      B74-B56=1.6423       B74-N85=1.4907       
B74-B86=1.6056       N75-B42=1.4050       N75-B78=1.4144       N75-N81=1.3647       B76-N49=1.4478       B76-N53=1.4589       
B76-N77=1.4589       N77-B44=1.4260       N77-B62=1.4920       N77-B76=1.4589       B78-B42=1.5698       B78-N75=1.4144       
B78-N83=1.4102       N79-B54=1.4452       N79-N61=1.3949       N79-N93=1.4408       B80-N67=1.4241       B80-N69=1.4671       
B80-B72=1.6741       N81-B64=1.4523       N81-N75=1.3647       N81-B94=1.4627       B82-B58=1.6961       B82-N89=1.4627       
B82-N95=1.4274       N83-B78=1.4102       N83-B90=1.4433       N83-N91=1.4395       B84-B38=1.6083       B84-N39=1.4242       
B84-N63=1.4986       B84-B96=1.9710       N85-B40=1.4096       N85-B74=1.4907       N85-B100=1.4570      B86-B46=1.7658       
B86-B50=1.5155       B86-B74=1.6056       N87-B48=1.4283       N87-N59=1.5608       N87-N95=1.3871       B88-B46=1.6487       
B88-B56=1.6618       B88-N89=1.4027       N89-N49=1.4347       N89-B82=1.4627       N89-B88=1.4027       B90-B38=1.6202       
B90-N83=1.4433       B90-N109=1.4434      N91-N47=1.3669       N91-N83=1.4395       N91-N109=1.4579      B92-N57=1.4466       
B92-N97=1.4394       B92-N107=1.4811      N93-B66=1.4650       N93-N79=1.4408       N93-N99=1.4241       B94-B64=1.9293       
B94-N67=1.4543       B94-N81=1.4627       B94-N103=1.3755      N95-N69=1.4174       N95-B82=1.4274       N95-N87=1.3871       
B96-N39=1.4613       B96-B40=1.6123       B96-N63=1.4497       B96-B84=1.9710       N97-N39=1.4183       N97-B70=1.4512       
N97-B92=1.4394       B98-N41=1.4585       B98-B52=1.6052       B98-B102=1.6243      N99-B54=1.4595       N99-B62=1.3918       
N99-N93=1.4241       B100-N41=1.4584      B100-B50=1.7962      B100-N85=1.4570      N101-N43=1.4491      N101-B66=1.3767      
N101-B106=1.4385     B102-N45=1.4966      B102-B50=1.6005      B102-B98=1.6243      N103-N47=1.4317      N103-B52=2.0089      
N103-N71=1.4181      N103-B94=1.3755      B104-B42=1.6379      B104-N55=1.4467      B104-N105=1.4456     N105-N61=1.4926      
N105-B66=1.4473      N105-B104=1.4456     B106-N43=1.4351      B106-N69=1.4262      B106-N101=1.4385     N107-B38=1.4033      
N107-N55=1.4135      N107-B92=1.4811      B108-B40=1.6501      B108-B70=1.7270      B108-N73=1.4325      N109-B68=1.4507      
N109-B90=1.4434      N109-N91=1.4579      
 B  B  Rav=1.6890 sigma=0.1393  Rmin=1.5155  Rmax=2.1356    24
 C  H  Rav=1.0891 sigma=0.0118  Rmin=1.0794  Rmax=1.1308    15
 C  C  Rav=1.4547 sigma=0.0646  Rmin=1.3829  Rmax=1.5368    12
 N  H  Rav=1.0117 sigma=0.0046  Rmin=1.0053  Rmax=1.0159     3
 N  B  Rav=1.4485 sigma=0.0748  Rmin=1.3755  Rmax=2.0089    67
 N  C  Rav=1.3879 sigma=0.0510  Rmin=1.3024  Rmax=1.4623     8
 N  N  Rav=1.4311 sigma=0.0415  Rmin=1.3647  Rmax=1.5608    21
 O  C  Rav=1.2247 sigma=0.0000  Rmin=1.2247  Rmax=1.2247     1
 
 selected bond angles (degree)
 --------------------
H20-C1-C2=109.91               H21-C1-C2=109.02               H21-C1-H20=108.99              H22-C1-C2=109.97               
H22-C1-H20=109.76              H22-C1-H21=109.16              N3-C2-C1=109.14                C16-C2-C1=114.13               
C16-C2-N3=108.90               N19-C2-C1=110.15               N19-C2-N3=112.71               N19-C2-C16=101.74              
C4-N3-C2=123.51                H23-N3-C2=119.36               H23-N3-C4=117.02               O5-C4-N3=123.88                
C6-C4-N3=113.86                C6-C4-O5=122.26                C7-C6-C4=119.49                C15-C6-C4=123.49               
C15-C6-C7=116.99               C8-C7-C6=122.30                H24-C7-C6=117.44               H24-C7-C8=120.26               
C9-C8-C7=121.41                H25-C8-C7=119.23               H25-C8-C9=119.36               C10-C9-C8=116.91               
H26-C9-C8=121.64               H26-C9-C10=121.45              N11-C10-C9=132.66              C15-C10-C9=122.33              
C15-C10-N11=105.01             
 
 selected dihedral angles (degree)
 ---------------------------------
N3-C2-C1-H20=183.09           N3-C2-C1-H21=302.50           N3-C2-C1-H22= 62.15           C16-C2-C1-H20= 61.01          
C16-C2-C1-H21=180.42          C16-C2-C1-H22=300.07          N19-C2-C1-H20=307.32          N19-C2-C1-H21= 66.73          
N19-C2-C1-H22=186.38          C4-N3-C2-C1= 71.48            C4-N3-C2-C16=196.65           C4-N3-C2-N19=308.76           
H23-N3-C2-C1=247.53           H23-N3-C2-C16= 12.71          H23-N3-C2-N19=124.82          O5-C4-N3-C2=359.87            
O5-C4-N3-H23=183.73           C6-C4-N3-C2=180.19            C6-C4-N3-H23=  4.05           C7-C6-C4-N3=181.68            
C7-C6-C4-O5=  2.00            C15-C6-C4-N3=359.46           C15-C6-C4-O5=179.78           C8-C7-C6-C4=177.40            
C8-C7-C6-C15=359.48           H24-C7-C6-C4=358.11           H24-C7-C6-C15=180.19          C9-C8-C7-C6=359.43            
C9-C8-C7-H24=178.70           H25-C8-C7-C6=180.29           H25-C8-C7-H24=359.56          C10-C9-C8-C7=  0.74           
C10-C9-C8-H25=179.88          H26-C9-C8-C7=181.26           H26-C9-C8-H25=  0.40          N11-C10-C9-C8=179.56          
N11-C10-C9-H26=359.04         C15-C10-C9-C8=  0.16          C15-C10-C9-H26=179.64         
 
 CMA Distance (Angstroems)
 ---------------------------
R(CMA):  6.5014
           -------------------------------------------------
          |                Final Singlepoint                |
           -------------------------------------------------

          ...................................................
          :                      SETUP                      :
          :.................................................:
          :  # basis functions                 382          :
          :  # atomic orbitals                 382          :
          :  # shells                          200          :
          :  # electrons                       388          :
          :  max. iterations                    50          :
          :  Hamiltonian                  GFN2-xTB          :
          :  restarted?                      false          :
          :  GBSA solvation                  false          :
          :  PC potential                    false          :
          :  electronic temp.          300.0000000     K    :
          :  accuracy                    1.0000000          :
          :  -> integral cutoff          0.2500000E+02      :
          :  -> integral neglect         0.1000000E-07      :
          :  -> SCF convergence          0.1000000E-05 Eh   :
          :  -> wf. convergence          0.1000000E-03 e    :
          :  Broyden damping             0.4000000          :
          :  net charge                          0          :
          :  unpaired electrons                  0          :
          ...................................................

 iter      E             dE          RMSdq      gap      omega  full diag
   1   -207.3906413 -0.207391E+03  0.194E-04    0.80       0.0  T
   2   -207.3906413  0.100022E-07  0.282E-04    0.79      33.9  T
   3   -207.3906413 -0.140937E-07  0.743E-05    0.80     128.9  T

   *** convergence criteria satisfied after 3 iterations ***

         #    Occupation            Energy/Eh            Energy/eV
      -------------------------------------------------------------
         1        2.0000           -0.6823951             -18.5689
       ...           ...                  ...                  ...
       188        2.0000           -0.3248101              -8.8385
       189        2.0000           -0.3234574              -8.8017
       190        2.0000           -0.3212174              -8.7408
       191        2.0000           -0.3188729              -8.6770
       192        2.0000           -0.3137298              -8.5370
       193        2.0000           -0.3126231              -8.5069
       194        2.0000           -0.3107261              -8.4553 (HOMO)
       195        0.0000           -0.2815093              -7.6603 (LUMO)
       196                         -0.2744531              -7.4682
       197                         -0.2614527              -7.1145
       198                         -0.2515463              -6.8449
       199                         -0.2438978              -6.6368
       ...                                ...                  ...
       382                          0.9853912              26.8139
      -------------------------------------------------------------
                  HL-Gap            0.0292168 Eh            0.7950 eV
             Fermi-level           -0.2960400 Eh           -8.0557 eV

 SCC (total)                   0 d,  0 h,  0 min,  0.138 sec
 SCC setup                      ...        0 min,  0.001 sec (  0.725%)
 Dispersion                     ...        0 min,  0.001 sec (  0.725%)
 classical contributions        ...        0 min,  0.000 sec (  0.000%)
 integral evaluation            ...        0 min,  0.010 sec (  7.246%)
 iterations                     ...        0 min,  0.097 sec ( 70.290%)
 molecular gradient             ...        0 min,  0.027 sec ( 19.565%)
 printout                       ...        0 min,  0.002 sec (  1.449%)

         :::::::::::::::::::::::::::::::::::::::::::::::::::::
         ::                     SUMMARY                     ::
         :::::::::::::::::::::::::::::::::::::::::::::::::::::
         :: total energy            -205.225926298264 Eh    ::
         :: gradient norm              0.000976682786 Eh/a0 ::
         :: HOMO-LUMO gap              0.795028908090 eV    ::
         ::.................................................::
         :: SCC energy              -207.370192386192 Eh    ::
         :: -> isotropic ES            0.711528123637 Eh    ::
         :: -> anisotropic ES         -0.042308990656 Eh    ::
         :: -> anisotropic XC          0.091288559967 Eh    ::
         :: -> dispersion             -0.209728340916 Eh    ::
         :: repulsion energy           2.144266087927 Eh    ::
         :: add. restraining           0.000000000000 Eh    ::
         :: total charge               0.000000000166 e     ::
         :::::::::::::::::::::::::::::::::::::::::::::::::::::

           -------------------------------------------------
          |                Property Printout                |
           -------------------------------------------------

    * Orbital Energies and Occupations

         #    Occupation            Energy/Eh            Energy/eV
      -------------------------------------------------------------
         1        2.0000           -0.6823951             -18.5689
       ...           ...                  ...                  ...
       182        2.0000           -0.3370623              -9.1719
       183        2.0000           -0.3357249              -9.1355
       184        2.0000           -0.3323324              -9.0432
       185        2.0000           -0.3301240              -8.9831
       186        2.0000           -0.3294592              -8.9650
       187        2.0000           -0.3270697              -8.9000
       188        2.0000           -0.3248101              -8.8385
       189        2.0000           -0.3234574              -8.8017
       190        2.0000           -0.3212174              -8.7408
       191        2.0000           -0.3188729              -8.6770
       192        2.0000           -0.3137298              -8.5370
       193        2.0000           -0.3126231              -8.5069
       194        2.0000           -0.3107261              -8.4553 (HOMO)
       195        0.0000           -0.2815093              -7.6603 (LUMO)
       196                         -0.2744531              -7.4682
       197                         -0.2614527              -7.1145
       198                         -0.2515463              -6.8449
       199                         -0.2438978              -6.6368
       200                         -0.2413573              -6.5677
       201                         -0.2338384              -6.3631
       202                         -0.2301567              -6.2629
       203                         -0.2273536              -6.1866
       204                         -0.2219940              -6.0408
       205                         -0.2086720              -5.6783
       ...                                ...                  ...
       382                          0.9853912              26.8139
      -------------------------------------------------------------
                  HL-Gap            0.0292168 Eh            0.7950 eV
             Fermi-level           -0.2960400 Eh           -8.0557 eV

     #   Z          covCN         q      C6AA      α(0)
     1   6 C        3.758    -0.127    22.995     6.837
     2   6 C        3.819     0.149    18.171     6.067
     3   7 N        2.696    -0.214    25.665     7.524
     4   6 C        2.756     0.276    22.323     7.737
     5   8 O        0.858    -0.475    23.244     6.464
     6   6 C        2.969    -0.035    28.862     8.812
     7   6 C        2.927    -0.034    28.855     8.809
     8   6 C        2.925    -0.037    28.915     8.818
     9   6 C        2.908    -0.056    29.389     8.889
    10   6 C        3.080     0.038    27.058     8.528
    11   7 N        2.784    -0.127    23.743     7.237
    12   6 C        3.153     0.156    24.368     8.073
    13   6 C        3.755    -0.139    23.238     6.873
    14   7 N        1.892    -0.304    28.734     7.947
    15   6 C        3.190     0.060    26.195     8.348
    16   6 C        3.836    -0.078    21.966     6.668
    17   6 C        3.822    -0.075    21.911     6.661
    18   6 C        3.770     0.015    20.360     6.430
    19   7 N        2.712    -0.245    26.384     7.629
    20   1 H        0.925     0.053     2.277     2.360
    21   1 H        0.925     0.069     2.099     2.266
    22   1 H        0.925     0.045     2.386     2.415
    23   1 H        0.860     0.211     1.053     1.608
    24   1 H        0.926     0.063     2.166     2.302
    25   1 H        0.926     0.040     2.445     2.445
    26   1 H        0.926     0.033     2.547     2.496
    27   1 H        0.860     0.168     1.285     1.776
    28   1 H        0.925     0.089     1.889     2.149
    29   1 H        0.925     0.075     2.032     2.229
    30   1 H        0.925     0.057     2.240     2.340
    31   1 H        0.925     0.045     2.379     2.412
    32   1 H        0.925     0.054     2.272     2.357
    33   1 H        0.925     0.050     2.315     2.379
    34   1 H        0.925     0.057     2.232     2.336
    35   1 H        0.924     0.055     2.262     2.352
    36   1 H        0.950     0.053     2.279     2.360
    37   1 H        0.860     0.176     1.239     1.744
    38   5 B        2.781     0.076    20.198     7.514
    39   7 N        2.773    -0.230    26.031     7.578
    40   5 B        2.788     0.091    19.947     7.466
    41   7 N        2.523    -0.316    28.159     7.881
    42   5 B        2.780     0.078    20.172     7.509
    43   7 N        2.656    -0.279    27.207     7.747
    44   5 B        2.849     0.241    17.668     7.019
    45   7 N        2.529    -0.273    27.100     7.731
    46   5 B        3.195     0.150    18.927     7.256
    47   7 N        2.978    -0.111    23.423     7.188
    48   5 B        2.646     0.373    16.317     6.811
    49   7 N        2.669    -0.213    25.638     7.520
    50   5 B        3.183     0.021    21.008     7.644
    51   7 N        2.888    -0.225    25.917     7.561
    52   5 B        3.009     0.209    18.077     7.092
    53   7 N        2.660    -0.164    24.553     7.359
    54   5 B        2.901     0.323    16.569     6.793
    55   7 N        3.144    -0.101    23.202     7.154
    56   5 B        2.779     0.094    19.910     7.461
    57   7 N        3.024    -0.136    23.939     7.267
    58   5 B        2.758     0.091    19.991     7.481
    59   7 N        2.631    -0.317    28.155     7.881
    60   5 B        3.040     0.227    17.826     7.042
    61   7 N        2.978    -0.013    21.509     6.888
    62   5 B        2.584     0.327    17.278     7.078
    63   7 N        2.596    -0.362    29.332     8.044
    64   5 B        3.276     0.351    16.199     6.712
    65   7 N        2.782    -0.255    26.625     7.664
    66   5 B        2.554     0.329    17.525     7.179
    67   7 N        2.580    -0.370    29.568     8.076
    68   5 B        2.530     0.302    18.204     7.372
    69   7 N        2.665    -0.224    25.905     7.559
    70   5 B        2.698     0.197    18.481     7.214
    71   7 N        2.843    -0.167    24.605     7.367
    72   5 B        2.758     0.083    20.123     7.506
    73   7 N        2.672    -0.175    24.786     7.394
    74   5 B        2.877     0.110    19.578     7.386
    75   7 N        2.663    -0.145    24.133     7.296
    76   5 B        2.595     0.312    17.378     7.083
    77   7 N        2.519    -0.356    29.203     8.025
    78   5 B        2.685     0.183    18.729     7.269
    79   7 N        3.000    -0.137    23.954     7.269
    80   5 B        2.672     0.210    18.376     7.208
    81   7 N        2.717    -0.252    26.557     7.654
    82   5 B        2.647     0.164    19.169     7.381
    83   7 N        2.825    -0.208    25.523     7.503
    84   5 B        3.323     0.230    17.776     7.031
    85   7 N        2.531    -0.286    27.416     7.776
    86   5 B        2.951     0.035    20.782     7.606
    87   7 N        2.781    -0.190    25.113     7.443
    88   5 B        2.796     0.084    20.055     7.485
    89   7 N        2.674    -0.156    24.384     7.334
    90   5 B        3.021     0.210    18.060     7.089
    91   7 N        3.271     0.016    20.974     6.802
    92   5 B        2.860     0.310    16.747     6.832
    93   7 N        3.146    -0.130    23.802     7.246
    94   5 B        3.265     0.323    16.552     6.785
    95   7 N        2.832    -0.058    22.354     7.022
    96   5 B        3.305     0.232    17.755     7.027
    97   7 N        2.656    -0.186    25.043     7.432
    98   5 B        2.837     0.112    19.563     7.387
    99   7 N        2.831    -0.228    25.983     7.571
   100   5 B        2.864     0.253    17.503     6.984
   101   7 N        2.655    -0.248    26.456     7.639
   102   5 B        3.010     0.115    19.481     7.362
   103   7 N        3.153    -0.088    22.947     7.115
   104   5 B        2.674     0.207    18.415     7.215
   105   7 N        2.691    -0.248    26.456     7.639
   106   5 B        2.596     0.368    16.642     6.929
   107   7 N        2.872    -0.182    24.928     7.415
   108   5 B        2.824     0.106    19.668     7.408
   109   7 N        2.828    -0.254    26.579     7.657

 Mol. C6AA /au·bohr⁶  :     207399.806676
 Mol. C8AA /au·bohr⁸  :    5773849.889613
 Mol. α(0) /au        :        713.990904


Wiberg/Mayer (AO) data.
largest (>0.10) Wiberg bond orders for each atom

 ---------------------------------------------------------------------------
     #   Z sym  total        # sym  WBO       # sym  WBO       # sym  WBO
 ---------------------------------------------------------------------------
     1   6 C    3.991 --    22 H    0.985     2 C    0.985    20 H    0.984
                            21 H    0.980
     2   6 C    3.964 --    19 N    1.000     1 C    0.985    16 C    0.980
                             3 N    0.950
     3   7 N    3.449 --     4 C    1.276     2 C    0.950    23 H    0.885
                             5 O    0.197
     4   6 C    3.955 --     5 O    1.618     3 N    1.276     6 C    0.993
     5   8 O    1.959 --     4 C    1.618     3 N    0.197
     6   6 C    3.983 --     7 C    1.434    15 C    1.301     4 C    0.993
                             9 C    0.105
     7   6 C    3.986 --     6 C    1.434     8 C    1.405    24 H    0.965
     8   6 C    3.988 --     9 C    1.464     7 C    1.405    25 H    0.970
     9   6 C    3.988 --     8 C    1.464    10 C    1.352    26 H    0.968
                             6 C    0.105
    10   6 C    3.956 --     9 C    1.352    15 C    1.261    11 N    1.146
    11   7 N    3.540 --    12 C    1.213    10 C    1.146    27 H    0.941
                            14 N    0.103
    12   6 C    3.957 --    14 N    1.540    11 N    1.213    13 C    1.034
    13   6 C    3.989 --    12 C    1.034    29 H    0.979    30 H    0.972
                            28 H    0.951
    14   7 N    3.050 --    12 C    1.540    15 C    1.200    11 N    0.103
    15   6 C    3.979 --     6 C    1.301    10 C    1.261    14 N    1.200
    16   6 C    3.995 --    17 C    1.004     2 C    0.980    31 H    0.977
                            32 H    0.977
    17   6 C    3.993 --    16 C    1.004    18 C    0.999    33 H    0.979
                            34 H    0.975
    18   6 C    3.979 --    19 N    1.045    17 C    0.999    35 H    0.966
                            36 H    0.821
    19   7 N    3.152 --    18 C    1.045     2 C    1.000    37 H    0.932
    20   1 H    0.997 --     1 C    0.984
    21   1 H    0.995 --     1 C    0.980
    22   1 H    0.998 --     1 C    0.985
    23   1 H    0.956 --     3 N    0.885
    24   1 H    0.996 --     7 C    0.965
    25   1 H    0.998 --     8 C    0.970
    26   1 H    0.998 --     9 C    0.968
    27   1 H    0.971 --    11 N    0.941
    28   1 H    0.988 --    13 C    0.951
    29   1 H    0.994 --    13 C    0.979
    30   1 H    0.994 --    13 C    0.972
    31   1 H    0.998 --    16 C    0.977
    32   1 H    0.996 --    16 C    0.977
    33   1 H    0.997 --    17 C    0.979
    34   1 H    0.996 --    17 C    0.975
    35   1 H    0.997 --    18 C    0.966
    36   1 H    0.997 --    18 C    0.821   106 B    0.151
    37   1 H    0.969 --    19 N    0.932
    38   5 B    3.478 --   107 N    1.279    90 B    1.001    84 B    0.969
    39   7 N    3.395 --    84 B    1.143    97 N    1.007    96 B    0.997
    40   5 B    3.467 --    85 N    1.279   108 B    0.979    96 B    0.959
    41   7 N    3.529 --   100 B    1.153    98 B    1.147    68 B    1.020
    42   5 B    3.470 --    75 N    1.236   104 B    0.994    78 B    0.993
    43   7 N    3.260 --    64 B    1.195   106 B    0.939   101 N    0.900
    44   5 B    3.408 --    77 N    1.178    51 N    1.032    60 B    0.964
    45   7 N    3.568 --    58 B    1.272    46 B    1.162   102 B    0.973
    46   5 B    3.393 --    45 N    1.162    88 B    0.932    86 B    0.637
                            50 B    0.293
    47   7 N    3.320 --    52 B    1.109    91 N    1.045   103 N    0.944
    48   5 B    3.434 --    49 N    1.187    59 N    1.124    87 N    0.964
    49   7 N    3.446 --    48 B    1.187    76 B    1.087    89 N    0.966
    50   5 B    3.456 --    86 B    1.286   102 B    1.004   100 B    0.628
                            46 B    0.293
    51   7 N    3.426 --    54 B    1.232    44 B    1.032    65 N    0.929
    52   5 B    3.392 --    47 N    1.109    71 N    1.044    98 B    1.006
    53   7 N    3.508 --    56 B    1.202    76 B    1.125    73 N    0.998
    54   5 B    3.512 --    51 N    1.232    79 N    1.067    99 N    1.006
    55   7 N    3.312 --   104 B    1.113   107 N    0.985    57 N    0.979
    56   5 B    3.411 --    53 N    1.202    74 B    1.008    88 B    0.928
    57   7 N    3.304 --    92 B    1.121    55 N    0.979    61 N    0.974
    58   5 B    3.459 --    45 N    1.272    72 B    0.978    82 B    0.932
    59   7 N    3.209 --    48 B    1.124    62 B    1.066    87 N    0.783
    60   5 B    3.368 --    73 N    1.155    65 N    0.987    44 B    0.964
    61   7 N    3.097 --    79 N    1.011    57 N    0.974   105 N    0.933
    62   5 B    3.510 --    99 N    1.244    59 N    1.066    77 N    0.990
    63   7 N    3.432 --    68 B    1.197    96 B    1.064    84 B    0.926
    64   5 B    3.471 --    43 N    1.195    81 N    1.030    67 N    0.990
    65   7 N    3.279 --    70 B    1.170    60 B    0.987    51 N    0.929
    66   5 B    3.518 --   101 N    1.258   105 N    1.090    93 N    1.005
    67   7 N    3.425 --    80 B    1.197    94 B    1.000    64 B    0.990
    68   5 B    3.518 --    63 N    1.197   109 N    1.100    41 N    1.020
    69   7 N    3.413 --   106 B    1.156    80 B    1.039    95 N    0.992
    70   5 B    3.442 --    65 N    1.170    97 N    1.120   108 B    0.923
    71   7 N    3.470 --    72 B    1.256    52 B    1.044   103 N    0.984
    72   5 B    3.414 --    71 N    1.256    58 B    0.978    80 B    0.959
    73   7 N    3.511 --   108 B    1.169    60 B    1.155    53 N    0.998
    74   5 B    3.347 --    86 B    1.009    56 B    1.008    85 N    0.964
    75   7 N    3.512 --    42 B    1.236    78 B    1.091    81 N    1.044
    76   5 B    3.515 --    53 N    1.125    77 N    1.101    49 N    1.087
    77   7 N    3.476 --    44 B    1.178    76 B    1.101    62 B    0.990
    78   5 B    3.463 --    83 N    1.174    75 N    1.091    42 B    0.993
    79   7 N    3.252 --    54 B    1.067    61 N    1.011    93 N    0.975
    80   5 B    3.400 --    67 N    1.197    69 N    1.039    72 B    0.959
    81   7 N    3.372 --    75 N    1.044    64 B    1.030    94 B    0.984
    82   5 B    3.453 --    95 N    1.193    89 N    1.077    58 B    0.932
    83   7 N    3.404 --    78 B    1.174    90 B    1.074    91 N    0.959
    84   5 B    3.365 --    39 N    1.143    38 B    0.969    63 N    0.926
                            96 B    0.127
    85   7 N    3.561 --    40 B    1.279   100 B    1.103    74 B    0.964
    86   5 B    3.368 --    50 B    1.286    74 B    1.009    46 B    0.637
                           100 B    0.188
    87   7 N    2.986 --    95 N    1.051    48 B    0.964    59 N    0.783
    88   5 B    3.457 --    89 N    1.267    46 B    0.932    56 B    0.928
    89   7 N    3.479 --    88 B    1.267    82 B    1.077    49 N    0.966
    90   5 B    3.444 --   109 N    1.129    83 N    1.074    38 B    1.001
    91   7 N    3.188 --    47 N    1.045    83 N    0.959   109 N    0.950
    92   5 B    3.520 --    97 N    1.166    57 N    1.121   107 N    1.006
    93   7 N    3.185 --    66 B    1.005    99 N    0.982    79 N    0.975
    94   5 B    3.504 --   103 N    1.259    67 N    1.000    81 N    0.984
    95   7 N    3.450 --    82 B    1.193    87 N    1.051    69 N    0.992
    96   5 B    3.326 --    63 N    1.064    39 N    0.997    40 B    0.959
                            84 B    0.127
    97   7 N    3.490 --    92 B    1.166    70 B    1.120    39 N    1.007
    98   5 B    3.384 --    41 N    1.147    52 B    1.006   102 B    1.002
    99   7 N    3.445 --    62 B    1.244    54 B    1.006    93 N    0.982
   100   5 B    3.443 --    41 N    1.153    85 N    1.103    50 B    0.628
                            86 B    0.188   102 B    0.119
   101   7 N    3.328 --    66 B    1.258   106 B    0.952    43 N    0.900
   102   5 B    3.332 --    50 B    1.004    98 B    1.002    45 N    0.973
                           100 B    0.119
   103   7 N    3.434 --    94 B    1.259    71 N    0.984    47 N    0.944
   104   5 B    3.441 --   105 N    1.140    55 N    1.113    42 B    0.994
   105   7 N    3.382 --   104 B    1.140    66 B    1.090    61 N    0.933
   106   5 B    3.448 --    69 N    1.156   101 N    0.952    43 N    0.939
                            36 H    0.151
   107   7 N    3.475 --    38 B    1.279    92 B    1.006    55 N    0.985
   108   5 B    3.359 --    73 N    1.169    40 B    0.979    70 B    0.923
   109   7 N    3.419 --    90 B    1.129    68 B    1.100    91 N    0.950
 ---------------------------------------------------------------------------

Topologies differ in total number of bonds
Writing topology from bond orders to xtbtopo.mol

molecular dipole:
                 x           y           z       tot (Debye)
 q only:        0.516       2.583      -3.682
   full:        1.094       2.065      -1.308       6.806
molecular quadrupole (traceless):
                xx          xy          yy          xz          yz          zz
 q only:        1.288     -19.421     -13.126      27.036      15.019      11.839
  q+dip:        1.752     -24.888       2.763      39.953      18.042      -4.515
   full:        5.319     -22.900       0.266      39.111      15.430      -5.585

           -------------------------------------------------
          |                Geometry Summary                 |
           -------------------------------------------------

      molecular mass/u    :     1151.7577792
   center of mass at/Å    :        0.2595624       0.0993548       2.2926673
  moments of inertia/u·Å² :        0.1247719E+05   0.1917981E+05   0.2045667E+05
rotational constants/cm⁻¹ :        0.1351076E-02   0.8789261E-03   0.8240654E-03

 * 130 selected distances

     #   Z          #   Z                                           value/Å
     1   6 C        2   6 C                                       1.5284911
     2   6 C        3   7 N                                       1.4622699
     3   7 N        4   6 C                                       1.3452142
     4   6 C        5   8 O                                       1.2246681
     6   6 C        7   6 C                                       1.3873932
     7   6 C        8   6 C                                       1.3911142
     8   6 C        9   6 C                                       1.3828955
     9   6 C       10   6 C                                       1.3843777
    10   6 C       11   7 N                                       1.3738962
    11   7 N       12   6 C                                       1.3655819
    12   6 C       13   6 C                                       1.4799555
    12   6 C       14   7 N                                       1.3023823
     6   6 C       15   6 C                                       1.3978272
    10   6 C       15   6 C                                       1.4124002
    14   7 N       15   6 C                                       1.3755930
     2   6 C       16   6 C                                       1.5323385
    16   6 C       17   6 C                                       1.5340847
    17   6 C       18   6 C                                       1.5367587
     2   6 C       19   7 N                                       1.4449520
    18   6 C       19   7 N                                       1.4330850
     1   6 C       20   1 H                                       1.0856858
     1   6 C       21   1 H                                       1.0861238
     1   6 C       22   1 H                                       1.0869394
     3   7 N       23   1 H                                       1.0158971
     7   6 C       24   1 H                                       1.0793748
     8   6 C       25   1 H                                       1.0794235
     9   6 C       26   1 H                                       1.0794420
    11   7 N       27   1 H                                       1.0053475 (min)
    13   6 C       28   1 H                                       1.0900661
    13   6 C       29   1 H                                       1.0851140
    13   6 C       30   1 H                                       1.0887790
    16   6 C       31   1 H                                       1.0872872
    16   6 C       32   1 H                                       1.0897991
    17   6 C       33   1 H                                       1.0873894
    17   6 C       34   1 H                                       1.0878692
    18   6 C       35   1 H                                       1.0922006
    18   6 C       36   1 H                                       1.1308317
    19   7 N       37   1 H                                       1.0138289
    45   7 N       46   5 B                                       1.4417403
    48   5 B       49   7 N                                       1.4032399
    44   5 B       51   7 N                                       1.4729044
    47   7 N       52   5 B                                       1.4412453
    51   7 N       54   5 B                                       1.3861619
    53   7 N       56   5 B                                       1.4231823
    55   7 N       57   7 N                                       1.4289636
    45   7 N       58   5 B                                       1.4239379
    48   5 B       59   7 N                                       1.3950171
    44   5 B       60   5 B                                       1.5746860
    57   7 N       61   7 N                                       1.4215235
    59   7 N       62   5 B                                       1.4349155
    43   7 N       64   5 B                                       1.3899815
    60   5 B       65   7 N                                       1.4860656
    64   5 B       67   7 N                                       1.4677665
    41   7 N       68   5 B                                       1.4893625
    63   7 N       68   5 B                                       1.4144840
    65   7 N       70   5 B                                       1.4386901
    52   5 B       71   7 N                                       1.4553323
    58   5 B       72   5 B                                       1.6630709 (max)
    71   7 N       72   5 B                                       1.4086525
    60   5 B       73   7 N                                       1.4209497
    56   5 B       74   5 B                                       1.6422671
    42   5 B       75   7 N                                       1.4050301
    49   7 N       76   5 B                                       1.4477975
    53   7 N       76   5 B                                       1.4588672
    44   5 B       77   7 N                                       1.4259839
    62   5 B       77   7 N                                       1.4920174
    76   5 B       77   7 N                                       1.4589382
    42   5 B       78   5 B                                       1.5697676
    75   7 N       78   5 B                                       1.4144026
    54   5 B       79   7 N                                       1.4452475
    61   7 N       79   7 N                                       1.3948735
    67   7 N       80   5 B                                       1.4240726
    69   7 N       80   5 B                                       1.4670915
    64   5 B       81   7 N                                       1.4523447
    75   7 N       81   7 N                                       1.3647001
    78   5 B       83   7 N                                       1.4102068
    38   5 B       84   5 B                                       1.6083117
    39   7 N       84   5 B                                       1.4242460
    63   7 N       84   5 B                                       1.4985922
    40   5 B       85   7 N                                       1.4095513
    74   5 B       85   7 N                                       1.4907065
    50   5 B       86   5 B                                       1.5155259
    74   5 B       86   5 B                                       1.6056296
    48   5 B       87   7 N                                       1.4282620
    46   5 B       88   5 B                                       1.6486904
    56   5 B       88   5 B                                       1.6617553
    82   5 B       89   7 N                                       1.4626568
    88   5 B       89   7 N                                       1.4027354
    38   5 B       90   5 B                                       1.6201818
    83   7 N       90   5 B                                       1.4433195
    47   7 N       91   7 N                                       1.3668725
    57   7 N       92   5 B                                       1.4466202
    66   5 B       93   7 N                                       1.4649563
    67   7 N       94   5 B                                       1.4543355
    81   7 N       94   5 B                                       1.4627155
    82   5 B       95   7 N                                       1.4273909
    87   7 N       95   7 N                                       1.3870801
    39   7 N       96   5 B                                       1.4612956
    40   5 B       96   5 B                                       1.6122919
    63   7 N       96   5 B                                       1.4497050
    70   5 B       97   7 N                                       1.4512111
    92   5 B       97   7 N                                       1.4394070
    41   7 N       98   5 B                                       1.4585168
    52   5 B       98   5 B                                       1.6051710
    54   5 B       99   7 N                                       1.4595494
    62   5 B       99   7 N                                       1.3918008
    93   7 N       99   7 N                                       1.4240795
    41   7 N      100   5 B                                       1.4584431
    85   7 N      100   5 B                                       1.4569630
    66   5 B      101   7 N                                       1.3767340
    45   7 N      102   5 B                                       1.4966402
    50   5 B      102   5 B                                       1.6005405
    98   5 B      102   5 B                                       1.6242802
    47   7 N      103   7 N                                       1.4316658
    71   7 N      103   7 N                                       1.4180935
    94   5 B      103   7 N                                       1.3754592
    42   5 B      104   5 B                                       1.6378625
    55   7 N      104   5 B                                       1.4467239
    66   5 B      105   7 N                                       1.4473128
   104   5 B      105   7 N                                       1.4456381
    43   7 N      106   5 B                                       1.4350743
    69   7 N      106   5 B                                       1.4262445
   101   7 N      106   5 B                                       1.4385192
    38   5 B      107   7 N                                       1.4032905
    55   7 N      107   7 N                                       1.4135088
    92   5 B      107   7 N                                       1.4811125
    40   5 B      108   5 B                                       1.6501275
    73   7 N      108   5 B                                       1.4325100
    68   5 B      109   7 N                                       1.4506716
    90   5 B      109   7 N                                       1.4434368

 * 8 distinct bonds (by element types)

   Z      Z             #   av. dist./Å        max./Å        min./Å
   5 B    5 B          16     1.6150100     1.6630709     1.5155259
   1 H    6 C          15     1.0890884     1.1308317     1.0793748
   6 C    6 C          11     1.4516033     1.5367587     1.3828955
   1 H    7 N           3     1.0116912     1.0158971     1.0053475
   5 B    7 N          66     1.4399693     1.4985922     1.3754592
   6 C    7 N           8     1.3878718     1.4622699     1.3023823
   7 N    7 N          10     1.4051361     1.4316658     1.3647001
   6 C    8 O           1     1.2246681     1.2246681     1.2246681


optimized geometry written to: xtbopt.xyz


           -------------------------------------------------
          | TOTAL ENERGY             -205.225926298264 Eh   |
          | GRADIENT NORM               0.000976682786 Eh/α |
          | HOMO-LUMO GAP               0.795028908090 eV   |
           -------------------------------------------------

------------------------------------------------------------------------
 * finished run on 2026/08/31 at 21:10:07.139     
------------------------------------------------------------------------
 total:
 * wall-time:     0 d,  0 h,  0 min, 49.942 sec
 *  cpu-time:     0 d,  0 h,  9 min, 17.188 sec
 * ratio c/w:    11.157 speedup
 SCF:
 * wall-time:     0 d,  0 h,  0 min,  0.437 sec
 *  cpu-time:     0 d,  0 h,  0 min,  5.219 sec
 * ratio c/w:    11.942 speedup
 ANC optimizer:
 * wall-time:     0 d,  0 h,  0 min, 49.438 sec
 *  cpu-time:     0 d,  0 h,  9 min, 11.484 sec
 * ratio c/w:    11.155 speedup

normal termination of xtb
