      -----------------------------------------------------------      
     |                   =====================                   |     
     |                           x T B                           |     
     |                   =====================                   |     
     |                         S. Grimme                         |     
     |          Mulliken Center for Theoretical Chemistry        |     
     |                    University of Bonn                     |     
      -----------------------------------------------------------      

   * xtb version 6.7.1pre (5071a88) compiled by 'Marcel@Raven' on 2024-07-23

   xtb is free software: you can redistribute it and/or modify it under
   the terms of the GNU Lesser General Public License as published by
   the Free Software Foundation, either version 3 of the License, or
   (at your option) any later version.
   
   xtb is distributed in the hope that it will be useful,
   but WITHOUT ANY WARRANTY; without even the implied warranty of
   MERCHANTABILITY or FITNESS FOR A PARTICULAR PURPOSE.  See the
   GNU Lesser General Public License for more details.
   
   Cite this work as:
   * C. Bannwarth, E. Caldeweyher, S. Ehlert, A. Hansen, P. Pracht,
     J. Seibert, S. Spicher, S. Grimme, WIREs Comput. Mol. Sci., 2020, 11,
     e01493. DOI: 10.1002/wcms.1493
   
   for GFN2-xTB:
   * C. Bannwarth, S. Ehlert and S. Grimme., J. Chem. Theory Comput., 2019,
     15, 1652-1671. DOI: 10.1021/acs.jctc.8b01176
   for GFN1-xTB:
   * S. Grimme, C. Bannwarth, P. Shushkov, J. Chem. Theory Comput., 2017,
     13, 1989-2009. DOI: 10.1021/acs.jctc.7b00118
   for GFN0-xTB:
   * P. Pracht, E. Caldeweyher, S. Ehlert, S. Grimme, ChemRxiv, 2019, preprint.
     DOI: 10.26434/chemrxiv.8326202.v1
   for GFN-FF:
   * S. Spicher and S. Grimme, Angew. Chem. Int. Ed., 2020, 59, 15665-15673.
     DOI: 10.1002/anie.202004239
   
   for ALPB and GBSA implicit solvation:
   * S. Ehlert, M. Stahn, S. Spicher, S. Grimme, J. Chem. Theory Comput.,
     2021, 17, 4250-4261. DOI: 10.1021/acs.jctc.1c00471
   
   for ddCOSMO and CPCM-X implicit solvation:
   * M. Stahn, S. Ehlert, S. Grimme, J. Phys. Chem. A,
     2023, XX, XXXX-XXXX. DOI: 10.1021/acs.jpca.3c04382
   
   for DFT-D4:
   * E. Caldeweyher, C. Bannwarth and S. Grimme, J. Chem. Phys., 2017,
     147, 034112. DOI: 10.1063/1.4993215
   * E. Caldeweyher, S. Ehlert, A. Hansen, H. Neugebauer, S. Spicher,
     C. Bannwarth and S. Grimme, J. Chem. Phys., 2019, 150, 154122.
     DOI: 10.1063/1.5090222
   * E. Caldeweyher, J.-M. Mewes, S. Ehlert and S. Grimme, Phys. Chem. Chem. Phys.
     2020, 22, 8499-8512. DOI: 10.1039/D0CP00502A
   
   for sTDA-xTB:
   * S. Grimme and C. Bannwarth, J. Chem. Phys., 2016, 145, 054103.
     DOI: 10.1063/1.4959605
   
   in the mass-spec context:
   * V. Asgeirsson, C. Bauer and S. Grimme, Chem. Sci., 2017, 8, 4879.
     DOI: 10.1039/c7sc00601b
   * J. Koopman and S. Grimme, ACS Omega 2019, 4, 12, 15120-15133.
     DOI: 10.1021/acsomega.9b02011
   
   for metadynamics refer to:
   * S. Grimme, J. Chem. Theory Comput., 2019, 155, 2847-2862
     DOI: 10.1021/acs.jctc.9b00143
   
   for SPH calculations refer to:
   * S. Spicher and S. Grimme, J. Chem. Theory Comput., 2021, 17, 1701-1714
     DOI: 10.1021/acs.jctc.0c01306
   
   for ONIOM refer to:
   * C. Plett, A. Katbashev, S. Ehlert, S. Grimme, M. Bursch,
     Phys. Chem. Chem. Phys., 2023, 25, 17860-17868. DOI: 10.1039/D3CP02178E
   
   for DIPRO refer to:
   * J. Kohn, N. Gildemeister, S. Grimme, D. Fazzi, A. Hansen,
     J. Chem. Phys., 2023, just accepted.
   
   for PTB refer to:
   * S. Grimme, M. Mueller, A. Hansen, J. Chem. Phys., 2023, 158, 124111.
     DOI: 10.1063/5.0137838
   
   with help from (in alphabetical order)
   P. Atkinson, C. Bannwarth, F. Bohle, G. Brandenburg, E. Caldeweyher
   M. Checinski, S. Dohm, S. Ehlert, S. Ehrlich, I. Gerasimov, C. Hölzer
   A. Katbashev, J. Kohn, J. Koopman, C. Lavigne, S. Lehtola, F. März, M. Müller,
   F. Musil, H. Neugebauer, J. Pisarek, C. Plett, P. Pracht, F. Pultar,
   J. Seibert, P. Shushkov, S. Spicher, M. Stahn, M. Steiner, T. Strunk,
   J. Stückrath, T. Rose, and J. Unsleber
   
 * started run on 2026/08/31 at 22:24:11.102     
   ID    Z sym.   atoms
    1    6 C      1, 2, 4, 6-10, 12, 13, 15-18
    2    7 N      3, 11, 14, 19, 39, 41, 43, 45, 47, 49, 51, 53, 55, 57, 59,
                  61, 63, 65, 67, 69, 71, 73, 75, 77, 79, 81, 83, 85, 87, 89,
                  91, 93, 95, 97, 99, 101, 103, 105, 107, 109
    3    8 O      5
    4    1 H      20-37
    5    5 B      38, 40, 42, 44, 46, 48, 50, 52, 54, 56, 58, 60, 62, 64, 66,
                  68, 70, 72, 74, 76, 78, 80, 82, 84, 86, 88, 90, 92, 94, 96,
                  98, 100, 102, 104, 106, 108

           -------------------------------------------------
          |                Calculation Setup                |
           -------------------------------------------------

          program call               : "c:\Users\Andre\Proyectos doctorado\kras-pancreatic-gC3N4-ai\tools\xtb\xtb-6.7.1\bin\xtb.exe" "c:\Users\Andre\Proyectos doctorado\nano-qsar-ai-therapeutics\calculations\tnbc\Veliparib\Veliparib_opt_0deg.xyz" --opt vloose --gfn 2 --chrg 0 --uhf 0 --etemp 300 --iterations 500 --cycles 15 --norestart
          coordinate file            : c:\Users\Andre\Proyectos doctorado\nano-qsar-ai-therapeutics\calculations\tnbc\Veliparib\Veliparib_opt_0deg.xyz
          omp threads                :                    16


molecular fragmentation (1/2 indicates fragments):
111111111111111111111111111111111111122222222222222222222222222222222222
2222222222222222222222222222222222222
# atoms in fragment 1/2:    37    72
 fragment masses (1/2) :      258.32      893.44
CMA distance (Bohr)    :  20.116
constraining FC (au)   :  0.0500

           -------------------------------------------------
          |                 G F N 2 - x T B                 |
           -------------------------------------------------

        Reference                      10.1021/acs.jctc.8b01176
      * Hamiltonian:
        H0-scaling (s, p, d)           1.850000    2.230000    2.230000
        zeta-weighting                 0.500000
      * Dispersion:
        s8                             2.700000
        a1                             0.520000
        a2                             5.000000
        s9                             5.000000
      * Repulsion:
        kExp                           1.500000    1.000000
        rExp                           1.000000
      * Coulomb:
        alpha                          2.000000
        third order                    shell-resolved
        anisotropic                    true
        a3                             3.000000
        a5                             4.000000
        cn-shift                       1.200000
        cn-exp                         4.000000
        max-rad                        5.000000


          ...................................................
          :                      SETUP                      :
          :.................................................:
          :  # basis functions                 382          :
          :  # atomic orbitals                 382          :
          :  # shells                          200          :
          :  # electrons                       388          :
          :  max. iterations                   500          :
          :  Hamiltonian                  GFN2-xTB          :
          :  restarted?                      false          :
          :  GBSA solvation                  false          :
          :  PC potential                    false          :
          :  electronic temp.          300.0000000     K    :
          :  accuracy                    1.0000000          :
          :  -> integral cutoff          0.2500000E+02      :
          :  -> integral neglect         0.1000000E-07      :
          :  -> SCF convergence          0.1000000E-05 Eh   :
          :  -> wf. convergence          0.1000000E-03 e    :
          :  Broyden damping             0.4000000          :
          :  net charge                          0          :
          :  unpaired electrons                  0          :
          ...................................................

 iter      E             dE          RMSdq      gap      omega  full diag
   1   -206.3773816 -0.206377E+03  0.115E+01    0.61       0.0  T
   2   -206.8347609 -0.457379E+00  0.699E+00    0.44       1.0  T
   3   -204.0270251  0.280774E+01  0.446E+00    0.14       1.0  T
   4   -207.0603257 -0.303330E+01  0.131E+00    0.25       1.0  T
   5   -207.2669725 -0.206647E+00  0.710E-01    0.58       1.0  T
   6   -207.2999451 -0.329726E-01  0.517E-01    0.63       1.0  T
   7   -207.3020352 -0.209011E-02  0.378E-01    0.79       1.0  T
   8   -207.3006980  0.133712E-02  0.273E-01    0.62       1.0  T
   9   -207.3110996 -0.104015E-01  0.946E-02    0.64       1.0  T
  10   -207.3125684 -0.146881E-02  0.314E-02    0.63       1.0  T
  11   -207.3126831 -0.114731E-03  0.167E-02    0.63       1.0  T
  12   -207.3126978 -0.146694E-04  0.929E-03    0.63       1.0  T
  13   -207.3126998 -0.204014E-05  0.444E-03    0.63       2.2  T
  14   -207.3127027 -0.283241E-05  0.133E-03    0.63       7.2  T
  15   -207.3127028 -0.157782E-06  0.647E-04    0.63      14.8  T
  16   -207.3127028 -0.199574E-07  0.323E-04    0.63      29.6  T

   *** convergence criteria satisfied after 16 iterations ***

         #    Occupation            Energy/Eh            Energy/eV
      -------------------------------------------------------------
         1        2.0000           -0.6940318             -18.8856
       ...           ...                  ...                  ...
       188        2.0000           -0.3236304              -8.8064
       189        2.0000           -0.3208011              -8.7294
       190        2.0000           -0.3190960              -8.6830
       191        2.0000           -0.3168863              -8.6229
       192        2.0000           -0.3118043              -8.4846
       193        2.0000           -0.3099545              -8.4343
       194        2.0000           -0.3026854              -8.2365 (HOMO)
       195        0.0000           -0.2796882              -7.6107 (LUMO)
       196                         -0.2713731              -7.3844
       197                         -0.2608710              -7.0987
       198                         -0.2564748              -6.9790
       199                         -0.2476819              -6.7398
       ...                                ...                  ...
       382                          0.9870564              26.8592
      -------------------------------------------------------------
                  HL-Gap            0.0229971 Eh            0.6258 eV
             Fermi-level           -0.2911866 Eh           -7.9236 eV

 SCC (total)                   0 d,  0 h,  0 min,  0.472 sec
 SCC setup                      ...        0 min,  0.002 sec (  0.424%)
 Dispersion                     ...        0 min,  0.003 sec (  0.636%)
 classical contributions        ...        0 min,  0.000 sec (  0.000%)
 integral evaluation            ...        0 min,  0.012 sec (  2.542%)
 iterations                     ...        0 min,  0.423 sec ( 89.619%)
 molecular gradient             ...        0 min,  0.029 sec (  6.144%)
 printout                       ...        0 min,  0.003 sec (  0.636%)

         :::::::::::::::::::::::::::::::::::::::::::::::::::::
         ::                     SUMMARY                     ::
         :::::::::::::::::::::::::::::::::::::::::::::::::::::
         :: total energy            -205.181215642961 Eh    ::
         :: gradient norm              0.065848905189 Eh/a0 ::
         :: HOMO-LUMO gap              0.625783687228 eV    ::
         ::.................................................::
         :: SCC energy              -207.298555293777 Eh    ::
         :: -> isotropic ES            0.699894055498 Eh    ::
         :: -> anisotropic ES         -0.025189227737 Eh    ::
         :: -> anisotropic XC          0.093273907820 Eh    ::
         :: -> dispersion             -0.183578833828 Eh    ::
         :: repulsion energy           2.117339650817 Eh    ::
         :: add. restraining           0.000000000000 Eh    ::
         :: total charge              -0.000000000000 e     ::
         :::::::::::::::::::::::::::::::::::::::::::::::::::::

      ----------------------------------------------------------- 
     |                   =====================                   |
     |                        A N C O P T                        |
     |                   =====================                   |
     |               Approximate Normal Coordinate               |
     |                Rational Function Optimizer                |
      ----------------------------------------------------------- 
      ----------------------------------------------------------- 
     |                   =====================                   |
     |                        A N C O P T                        |
     |                   =====================                   |
     |               Approximate Normal Coordinate               |
     |                Rational Function Optimizer                |
      ----------------------------------------------------------- 

          ...................................................
          :                      SETUP                      :
          :.................................................:
          :   optimization level            normal          :
          :   max. optcycles                    15          :
          :   ANC micro-cycles                  15          :
          :   degrees of freedom               321          :
          :.................................................:
          :   RF solver                   davidson          :
          :   write xtbopt.log                true          :
          :   linear?                        false          :
          :   energy convergence         0.5000000E-05 Eh   :
          :   grad. convergence          0.1000000E-02 Eh/α :
          :   maxmium RF displ.          1.0000000          :
          :   Hlow (freq-cutoff)         0.1000000E-01      :
          :   Hmax (freq-cutoff)         5.0000000          :
          :   S6 in model hess.         20.0000000          :
          ...................................................

generating ANC from exact Hessian ...
Using Lindh-Hessian (1995)
 Shifting diagonal of input Hessian by   1.008560401612246E-002
 Lowest  eigenvalues of input Hessian
    0.010000    0.010005    0.010017    0.000000    0.000000    0.000000
    0.000000    0.000000    0.000000    0.010113    0.010136    0.010197
    0.010478    0.010919    0.011341    0.013356    0.013557    0.015677
 Highest eigenvalues
    2.115162    2.154603    2.194861    2.260729    2.290827    2.314981
 

........................................................................
.............................. CYCLE    1 ..............................
........................................................................

 iter      E             dE          RMSdq      gap      omega  full diag
   1   -207.3127029 -0.207313E+03  0.117E-04    0.63       0.0  T
   2   -207.3127029  0.565677E-09  0.110E-04    0.63      87.5  T
   3   -207.3127029 -0.176780E-08  0.485E-05    0.63     197.5  T
     SCC iter.                  ...        0 min,  0.093 sec
     gradient                   ...        0 min,  0.027 sec
 * total energy  :  -205.1812156 Eh     change       -0.6585452E-08 Eh
   gradient norm :     0.0658497 Eh/α   predicted     0.0000000E+00 (-100.00%)
   displ. norm   :     0.2894996 α      lambda       -0.9111905E-02
   maximum displ.:     0.1151517 α      in ANC's #44, #32, #81, ...

........................................................................
.............................. CYCLE    2 ..............................
........................................................................

 iter      E             dE          RMSdq      gap      omega  full diag
   1   -207.3399254 -0.207340E+03  0.109E-01    0.63       0.0  T
   2   -207.3399748 -0.494244E-04  0.648E-02    0.63       1.0  T
   3   -207.3399417  0.330619E-04  0.233E-02    0.63       1.0  T
   4   -207.3399827 -0.409591E-04  0.604E-03    0.63       1.6  T
   5   -207.3399849 -0.223364E-05  0.446E-03    0.63       2.1  T
   6   -207.3399884 -0.345887E-05  0.159E-03    0.63       6.0  T
   7   -207.3399885 -0.153078E-06  0.787E-04    0.63      12.2  T
   8   -207.3399886 -0.468836E-07  0.454E-04    0.63      21.1  T
     SCC iter.                  ...        0 min,  0.254 sec
     gradient                   ...        0 min,  0.023 sec
 * total energy  :  -205.1873003 Eh     change       -0.6084640E-02 Eh
   gradient norm :     0.0262738 Eh/α   predicted    -0.4939246E-02 ( -18.82%)
   displ. norm   :     0.1962232 α      lambda       -0.2097353E-02
   maximum displ.:     0.0705129 α      in ANC's #44, #32, #14, ...

........................................................................
.............................. CYCLE    3 ..............................
........................................................................

 iter      E             dE          RMSdq      gap      omega  full diag
   1   -207.3527054 -0.207353E+03  0.587E-02    0.63       0.0  T
   2   -207.3527268 -0.214371E-04  0.352E-02    0.63       1.0  T
   3   -207.3527180  0.876505E-05  0.134E-02    0.63       1.0  T
   4   -207.3527270 -0.900536E-05  0.508E-03    0.63       1.9  T
   5   -207.3527296 -0.258915E-05  0.325E-03    0.63       2.9  T
   6   -207.3527315 -0.189034E-05  0.929E-04    0.63      10.3  T
   7   -207.3527316 -0.488916E-07  0.426E-04    0.63      22.5  T
   8   -207.3527316 -0.113957E-07  0.216E-04    0.63      44.3  T
     SCC iter.                  ...        0 min,  0.276 sec
     gradient                   ...        0 min,  0.027 sec
 * total energy  :  -205.1884867 Eh     change       -0.1186437E-02 Eh
   gradient norm :     0.0067302 Eh/α   predicted    -0.1089182E-02 (  -8.20%)
   displ. norm   :     0.0874692 α      lambda       -0.2186417E-03
   maximum displ.:     0.0370760 α      in ANC's #18, #16, #15, ...

........................................................................
.............................. CYCLE    4 ..............................
........................................................................

 iter      E             dE          RMSdq      gap      omega  full diag
   1   -207.3533672 -0.207353E+03  0.194E-02    0.63       0.0  T
   2   -207.3533685 -0.130352E-05  0.116E-02    0.63       1.0  T
   3   -207.3533671  0.140110E-05  0.366E-03    0.63       2.6  T
   4   -207.3533674 -0.296362E-06  0.270E-03    0.63       3.6  T
   5   -207.3533687 -0.131818E-05  0.773E-04    0.63      12.4  T
   6   -207.3533688 -0.765257E-07  0.344E-04    0.63      27.8  T
   7   -207.3533688 -0.735827E-08  0.169E-04    0.63      56.8  T
     SCC iter.                  ...        0 min,  0.204 sec
     gradient                   ...        0 min,  0.029 sec
 * total energy  :  -205.1886424 Eh     change       -0.1557120E-03 Eh
   gradient norm :     0.0041158 Eh/α   predicted    -0.1101560E-03 ( -29.26%)
   displ. norm   :     0.1108679 α      lambda       -0.1518198E-03
   maximum displ.:     0.0497988 α      in ANC's #18, #16, #5, ...

........................................................................
.............................. CYCLE    5 ..............................
........................................................................

 iter      E             dE          RMSdq      gap      omega  full diag
   1   -207.3529092 -0.207353E+03  0.236E-02    0.63       0.0  T
   2   -207.3529103 -0.106056E-05  0.140E-02    0.63       1.0  T
   3   -207.3529075  0.271548E-05  0.448E-03    0.64       2.1  T
   4   -207.3529091 -0.159161E-05  0.283E-03    0.63       3.4  T
   5   -207.3529106 -0.144033E-05  0.893E-04    0.64      10.7  T
   6   -207.3529107 -0.854688E-07  0.439E-04    0.63      21.8  T
   7   -207.3529107 -0.108855E-07  0.219E-04    0.63      43.7  T
     SCC iter.                  ...        0 min,  0.209 sec
     gradient                   ...        0 min,  0.030 sec
 * total energy  :  -205.1887375 Eh     change       -0.9503423E-04 Eh
   gradient norm :     0.0026237 Eh/α   predicted    -0.7684484E-04 ( -19.14%)
   displ. norm   :     0.0759411 α      lambda       -0.4873532E-04
   maximum displ.:     0.0327592 α      in ANC's #5, #16, #18, ...

........................................................................
.............................. CYCLE    6 ..............................
........................................................................

 iter      E             dE          RMSdq      gap      omega  full diag
   1   -207.3526435 -0.207353E+03  0.152E-02    0.64       0.0  T
   2   -207.3526438 -0.336976E-06  0.895E-03    0.64       1.1  T
   3   -207.3526427  0.107628E-05  0.268E-03    0.64       3.6  T
   4   -207.3526434 -0.624979E-06  0.170E-03    0.64       5.6  T
   5   -207.3526439 -0.563707E-06  0.489E-04    0.64      19.6  T
   6   -207.3526439 -0.207363E-07  0.288E-04    0.64      33.2  T
     SCC iter.                  ...        0 min,  0.168 sec
     gradient                   ...        0 min,  0.028 sec
 * total energy  :  -205.1887748 Eh     change       -0.3728574E-04 Eh
   gradient norm :     0.0022204 Eh/α   predicted    -0.2451128E-04 ( -34.26%)
   displ. norm   :     0.1312338 α      lambda       -0.6355877E-04
   maximum displ.:     0.0608164 α      in ANC's #5, #16, #4, ...

........................................................................
.............................. CYCLE    7 ..............................
........................................................................

 iter      E             dE          RMSdq      gap      omega  full diag
   1   -207.3524803 -0.207352E+03  0.237E-02    0.64       0.0  T
   2   -207.3524810 -0.699441E-06  0.139E-02    0.64       1.0  T
   3   -207.3524790  0.198065E-05  0.376E-03    0.64       2.5  T
   4   -207.3524802 -0.115567E-05  0.242E-03    0.64       4.0  T
   5   -207.3524812 -0.105703E-05  0.715E-04    0.64      13.4  T
   6   -207.3524813 -0.536940E-07  0.351E-04    0.64      27.3  T
   7   -207.3524813 -0.452732E-08  0.157E-04    0.64      60.9  T
     SCC iter.                  ...        0 min,  0.203 sec
     gradient                   ...        0 min,  0.033 sec
 * total energy  :  -205.1888217 Eh     change       -0.4697874E-04 Eh
   gradient norm :     0.0025003 Eh/α   predicted    -0.3234056E-04 ( -31.16%)
   displ. norm   :     0.1572754 α      lambda       -0.5746170E-04
   maximum displ.:     0.0773616 α      in ANC's #5, #4, #6, ...

........................................................................
.............................. CYCLE    8 ..............................
........................................................................

 iter      E             dE          RMSdq      gap      omega  full diag
   1   -207.3523805 -0.207352E+03  0.256E-02    0.64       0.0  T
   2   -207.3523813 -0.748979E-06  0.150E-02    0.64       1.0  T
   3   -207.3523795  0.176586E-05  0.362E-03    0.64       2.6  T
   4   -207.3523808 -0.134374E-05  0.196E-03    0.64       4.9  T
   5   -207.3523815 -0.635029E-06  0.823E-04    0.64      11.6  T
   6   -207.3523816 -0.859106E-07  0.391E-04    0.64      24.5  T
     SCC iter.                  ...        0 min,  0.208 sec
     gradient                   ...        0 min,  0.028 sec
 * total energy  :  -205.1888651 Eh     change       -0.4339228E-04 Eh
   gradient norm :     0.0028081 Eh/α   predicted    -0.2944244E-04 ( -32.15%)
   displ. norm   :     0.1688097 α      lambda       -0.5212936E-04
   maximum displ.:     0.0884214 α      in ANC's #5, #4, #6, ...

........................................................................
.............................. CYCLE    9 ..............................
........................................................................

 iter      E             dE          RMSdq      gap      omega  full diag
   1   -207.3524578 -0.207352E+03  0.241E-02    0.64       0.0  T
   2   -207.3524585 -0.720773E-06  0.142E-02    0.64       1.0  T
   3   -207.3524570  0.144677E-05  0.350E-03    0.64       2.7  T
   4   -207.3524585 -0.140510E-05  0.143E-03    0.64       6.7  T
   5   -207.3524587 -0.249544E-06  0.775E-04    0.64      12.4  T
   6   -207.3524588 -0.759971E-07  0.372E-04    0.64      25.8  T
     SCC iter.                  ...        0 min,  0.190 sec
     gradient                   ...        0 min,  0.029 sec
 * total energy  :  -205.1889045 Eh     change       -0.3934395E-04 Eh
   gradient norm :     0.0021685 Eh/α   predicted    -0.2680795E-04 ( -31.86%)
   displ. norm   :     0.1587661 α      lambda       -0.3896020E-04
   maximum displ.:     0.0884476 α      in ANC's #5, #4, #6, ...

........................................................................
.............................. CYCLE   10 ..............................
........................................................................

 iter      E             dE          RMSdq      gap      omega  full diag
   1   -207.3525293 -0.207353E+03  0.194E-02    0.64       0.0  T
   2   -207.3525298 -0.513637E-06  0.114E-02    0.64       1.0  T
   3   -207.3525288  0.107142E-05  0.297E-03    0.64       3.2  T
   4   -207.3525298 -0.105991E-05  0.111E-03    0.64       8.6  T
   5   -207.3525300 -0.180410E-06  0.509E-04    0.64      18.8  T
   6   -207.3525300 -0.242985E-07  0.300E-04    0.64      31.9  T
     SCC iter.                  ...        0 min,  0.178 sec
     gradient                   ...        0 min,  0.028 sec
 * total energy  :  -205.1889348 Eh     change       -0.3035449E-04 Eh
   gradient norm :     0.0014749 Eh/α   predicted    -0.1997895E-04 ( -34.18%)
   displ. norm   :     0.2157941 α      lambda       -0.3225079E-04
   maximum displ.:     0.1260006 α      in ANC's #5, #4, #6, ...

........................................................................
.............................. CYCLE   11 ..............................
........................................................................

 iter      E             dE          RMSdq      gap      omega  full diag
   1   -207.3527363 -0.207353E+03  0.213E-02    0.64       0.0  T
   2   -207.3527371 -0.739550E-06  0.125E-02    0.64       1.0  T
   3   -207.3527355  0.159940E-05  0.354E-03    0.64       2.7  T
   4   -207.3527370 -0.148779E-05  0.140E-03    0.64       6.8  T
   5   -207.3527373 -0.343360E-06  0.549E-04    0.64      17.5  T
   6   -207.3527373 -0.215086E-07  0.370E-04    0.64      25.9  T
     SCC iter.                  ...        0 min,  0.165 sec
     gradient                   ...        0 min,  0.028 sec
 * total energy  :  -205.1889714 Eh     change       -0.3652536E-04 Eh
   gradient norm :     0.0022482 Eh/α   predicted    -0.1646014E-04 ( -54.94%)
   displ. norm   :     0.1270353 α      lambda       -0.3030618E-04
   maximum displ.:     0.0763128 α      in ANC's #5, #4, #6, ...

........................................................................
.............................. CYCLE   12 ..............................
........................................................................

 iter      E             dE          RMSdq      gap      omega  full diag
   1   -207.3527262 -0.207353E+03  0.989E-03    0.64       0.0  T
   2   -207.3527263 -0.476427E-07  0.582E-03    0.64       1.6  T
   3   -207.3527235  0.280505E-05  0.383E-03    0.64       2.5  T
   4   -207.3527261 -0.266486E-05  0.121E-03    0.64       7.9  T
   5   -207.3527264 -0.265662E-06  0.302E-04    0.64      31.7  T
   6   -207.3527264 -0.534897E-08  0.193E-04    0.64      49.7  T
     SCC iter.                  ...        0 min,  0.172 sec
     gradient                   ...        0 min,  0.029 sec
 * total energy  :  -205.1889997 Eh     change       -0.2832872E-04 Eh
   gradient norm :     0.0022078 Eh/α   predicted    -0.1539932E-04 ( -45.64%)
   displ. norm   :     0.2315512 α      lambda       -0.6711346E-04
   maximum displ.:     0.1372887 α      in ANC's #5, #4, #6, ...

........................................................................
.............................. CYCLE   13 ..............................
........................................................................

 iter      E             dE          RMSdq      gap      omega  full diag
   1   -207.3531228 -0.207353E+03  0.170E-02    0.64       0.0  T
   2   -207.3531233 -0.469816E-06  0.999E-03    0.64       1.0  T
   3   -207.3531189  0.438822E-05  0.514E-03    0.64       1.9  T
   4   -207.3531221 -0.321521E-05  0.273E-03    0.64       3.5  T
   5   -207.3531235 -0.146297E-05  0.691E-04    0.64      13.9  T
   6   -207.3531236 -0.507188E-07  0.358E-04    0.64      26.8  T
   7   -207.3531236 -0.879720E-08  0.192E-04    0.64      50.0  T
     SCC iter.                  ...        0 min,  0.264 sec
     gradient                   ...        0 min,  0.035 sec
 * total energy  :  -205.1890589 Eh     change       -0.5919756E-04 Eh
   gradient norm :     0.0029631 Eh/α   predicted    -0.3535727E-04 ( -40.27%)
   displ. norm   :     0.3859172 α      lambda       -0.1012583E-03
   maximum displ.:     0.2304213 α      in ANC's #5, #4, #6, ...

........................................................................
.............................. CYCLE   14 ..............................
........................................................................

 iter      E             dE          RMSdq      gap      omega  full diag
   1   -207.3526249 -0.207353E+03  0.266E-02    0.64       0.0  T
   2   -207.3526257 -0.852057E-06  0.157E-02    0.64       1.0  T
   3   -207.3526148  0.109610E-04  0.782E-03    0.64       1.2  T
   4   -207.3526238 -0.906929E-05  0.363E-03    0.64       2.6  T
   5   -207.3526264 -0.255380E-05  0.105E-03    0.64       9.1  T
   6   -207.3526265 -0.914489E-07  0.619E-04    0.64      15.5  T
   7   -207.3526265 -0.338475E-07  0.310E-04    0.64      30.9  T
     SCC iter.                  ...        0 min,  0.228 sec
     gradient                   ...        0 min,  0.027 sec
 * total energy  :  -205.1891456 Eh     change       -0.8675501E-04 Eh
   gradient norm :     0.0025791 Eh/α   predicted    -0.5817337E-04 ( -32.95%)
   displ. norm   :     0.4426487 α      lambda       -0.1033017E-03
   maximum displ.:     0.2657951 α      in ANC's #5, #4, #6, ...

........................................................................
.............................. CYCLE   15 ..............................
........................................................................

 iter      E             dE          RMSdq      gap      omega  full diag
   1   -207.3523259 -0.207352E+03  0.301E-02    0.64       0.0  T
   2   -207.3523273 -0.148702E-05  0.176E-02    0.64       1.0  T
   3   -207.3523180  0.930857E-05  0.759E-03    0.64       1.3  T
   4   -207.3523245 -0.651119E-05  0.415E-03    0.64       2.3  T
   5   -207.3523280 -0.346871E-05  0.121E-03    0.64       7.9  T
   6   -207.3523282 -0.149485E-06  0.664E-04    0.64      14.4  T
   7   -207.3523282 -0.310413E-07  0.380E-04    0.64      25.2  T
     SCC iter.                  ...        0 min,  0.198 sec
     gradient                   ...        0 min,  0.029 sec
 * total energy  :  -205.1892387 Eh     change       -0.9305790E-04 Eh
   gradient norm :     0.0028208 Eh/α   predicted    -0.6177557E-04 ( -33.62%)
   displ. norm   :     0.4666049 α      lambda       -0.1171292E-03
   maximum displ.:     0.2830625 α      in ANC's #5, #4, #6, ...

   *** FAILED TO CONVERGE GEOMETRY OPTIMIZATION IN 15 ITERATIONS ***


 ANCopt (total)                0 d,  0 h,  0 min,  3.765 sec
 optimizer setup                ...        0 min,  0.000 sec (  0.000%)
 model hessian                  ...        0 min,  0.052 sec (  1.381%)
 ANC generation                 ...        0 min,  0.013 sec (  0.345%)
 coordinate transformation      ...        0 min,  0.001 sec (  0.027%)
 single point calculation       ...        0 min,  3.665 sec ( 97.344%)
 optimization log               ...        0 min,  0.026 sec (  0.691%)
 hessian update                 ...        0 min,  0.005 sec (  0.133%)
 rational function              ...        0 min,  0.002 sec (  0.053%)

================
 final structure:
================
109
 xtb: 6.7.1pre (5071a88)
C           -1.99427304895754        1.26485810327438       12.53942004473046
C           -1.98268370523671        0.91162429236787       11.05143472553561
N           -0.72141588395323        0.25047561057925       10.78718565978473
C           -0.37598429674009       -0.32155068409559        9.61480929284091
O           -1.10551365950926       -0.39766563552792        8.63997036617478
C            1.01140905568508       -0.87523773507989        9.60564397021357
C            1.51986260635820       -1.39559498398790        8.42357352792475
C            2.80384640977560       -1.92778143415984        8.33880694766198
C            3.64037682135353       -1.96774544715160        9.43888995788567
C            3.14430155933290       -1.45499803323085       10.62627136531378
N            3.67651640020716       -1.34441360447874       11.88961905736050
C            2.72414549638632       -0.76145259637924       12.67853082772834
C            2.93884433564459       -0.50277478325944       14.12302291169681
N            1.63565443773112       -0.48594003574937       12.02158992985862
C            1.84650602971959       -0.90584061686536       10.72698705393213
C           -2.15876954663343        2.18112949624619       10.15878715256479
C           -3.32626363621519        1.83902928969069        9.23617375548514
C           -4.12003175432708        0.85148842120279       10.09716654916085
N           -3.11793845926714        0.02912513999150       10.76032457300023
H           -2.94883815348728        1.70689997161700       12.80740111675735
H           -1.85776605525527        0.35957570518325       13.12450449726193
H           -1.19558027270832        1.96710650061423       12.76768430584153
H           -0.04649722452454        0.20138730037931       11.54261984888841
H            0.88210161439573       -1.37110624617678        7.55267276854469
H            3.14809820768636       -2.31779169003270        7.39300294216229
H            4.63663059959563       -2.38064462973854        9.37931210970037
H            4.59081931505355       -1.64497536313443       12.18288209314104
H            3.79112378021079        0.15870377540093       14.27446015467365
H            2.04920026850383       -0.03920260859271       14.53831024557842
H            3.13126181527656       -1.43756840576808       14.64946759156019
H           -1.24323873354789        2.38913908978667        9.60917459914581
H           -2.39710226136921        3.04188520087051       10.78434114361873
H           -3.90736800918697        2.71064897909622        8.94058770976787
H           -2.95724670649829        1.32763911765473        8.34719178134112
H           -4.68331416737629        1.38959266047303       10.86815126330087
H           -4.81041104761061        0.23205055583109        9.52722963289381
H           -2.80177926244608       -0.67749371548387       10.10272725492796
B            3.47641475869601       -1.45802088652359        1.66595346442959
N            3.46183133188440        1.12185187736664        0.96767602657183
B            2.53817262691900        2.35186055922840       -1.23003678074535
N            2.27861812267105       -0.65827578628775       -2.68921146292221
B            0.72179445906281       -3.55910176885944        2.76798209080158
N           -2.91654929822124       -2.65669626857630        1.79866343571232
B           -1.01784230206490        4.08260816005417        1.88654864811156
N           -0.64350180046728       -0.00265580254015       -3.88064331325658
B           -0.49829703939003        1.42476157314087       -4.03439494065918
N            1.20431821824451       -3.80034433221886       -1.67954939190475
B           -3.84016222107561        2.19941753992262       -0.41171509757926
N           -2.77481720703713        2.75183830288464       -1.14068309646020
B            1.37478756190584        0.79522696992383       -4.84474463788793
N           -0.20685817340457        3.36706443093724        2.88465439162922
B            0.88447542329492       -2.89670538344296       -2.75458915569295
N           -0.49251676583565        3.75575411546086       -0.95991625943851
B           -0.76890021878066        2.18228587519509        3.33923173957463
N            1.70328274702047       -1.27479542761912        3.57293274546234
B           -0.25966350448619        3.45438769369030       -2.33027853119408
N            1.35374009992582        0.07048368919485        3.88059671153317
B           -1.61426626066724       -0.57773101218771       -3.01313005897171
N           -3.81810927553750        1.77016170468788        0.91414529601050
B            0.35226140471112        4.49120137642127        1.22556104106472
N            0.08721937917099       -0.01044339217242        4.51677741587277
B           -2.68801555630039        2.22118164806822        1.67501018100452
N            3.77218553935391       -0.14290305684074       -0.73683779558070
B           -2.23709565426936       -3.64388544314275        1.09621691404411
N            1.07951024474225        3.73354440627895        2.27412253783545
B           -1.79112982384970       -0.77803847514138        3.29970369721041
N           -2.43172081211010       -3.61167484705673       -0.36232403496574
B            3.01288035281291       -1.08643671784875       -1.46487584997023
N           -3.15174108979812       -1.26166658112796       -0.29754898609265
B            2.05079087954284        2.91799673544798        1.59591425391371
N           -0.51825433544135       -2.91587699156458       -2.36246816335288
B           -1.68502267830350       -2.12880089697536       -2.41423219867949
N            0.59649291989275        3.95682685354613       -0.06911055769273
B            1.07295447511104        2.94174351377978       -3.14187799152700
N            0.09982573226052       -4.35966626476058        1.79347167565593
B           -1.77964886739665        3.44210861944415       -0.34581214707087
N           -1.99811589795222        3.41251889792987        1.09523728586645
B            1.48636750088282       -4.21491671927425        1.56006559207257
N           -0.75076059963094        1.06655117390216        4.24968541976877
B           -2.66660855170498       -2.41360131705713       -1.08829755937709
N           -1.05690440514384       -4.48720960087152        1.07218028419283
B           -2.51246884080763        0.47672802336488       -2.03354174192697
N            2.36462672917423       -3.89457370882652        0.50495273066504
B            3.91906060852417       -0.20930541804269        0.75462378469309
N            1.91771717832279        1.94178100171142       -2.42812064306574
B            0.97209778788633        2.23217726714650       -4.57917052467204
N           -4.18051608039852        0.81931886807807       -0.25965713445411
B           -1.35568301573275        2.43609052995353       -3.05385840964678
N           -2.37030983988614        1.91767693124497       -2.23551958108346
B            3.08486979712027       -2.65178904235762        0.64419042856474
N            2.33590233185932       -3.68491362933205       -0.91984312410189
B            2.24276860340852        0.54379335981466        2.85154046133479
N           -1.98402671761159        0.61336162644265        3.67257626378358
B           -1.09618785119700       -4.19204246896904       -0.36058543174402
N           -3.21729484641433        0.03030639147987       -0.87606005607223
B            3.44942427279303        1.24921303186645       -0.48631773938194
N            2.59773020200072        1.62785819587086        1.97064439986376
B            1.45158146360939       -1.57371917786381       -3.46508642927700
N           -2.06932346675803        1.75062692866086        2.82784404709795
B            2.02288317649601        0.69442180022521       -3.17150325406953
N           -2.69056090083755       -1.34218822070570        2.40360547576931
B            0.63050639952985       -0.56057346312332       -4.43318825486987
N           -0.17091190029875       -3.77130893957719       -1.28589201035780
B            0.52416456116828       -2.10287016810850        3.50058573469392
N           -0.54294997142905       -1.20091266812078        3.88635332313944
B           -3.20572564572913       -1.45460443067283        1.08905459122218
N            2.69957220940284       -0.85717468973193        2.66681589126528
B            1.88431213317153        3.33047889866668       -0.07254235665487
N            2.87863931532333       -2.34236553486020       -0.75037400587253
 
 Bond Distances (Angstroems)
 ---------------------------
C1-C2=1.5294         C1-H20=1.0855        C1-H21=1.0865        C1-H22=1.0877        C2-C1=1.5294         C2-N3=1.4484         
C2-C16=1.5619        C2-N19=1.4671        N3-C2=1.4484         N3-C4=1.3494         N3-H23=1.0142        C4-N3=1.3494         
C4-O5=1.2200         C4-C6=1.4938         O5-C4=1.2200         C6-C4=1.4938         C6-C7=1.3880         C6-C15=1.3985        
C7-C6=1.3880         C7-C8=1.3925         C7-H24=1.0797        C8-C7=1.3925         C8-C9=1.3826         C8-H25=1.0794        
C9-C8=1.3826         C9-C10=1.3852        C9-H26=1.0801        C10-C9=1.3852        C10-N11=1.3753       C10-C15=1.4128       
N11-C10=1.3753       N11-C12=1.3672       N11-H27=1.0061       C12-N11=1.3672       C12-C13=1.4831       C12-N14=1.3009       
C13-C12=1.4831       C13-H28=1.0894       C13-H29=1.0857       C13-H30=1.0900       N14-C12=1.3009       N14-C15=1.3772       
C15-C6=1.3985        C15-C10=1.4128       C15-N14=1.3772       C16-C2=1.5619        C16-C17=1.5269       C16-H31=1.0879       
C16-H32=1.0904       C17-C16=1.5269       C17-C18=1.5319       C17-H33=1.0885       C17-H34=1.0899       C18-C17=1.5319       
C18-N19=1.4561       C18-H35=1.0960       C18-H36=1.0886       N19-C2=1.4671        N19-C18=1.4561       N19-H37=1.0157       
H20-C1=1.0855        H21-C1=1.0865        H22-C1=1.0877        H23-N3=1.0142        H24-C7=1.0797        H25-C8=1.0794        
H26-C9=1.0801        H27-N11=1.0061       H28-C13=1.0894       H29-C13=1.0857       H30-C13=1.0900       H31-C16=1.0879       
H32-C16=1.0904       H33-C17=1.0885       H34-C17=1.0899       H35-C18=1.0960       H36-C18=1.0886       H37-N19=1.0157       
B38-B84=1.6080       B38-B90=1.6194       B38-N107=1.4022      N39-B84=1.4235       N39-B96=1.4596       N39-N97=1.4173       
B40-N85=1.4102       B40-B96=1.6122       B40-B108=1.6508      N41-B68=1.4905       N41-B98=1.4574       N41-B100=1.4587      
B42-N75=1.4062       B42-B78=1.5728       B42-B104=1.6421      N43-B64=1.3891       N43-N101=1.4646      N43-B106=1.4256      
B44-N51=1.4717       B44-B60=1.5751       B44-N77=1.4269       N45-B46=1.4430       N45-B58=1.4233       N45-B102=1.4966      
B46-N45=1.4430       B46-B50=2.1357       B46-B86=1.7637       B46-B88=1.6490       N47-B52=1.4403       N47-N91=1.3678       
N47-N103=1.4308      B48-N49=1.4041       B48-N59=1.3938       B48-N87=1.4296       N49-B48=1.4041       N49-B76=1.4487       
N49-N89=1.4346       B50-B46=2.1357       B50-B86=1.5158       B50-B100=1.7972      B50-B102=1.6005      N51-B44=1.4717       
N51-B54=1.3879       N51-N65=1.4703       B52-N47=1.4403       B52-N71=1.4566       B52-B98=1.6052       B52-N103=2.0089      
N53-B56=1.4223       N53-N73=1.4212       N53-B76=1.4602       B54-N51=1.3879       B54-N79=1.4402       B54-N93=2.0123       
B54-N99=1.4625       N55-N57=1.4236       N55-B104=1.4427      N55-N107=1.4100      B56-N53=1.4223       B56-B74=1.6424       
B56-B88=1.6619       N57-N55=1.4236       N57-N61=1.4196       N57-B92=1.4399       B58-N45=1.4233       B58-B72=1.6642       
B58-B82=1.6965       N59-B48=1.3938       N59-B62=1.4351       N59-N87=1.5535       B60-B44=1.5751       B60-N65=1.4841       
B60-N73=1.4218       N61-N57=1.4196       N61-N79=1.3905       N61-N105=1.4872      B62-N59=1.4351       B62-N77=1.4938       
B62-N99=1.3904       N63-B68=1.4131       N63-B84=1.5001       N63-B96=1.4508       B64-N43=1.3891       B64-N67=1.4718       
B64-N81=1.4507       B64-B94=1.9299       N65-N51=1.4703       N65-B60=1.4841       N65-B70=1.4382       B66-N93=1.4534       
B66-N101=1.3893      B66-N105=1.4425      N67-B64=1.4718       N67-B80=1.4204       N67-B94=1.4562       B68-N41=1.4905       
B68-N63=1.4131       B68-N109=1.4512      N69-B80=1.4791       N69-N95=1.4171       N69-B106=1.4010      B70-N65=1.4382       
B70-N97=1.4505       B70-B108=1.7267      N71-B52=1.4566       N71-B72=1.4084       N71-N103=1.4182      B72-B58=1.6642       
B72-N71=1.4084       B72-B80=1.6741       N73-N53=1.4212       N73-B60=1.4218       N73-B108=1.4321      B74-B56=1.6424       
B74-N85=1.4910       B74-B86=1.6061       N75-B42=1.4062       N75-B78=1.4135       N75-N81=1.3691       B76-N49=1.4487       
B76-N53=1.4602       B76-N77=1.4578       N77-B44=1.4269       N77-B62=1.4938       N77-B76=1.4578       B78-B42=1.5728       
B78-N75=1.4135       B78-N83=1.4097       N79-B54=1.4402       N79-N61=1.3905       N79-N93=1.4351       B80-N67=1.4204       
B80-N69=1.4791       B80-B72=1.6741       N81-B64=1.4507       N81-N75=1.3691       N81-B94=1.4634       B82-B58=1.6965       
B82-N89=1.4620       B82-N95=1.4268       N83-B78=1.4097       N83-B90=1.4431       N83-N91=1.4404       B84-B38=1.6080       
B84-N39=1.4235       B84-N63=1.5001       B84-B96=1.9717       N85-B40=1.4102       N85-B74=1.4910       N85-B100=1.4559      
B86-B46=1.7637       B86-B50=1.5158       B86-B74=1.6061       N87-B48=1.4296       N87-N59=1.5535       N87-N95=1.3893       
B88-B46=1.6490       B88-B56=1.6619       B88-N89=1.4028       N89-N49=1.4346       N89-B82=1.4620       N89-B88=1.4028       
B90-B38=1.6194       B90-N83=1.4431       B90-N109=1.4433      N91-N47=1.3678       N91-N83=1.4404       N91-N109=1.4580      
B92-N57=1.4399       B92-N97=1.4412       B92-N107=1.4851      N93-B54=2.0123       N93-B66=1.4534       N93-N79=1.4351       
N93-N99=1.4192       B94-B64=1.9299       B94-N67=1.4562       B94-N81=1.4634       B94-N103=1.3745      N95-N69=1.4171       
N95-B82=1.4268       N95-N87=1.3893       B96-N39=1.4596       B96-B40=1.6122       B96-N63=1.4508       B96-B84=1.9717       
N97-N39=1.4173       N97-B70=1.4505       N97-B92=1.4412       B98-N41=1.4574       B98-B52=1.6052       B98-B102=1.6241      
N99-B54=1.4625       N99-B62=1.3904       N99-N93=1.4192       B100-N41=1.4587      B100-B50=1.7972      B100-N85=1.4559      
N101-N43=1.4646      N101-B66=1.3893      N101-B106=1.4164     B102-N45=1.4966      B102-B50=1.6005      B102-B98=1.6241      
N103-N47=1.4308      N103-B52=2.0089      N103-N71=1.4182      N103-B94=1.3745      B104-B42=1.6421      B104-N55=1.4427      
B104-N105=1.4495     N105-N61=1.4872      N105-B66=1.4425      N105-B104=1.4495     B106-N43=1.4256      B106-N69=1.4010      
B106-N101=1.4164     N107-B38=1.4022      N107-N55=1.4100      N107-B92=1.4851      B108-B40=1.6508      B108-B70=1.7267      
B108-N73=1.4321      N109-B68=1.4512      N109-B90=1.4433      N109-N91=1.4580      
 B  B  Rav=1.6894 sigma=0.1392  Rmin=1.5158  Rmax=2.1357    24
 C  H  Rav=1.0870 sigma=0.0044  Rmin=1.0794  Rmax=1.0960    15
 C  C  Rav=1.4572 sigma=0.0669  Rmin=1.3826  Rmax=1.5619    12
 N  H  Rav=1.0120 sigma=0.0042  Rmin=1.0061  Rmax=1.0157     3
 N  B  Rav=1.4559 sigma=0.1009  Rmin=1.3745  Rmax=2.0123    68
 N  C  Rav=1.3927 sigma=0.0549  Rmin=1.3009  Rmax=1.4671     8
 N  N  Rav=1.4304 sigma=0.0404  Rmin=1.3678  Rmax=1.5535    21
 O  C  Rav=1.2200 sigma=0.0000  Rmin=1.2200  Rmax=1.2200     1
 
 selected bond angles (degree)
 --------------------
H20-C1-C2=109.93               H21-C1-C2=109.30               H21-C1-H20=108.47              H22-C1-C2=110.35               
H22-C1-H20=109.33              H22-C1-H21=109.43              N3-C2-C1=106.83                C16-C2-C1=111.56               
C16-C2-N3=111.40               N19-C2-C1=109.03               N19-C2-N3=111.29               N19-C2-C16=106.76              
C4-N3-C2=125.09                H23-N3-C2=117.76               H23-N3-C4=117.15               O5-C4-N3=124.58                
C6-C4-N3=113.59                C6-C4-O5=121.83                C7-C6-C4=118.97                C15-C6-C4=123.90               
C15-C6-C7=117.12               C8-C7-C6=122.20                H24-C7-C6=117.52               H24-C7-C8=120.28               
C9-C8-C7=121.37                H25-C8-C7=119.05               H25-C8-C9=119.59               C10-C9-C8=117.04               
H26-C9-C8=121.69               H26-C9-C10=121.27              N11-C10-C9=132.73              C15-C10-C9=122.27              
C15-C10-N11=105.00             
 
 selected dihedral angles (degree)
 ---------------------------------
N3-C2-C1-H20=183.69           N3-C2-C1-H21=302.64           N3-C2-C1-H22= 63.02           C16-C2-C1-H20= 61.72          
C16-C2-C1-H21=180.67          C16-C2-C1-H22=301.05          N19-C2-C1-H20=304.06          N19-C2-C1-H21= 63.01          
N19-C2-C1-H22=183.39          C4-N3-C2-C1=173.85            C4-N3-C2-C16=295.92           C4-N3-C2-N19= 54.93           
H23-N3-C2-C1=354.63           H23-N3-C2-C16=116.69          H23-N3-C2-N19=235.71          O5-C4-N3-C2=357.14            
O5-C4-N3-H23=176.37           C6-C4-N3-C2=177.33            C6-C4-N3-H23=356.56           C7-C6-C4-N3=184.98            
C7-C6-C4-O5=  5.16            C15-C6-C4-N3=  5.01           C15-C6-C4-O5=185.20           C8-C7-C6-C4=179.97            
C8-C7-C6-C15=359.93           H24-C7-C6-C4=  0.30           H24-C7-C6-C15=180.27          C9-C8-C7-C6=  0.21            
C9-C8-C7-H24=179.86           H25-C8-C7-C6=180.08           H25-C8-C7-H24=359.74          C10-C9-C8-C7=359.98           
C10-C9-C8-H25=180.10          H26-C9-C8-C7=179.91           H26-C9-C8-H25=  0.03          N11-C10-C9-C8=179.30          
N11-C10-C9-H26=359.36         C15-C10-C9-C8=359.71          C15-C10-C9-H26=179.78         
 
 CMA Distance (Angstroems)
 ---------------------------
R(CMA): 10.4611
           -------------------------------------------------
          |                Final Singlepoint                |
           -------------------------------------------------

          ...................................................
          :                      SETUP                      :
          :.................................................:
          :  # basis functions                 382          :
          :  # atomic orbitals                 382          :
          :  # shells                          200          :
          :  # electrons                       388          :
          :  max. iterations                   500          :
          :  Hamiltonian                  GFN2-xTB          :
          :  restarted?                      false          :
          :  GBSA solvation                  false          :
          :  PC potential                    false          :
          :  electronic temp.          300.0000000     K    :
          :  accuracy                    1.0000000          :
          :  -> integral cutoff          0.2500000E+02      :
          :  -> integral neglect         0.1000000E-07      :
          :  -> SCF convergence          0.1000000E-05 Eh   :
          :  -> wf. convergence          0.1000000E-03 e    :
          :  Broyden damping             0.4000000          :
          :  net charge                          0          :
          :  unpaired electrons                  0          :
          ...................................................

 iter      E             dE          RMSdq      gap      omega  full diag
   1   -207.3521994 -0.207352E+03  0.311E-02    0.64       0.0  T
   2   -207.3522009 -0.144745E-05  0.182E-02    0.64       1.0  T
   3   -207.3521951  0.581610E-05  0.623E-03    0.64       1.5  T
   4   -207.3521994 -0.429992E-05  0.320E-03    0.64       3.0  T
   5   -207.3522014 -0.199037E-05  0.116E-03    0.64       8.2  T
   6   -207.3522015 -0.135250E-06  0.672E-04    0.64      14.2  T
   7   -207.3522015 -0.351108E-07  0.378E-04    0.64      25.3  T

   *** convergence criteria satisfied after 7 iterations ***

         #    Occupation            Energy/Eh            Energy/eV
      -------------------------------------------------------------
         1        2.0000           -0.6936983             -18.8765
       ...           ...                  ...                  ...
       188        2.0000           -0.3237210              -8.8089
       189        2.0000           -0.3209125              -8.7325
       190        2.0000           -0.3193211              -8.6892
       191        2.0000           -0.3169123              -8.6236
       192        2.0000           -0.3118370              -8.4855
       193        2.0000           -0.3099732              -8.4348
       194        2.0000           -0.3032900              -8.2529 (HOMO)
       195        0.0000           -0.2797238              -7.6117 (LUMO)
       196                         -0.2715086              -7.3881
       197                         -0.2609168              -7.0999
       198                         -0.2506123              -6.8195
       199                         -0.2478325              -6.7439
       ...                                ...                  ...
       382                          0.9872844              26.8654
      -------------------------------------------------------------
                  HL-Gap            0.0235662 Eh            0.6413 eV
             Fermi-level           -0.2915065 Eh           -7.9323 eV

 SCC (total)                   0 d,  0 h,  0 min,  0.231 sec
 SCC setup                      ...        0 min,  0.001 sec (  0.433%)
 Dispersion                     ...        0 min,  0.001 sec (  0.433%)
 classical contributions        ...        0 min,  0.000 sec (  0.000%)
 integral evaluation            ...        0 min,  0.010 sec (  4.329%)
 iterations                     ...        0 min,  0.188 sec ( 81.385%)
 molecular gradient             ...        0 min,  0.028 sec ( 12.121%)
 printout                       ...        0 min,  0.003 sec (  1.299%)

         :::::::::::::::::::::::::::::::::::::::::::::::::::::
         ::                     SUMMARY                     ::
         :::::::::::::::::::::::::::::::::::::::::::::::::::::
         :: total energy            -205.189349099866 Eh    ::
         :: gradient norm              0.002743238080 Eh/a0 ::
         :: HOMO-LUMO gap              0.641267975202 eV    ::
         ::.................................................::
         :: SCC energy              -207.338035303526 Eh    ::
         :: -> isotropic ES            0.699635675962 Eh    ::
         :: -> anisotropic ES         -0.026467869633 Eh    ::
         :: -> anisotropic XC          0.092273018460 Eh    ::
         :: -> dispersion             -0.184358339229 Eh    ::
         :: repulsion energy           2.148686203660 Eh    ::
         :: add. restraining           0.000000000000 Eh    ::
         :: total charge              -0.000000000000 e     ::
         :::::::::::::::::::::::::::::::::::::::::::::::::::::

           -------------------------------------------------
          |                Property Printout                |
           -------------------------------------------------

    * Orbital Energies and Occupations

         #    Occupation            Energy/Eh            Energy/eV
      -------------------------------------------------------------
         1        2.0000           -0.6936983             -18.8765
       ...           ...                  ...                  ...
       182        2.0000           -0.3347939              -9.1102
       183        2.0000           -0.3345924              -9.1047
       184        2.0000           -0.3311551              -9.0112
       185        2.0000           -0.3287693              -8.9463
       186        2.0000           -0.3261239              -8.8743
       187        2.0000           -0.3251877              -8.8488
       188        2.0000           -0.3237210              -8.8089
       189        2.0000           -0.3209125              -8.7325
       190        2.0000           -0.3193211              -8.6892
       191        2.0000           -0.3169123              -8.6236
       192        2.0000           -0.3118370              -8.4855
       193        2.0000           -0.3099732              -8.4348
       194        2.0000           -0.3032900              -8.2529 (HOMO)
       195        0.0000           -0.2797238              -7.6117 (LUMO)
       196                         -0.2715086              -7.3881
       197                         -0.2609168              -7.0999
       198                         -0.2506123              -6.8195
       199                         -0.2478325              -6.7439
       200                         -0.2418550              -6.5812
       201                         -0.2308109              -6.2807
       202                         -0.2269840              -6.1766
       203                         -0.2252665              -6.1298
       204                         -0.2186300              -5.9492
       205                         -0.2070649              -5.6345
       ...                                ...                  ...
       382                          0.9872844              26.8654
      -------------------------------------------------------------
                  HL-Gap            0.0235662 Eh            0.6413 eV
             Fermi-level           -0.2915065 Eh           -7.9323 eV

     #   Z          covCN         q      C6AA      α(0)
     1   6 C        3.761    -0.125    22.950     6.829
     2   6 C        3.809     0.147    18.213     6.075
     3   7 N        2.698    -0.207    25.496     7.499
     4   6 C        2.755     0.273    22.382     7.747
     5   8 O        0.858    -0.451    22.730     6.392
     6   6 C        2.968    -0.036    28.892     8.817
     7   6 C        2.926    -0.033    28.816     8.803
     8   6 C        2.924    -0.037    28.922     8.819
     9   6 C        2.908    -0.053    29.319     8.879
    10   6 C        3.076     0.040    27.029     8.524
    11   7 N        2.783    -0.129    23.798     7.245
    12   6 C        3.149     0.151    24.475     8.092
    13   6 C        3.755    -0.124    22.934     6.828
    14   7 N        1.891    -0.300    28.637     7.933
    15   6 C        3.187     0.057    26.275     8.364
    16   6 C        3.826    -0.069    21.805     6.645
    17   6 C        3.817    -0.066    21.759     6.639
    18   6 C        3.789     0.014    20.345     6.424
    19   7 N        2.691    -0.282    27.271     7.756
    20   1 H        0.925     0.055     2.260     2.351
    21   1 H        0.925     0.052     2.292     2.368
    22   1 H        0.925     0.040     2.452     2.449
    23   1 H        0.860     0.207     1.073     1.622
    24   1 H        0.926     0.077     2.015     2.220
    25   1 H        0.926     0.045     2.383     2.414
    26   1 H        0.926     0.030     2.586     2.514
    27   1 H        0.860     0.162     1.321     1.800
    28   1 H        0.925     0.057     2.231     2.336
    29   1 H        0.925     0.074     2.039     2.233
    30   1 H        0.925     0.058     2.221     2.331
    31   1 H        0.925     0.037     2.490     2.468
    32   1 H        0.924     0.030     2.591     2.517
    33   1 H        0.925     0.025     2.663     2.552
    34   1 H        0.925     0.060     2.204     2.322
    35   1 H        0.924     0.026     2.639     2.540
    36   1 H        0.925     0.031     2.569     2.506
    37   1 H        0.860     0.165     1.303     1.788
    38   5 B        2.781     0.075    20.220     7.518
    39   7 N        2.774    -0.228    25.976     7.570
    40   5 B        2.788     0.092    19.938     7.464
    41   7 N        2.524    -0.315    28.146     7.879
    42   5 B        2.779     0.084    20.074     7.491
    43   7 N        2.655    -0.269    26.970     7.713
    44   5 B        2.849     0.241    17.674     7.020
    45   7 N        2.529    -0.273    27.097     7.731
    46   5 B        3.195     0.150    18.932     7.257
    47   7 N        2.979    -0.111    23.411     7.186
    48   5 B        2.644     0.373    16.328     6.814
    49   7 N        2.669    -0.213    25.645     7.521
    50   5 B        3.181     0.021    21.010     7.645
    51   7 N        2.889    -0.222    25.831     7.549
    52   5 B        3.009     0.209    18.078     7.092
    53   7 N        2.660    -0.163    24.540     7.357
    54   5 B        2.909     0.318    16.630     6.805
    55   7 N        3.152    -0.087    22.920     7.110
    56   5 B        2.778     0.093    19.919     7.463
    57   7 N        3.036    -0.126    23.732     7.235
    58   5 B        2.758     0.090    20.007     7.484
    59   7 N        2.634    -0.309    27.951     7.852
    60   5 B        3.041     0.226    17.837     7.045
    61   7 N        2.982     0.006    21.159     6.832
    62   5 B        2.581     0.325    17.318     7.090
    63   7 N        2.596    -0.361    29.323     8.042
    64   5 B        3.286     0.340    16.337     6.741
    65   7 N        2.784    -0.254    26.594     7.659
    66   5 B        2.560     0.321    17.575     7.179
    67   7 N        2.579    -0.369    29.539     8.072
    68   5 B        2.530     0.301    18.225     7.377
    69   7 N        2.665    -0.205    25.462     7.494
    70   5 B        2.699     0.195    18.511     7.220
    71   7 N        2.843    -0.168    24.619     7.369
    72   5 B        2.758     0.082    20.133     7.507
    73   7 N        2.672    -0.175    24.784     7.394
    74   5 B        2.877     0.110    19.580     7.386
    75   7 N        2.663    -0.145    24.133     7.296
    76   5 B        2.594     0.312    17.391     7.086
    77   7 N        2.519    -0.355    29.176     8.022
    78   5 B        2.684     0.183    18.732     7.270
    79   7 N        3.011    -0.120    23.612     7.217
    80   5 B        2.677     0.210    18.363     7.203
    81   7 N        2.716    -0.249    26.472     7.642
    82   5 B        2.647     0.164    19.169     7.381
    83   7 N        2.825    -0.207    25.504     7.501
    84   5 B        3.322     0.229    17.797     7.035
    85   7 N        2.531    -0.286    27.421     7.777
    86   5 B        2.950     0.035    20.791     7.607
    87   7 N        2.783    -0.185    25.013     7.428
    88   5 B        2.796     0.084    20.048     7.483
    89   7 N        2.673    -0.156    24.375     7.333
    90   5 B        3.021     0.210    18.056     7.088
    91   7 N        3.272     0.014    21.000     6.806
    92   5 B        2.865     0.305    16.814     6.845
    93   7 N        3.159    -0.109    23.385     7.182
    94   5 B        3.263     0.320    16.587     6.792
    95   7 N        2.833    -0.061    22.412     7.031
    96   5 B        3.303     0.231    17.770     7.030
    97   7 N        2.656    -0.184    24.987     7.424
    98   5 B        2.838     0.112    19.573     7.388
    99   7 N        2.836    -0.224    25.873     7.555
   100   5 B        2.862     0.252    17.505     6.985
   101   7 N        2.654    -0.228    25.997     7.573
   102   5 B        3.010     0.114    19.494     7.365
   103   7 N        3.153    -0.086    22.915     7.110
   104   5 B        2.674     0.204    18.465     7.225
   105   7 N        2.697    -0.225    25.911     7.560
   106   5 B        2.584     0.369    16.727     6.964
   107   7 N        2.879    -0.181    24.904     7.412
   108   5 B        2.824     0.106    19.679     7.410
   109   7 N        2.827    -0.253    26.572     7.656

 Mol. C6AA /au·bohr⁶  :     207645.899122
 Mol. C8AA /au·bohr⁸  :    5776682.432108
 Mol. α(0) /au        :        714.485310


Wiberg/Mayer (AO) data.
largest (>0.10) Wiberg bond orders for each atom

 ---------------------------------------------------------------------------
     #   Z sym  total        # sym  WBO       # sym  WBO       # sym  WBO
 ---------------------------------------------------------------------------
     1   6 C    3.994 --     2 C    0.994    22 H    0.985    21 H    0.983
                            20 H    0.983
     2   6 C    3.963 --     1 C    0.994    19 N    0.987     3 N    0.978
                            16 C    0.952
     3   7 N    3.452 --     4 C    1.260     2 C    0.978    23 H    0.891
                             5 O    0.201
     4   6 C    3.956 --     5 O    1.641     3 N    1.260     6 C    0.988
     5   8 O    1.986 --     4 C    1.641     3 N    0.201
     6   6 C    3.983 --     7 C    1.442    15 C    1.300     4 C    0.988
                             9 C    0.107
     7   6 C    3.984 --     6 C    1.442     8 C    1.400    24 H    0.963
     8   6 C    3.988 --     9 C    1.471     7 C    1.400    25 H    0.970
     9   6 C    3.988 --     8 C    1.471    10 C    1.351    26 H    0.968
                             6 C    0.107
    10   6 C    3.954 --     9 C    1.351    15 C    1.264    11 N    1.144
    11   7 N    3.538 --    12 C    1.210    10 C    1.144    27 H    0.944
                            14 N    0.109
    12   6 C    3.958 --    14 N    1.551    11 N    1.210    13 C    1.030
    13   6 C    3.993 --    12 C    1.030    29 H    0.981    28 H    0.968
                            30 H    0.968
    14   7 N    3.050 --    12 C    1.551    15 C    1.198    11 N    0.109
    15   6 C    3.977 --     6 C    1.300    10 C    1.264    14 N    1.198
    16   6 C    3.995 --    17 C    1.010    31 H    0.980    32 H    0.980
                             2 C    0.952
    17   6 C    3.995 --    16 C    1.010    18 C    0.995    33 H    0.979
                            34 H    0.976
    18   6 C    3.988 --    19 N    1.012    17 C    0.995    36 H    0.978
                            35 H    0.975
    19   7 N    3.056 --    18 C    1.012     2 C    0.987    37 H    0.941
    20   1 H    0.996 --     1 C    0.983
    21   1 H    0.997 --     1 C    0.983
    22   1 H    0.998 --     1 C    0.985
    23   1 H    0.957 --     3 N    0.891
    24   1 H    0.994 --     7 C    0.963
    25   1 H    0.997 --     8 C    0.970
    26   1 H    0.998 --     9 C    0.968
    27   1 H    0.973 --    11 N    0.944
    28   1 H    0.994 --    13 C    0.968
    29   1 H    0.994 --    13 C    0.981
    30   1 H    0.994 --    13 C    0.968
    31   1 H    0.999 --    16 C    0.980
    32   1 H    0.999 --    16 C    0.980
    33   1 H    0.999 --    17 C    0.979
    34   1 H    0.996 --    17 C    0.976
    35   1 H    0.999 --    18 C    0.975
    36   1 H    0.999 --    18 C    0.978
    37   1 H    0.973 --    19 N    0.941
    38   5 B    3.480 --   107 N    1.284    90 B    1.000    84 B    0.970
    39   7 N    3.400 --    84 B    1.143    97 N    1.007    96 B    1.001
    40   5 B    3.464 --    85 N    1.275   108 B    0.978    96 B    0.959
    41   7 N    3.529 --   100 B    1.152    98 B    1.151    68 B    1.017
    42   5 B    3.463 --    75 N    1.240   104 B    0.996    78 B    0.990
    43   7 N    3.266 --    64 B    1.203   106 B    0.967   101 N    0.888
    44   5 B    3.409 --    77 N    1.175    51 N    1.036    60 B    0.963
    45   7 N    3.568 --    58 B    1.277    46 B    1.158   102 B    0.973
    46   5 B    3.393 --    45 N    1.158    88 B    0.932    86 B    0.641
                            50 B    0.294
    47   7 N    3.322 --    52 B    1.112    91 N    1.043   103 N    0.945
    48   5 B    3.433 --    49 N    1.186    59 N    1.129    87 N    0.961
    49   7 N    3.445 --    48 B    1.186    76 B    1.086    89 N    0.967
    50   5 B    3.456 --    86 B    1.285   102 B    1.004   100 B    0.627
                            46 B    0.294
    51   7 N    3.427 --    54 B    1.228    44 B    1.036    65 N    0.929
    52   5 B    3.390 --    47 N    1.112    71 N    1.039    98 B    1.005
    53   7 N    3.510 --    56 B    1.207    76 B    1.122    73 N    0.999
    54   5 B    3.515 --    51 N    1.228    79 N    1.082    99 N    0.997
    55   7 N    3.337 --   104 B    1.127   107 N    0.990    57 N    0.982
    56   5 B    3.415 --    53 N    1.207    74 B    1.008    88 B    0.926
    57   7 N    3.327 --    92 B    1.137    55 N    0.982    61 N    0.974
    58   5 B    3.464 --    45 N    1.277    72 B    0.978    82 B    0.932
    59   7 N    3.218 --    48 B    1.129    62 B    1.065    87 N    0.793
    60   5 B    3.367 --    73 N    1.151    65 N    0.992    44 B    0.963
    61   7 N    3.100 --    79 N    1.014    57 N    0.974   105 N    0.938
    62   5 B    3.511 --    99 N    1.251    59 N    1.065    77 N    0.987
    63   7 N    3.432 --    68 B    1.202    96 B    1.061    84 B    0.924
    64   5 B    3.481 --    43 N    1.203    81 N    1.041    67 N    0.979
    65   7 N    3.283 --    70 B    1.170    60 B    0.992    51 N    0.929
    66   5 B    3.523 --   101 N    1.208   105 N    1.119    93 N    1.036
    67   7 N    3.430 --    80 B    1.220    94 B    0.993    64 B    0.979
    68   5 B    3.520 --    63 N    1.202   109 N    1.099    41 N    1.017
    69   7 N    3.441 --   106 B    1.259    80 B    0.998    95 N    0.990
    70   5 B    3.446 --    65 N    1.170    97 N    1.122   108 B    0.923
    71   7 N    3.469 --    72 B    1.259    52 B    1.039   103 N    0.984
    72   5 B    3.420 --    71 N    1.259    58 B    0.978    80 B    0.959
    73   7 N    3.510 --   108 B    1.172    60 B    1.151    53 N    0.999
    74   5 B    3.347 --    86 B    1.009    56 B    1.008    85 N    0.963
    75   7 N    3.509 --    42 B    1.240    78 B    1.094    81 N    1.036
    76   5 B    3.515 --    53 N    1.122    77 N    1.106    49 N    1.086
    77   7 N    3.477 --    44 B    1.175    76 B    1.106    62 B    0.987
    78   5 B    3.464 --    83 N    1.178    75 N    1.094    42 B    0.990
    79   7 N    3.275 --    54 B    1.082    61 N    1.014    93 N    0.976
    80   5 B    3.391 --    67 N    1.220    69 N    0.998    72 B    0.959
    81   7 N    3.372 --    64 B    1.041    75 N    1.036    94 B    0.986
    82   5 B    3.454 --    95 N    1.192    89 N    1.078    58 B    0.932
    83   7 N    3.405 --    78 B    1.178    90 B    1.072    91 N    0.959
    84   5 B    3.365 --    39 N    1.143    38 B    0.970    63 N    0.924
                            96 B    0.127
    85   7 N    3.560 --    40 B    1.275   100 B    1.106    74 B    0.963
    86   5 B    3.367 --    50 B    1.285    74 B    1.009    46 B    0.641
                           100 B    0.186
    87   7 N    2.986 --    95 N    1.045    48 B    0.961    59 N    0.793
    88   5 B    3.455 --    89 N    1.266    46 B    0.932    56 B    0.926
    89   7 N    3.480 --    88 B    1.266    82 B    1.078    49 N    0.967
    90   5 B    3.442 --   109 N    1.130    83 N    1.072    38 B    1.000
    91   7 N    3.186 --    47 N    1.043    83 N    0.959   109 N    0.951
    92   5 B    3.524 --    97 N    1.162    57 N    1.137   107 N    0.994
    93   7 N    3.225 --    66 B    1.036    99 N    0.985    79 N    0.976
    94   5 B    3.507 --   103 N    1.264    67 N    0.993    81 N    0.986
    95   7 N    3.440 --    82 B    1.192    87 N    1.045    69 N    0.990
    96   5 B    3.327 --    63 N    1.061    39 N    1.001    40 B    0.959
                            84 B    0.127
    97   7 N    3.490 --    92 B    1.162    70 B    1.122    39 N    1.007
    98   5 B    3.386 --    41 N    1.151    52 B    1.005   102 B    1.002
    99   7 N    3.448 --    62 B    1.251    54 B    0.997    93 N    0.985
   100   5 B    3.443 --    41 N    1.152    85 N    1.106    50 B    0.627
                            86 B    0.186   102 B    0.119
   101   7 N    3.334 --    66 B    1.208   106 B    1.039    43 N    0.888
   102   5 B    3.333 --    50 B    1.004    98 B    1.002    45 N    0.973
                           100 B    0.119
   103   7 N    3.439 --    94 B    1.264    71 N    0.984    47 N    0.945
   104   5 B    3.445 --   105 N    1.131    55 N    1.127    42 B    0.996
   105   7 N    3.405 --   104 B    1.131    66 B    1.119    61 N    0.938
   106   5 B    3.439 --    69 N    1.259   101 N    1.039    43 N    0.967
   107   7 N    3.476 --    38 B    1.284    92 B    0.994    55 N    0.990
   108   5 B    3.360 --    73 N    1.172    40 B    0.978    70 B    0.923
   109   7 N    3.417 --    90 B    1.130    68 B    1.099    91 N    0.951
 ---------------------------------------------------------------------------

Topologies differ in total number of bonds
Writing topology from bond orders to xtbtopo.mol

molecular dipole:
                 x           y           z       tot (Debye)
 q only:        3.212       2.047      -2.316
   full:        2.459       1.072      -0.199       6.837
molecular quadrupole (traceless):
                xx          xy          yy          xz          yz          zz
 q only:      -38.066      -9.974     -33.054      58.198     -13.130      71.120
  q+dip:      -22.986     -15.688     -21.032      88.446      -9.553      44.018
   full:      -18.707     -12.994     -20.701      92.179     -10.673      39.408

           -------------------------------------------------
          |                Geometry Summary                 |
           -------------------------------------------------

      molecular mass/u    :     1151.7577792
   center of mass at/Å    :        0.0403978      -0.0808585       2.4823193
  moments of inertia/u·Å² :        0.1197846E+05   0.3270000E+05   0.3472770E+05
rotational constants/cm⁻¹ :        0.1407329E-02   0.5155239E-03   0.4854233E-03

 * 131 selected distances

     #   Z          #   Z                                           value/Å
     1   6 C        2   6 C                                       1.5293820
     2   6 C        3   7 N                                       1.4483584
     3   7 N        4   6 C                                       1.3494457
     4   6 C        5   8 O                                       1.2199663
     6   6 C        7   6 C                                       1.3880157
     7   6 C        8   6 C                                       1.3924879
     8   6 C        9   6 C                                       1.3825929
     9   6 C       10   6 C                                       1.3852348
    10   6 C       11   7 N                                       1.3753288
    11   7 N       12   6 C                                       1.3672001
    12   6 C       13   6 C                                       1.4830939
    12   6 C       14   7 N                                       1.3008811
     6   6 C       15   6 C                                       1.3984757
    10   6 C       15   6 C                                       1.4127955
    14   7 N       15   6 C                                       1.3772334
    16   6 C       17   6 C                                       1.5268565
    17   6 C       18   6 C                                       1.5318661
     2   6 C       19   7 N                                       1.4670902
    18   6 C       19   7 N                                       1.4561083
     1   6 C       20   1 H                                       1.0855458
     1   6 C       21   1 H                                       1.0865056
     1   6 C       22   1 H                                       1.0877351
     3   7 N       23   1 H                                       1.0142021
     7   6 C       24   1 H                                       1.0797255
     8   6 C       25   1 H                                       1.0794270
     9   6 C       26   1 H                                       1.0800727
    11   7 N       27   1 H                                       1.0061265 (min)
    13   6 C       28   1 H                                       1.0894345
    13   6 C       29   1 H                                       1.0857392
    13   6 C       30   1 H                                       1.0899577
    16   6 C       31   1 H                                       1.0879057
    16   6 C       32   1 H                                       1.0904223
    17   6 C       33   1 H                                       1.0884735
    17   6 C       34   1 H                                       1.0899461
    18   6 C       35   1 H                                       1.0960205
    18   6 C       36   1 H                                       1.0886483
    19   7 N       37   1 H                                       1.0157270
    45   7 N       46   5 B                                       1.4429985
    48   5 B       49   7 N                                       1.4041095
    44   5 B       51   7 N                                       1.4717043
    47   7 N       52   5 B                                       1.4403380
    51   7 N       54   5 B                                       1.3878878
    53   7 N       56   5 B                                       1.4222994
    55   7 N       57   7 N                                       1.4235917
    45   7 N       58   5 B                                       1.4232620
    48   5 B       59   7 N                                       1.3937909
    44   5 B       60   5 B                                       1.5751310
    57   7 N       61   7 N                                       1.4196303
    59   7 N       62   5 B                                       1.4350772
    43   7 N       64   5 B                                       1.3891117
    60   5 B       65   7 N                                       1.4840541
    64   5 B       67   7 N                                       1.4718215
    41   7 N       68   5 B                                       1.4904566
    63   7 N       68   5 B                                       1.4130959
    65   7 N       70   5 B                                       1.4382180
    52   5 B       71   7 N                                       1.4566323
    58   5 B       72   5 B                                       1.6641825
    71   7 N       72   5 B                                       1.4083739
    60   5 B       73   7 N                                       1.4217525
    56   5 B       74   5 B                                       1.6423669
    42   5 B       75   7 N                                       1.4062075
    49   7 N       76   5 B                                       1.4486730
    53   7 N       76   5 B                                       1.4602078
    44   5 B       77   7 N                                       1.4269303
    62   5 B       77   7 N                                       1.4937814
    76   5 B       77   7 N                                       1.4578159
    42   5 B       78   5 B                                       1.5728089
    75   7 N       78   5 B                                       1.4134813
    54   5 B       79   7 N                                       1.4401803
    61   7 N       79   7 N                                       1.3904914
    67   7 N       80   5 B                                       1.4204191
    69   7 N       80   5 B                                       1.4790507
    72   5 B       80   5 B                                       1.6741342 (max)
    64   5 B       81   7 N                                       1.4507326
    75   7 N       81   7 N                                       1.3691434
    78   5 B       83   7 N                                       1.4096888
    38   5 B       84   5 B                                       1.6080261
    39   7 N       84   5 B                                       1.4235273
    63   7 N       84   5 B                                       1.5001465
    40   5 B       85   7 N                                       1.4101544
    74   5 B       85   7 N                                       1.4909725
    50   5 B       86   5 B                                       1.5157557
    74   5 B       86   5 B                                       1.6060718
    48   5 B       87   7 N                                       1.4295577
    46   5 B       88   5 B                                       1.6490450
    56   5 B       88   5 B                                       1.6618533
    82   5 B       89   7 N                                       1.4619639
    88   5 B       89   7 N                                       1.4028183
    38   5 B       90   5 B                                       1.6193795
    83   7 N       90   5 B                                       1.4431394
    47   7 N       91   7 N                                       1.3678307
    57   7 N       92   5 B                                       1.4399135
    66   5 B       93   7 N                                       1.4533540
    79   7 N       93   7 N                                       1.4350545
    67   7 N       94   5 B                                       1.4561862
    81   7 N       94   5 B                                       1.4633813
    82   5 B       95   7 N                                       1.4268273
    87   7 N       95   7 N                                       1.3893483
    39   7 N       96   5 B                                       1.4596140
    40   5 B       96   5 B                                       1.6122437
    63   7 N       96   5 B                                       1.4508352
    70   5 B       97   7 N                                       1.4505251
    92   5 B       97   7 N                                       1.4412399
    41   7 N       98   5 B                                       1.4573979
    52   5 B       98   5 B                                       1.6052130
    54   5 B       99   7 N                                       1.4625142
    62   5 B       99   7 N                                       1.3904057
    93   7 N       99   7 N                                       1.4192325
    41   7 N      100   5 B                                       1.4586970
    85   7 N      100   5 B                                       1.4558788
    66   5 B      101   7 N                                       1.3893285
    45   7 N      102   5 B                                       1.4965545
    50   5 B      102   5 B                                       1.6004776
    98   5 B      102   5 B                                       1.6241460
    47   7 N      103   7 N                                       1.4307576
    71   7 N      103   7 N                                       1.4182479
    94   5 B      103   7 N                                       1.3745344
    42   5 B      104   5 B                                       1.6420648
    55   7 N      104   5 B                                       1.4426579
    66   5 B      105   7 N                                       1.4425442
   104   5 B      105   7 N                                       1.4495095
    43   7 N      106   5 B                                       1.4255500
    69   7 N      106   5 B                                       1.4010029
   101   7 N      106   5 B                                       1.4163603
    38   5 B      107   7 N                                       1.4022220
    55   7 N      107   7 N                                       1.4099815
    92   5 B      107   7 N                                       1.4850941
    40   5 B      108   5 B                                       1.6507638
    73   7 N      108   5 B                                       1.4320622
    68   5 B      109   7 N                                       1.4511689
    90   5 B      109   7 N                                       1.4432894

 * 8 distinct bonds (by element types)

   Z      Z             #   av. dist./Å        max./Å        min./Å
   5 B    5 B          17     1.6190390     1.6741342     1.5157557
   1 H    6 C          15     1.0870373     1.0960205     1.0794270
   6 C    6 C          10     1.4430801     1.5318661     1.3825929
   1 H    7 N           3     1.0120185     1.0157270     1.0061265
   5 B    7 N          66     1.4391376     1.5001465     1.3745344
   6 C    7 N           8     1.3927057     1.4670902     1.3008811
   7 N    7 N          11     1.4066645     1.4350545     1.3678307
   6 C    8 O           1     1.2199663     1.2199663     1.2199663


optimized geometry written to: xtbopt.xyz


           -------------------------------------------------
          | TOTAL ENERGY             -205.189349099866 Eh   |
          | GRADIENT NORM               0.002743238080 Eh/α |
          | HOMO-LUMO GAP               0.641267975202 eV   |
           -------------------------------------------------

------------------------------------------------------------------------
 * finished run on 2026/08/31 at 22:24:15.644     
------------------------------------------------------------------------
 total:
 * wall-time:     0 d,  0 h,  0 min,  4.542 sec
 *  cpu-time:     0 d,  0 h,  0 min, 44.547 sec
 * ratio c/w:     9.808 speedup
 SCF:
 * wall-time:     0 d,  0 h,  0 min,  0.474 sec
 *  cpu-time:     0 d,  0 h,  0 min,  4.953 sec
 * ratio c/w:    10.450 speedup
 ANC optimizer:
 * wall-time:     0 d,  0 h,  0 min,  4.007 sec
 *  cpu-time:     0 d,  0 h,  0 min, 39.016 sec
 * ratio c/w:     9.737 speedup

normal termination of xtb
