109
Drug@B36N36 non-overlapping relaxed complex
C     -2.082863      1.321364     10.316084
C     -1.968132      0.919560      8.839313
N     -0.751648      0.164754      8.644062
C     -0.283578     -0.346208      7.455838
O     -0.925348     -0.326576      6.409697
C      1.066095     -0.965528      7.480958
C      1.573452     -1.577890      6.318997
C      2.839376     -2.170097      6.308250
C      3.646810     -2.174545      7.450076
C      3.127476     -1.559743      8.591559
N      3.637203     -1.386353      9.853505
C      2.712038     -0.706539     10.605766
C      2.952139     -0.356882     12.025376
N      1.637898     -0.434228      9.895420
C      1.871780     -0.960078      8.636362
C     -2.084775      2.150216      7.924339
C     -3.285844      1.857716      7.039709
C     -4.090357      0.870936      7.858350
N     -3.079750      0.025844      8.503850
H     -3.016401      1.856807     10.523498
H     -2.047761      0.443697     10.973100
H     -1.251222      1.974622     10.605811
H     -0.117444      0.107333      9.440424
H      0.969772     -1.592866      5.412649
H      3.201208     -2.636693      5.393649
H      4.628861     -2.635785      7.440378
H      4.539732     -1.705544     10.175017
H      3.834433      0.283457     12.120420
H      2.093860      0.181283     12.439342
H      3.109219     -1.259890     12.623218
H     -1.191625      2.340300      7.319840
H     -2.286372      3.059120      8.504622
H     -3.852646      2.762137      6.799720
H     -2.961252      1.401398      6.097468
H     -4.687305      1.385766      8.619826
H     -4.770375      0.279054      7.238480
H     -2.706651     -0.589918      7.775379
B      3.459180     -1.454569      1.628037
N      3.456400      1.129904      0.940040
B      2.539920      2.362499     -1.261047
N      2.293067     -0.641637     -2.730603
B      0.690534     -3.561069      2.702709
N     -2.939724     -2.654773      1.709476
B     -1.038202      4.085096      1.831238
N     -0.619347      0.017651     -3.941904
B     -0.473710      1.445324     -4.091730
N      1.209559     -3.786796     -1.739405
B     -3.844500      2.209440     -0.493722
N     -2.772864      2.763562     -1.211833
B      1.405725      0.818091     -4.889311
N     -0.235789      3.364215      2.833544
B      0.898320     -2.879798     -2.813849
N     -0.491833      3.766578     -1.010119
B     -0.805996      2.182269      3.281874
N      1.656110     -1.274433      3.503622
B     -0.248484      3.469937     -2.379863
N      1.308703      0.068898      3.816981
B     -1.597441     -0.559934     -3.084689
N     -3.832496      1.776842      0.831624
B      0.337602      4.495994      1.183894
N      0.043256     -0.013955      4.456653
B     -2.708837      2.226751      1.601242
N      3.772728     -0.132624     -0.765541
B     -2.253381     -3.639412      1.008482
N      1.055818      3.733398      2.235734
B     -1.825620     -0.777460      3.219840
N     -2.436768     -3.601880     -0.450773
B      3.018658     -1.073670     -1.502768
N     -3.157960     -1.252592     -0.384321
B      2.034656      2.922326      1.561722
N     -0.507447     -2.900148     -2.432795
B     -1.673548     -2.112882     -2.491621
N      0.590135      3.964583     -0.110225
B      1.090314      2.959649     -3.182489
N      0.077350     -4.359230      1.721289
B     -1.784034      3.452384     -0.408220
N     -2.013520      3.418515      1.031553
B      1.465878     -4.212148      1.499138
N     -0.797987      1.064153      4.194581
B     -2.666242     -2.402096     -1.175256
N     -1.074388     -4.484335      0.991235
B     -2.503710      0.491370     -2.109143
N      2.352728     -3.887335      0.453103
B      3.912327     -0.202357      0.725926
N      1.928548      1.957009     -2.465077
B      1.001184      2.254351     -4.622507
N     -4.186016      0.829005     -0.347538
B     -1.338881      2.453658     -3.114870
N     -2.359649      1.932605     -2.305841
B      3.073063     -2.645483      0.601111
N      2.335213     -3.673670     -0.970876
B      2.217863      0.545803      2.808407
N     -2.026423      0.611912      3.601492
B     -1.101749     -4.183787     -0.441007
N     -3.218144      0.041654     -0.958566
B      3.447752      1.258593     -0.514065
N      2.582085      1.632977      1.936454
B      1.472054     -1.555001     -3.515610
N     -2.102601      1.754194      2.760799
B      2.040765      0.711921     -3.211483
N     -2.720915     -1.341699      2.320567
B      0.658648     -0.538875     -4.486937
N     -0.168664     -3.759421     -1.356472
B      0.485560     -2.105634      3.433764
N     -0.587253     -1.205033      3.824488
B     -3.224373     -1.451411      1.000320
N      2.671324     -0.855529      2.621135
B      1.878557      3.339348     -0.106427
N      2.876911     -2.331783     -0.793563
