      -----------------------------------------------------------      
     |                   =====================                   |     
     |                           x T B                           |     
     |                   =====================                   |     
     |                         S. Grimme                         |     
     |          Mulliken Center for Theoretical Chemistry        |     
     |                    University of Bonn                     |     
      -----------------------------------------------------------      

   * xtb version 6.7.1pre (5071a88) compiled by 'Marcel@Raven' on 2024-07-23

   xtb is free software: you can redistribute it and/or modify it under
   the terms of the GNU Lesser General Public License as published by
   the Free Software Foundation, either version 3 of the License, or
   (at your option) any later version.
   
   xtb is distributed in the hope that it will be useful,
   but WITHOUT ANY WARRANTY; without even the implied warranty of
   MERCHANTABILITY or FITNESS FOR A PARTICULAR PURPOSE.  See the
   GNU Lesser General Public License for more details.
   
   Cite this work as:
   * C. Bannwarth, E. Caldeweyher, S. Ehlert, A. Hansen, P. Pracht,
     J. Seibert, S. Spicher, S. Grimme, WIREs Comput. Mol. Sci., 2020, 11,
     e01493. DOI: 10.1002/wcms.1493
   
   for GFN2-xTB:
   * C. Bannwarth, S. Ehlert and S. Grimme., J. Chem. Theory Comput., 2019,
     15, 1652-1671. DOI: 10.1021/acs.jctc.8b01176
   for GFN1-xTB:
   * S. Grimme, C. Bannwarth, P. Shushkov, J. Chem. Theory Comput., 2017,
     13, 1989-2009. DOI: 10.1021/acs.jctc.7b00118
   for GFN0-xTB:
   * P. Pracht, E. Caldeweyher, S. Ehlert, S. Grimme, ChemRxiv, 2019, preprint.
     DOI: 10.26434/chemrxiv.8326202.v1
   for GFN-FF:
   * S. Spicher and S. Grimme, Angew. Chem. Int. Ed., 2020, 59, 15665-15673.
     DOI: 10.1002/anie.202004239
   
   for ALPB and GBSA implicit solvation:
   * S. Ehlert, M. Stahn, S. Spicher, S. Grimme, J. Chem. Theory Comput.,
     2021, 17, 4250-4261. DOI: 10.1021/acs.jctc.1c00471
   
   for ddCOSMO and CPCM-X implicit solvation:
   * M. Stahn, S. Ehlert, S. Grimme, J. Phys. Chem. A,
     2023, XX, XXXX-XXXX. DOI: 10.1021/acs.jpca.3c04382
   
   for DFT-D4:
   * E. Caldeweyher, C. Bannwarth and S. Grimme, J. Chem. Phys., 2017,
     147, 034112. DOI: 10.1063/1.4993215
   * E. Caldeweyher, S. Ehlert, A. Hansen, H. Neugebauer, S. Spicher,
     C. Bannwarth and S. Grimme, J. Chem. Phys., 2019, 150, 154122.
     DOI: 10.1063/1.5090222
   * E. Caldeweyher, J.-M. Mewes, S. Ehlert and S. Grimme, Phys. Chem. Chem. Phys.
     2020, 22, 8499-8512. DOI: 10.1039/D0CP00502A
   
   for sTDA-xTB:
   * S. Grimme and C. Bannwarth, J. Chem. Phys., 2016, 145, 054103.
     DOI: 10.1063/1.4959605
   
   in the mass-spec context:
   * V. Asgeirsson, C. Bauer and S. Grimme, Chem. Sci., 2017, 8, 4879.
     DOI: 10.1039/c7sc00601b
   * J. Koopman and S. Grimme, ACS Omega 2019, 4, 12, 15120-15133.
     DOI: 10.1021/acsomega.9b02011
   
   for metadynamics refer to:
   * S. Grimme, J. Chem. Theory Comput., 2019, 155, 2847-2862
     DOI: 10.1021/acs.jctc.9b00143
   
   for SPH calculations refer to:
   * S. Spicher and S. Grimme, J. Chem. Theory Comput., 2021, 17, 1701-1714
     DOI: 10.1021/acs.jctc.0c01306
   
   for ONIOM refer to:
   * C. Plett, A. Katbashev, S. Ehlert, S. Grimme, M. Bursch,
     Phys. Chem. Chem. Phys., 2023, 25, 17860-17868. DOI: 10.1039/D3CP02178E
   
   for DIPRO refer to:
   * J. Kohn, N. Gildemeister, S. Grimme, D. Fazzi, A. Hansen,
     J. Chem. Phys., 2023, just accepted.
   
   for PTB refer to:
   * S. Grimme, M. Mueller, A. Hansen, J. Chem. Phys., 2023, 158, 124111.
     DOI: 10.1063/5.0137838
   
   with help from (in alphabetical order)
   P. Atkinson, C. Bannwarth, F. Bohle, G. Brandenburg, E. Caldeweyher
   M. Checinski, S. Dohm, S. Ehlert, S. Ehrlich, I. Gerasimov, C. Hölzer
   A. Katbashev, J. Kohn, J. Koopman, C. Lavigne, S. Lehtola, F. März, M. Müller,
   F. Musil, H. Neugebauer, J. Pisarek, C. Plett, P. Pracht, F. Pultar,
   J. Seibert, P. Shushkov, S. Spicher, M. Stahn, M. Steiner, T. Strunk,
   J. Stückrath, T. Rose, and J. Unsleber
   
 * started run on 2026/08/31 at 22:24:15.683     
   ID    Z sym.   atoms
    1    6 C      1, 2, 4, 6-10, 12, 13, 15-18
    2    7 N      3, 11, 14, 19, 39, 41, 43, 45, 47, 49, 51, 53, 55, 57, 59,
                  61, 63, 65, 67, 69, 71, 73, 75, 77, 79, 81, 83, 85, 87, 89,
                  91, 93, 95, 97, 99, 101, 103, 105, 107, 109
    3    8 O      5
    4    1 H      20-37
    5    5 B      38, 40, 42, 44, 46, 48, 50, 52, 54, 56, 58, 60, 62, 64, 66,
                  68, 70, 72, 74, 76, 78, 80, 82, 84, 86, 88, 90, 92, 94, 96,
                  98, 100, 102, 104, 106, 108

           -------------------------------------------------
          |                Calculation Setup                |
           -------------------------------------------------

          program call               : "c:\Users\Andre\Proyectos doctorado\kras-pancreatic-gC3N4-ai\tools\xtb\xtb-6.7.1\bin\xtb.exe" "c:\Users\Andre\Proyectos doctorado\nano-qsar-ai-therapeutics\calculations\tnbc\Veliparib\Veliparib_opt_90deg.xyz" --opt vloose --gfn 2 --chrg 0 --uhf 0 --etemp 300 --iterations 500 --cycles 15 --norestart
          coordinate file            : c:\Users\Andre\Proyectos doctorado\nano-qsar-ai-therapeutics\calculations\tnbc\Veliparib\Veliparib_opt_90deg.xyz
          omp threads                :                    16


molecular fragmentation (1/2 indicates fragments):
111111111111111111111111111111111111122222222222222222222222222222222222
2222222222222222222222222222222222222
# atoms in fragment 1/2:    37    72
 fragment masses (1/2) :      258.32      893.44
CMA distance (Bohr)    :  20.119
constraining FC (au)   :  0.0500

           -------------------------------------------------
          |                 G F N 2 - x T B                 |
           -------------------------------------------------

        Reference                      10.1021/acs.jctc.8b01176
      * Hamiltonian:
        H0-scaling (s, p, d)           1.850000    2.230000    2.230000
        zeta-weighting                 0.500000
      * Dispersion:
        s8                             2.700000
        a1                             0.520000
        a2                             5.000000
        s9                             5.000000
      * Repulsion:
        kExp                           1.500000    1.000000
        rExp                           1.000000
      * Coulomb:
        alpha                          2.000000
        third order                    shell-resolved
        anisotropic                    true
        a3                             3.000000
        a5                             4.000000
        cn-shift                       1.200000
        cn-exp                         4.000000
        max-rad                        5.000000


          ...................................................
          :                      SETUP                      :
          :.................................................:
          :  # basis functions                 382          :
          :  # atomic orbitals                 382          :
          :  # shells                          200          :
          :  # electrons                       388          :
          :  max. iterations                   500          :
          :  Hamiltonian                  GFN2-xTB          :
          :  restarted?                      false          :
          :  GBSA solvation                  false          :
          :  PC potential                    false          :
          :  electronic temp.          300.0000000     K    :
          :  accuracy                    1.0000000          :
          :  -> integral cutoff          0.2500000E+02      :
          :  -> integral neglect         0.1000000E-07      :
          :  -> SCF convergence          0.1000000E-05 Eh   :
          :  -> wf. convergence          0.1000000E-03 e    :
          :  Broyden damping             0.4000000          :
          :  net charge                          0          :
          :  unpaired electrons                  0          :
          ...................................................

 iter      E             dE          RMSdq      gap      omega  full diag
   1   -206.3750682 -0.206375E+03  0.115E+01    0.61       0.0  T
   2   -206.8308051 -0.455737E+00  0.699E+00    0.43       1.0  T
   3   -204.0233804  0.280742E+01  0.447E+00    0.14       1.0  T
   4   -207.0787400 -0.305536E+01  0.130E+00    0.34       1.0  T
   5   -207.2743742 -0.195634E+00  0.689E-01    0.64       1.0  T
   6   -207.3002445 -0.258703E-01  0.508E-01    0.64       1.0  T
   7   -207.2997628  0.481725E-03  0.374E-01    0.78       1.0  T
   8   -207.3025527 -0.278984E-02  0.247E-01    0.61       1.0  T
   9   -207.3115928 -0.904014E-02  0.822E-02    0.63       1.0  T
  10   -207.3126588 -0.106598E-02  0.286E-02    0.63       1.0  T
  11   -207.3127438 -0.850350E-04  0.155E-02    0.62       1.0  T
  12   -207.3127585 -0.146952E-04  0.773E-03    0.62       1.2  T
  13   -207.3127609 -0.236128E-05  0.349E-03    0.62       2.7  T
  14   -207.3127625 -0.167004E-05  0.117E-03    0.62       8.2  T
  15   -207.3127626 -0.107974E-06  0.607E-04    0.62      15.8  T
  16   -207.3127627 -0.194304E-07  0.286E-04    0.62      33.4  T

   *** convergence criteria satisfied after 16 iterations ***

         #    Occupation            Energy/Eh            Energy/eV
      -------------------------------------------------------------
         1        2.0000           -0.6940948             -18.8873
       ...           ...                  ...                  ...
       188        2.0000           -0.3236318              -8.8065
       189        2.0000           -0.3208339              -8.7303
       190        2.0000           -0.3191645              -8.6849
       191        2.0000           -0.3164253              -8.6104
       192        2.0000           -0.3114471              -8.4749
       193        2.0000           -0.3097593              -8.4290
       194        2.0000           -0.3026704              -8.2361 (HOMO)
       195        0.0000           -0.2798530              -7.6152 (LUMO)
       196                         -0.2714773              -7.3873
       197                         -0.2607958              -7.0966
       198                         -0.2565732              -6.9817
       199                         -0.2473022              -6.7294
       ...                                ...                  ...
       382                          0.9870205              26.8582
      -------------------------------------------------------------
                  HL-Gap            0.0228174 Eh            0.6209 eV
             Fermi-level           -0.2912615 Eh           -7.9256 eV

 SCC (total)                   0 d,  0 h,  0 min,  0.528 sec
 SCC setup                      ...        0 min,  0.001 sec (  0.189%)
 Dispersion                     ...        0 min,  0.003 sec (  0.568%)
 classical contributions        ...        0 min,  0.000 sec (  0.000%)
 integral evaluation            ...        0 min,  0.012 sec (  2.273%)
 iterations                     ...        0 min,  0.482 sec ( 91.288%)
 molecular gradient             ...        0 min,  0.028 sec (  5.303%)
 printout                       ...        0 min,  0.002 sec (  0.379%)

         :::::::::::::::::::::::::::::::::::::::::::::::::::::
         ::                     SUMMARY                     ::
         :::::::::::::::::::::::::::::::::::::::::::::::::::::
         :: total energy            -205.181209465692 Eh    ::
         :: gradient norm              0.065763278521 Eh/a0 ::
         :: HOMO-LUMO gap              0.620892713873 eV    ::
         ::.................................................::
         :: SCC energy              -207.298549116508 Eh    ::
         :: -> isotropic ES            0.699846256209 Eh    ::
         :: -> anisotropic ES         -0.025066892020 Eh    ::
         :: -> anisotropic XC          0.093272593837 Eh    ::
         :: -> dispersion             -0.183385372252 Eh    ::
         :: repulsion energy           2.117339650817 Eh    ::
         :: add. restraining           0.000000000000 Eh    ::
         :: total charge              -0.000000000000 e     ::
         :::::::::::::::::::::::::::::::::::::::::::::::::::::

      ----------------------------------------------------------- 
     |                   =====================                   |
     |                        A N C O P T                        |
     |                   =====================                   |
     |               Approximate Normal Coordinate               |
     |                Rational Function Optimizer                |
      ----------------------------------------------------------- 
      ----------------------------------------------------------- 
     |                   =====================                   |
     |                        A N C O P T                        |
     |                   =====================                   |
     |               Approximate Normal Coordinate               |
     |                Rational Function Optimizer                |
      ----------------------------------------------------------- 

          ...................................................
          :                      SETUP                      :
          :.................................................:
          :   optimization level            normal          :
          :   max. optcycles                    15          :
          :   ANC micro-cycles                  15          :
          :   degrees of freedom               321          :
          :.................................................:
          :   RF solver                   davidson          :
          :   write xtbopt.log                true          :
          :   linear?                        false          :
          :   energy convergence         0.5000000E-05 Eh   :
          :   grad. convergence          0.1000000E-02 Eh/α :
          :   maxmium RF displ.          1.0000000          :
          :   Hlow (freq-cutoff)         0.1000000E-01      :
          :   Hmax (freq-cutoff)         5.0000000          :
          :   S6 in model hess.         20.0000000          :
          ...................................................

generating ANC from exact Hessian ...
Using Lindh-Hessian (1995)
 Shifting diagonal of input Hessian by   1.008605432369429E-002
 Lowest  eigenvalues of input Hessian
    0.010000    0.010006    0.010018    0.000000    0.000000    0.000000
    0.000000    0.000000    0.000000    0.010113    0.010134    0.010199
    0.010478    0.010920    0.011341    0.013358    0.013557    0.015678
 Highest eigenvalues
    2.115162    2.154604    2.194861    2.260728    2.290826    2.314981
 

........................................................................
.............................. CYCLE    1 ..............................
........................................................................

 iter      E             dE          RMSdq      gap      omega  full diag
   1   -207.3127627 -0.207313E+03  0.102E-04    0.62       0.0  T
   2   -207.3127627  0.305135E-09  0.928E-05    0.62     103.3  T
   3   -207.3127627 -0.120380E-08  0.417E-05    0.62     229.7  T
     SCC iter.                  ...        0 min,  0.092 sec
     gradient                   ...        0 min,  0.029 sec
 * total energy  :  -205.1812095 Eh     change       -0.6450392E-08 Eh
   gradient norm :     0.0657638 Eh/α   predicted     0.0000000E+00 (-100.00%)
   displ. norm   :     0.2901604 α      lambda       -0.9140006E-02
   maximum displ.:     0.1151194 α      in ANC's #44, #32, #81, ...

........................................................................
.............................. CYCLE    2 ..............................
........................................................................

 iter      E             dE          RMSdq      gap      omega  full diag
   1   -207.3399445 -0.207340E+03  0.110E-01    0.62       0.0  T
   2   -207.3399944 -0.499013E-04  0.651E-02    0.62       1.0  T
   3   -207.3399604  0.340623E-04  0.235E-02    0.63       1.0  T
   4   -207.3400029 -0.425371E-04  0.577E-03    0.62       1.7  T
   5   -207.3400059 -0.301101E-05  0.373E-03    0.62       2.6  T
   6   -207.3400083 -0.232184E-05  0.169E-03    0.62       5.7  T
   7   -207.3400084 -0.136692E-06  0.110E-03    0.62       8.7  T
   8   -207.3400086 -0.160267E-06  0.456E-04    0.62      21.0  T
   9   -207.3400086 -0.319142E-07  0.163E-04    0.62      58.8  T
     SCC iter.                  ...        0 min,  0.247 sec
     gradient                   ...        0 min,  0.026 sec
 * total energy  :  -205.1873109 Eh     change       -0.6101418E-02 Eh
   gradient norm :     0.0261923 Eh/α   predicted    -0.4956222E-02 ( -18.77%)
   displ. norm   :     0.1970109 α      lambda       -0.2099889E-02
   maximum displ.:     0.0705577 α      in ANC's #44, #32, #14, ...

........................................................................
.............................. CYCLE    3 ..............................
........................................................................

 iter      E             dE          RMSdq      gap      omega  full diag
   1   -207.3526810 -0.207353E+03  0.589E-02    0.62       0.0  T
   2   -207.3527023 -0.213066E-04  0.354E-02    0.63       1.0  T
   3   -207.3526926  0.968825E-05  0.136E-02    0.63       1.0  T
   4   -207.3527022 -0.961356E-05  0.508E-03    0.62       1.9  T
   5   -207.3527055 -0.333558E-05  0.296E-03    0.63       3.2  T
   6   -207.3527071 -0.156324E-05  0.108E-03    0.63       8.9  T
   7   -207.3527072 -0.437931E-07  0.734E-04    0.63      13.1  T
   8   -207.3527072 -0.726558E-07  0.280E-04    0.63      34.2  T
     SCC iter.                  ...        0 min,  0.230 sec
     gradient                   ...        0 min,  0.032 sec
 * total energy  :  -205.1884987 Eh     change       -0.1187809E-02 Eh
   gradient norm :     0.0066884 Eh/α   predicted    -0.1090827E-02 (  -8.16%)
   displ. norm   :     0.0888502 α      lambda       -0.2212285E-03
   maximum displ.:     0.0384205 α      in ANC's #18, #16, #32, ...

........................................................................
.............................. CYCLE    4 ..............................
........................................................................

 iter      E             dE          RMSdq      gap      omega  full diag
   1   -207.3533443 -0.207353E+03  0.198E-02    0.63       0.0  T
   2   -207.3533455 -0.126805E-05  0.118E-02    0.63       1.0  T
   3   -207.3533439  0.161744E-05  0.375E-03    0.63       2.6  T
   4   -207.3533444 -0.447178E-06  0.269E-03    0.63       3.6  T
   5   -207.3533458 -0.139261E-05  0.783E-04    0.63      12.2  T
   6   -207.3533458 -0.699149E-07  0.408E-04    0.63      23.5  T
   7   -207.3533458 -0.146204E-07  0.189E-04    0.63      50.6  T
     SCC iter.                  ...        0 min,  0.242 sec
     gradient                   ...        0 min,  0.027 sec
 * total energy  :  -205.1886565 Eh     change       -0.1577629E-03 Eh
   gradient norm :     0.0041135 Eh/α   predicted    -0.1114852E-03 ( -29.33%)
   displ. norm   :     0.1140860 α      lambda       -0.1560540E-03
   maximum displ.:     0.0519729 α      in ANC's #18, #16, #5, ...

........................................................................
.............................. CYCLE    5 ..............................
........................................................................

 iter      E             dE          RMSdq      gap      omega  full diag
   1   -207.3528962 -0.207353E+03  0.245E-02    0.63       0.0  T
   2   -207.3528971 -0.977682E-06  0.145E-02    0.63       1.0  T
   3   -207.3528936  0.351713E-05  0.475E-03    0.63       2.0  T
   4   -207.3528959 -0.229709E-05  0.284E-03    0.63       3.4  T
   5   -207.3528975 -0.157554E-05  0.866E-04    0.63      11.1  T
   6   -207.3528976 -0.525175E-07  0.532E-04    0.63      18.0  T
   7   -207.3528976 -0.209251E-07  0.296E-04    0.63      32.3  T
     SCC iter.                  ...        0 min,  0.198 sec
     gradient                   ...        0 min,  0.027 sec
 * total energy  :  -205.1887543 Eh     change       -0.9781920E-04 Eh
   gradient norm :     0.0026754 Eh/α   predicted    -0.7904466E-04 ( -19.19%)
   displ. norm   :     0.0781436 α      lambda       -0.5059536E-04
   maximum displ.:     0.0330006 α      in ANC's #16, #5, #18, ...

........................................................................
.............................. CYCLE    6 ..............................
........................................................................

 iter      E             dE          RMSdq      gap      omega  full diag
   1   -207.3526440 -0.207353E+03  0.160E-02    0.63       0.0  T
   2   -207.3526443 -0.325454E-06  0.944E-03    0.63       1.0  T
   3   -207.3526428  0.144666E-05  0.296E-03    0.63       3.2  T
   4   -207.3526438 -0.986108E-06  0.171E-03    0.63       5.6  T
   5   -207.3526444 -0.588346E-06  0.500E-04    0.63      19.1  T
   6   -207.3526444 -0.175542E-07  0.322E-04    0.63      29.8  T
     SCC iter.                  ...        0 min,  0.164 sec
     gradient                   ...        0 min,  0.031 sec
 * total energy  :  -205.1887930 Eh     change       -0.3867856E-04 Eh
   gradient norm :     0.0022831 Eh/α   predicted    -0.2545584E-04 ( -34.19%)
   displ. norm   :     0.1347581 α      lambda       -0.6587644E-04
   maximum displ.:     0.0588683 α      in ANC's #5, #16, #6, ...

........................................................................
.............................. CYCLE    7 ..............................
........................................................................

 iter      E             dE          RMSdq      gap      omega  full diag
   1   -207.3525135 -0.207353E+03  0.253E-02    0.63       0.0  T
   2   -207.3525142 -0.667979E-06  0.149E-02    0.63       1.0  T
   3   -207.3525106  0.352766E-05  0.462E-03    0.63       2.1  T
   4   -207.3525131 -0.251644E-05  0.262E-03    0.63       3.7  T
   5   -207.3525144 -0.129744E-05  0.773E-04    0.63      12.4  T
   6   -207.3525145 -0.596374E-07  0.394E-04    0.63      24.3  T
   7   -207.3525145 -0.278681E-08  0.226E-04    0.63      42.4  T
     SCC iter.                  ...        0 min,  0.204 sec
     gradient                   ...        0 min,  0.029 sec
 * total energy  :  -205.1888413 Eh     change       -0.4838291E-04 Eh
   gradient norm :     0.0025417 Eh/α   predicted    -0.3355097E-04 ( -30.66%)
   displ. norm   :     0.1581108 α      lambda       -0.5793671E-04
   maximum displ.:     0.0737195 α      in ANC's #5, #16, #6, ...

........................................................................
.............................. CYCLE    8 ..............................
........................................................................

 iter      E             dE          RMSdq      gap      omega  full diag
   1   -207.3524626 -0.207352E+03  0.271E-02    0.64       0.0  T
   2   -207.3524632 -0.652617E-06  0.159E-02    0.63       1.0  T
   3   -207.3524589  0.434506E-05  0.493E-03    0.64       1.9  T
   4   -207.3524623 -0.345689E-05  0.248E-03    0.63       3.9  T
   5   -207.3524635 -0.119407E-05  0.831E-04    0.63      11.5  T
   6   -207.3524636 -0.669454E-07  0.465E-04    0.63      20.6  T
   7   -207.3524636 -0.654396E-08  0.319E-04    0.63      30.0  T
     SCC iter.                  ...        0 min,  0.206 sec
     gradient                   ...        0 min,  0.029 sec
 * total energy  :  -205.1888849 Eh     change       -0.4352991E-04 Eh
   gradient norm :     0.0027854 Eh/α   predicted    -0.2969371E-04 ( -31.79%)
   displ. norm   :     0.1706575 α      lambda       -0.5218533E-04
   maximum displ.:     0.0850408 α      in ANC's #5, #6, #4, ...

........................................................................
.............................. CYCLE    9 ..............................
........................................................................

 iter      E             dE          RMSdq      gap      omega  full diag
   1   -207.3525877 -0.207353E+03  0.263E-02    0.64       0.0  T
   2   -207.3525883 -0.616476E-06  0.155E-02    0.63       1.0  T
   3   -207.3525849  0.338449E-05  0.449E-03    0.64       2.1  T
   4   -207.3525875 -0.257890E-05  0.235E-03    0.63       4.1  T
   5   -207.3525886 -0.107284E-05  0.771E-04    0.63      12.4  T
   6   -207.3525886 -0.556617E-07  0.439E-04    0.63      21.8  T
   7   -207.3525886 -0.678671E-08  0.292E-04    0.63      32.8  T
     SCC iter.                  ...        0 min,  0.232 sec
     gradient                   ...        0 min,  0.026 sec
 * total energy  :  -205.1889236 Eh     change       -0.3871413E-04 Eh
   gradient norm :     0.0021118 Eh/α   predicted    -0.2685309E-04 ( -30.64%)
   displ. norm   :     0.1568040 α      lambda       -0.3714900E-04
   maximum displ.:     0.0834382 α      in ANC's #5, #4, #6, ...

........................................................................
.............................. CYCLE   10 ..............................
........................................................................

 iter      E             dE          RMSdq      gap      omega  full diag
   1   -207.3527054 -0.207353E+03  0.213E-02    0.64       0.0  T
   2   -207.3527058 -0.408510E-06  0.126E-02    0.63       1.0  T
   3   -207.3527041  0.175122E-05  0.331E-03    0.64       2.9  T
   4   -207.3527054 -0.133554E-05  0.173E-03    0.63       5.6  T
   5   -207.3527060 -0.561099E-06  0.629E-04    0.64      15.2  T
   6   -207.3527060 -0.372333E-07  0.367E-04    0.63      26.1  T
     SCC iter.                  ...        0 min,  0.163 sec
     gradient                   ...        0 min,  0.026 sec
 * total energy  :  -205.1889522 Eh     change       -0.2857574E-04 Eh
   gradient norm :     0.0014428 Eh/α   predicted    -0.1903971E-04 ( -33.37%)
   displ. norm   :     0.2155149 α      lambda       -0.3114264E-04
   maximum displ.:     0.1203563 α      in ANC's #5, #4, #6, ...

........................................................................
.............................. CYCLE   11 ..............................
........................................................................

 iter      E             dE          RMSdq      gap      omega  full diag
   1   -207.3529935 -0.207353E+03  0.248E-02    0.64       0.0  T
   2   -207.3529941 -0.616463E-06  0.146E-02    0.64       1.0  T
   3   -207.3529922  0.191343E-05  0.371E-03    0.64       2.6  T
   4   -207.3529935 -0.138511E-05  0.203E-03    0.64       4.7  T
   5   -207.3529942 -0.673528E-06  0.850E-04    0.64      11.3  T
   6   -207.3529943 -0.889274E-07  0.392E-04    0.64      24.4  T
     SCC iter.                  ...        0 min,  0.164 sec
     gradient                   ...        0 min,  0.030 sec
 * total energy  :  -205.1889868 Eh     change       -0.3462745E-04 Eh
   gradient norm :     0.0023327 Eh/α   predicted    -0.1589350E-04 ( -54.10%)
   displ. norm   :     0.1314677 α      lambda       -0.2999614E-04
   maximum displ.:     0.0753869 α      in ANC's #5, #4, #6, ...

........................................................................
.............................. CYCLE   12 ..............................
........................................................................

 iter      E             dE          RMSdq      gap      omega  full diag
   1   -207.3529688 -0.207353E+03  0.129E-02    0.64       0.0  T
   2   -207.3529689 -0.102706E-06  0.761E-03    0.64       1.3  T
   3   -207.3529686  0.346193E-06  0.158E-03    0.64       6.1  T
   4   -207.3529689 -0.280616E-06  0.807E-04    0.64      11.9  T
   5   -207.3529690 -0.890421E-07  0.441E-04    0.64      21.7  T
     SCC iter.                  ...        0 min,  0.173 sec
     gradient                   ...        0 min,  0.026 sec
 * total energy  :  -205.1890145 Eh     change       -0.2775679E-04 Eh
   gradient norm :     0.0022204 Eh/α   predicted    -0.1525907E-04 ( -45.03%)
   displ. norm   :     0.2588016 α      lambda       -0.7137648E-04
   maximum displ.:     0.1463610 α      in ANC's #5, #4, #6, ...

........................................................................
.............................. CYCLE   13 ..............................
........................................................................

 iter      E             dE          RMSdq      gap      omega  full diag
   1   -207.3534207 -0.207353E+03  0.241E-02    0.63       0.0  T
   2   -207.3534215 -0.732039E-06  0.142E-02    0.64       1.0  T
   3   -207.3534196  0.187784E-05  0.406E-03    0.63       2.4  T
   4   -207.3534215 -0.195682E-05  0.132E-03    0.64       7.3  T
   5   -207.3534217 -0.197071E-06  0.636E-04    0.64      15.1  T
   6   -207.3534218 -0.156022E-07  0.407E-04    0.64      23.5  T
     SCC iter.                  ...        0 min,  0.188 sec
     gradient                   ...        0 min,  0.026 sec
 * total energy  :  -205.1890760 Eh     change       -0.6149922E-04 Eh
   gradient norm :     0.0031661 Eh/α   predicted    -0.3807945E-04 ( -38.08%)
   displ. norm   :     0.4154965 α      lambda       -0.1011429E-03
   maximum displ.:     0.2372314 α      in ANC's #5, #4, #6, ...

........................................................................
.............................. CYCLE   14 ..............................
........................................................................

 iter      E             dE          RMSdq      gap      omega  full diag
   1   -207.3527148 -0.207353E+03  0.373E-02    0.63       0.0  T
   2   -207.3527161 -0.129349E-05  0.220E-02    0.64       1.0  T
   3   -207.3527092  0.691453E-05  0.679E-03    0.64       1.4  T
   4   -207.3527145 -0.530590E-05  0.353E-03    0.63       2.7  T
   5   -207.3527166 -0.207112E-05  0.137E-03    0.64       7.0  T
   6   -207.3527167 -0.187522E-06  0.688E-04    0.64      13.9  T
   7   -207.3527168 -0.360007E-07  0.322E-04    0.64      29.8  T
     SCC iter.                  ...        0 min,  0.305 sec
     gradient                   ...        0 min,  0.026 sec
 * total energy  :  -205.1891614 Eh     change       -0.8536990E-04 Eh
   gradient norm :     0.0027587 Eh/α   predicted    -0.5930679E-04 ( -30.53%)
   displ. norm   :     0.4507120 α      lambda       -0.9975942E-04
   maximum displ.:     0.2592259 α      in ANC's #5, #4, #6, ...

........................................................................
.............................. CYCLE   15 ..............................
........................................................................

 iter      E             dE          RMSdq      gap      omega  full diag
   1   -207.3522725 -0.207352E+03  0.400E-02    0.64       0.0  T
   2   -207.3522743 -0.179213E-05  0.236E-02    0.64       1.0  T
   3   -207.3522685  0.576662E-05  0.666E-03    0.63       1.4  T
   4   -207.3522730 -0.453030E-05  0.335E-03    0.64       2.9  T
   5   -207.3522746 -0.162093E-05  0.162E-03    0.64       5.9  T
   6   -207.3522750 -0.317182E-06  0.797E-04    0.64      12.0  T
   7   -207.3522750 -0.537202E-07  0.361E-04    0.64      26.6  T
     SCC iter.                  ...        0 min,  0.200 sec
     gradient                   ...        0 min,  0.026 sec
 * total energy  :  -205.1892508 Eh     change       -0.8937157E-04 Eh
   gradient norm :     0.0029293 Eh/α   predicted    -0.6001262E-04 ( -32.85%)
   displ. norm   :     0.4808437 α      lambda       -0.1196884E-03
   maximum displ.:     0.2795231 α      in ANC's #5, #4, #6, ...

   *** FAILED TO CONVERGE GEOMETRY OPTIMIZATION IN 15 ITERATIONS ***


 ANCopt (total)                0 d,  0 h,  0 min,  3.764 sec
 optimizer setup                ...        0 min,  0.000 sec (  0.000%)
 model hessian                  ...        0 min,  0.058 sec (  1.541%)
 ANC generation                 ...        0 min,  0.014 sec (  0.372%)
 coordinate transformation      ...        0 min,  0.002 sec (  0.053%)
 single point calculation       ...        0 min,  3.657 sec ( 97.157%)
 optimization log               ...        0 min,  0.023 sec (  0.611%)
 hessian update                 ...        0 min,  0.007 sec (  0.186%)
 rational function              ...        0 min,  0.002 sec (  0.053%)

================
 final structure:
================
109
 xtb: 6.7.1pre (5071a88)
C           -1.25330694607053       -1.99096807403965       12.57856908701137
C           -0.89991228656389       -1.98633264657557       11.09067654650422
N           -0.24165888165465       -0.72501711773944       10.81982239475811
C            0.32579909243713       -0.38139720671115        9.64463219792606
O            0.40515889072925       -1.11538302880884        8.67289320918596
C            0.86785417794013        1.01050577677145        9.62811981727701
C            1.37577340505390        1.52123043281780        8.44153772133617
C            1.89151151911657        2.81144028298855        8.34970374186334
C            1.92762179569429        3.65225993435360        9.44652667312590
C            1.42830914793404        3.15362611546088       10.63857196296674
N            1.31887569139153        3.68860640579932       11.90087198069834
C            0.75210059339485        2.73188477361365       12.69627762828914
C            0.50038930605464        2.94735435055714       14.14176707862832
N            0.48574833305340        1.63808283977619       12.04437987864086
C            0.89534855772714        1.84969404482930       10.74658608582176
C           -2.16885651562169       -2.16971976904593       10.19883292805702
C           -1.82293392611462       -3.33957316035814        9.28072212345610
C           -0.83471202651048       -4.12777909903112       10.14585088672703
N           -0.01481180110361       -3.12121286939134       10.80527856351801
H           -1.69364060606163       -2.94494594902008       12.85129866727014
H           -0.34843501224165       -1.84968955880603       13.16317637135242
H           -1.95720333877118       -1.19254001776958       12.80254395410946
H           -0.19410202010843       -0.04640791967865       11.57219144313705
H            1.35332915000144        0.88065821575900        7.57271506344258
H            2.27044926735023        3.15854255951460        7.40037478949561
H            2.32696992595366        4.65365260669778        9.38076977001808
H            1.60957781612622        4.60773316850001       12.18913984626189
H           -0.16795864752315        3.79371080771849       14.29577772130851
H            0.04786433960441        2.05421479187000       14.56172477258098
H            1.43667077137897        3.14946571225614       14.66192457173299
H           -2.37996696504715       -1.25687760811621        9.64589596634951
H           -3.02900062209597       -2.40849109567065       10.82504619606405
H           -2.69275931165673       -3.92340257718611        8.98561683303958
H           -1.31063896769305       -2.97221115941471        8.39158662348777
H           -1.37259908273788       -4.68828841270459       10.91886336493154
H           -0.21346933691441       -4.81973415844160        9.57967480498916
H            0.69208778701862       -2.80635935257628       10.14743155925567
B            3.47311782446095       -1.42688296245688        1.68142065825874
N            3.47679883119245        1.14878670133791        0.95432503522288
B            2.54617082391994        2.34445825528279       -1.26219351881470
N            2.29274070770462       -0.67978740829745       -2.68526324344035
B            0.70226843325404       -3.51188058392495        2.80160947540925
N           -2.92594966127126       -2.61475447354642        1.80522757364743
B           -1.01537529701689        4.11956579104964        1.81643743997068
N           -0.62471035183639       -0.03429039098515       -3.89650441880160
B           -0.47714644593467        1.39076625723892       -4.06792251402606
N            1.20620610734978       -3.80583239260191       -1.64106733598588
B           -3.83309731039585        2.21518989708959       -0.46973550838615
N           -2.76370402263386        2.75691534299439       -1.20053312223300
B            1.39891362032264        0.74790724778543       -4.86329578188365
N           -0.21049765321985        3.41430726928236        2.82714890055327
B            0.89266708515462       -2.91603243331350       -2.72856771156087
N           -0.47977256083607        3.75869278264176       -1.02199003847412
B           -0.78064910446009        2.23953002648338        3.29581510399364
N            1.67118915749352       -1.21158617282406        3.55167418347223
B           -0.24183253582450        3.44049023632822       -2.38799148655183
N            1.32631638507368        0.13546536992171        3.84351201137609
B           -1.60042181221896       -0.59738178922493       -3.02655750323670
N           -3.81806344472215        1.80261861172614        0.86183542473907
B            0.35816949002231        4.51966979312426        1.15812135730209
N            0.06882321679060        0.06350515143076        4.49876077084984
B           -2.68983292447654        2.26077374323866        1.62079892323732
N            3.78026733442565       -0.14293267562262       -0.73280745157173
B           -2.24519975279679       -3.61205767237645        1.11769246853022
N            1.08065817843754        3.77447526518000        2.21939011872447
B           -1.80677883956104       -0.71746958749023        3.28900888683368
N           -2.43466587258898       -3.59674131464511       -0.34198606500955
B            3.02189800178935       -1.09452014964746       -1.45304159250408
N           -3.15048070468542       -1.24493994667655       -0.30872552909862
B            2.05577199238680        2.95072699101695        1.55198712827293
N           -0.51214362778254       -2.92908120579511       -2.34278488707643
B           -1.67720017373141       -2.14092584668451       -2.40920680360948
N            0.60580571883276        3.96944210623326       -0.12901319310550
B            1.09256420862524        2.91616733420397       -3.18898831616632
N            0.08630800127675       -4.32480389115603        1.83355040163429
B           -1.76995773182671        3.45459998024597       -0.41047363513980
N           -1.99462184456947        3.44297074963949        1.03005254810443
B            1.47350364564427       -4.18173702220449        1.60493986451358
N           -0.77311967930803        1.13811364453299        4.22764103192391
B           -2.66424004882160       -2.40762008729933       -1.08363353308587
N           -1.06797380733136       -4.45929042968785        1.10816503592457
B           -2.50123130551542        0.47042423698492       -2.06383500224617
N            2.35639929043694       -3.87422304124412        0.54967814110527
B            3.92578428361160       -0.18943329259871        0.75917857427264
N            1.93142769888591        1.92315886547287       -2.45896050385219
B            0.99659778395947        2.18867166216451       -4.61759406688048
N           -4.17677599775145        0.83778531930881       -0.30185438539688
B           -1.33690522992105        2.41520621532572       -3.10341218952976
N           -2.35612621171573        1.90851096243857       -2.28345375120292
B            3.08067527358499       -2.63292628726612        0.67465501380397
N            2.33523451338742       -3.68478283404405       -0.87830028812735
B            2.24001919247035        0.59533745386222        2.83481584471800
N           -2.00524184214397        0.67952863020858        3.64682754726592
B           -1.10027348528398       -4.18013484070788       -0.32774154187500
N           -3.21184959887394        0.03961666614817       -0.90389083115946
B            3.45630711284096        1.25169552453257       -0.50158773894484
N            2.60585891416081        1.66944267412030        1.94552710516253
B            1.46627379306739       -1.60326536877001       -3.45263793948429
N           -2.07971510805586        1.80576491461081        2.78469414943984
B            2.03976107196406        0.66635623097173       -3.18609527666488
N           -2.70336191563404       -1.29279284852100        2.39662357480957
B            0.65085668779617       -0.60105969093724       -4.43686804257530
N           -0.17059924778879       -3.77176377777761       -1.25439786431215
B            0.50262981964146       -2.04544972220701        3.51345310272802
N           -0.56604579176979       -1.13401810808251        3.89251833665488
B           -3.20977890474858       -1.42114470617052        1.07981026733978
N            2.68759788926841       -0.81108155477270        2.66568599505494
B            1.89276366207544        3.34105268784256       -0.12053440745185
N            2.88151882221773       -2.34139512060732       -0.72499979992391
 
 Bond Distances (Angstroems)
 ---------------------------
C1-C2=1.5293         C1-H20=1.0855        C1-H21=1.0865        C1-H22=1.0877        C2-C1=1.5293         C2-N3=1.4483         
C2-C16=1.5618        C2-N19=1.4672        N3-C2=1.4483         N3-C4=1.3495         N3-H23=1.0143        C4-N3=1.3495         
C4-O5=1.2204         C4-C6=1.4938         O5-C4=1.2204         C6-C4=1.4938         C6-C7=1.3881         C6-C15=1.3986        
C7-C6=1.3881         C7-C8=1.3925         C7-H24=1.0797        C8-C7=1.3925         C8-C9=1.3825         C8-H25=1.0795        
C9-C8=1.3825         C9-C10=1.3853        C9-H26=1.0801        C10-C9=1.3853        C10-N11=1.3753       C10-C15=1.4128       
N11-C10=1.3753       N11-C12=1.3672       N11-H27=1.0062       C12-N11=1.3672       C12-C13=1.4830       C12-N14=1.3009       
C13-C12=1.4830       C13-H28=1.0894       C13-H29=1.0857       C13-H30=1.0900       N14-C12=1.3009       N14-C15=1.3773       
C15-C6=1.3986        C15-C10=1.4128       C15-N14=1.3773       C16-C2=1.5618        C16-C17=1.5268       C16-H31=1.0879       
C16-H32=1.0904       C17-C16=1.5268       C17-C18=1.5318       C17-H33=1.0884       C17-H34=1.0899       C18-C17=1.5318       
C18-N19=1.4561       C18-H35=1.0959       C18-H36=1.0887       N19-C2=1.4672        N19-C18=1.4561       N19-H37=1.0157       
H20-C1=1.0855        H21-C1=1.0865        H22-C1=1.0877        H23-N3=1.0143        H24-C7=1.0797        H25-C8=1.0795        
H26-C9=1.0801        H27-N11=1.0062       H28-C13=1.0894       H29-C13=1.0857       H30-C13=1.0900       H31-C16=1.0879       
H32-C16=1.0904       H33-C17=1.0884       H34-C17=1.0899       H35-C18=1.0959       H36-C18=1.0887       H37-N19=1.0157       
B38-B84=1.6083       B38-B90=1.6193       B38-N107=1.4018      N39-B84=1.4250       N39-B96=1.4597       N39-N97=1.4185       
B40-N85=1.4098       B40-B96=1.6128       B40-B108=1.6503      N41-B68=1.4907       N41-B98=1.4576       N41-B100=1.4584      
B42-N75=1.4062       B42-B78=1.5734       B42-B104=1.6423      N43-B64=1.3895       N43-N101=1.4652      N43-B106=1.4253      
B44-N51=1.4720       B44-B60=1.5748       B44-N77=1.4266       N45-B46=1.4429       N45-B58=1.4233       N45-B102=1.4968      
B46-N45=1.4429       B46-B50=2.1367       B46-B86=1.7637       B46-B88=1.6489       N47-B52=1.4397       N47-N91=1.3679       
N47-N103=1.4305      B48-N49=1.4040       B48-N59=1.3941       B48-N87=1.4295       N49-B48=1.4040       N49-B76=1.4486       
N49-N89=1.4348       B50-B46=2.1367       B50-B86=1.5159       B50-B100=1.7973      B50-B102=1.6004      N51-B44=1.4720       
N51-B54=1.3874       N51-N65=1.4718       B52-N47=1.4397       B52-N71=1.4569       B52-B98=1.6052       B52-N103=2.0090      
N53-B56=1.4226       N53-N73=1.4214       N53-B76=1.4598       B54-N51=1.3874       B54-N79=1.4427       B54-N93=2.0141       
B54-N99=1.4618       N55-N57=1.4208       N55-B104=1.4361      N55-N107=1.4066      B56-N53=1.4226       B56-B74=1.6423       
B56-B88=1.6620       N57-N55=1.4208       N57-N61=1.4198       N57-B92=1.4366       B58-N45=1.4233       B58-B72=1.6642       
B58-B82=1.6966       N59-B48=1.3941       N59-B62=1.4349       N59-N87=1.5536       B60-B44=1.5748       B60-N65=1.4845       
B60-N73=1.4215       N61-N57=1.4198       N61-N79=1.3918       N61-N105=1.4848      B62-N59=1.4349       B62-N77=1.4933       
B62-N99=1.3907       N63-B68=1.4140       N63-B84=1.4998       N63-B96=1.4503       B64-N43=1.3895       B64-N67=1.4720       
B64-N81=1.4504       B64-B94=1.9295       N65-N51=1.4718       N65-B60=1.4845       N65-B70=1.4404       B66-N93=1.4557       
B66-N101=1.3897      B66-N105=1.4412      N67-B64=1.4720       N67-B80=1.4201       N67-B94=1.4564       B68-N41=1.4907       
B68-N63=1.4140       B68-N109=1.4507      N69-B80=1.4794       N69-N95=1.4171       N69-B106=1.4009      B70-N65=1.4404       
B70-N97=1.4488       B70-B108=1.7252      N71-B52=1.4569       N71-B72=1.4082       N71-N103=1.4182      B72-B58=1.6642       
B72-N71=1.4082       B72-B80=1.6741       N73-N53=1.4214       N73-B60=1.4215       N73-B108=1.4322      B74-B56=1.6423       
B74-N85=1.4909       B74-B86=1.6060       N75-B42=1.4062       N75-B78=1.4132       N75-N81=1.3699       B76-N49=1.4486       
B76-N53=1.4598       B76-N77=1.4580       N77-B44=1.4266       N77-B62=1.4933       N77-B76=1.4580       B78-B42=1.5734       
B78-N75=1.4132       B78-N83=1.4098       N79-B54=1.4427       N79-N61=1.3918       N79-N93=1.4373       B80-N67=1.4201       
B80-N69=1.4794       B80-B72=1.6741       N81-B64=1.4504       N81-N75=1.3699       N81-B94=1.4631       B82-B58=1.6966       
B82-N89=1.4620       B82-N95=1.4269       N83-B78=1.4098       N83-B90=1.4426       N83-N91=1.4406       B84-B38=1.6083       
B84-N39=1.4250       B84-N63=1.4998       B84-B96=1.9715       N85-B40=1.4098       N85-B74=1.4909       N85-B100=1.4560      
B86-B46=1.7637       B86-B50=1.5159       B86-B74=1.6060       N87-B48=1.4295       N87-N59=1.5536       N87-N95=1.3895       
B88-B46=1.6489       B88-B56=1.6620       B88-N89=1.4028       N89-N49=1.4348       N89-B82=1.4620       N89-B88=1.4028       
B90-B38=1.6193       B90-N83=1.4426       B90-N109=1.4435      N91-N47=1.3679       N91-N83=1.4406       N91-N109=1.4583      
B92-N57=1.4366       B92-N97=1.4417       B92-N107=1.4856      N93-B54=2.0141       N93-B66=1.4557       N93-N79=1.4373       
N93-N99=1.4203       B94-B64=1.9295       B94-N67=1.4564       B94-N81=1.4631       B94-N103=1.3747      N95-N69=1.4171       
N95-B82=1.4269       N95-N87=1.3895       B96-N39=1.4597       B96-B40=1.6128       B96-N63=1.4503       B96-B84=1.9715       
N97-N39=1.4185       N97-B70=1.4488       N97-B92=1.4417       B98-N41=1.4576       B98-B52=1.6052       B98-B102=1.6242      
N99-B54=1.4618       N99-B62=1.3907       N99-N93=1.4203       B100-N41=1.4584      B100-B50=1.7973      B100-N85=1.4560      
N101-N43=1.4652      N101-B66=1.3897      N101-B106=1.4167     B102-N45=1.4968      B102-B50=1.6004      B102-B98=1.6242      
N103-N47=1.4305      N103-B52=2.0090      N103-N71=1.4182      N103-B94=1.3747      B104-B42=1.6423      B104-N55=1.4361      
B104-N105=1.4548     N105-N61=1.4848      N105-B66=1.4412      N105-B104=1.4548     B106-N43=1.4253      B106-N69=1.4009      
B106-N101=1.4167     N107-B38=1.4018      N107-N55=1.4066      N107-B92=1.4856      B108-B40=1.6503      B108-B70=1.7252      
B108-N73=1.4322      N109-B68=1.4507      N109-B90=1.4435      N109-N91=1.4583      
 B  B  Rav=1.6894 sigma=0.1392  Rmin=1.5159  Rmax=2.1367    24
 C  H  Rav=1.0870 sigma=0.0043  Rmin=1.0795  Rmax=1.0959    15
 C  C  Rav=1.4572 sigma=0.0669  Rmin=1.3825  Rmax=1.5618    12
 N  H  Rav=1.0121 sigma=0.0042  Rmin=1.0062  Rmax=1.0157     3
 N  B  Rav=1.4560 sigma=0.1010  Rmin=1.3747  Rmax=2.0141    68
 N  C  Rav=1.3927 sigma=0.0549  Rmin=1.3009  Rmax=1.4672     8
 N  N  Rav=1.4304 sigma=0.0403  Rmin=1.3679  Rmax=1.5536    21
 O  C  Rav=1.2204 sigma=0.0000  Rmin=1.2204  Rmax=1.2204     1
 
 selected bond angles (degree)
 --------------------
H20-C1-C2=109.93               H21-C1-C2=109.31               H21-C1-H20=108.48              H22-C1-C2=110.34               
H22-C1-H20=109.32              H22-C1-H21=109.43              N3-C2-C1=106.84                C16-C2-C1=111.56               
C16-C2-N3=111.39               N19-C2-C1=109.04               N19-C2-N3=111.29               N19-C2-C16=106.75              
C4-N3-C2=125.15                H23-N3-C2=117.73               H23-N3-C4=117.12               O5-C4-N3=124.58                
C6-C4-N3=113.54                C6-C4-O5=121.87                C7-C6-C4=119.02                C15-C6-C4=123.88               
C15-C6-C7=117.11               C8-C7-C6=122.19                H24-C7-C6=117.52               H24-C7-C8=120.29               
C9-C8-C7=121.39                H25-C8-C7=119.07               H25-C8-C9=119.54               C10-C9-C8=117.02               
H26-C9-C8=121.68               H26-C9-C10=121.29              N11-C10-C9=132.72              C15-C10-C9=122.28              
C15-C10-N11=105.00             
 
 selected dihedral angles (degree)
 ---------------------------------
N3-C2-C1-H20=183.66           N3-C2-C1-H21=302.62           N3-C2-C1-H22= 63.01           C16-C2-C1-H20= 61.70          
C16-C2-C1-H21=180.66          C16-C2-C1-H22=301.05          N19-C2-C1-H20=304.04          N19-C2-C1-H21= 63.00          
N19-C2-C1-H22=183.39          C4-N3-C2-C1=174.10            C4-N3-C2-C16=296.17           C4-N3-C2-N19= 55.17           
H23-N3-C2-C1=354.65           H23-N3-C2-C16=116.72          H23-N3-C2-N19=235.72          O5-C4-N3-C2=356.80            
O5-C4-N3-H23=176.26           C6-C4-N3-C2=176.91            C6-C4-N3-H23=356.37           C7-C6-C4-N3=185.34            
C7-C6-C4-O5=  5.45            C15-C6-C4-N3=  5.17           C15-C6-C4-O5=185.27           C8-C7-C6-C4=179.70            
C8-C7-C6-C15=359.87           H24-C7-C6-C4=  0.13           H24-C7-C6-C15=180.29          C9-C8-C7-C6=  0.24            
C9-C8-C7-H24=179.80           H25-C8-C7-C6=180.22           H25-C8-C7-H24=359.78          C10-C9-C8-C7=  0.00           
C10-C9-C8-H25=180.02          H26-C9-C8-C7=179.97           H26-C9-C8-H25=  0.00          N11-C10-C9-C8=179.28          
N11-C10-C9-H26=359.31         C15-C10-C9-C8=359.66          C15-C10-C9-H26=179.69         
 
 CMA Distance (Angstroems)
 ---------------------------
R(CMA): 10.5043
           -------------------------------------------------
          |                Final Singlepoint                |
           -------------------------------------------------

          ...................................................
          :                      SETUP                      :
          :.................................................:
          :  # basis functions                 382          :
          :  # atomic orbitals                 382          :
          :  # shells                          200          :
          :  # electrons                       388          :
          :  max. iterations                   500          :
          :  Hamiltonian                  GFN2-xTB          :
          :  restarted?                      false          :
          :  GBSA solvation                  false          :
          :  PC potential                    false          :
          :  electronic temp.          300.0000000     K    :
          :  accuracy                    1.0000000          :
          :  -> integral cutoff          0.2500000E+02      :
          :  -> integral neglect         0.1000000E-07      :
          :  -> SCF convergence          0.1000000E-05 Eh   :
          :  -> wf. convergence          0.1000000E-03 e    :
          :  Broyden damping             0.4000000          :
          :  net charge                          0          :
          :  unpaired electrons                  0          :
          ...................................................

 iter      E             dE          RMSdq      gap      omega  full diag
   1   -207.3521427 -0.207352E+03  0.425E-02    0.64       0.0  T
   2   -207.3521444 -0.172410E-05  0.250E-02    0.64       1.0  T
   3   -207.3521348  0.967500E-05  0.788E-03    0.64       1.2  T
   4   -207.3521419 -0.709881E-05  0.429E-03    0.64       2.2  T
   5   -207.3521450 -0.313607E-05  0.156E-03    0.64       6.2  T
   6   -207.3521452 -0.244563E-06  0.813E-04    0.64      11.8  T
   7   -207.3521453 -0.488330E-07  0.380E-04    0.64      25.2  T

   *** convergence criteria satisfied after 7 iterations ***

         #    Occupation            Energy/Eh            Energy/eV
      -------------------------------------------------------------
         1        2.0000           -0.6938819             -18.8815
       ...           ...                  ...                  ...
       188        2.0000           -0.3237649              -8.8101
       189        2.0000           -0.3209786              -8.7343
       190        2.0000           -0.3194807              -8.6935
       191        2.0000           -0.3166783              -8.6173
       192        2.0000           -0.3116189              -8.4796
       193        2.0000           -0.3099283              -8.4336
       194        2.0000           -0.3033365              -8.2542 (HOMO)
       195        0.0000           -0.2799508              -7.6178 (LUMO)
       196                         -0.2716522              -7.3920
       197                         -0.2608586              -7.0983
       198                         -0.2508523              -6.8260
       199                         -0.2475461              -6.7361
       ...                                ...                  ...
       382                          0.9868386              26.8532
      -------------------------------------------------------------
                  HL-Gap            0.0233857 Eh            0.6364 eV
             Fermi-level           -0.2916432 Eh           -7.9360 eV

 SCC (total)                   0 d,  0 h,  0 min,  0.251 sec
 SCC setup                      ...        0 min,  0.002 sec (  0.797%)
 Dispersion                     ...        0 min,  0.001 sec (  0.398%)
 classical contributions        ...        0 min,  0.001 sec (  0.398%)
 integral evaluation            ...        0 min,  0.010 sec (  3.984%)
 iterations                     ...        0 min,  0.204 sec ( 81.275%)
 molecular gradient             ...        0 min,  0.031 sec ( 12.351%)
 printout                       ...        0 min,  0.002 sec (  0.797%)

         :::::::::::::::::::::::::::::::::::::::::::::::::::::
         ::                     SUMMARY                     ::
         :::::::::::::::::::::::::::::::::::::::::::::::::::::
         :: total energy            -205.189362203980 Eh    ::
         :: gradient norm              0.002792857885 Eh/a0 ::
         :: HOMO-LUMO gap              0.636357100420 eV    ::
         ::.................................................::
         :: SCC energy              -207.337914766146 Eh    ::
         :: -> isotropic ES            0.699724359834 Eh    ::
         :: -> anisotropic ES         -0.026315684659 Eh    ::
         :: -> anisotropic XC          0.092160066277 Eh    ::
         :: -> dispersion             -0.184037462784 Eh    ::
         :: repulsion energy           2.148552562165 Eh    ::
         :: add. restraining           0.000000000000 Eh    ::
         :: total charge              -0.000000000000 e     ::
         :::::::::::::::::::::::::::::::::::::::::::::::::::::

           -------------------------------------------------
          |                Property Printout                |
           -------------------------------------------------

    * Orbital Energies and Occupations

         #    Occupation            Energy/Eh            Energy/eV
      -------------------------------------------------------------
         1        2.0000           -0.6938819             -18.8815
       ...           ...                  ...                  ...
       182        2.0000           -0.3351869              -9.1209
       183        2.0000           -0.3349079              -9.1133
       184        2.0000           -0.3309469              -9.0055
       185        2.0000           -0.3288552              -8.9486
       186        2.0000           -0.3260959              -8.8735
       187        2.0000           -0.3247489              -8.8369
       188        2.0000           -0.3237649              -8.8101
       189        2.0000           -0.3209786              -8.7343
       190        2.0000           -0.3194807              -8.6935
       191        2.0000           -0.3166783              -8.6173
       192        2.0000           -0.3116189              -8.4796
       193        2.0000           -0.3099283              -8.4336
       194        2.0000           -0.3033365              -8.2542 (HOMO)
       195        0.0000           -0.2799508              -7.6178 (LUMO)
       196                         -0.2716522              -7.3920
       197                         -0.2608586              -7.0983
       198                         -0.2508523              -6.8260
       199                         -0.2475461              -6.7361
       200                         -0.2419023              -6.5825
       201                         -0.2312870              -6.2936
       202                         -0.2263606              -6.1596
       203                         -0.2252932              -6.1305
       204                         -0.2179838              -5.9316
       205                         -0.2072648              -5.6400
       ...                                ...                  ...
       382                          0.9868386              26.8532
      -------------------------------------------------------------
                  HL-Gap            0.0233857 Eh            0.6364 eV
             Fermi-level           -0.2916432 Eh           -7.9360 eV

     #   Z          covCN         q      C6AA      α(0)
     1   6 C        3.761    -0.125    22.952     6.829
     2   6 C        3.808     0.147    18.214     6.075
     3   7 N        2.698    -0.207    25.494     7.499
     4   6 C        2.755     0.273    22.378     7.746
     5   8 O        0.858    -0.452    22.758     6.396
     6   6 C        2.968    -0.036    28.888     8.816
     7   6 C        2.926    -0.032    28.807     8.802
     8   6 C        2.924    -0.036    28.907     8.817
     9   6 C        2.908    -0.053    29.314     8.878
    10   6 C        3.077     0.040    27.027     8.523
    11   7 N        2.783    -0.129    23.797     7.245
    12   6 C        3.149     0.151    24.474     8.092
    13   6 C        3.755    -0.124    22.934     6.828
    14   7 N        1.891    -0.300    28.636     7.933
    15   6 C        3.186     0.057    26.275     8.364
    16   6 C        3.826    -0.069    21.803     6.644
    17   6 C        3.817    -0.066    21.759     6.639
    18   6 C        3.789     0.014    20.352     6.425
    19   7 N        2.691    -0.282    27.269     7.756
    20   1 H        0.925     0.055     2.259     2.350
    21   1 H        0.925     0.052     2.292     2.368
    22   1 H        0.925     0.040     2.448     2.447
    23   1 H        0.860     0.207     1.071     1.621
    24   1 H        0.926     0.076     2.016     2.220
    25   1 H        0.926     0.044     2.393     2.419
    26   1 H        0.926     0.030     2.586     2.515
    27   1 H        0.860     0.162     1.321     1.800
    28   1 H        0.925     0.057     2.231     2.336
    29   1 H        0.925     0.074     2.039     2.233
    30   1 H        0.925     0.058     2.221     2.330
    31   1 H        0.925     0.037     2.485     2.465
    32   1 H        0.924     0.030     2.584     2.514
    33   1 H        0.925     0.025     2.652     2.547
    34   1 H        0.925     0.058     2.218     2.329
    35   1 H        0.924     0.027     2.631     2.536
    36   1 H        0.925     0.031     2.577     2.511
    37   1 H        0.860     0.165     1.306     1.790
    38   5 B        2.781     0.076    20.199     7.514
    39   7 N        2.772    -0.229    26.001     7.573
    40   5 B        2.788     0.091    19.940     7.465
    41   7 N        2.523    -0.315    28.138     7.878
    42   5 B        2.779     0.086    20.036     7.484
    43   7 N        2.655    -0.270    26.985     7.715
    44   5 B        2.848     0.240    17.679     7.021
    45   7 N        2.529    -0.273    27.098     7.731
    46   5 B        3.194     0.150    18.934     7.257
    47   7 N        2.980    -0.110    23.394     7.184
    48   5 B        2.644     0.373    16.326     6.814
    49   7 N        2.669    -0.213    25.654     7.522
    50   5 B        3.179     0.021    21.007     7.644
    51   7 N        2.888    -0.224    25.877     7.555
    52   5 B        3.009     0.208    18.084     7.094
    53   7 N        2.660    -0.164    24.548     7.358
    54   5 B        2.906     0.319    16.616     6.803
    55   7 N        3.161    -0.076    22.712     7.078
    56   5 B        2.778     0.094    19.917     7.462
    57   7 N        3.041    -0.123    23.669     7.226
    58   5 B        2.758     0.090    20.006     7.484
    59   7 N        2.634    -0.310    27.982     7.856
    60   5 B        3.040     0.225    17.844     7.046
    61   7 N        2.983     0.007    21.139     6.829
    62   5 B        2.582     0.325    17.311     7.088
    63   7 N        2.595    -0.360    29.304     8.040
    64   5 B        3.287     0.340    16.338     6.741
    65   7 N        2.783    -0.256    26.643     7.666
    66   5 B        2.560     0.320    17.582     7.180
    67   7 N        2.579    -0.369    29.534     8.071
    68   5 B        2.530     0.301    18.226     7.377
    69   7 N        2.665    -0.205    25.469     7.495
    70   5 B        2.699     0.195    18.516     7.221
    71   7 N        2.844    -0.168    24.615     7.369
    72   5 B        2.758     0.082    20.136     7.508
    73   7 N        2.672    -0.175    24.784     7.394
    74   5 B        2.877     0.110    19.582     7.387
    75   7 N        2.663    -0.144    24.128     7.295
    76   5 B        2.594     0.312    17.387     7.085
    77   7 N        2.519    -0.355    29.197     8.025
    78   5 B        2.684     0.184    18.723     7.269
    79   7 N        3.008    -0.127    23.756     7.239
    80   5 B        2.677     0.210    18.365     7.203
    81   7 N        2.715    -0.249    26.470     7.641
    82   5 B        2.647     0.164    19.167     7.380
    83   7 N        2.825    -0.206    25.478     7.497
    84   5 B        3.322     0.230    17.781     7.032
    85   7 N        2.531    -0.286    27.421     7.777
    86   5 B        2.949     0.035    20.792     7.608
    87   7 N        2.783    -0.186    25.019     7.429
    88   5 B        2.796     0.084    20.046     7.483
    89   7 N        2.673    -0.156    24.382     7.334
    90   5 B        3.021     0.211    18.048     7.086
    91   7 N        3.272     0.014    21.000     6.806
    92   5 B        2.872     0.304    16.824     6.847
    93   7 N        3.155    -0.115    23.504     7.200
    94   5 B        3.263     0.320    16.587     6.792
    95   7 N        2.833    -0.061    22.414     7.031
    96   5 B        3.304     0.231    17.769     7.030
    97   7 N        2.656    -0.183    24.963     7.420
    98   5 B        2.838     0.112    19.571     7.388
    99   7 N        2.834    -0.224    25.894     7.558
   100   5 B        2.863     0.252    17.505     6.985
   101   7 N        2.654    -0.230    26.032     7.578
   102   5 B        3.011     0.114    19.494     7.365
   103   7 N        3.153    -0.086    22.911     7.109
   104   5 B        2.674     0.204    18.461     7.224
   105   7 N        2.699    -0.225    25.916     7.561
   106   5 B        2.584     0.369    16.732     6.965
   107   7 N        2.883    -0.179    24.876     7.408
   108   5 B        2.825     0.105    19.684     7.411
   109   7 N        2.827    -0.253    26.566     7.655

 Mol. C6AA /au·bohr⁶  :     207647.808960
 Mol. C8AA /au·bohr⁸  :    5776660.639379
 Mol. α(0) /au        :        714.485269


Wiberg/Mayer (AO) data.
largest (>0.10) Wiberg bond orders for each atom

 ---------------------------------------------------------------------------
     #   Z sym  total        # sym  WBO       # sym  WBO       # sym  WBO
 ---------------------------------------------------------------------------
     1   6 C    3.994 --     2 C    0.994    22 H    0.985    21 H    0.983
                            20 H    0.983
     2   6 C    3.963 --     1 C    0.994    19 N    0.987     3 N    0.978
                            16 C    0.952
     3   7 N    3.452 --     4 C    1.260     2 C    0.978    23 H    0.890
                             5 O    0.201
     4   6 C    3.956 --     5 O    1.640     3 N    1.260     6 C    0.988
     5   8 O    1.985 --     4 C    1.640     3 N    0.201
     6   6 C    3.983 --     7 C    1.442    15 C    1.300     4 C    0.988
                             9 C    0.107
     7   6 C    3.984 --     6 C    1.442     8 C    1.400    24 H    0.963
     8   6 C    3.988 --     9 C    1.471     7 C    1.400    25 H    0.970
     9   6 C    3.988 --     8 C    1.471    10 C    1.351    26 H    0.968
                             6 C    0.107
    10   6 C    3.954 --     9 C    1.351    15 C    1.264    11 N    1.144
    11   7 N    3.538 --    12 C    1.210    10 C    1.144    27 H    0.944
                            14 N    0.109
    12   6 C    3.958 --    14 N    1.551    11 N    1.210    13 C    1.030
    13   6 C    3.993 --    12 C    1.030    29 H    0.980    28 H    0.969
                            30 H    0.968
    14   7 N    3.051 --    12 C    1.551    15 C    1.198    11 N    0.109
    15   6 C    3.977 --     6 C    1.300    10 C    1.264    14 N    1.198
    16   6 C    3.995 --    17 C    1.010    31 H    0.980    32 H    0.980
                             2 C    0.952
    17   6 C    3.995 --    16 C    1.010    18 C    0.995    33 H    0.979
                            34 H    0.977
    18   6 C    3.988 --    19 N    1.012    17 C    0.995    36 H    0.978
                            35 H    0.975
    19   7 N    3.056 --    18 C    1.012     2 C    0.987    37 H    0.941
    20   1 H    0.996 --     1 C    0.983
    21   1 H    0.997 --     1 C    0.983
    22   1 H    0.998 --     1 C    0.985
    23   1 H    0.957 --     3 N    0.890
    24   1 H    0.994 --     7 C    0.963
    25   1 H    0.997 --     8 C    0.970
    26   1 H    0.998 --     9 C    0.968
    27   1 H    0.973 --    11 N    0.944
    28   1 H    0.994 --    13 C    0.969
    29   1 H    0.994 --    13 C    0.980
    30   1 H    0.994 --    13 C    0.968
    31   1 H    0.999 --    16 C    0.980
    32   1 H    0.999 --    16 C    0.980
    33   1 H    0.999 --    17 C    0.979
    34   1 H    0.997 --    17 C    0.977
    35   1 H    0.999 --    18 C    0.975
    36   1 H    0.999 --    18 C    0.978
    37   1 H    0.973 --    19 N    0.941
    38   5 B    3.478 --   107 N    1.283    90 B    1.000    84 B    0.970
    39   7 N    3.395 --    84 B    1.141    97 N    1.006    96 B    1.002
    40   5 B    3.463 --    85 N    1.276   108 B    0.978    96 B    0.958
    41   7 N    3.530 --   100 B    1.152    98 B    1.150    68 B    1.017
    42   5 B    3.461 --    75 N    1.240   104 B    0.996    78 B    0.989
    43   7 N    3.264 --    64 B    1.202   106 B    0.967   101 N    0.888
    44   5 B    3.408 --    77 N    1.175    51 N    1.035    60 B    0.963
    45   7 N    3.568 --    58 B    1.276    46 B    1.158   102 B    0.973
    46   5 B    3.393 --    45 N    1.158    88 B    0.932    86 B    0.641
                            50 B    0.293
    47   7 N    3.324 --    52 B    1.114    91 N    1.043   103 N    0.945
    48   5 B    3.433 --    49 N    1.187    59 N    1.127    87 N    0.961
    49   7 N    3.444 --    48 B    1.187    76 B    1.085    89 N    0.967
    50   5 B    3.456 --    86 B    1.285   102 B    1.004   100 B    0.627
                            46 B    0.293
    51   7 N    3.426 --    54 B    1.231    44 B    1.035    65 N    0.928
    52   5 B    3.391 --    47 N    1.114    71 N    1.038    98 B    1.005
    53   7 N    3.510 --    56 B    1.206    76 B    1.123    73 N    0.998
    54   5 B    3.514 --    51 N    1.231    79 N    1.076    99 N    1.000
    55   7 N    3.357 --   104 B    1.144   107 N    0.993    57 N    0.983
    56   5 B    3.414 --    53 N    1.206    74 B    1.008    88 B    0.926
    57   7 N    3.336 --    92 B    1.143    55 N    0.983    61 N    0.973
    58   5 B    3.463 --    45 N    1.276    72 B    0.978    82 B    0.932
    59   7 N    3.217 --    48 B    1.127    62 B    1.065    87 N    0.792
    60   5 B    3.368 --    73 N    1.152    65 N    0.993    44 B    0.963
    61   7 N    3.101 --    79 N    1.013    57 N    0.973   105 N    0.941
    62   5 B    3.511 --    99 N    1.249    59 N    1.065    77 N    0.988
    63   7 N    3.433 --    68 B    1.200    96 B    1.063    84 B    0.926
    64   5 B    3.481 --    43 N    1.202    81 N    1.043    67 N    0.979
    65   7 N    3.277 --    70 B    1.164    60 B    0.993    51 N    0.928
    66   5 B    3.523 --   101 N    1.207   105 N    1.126    93 N    1.031
    67   7 N    3.430 --    80 B    1.221    94 B    0.993    64 B    0.979
    68   5 B    3.519 --    63 N    1.200   109 N    1.101    41 N    1.017
    69   7 N    3.441 --   106 B    1.259    80 B    0.997    95 N    0.990
    70   5 B    3.446 --    65 N    1.164    97 N    1.127   108 B    0.924
    71   7 N    3.469 --    72 B    1.260    52 B    1.038   103 N    0.984
    72   5 B    3.421 --    71 N    1.260    58 B    0.978    80 B    0.959
    73   7 N    3.510 --   108 B    1.171    60 B    1.152    53 N    0.998
    74   5 B    3.347 --    86 B    1.009    56 B    1.008    85 N    0.963
    75   7 N    3.508 --    42 B    1.240    78 B    1.095    81 N    1.034
    76   5 B    3.515 --    53 N    1.123    77 N    1.105    49 N    1.085
    77   7 N    3.476 --    44 B    1.175    76 B    1.105    62 B    0.988
    78   5 B    3.464 --    83 N    1.178    75 N    1.095    42 B    0.989
    79   7 N    3.265 --    54 B    1.076    61 N    1.013    93 N    0.975
    80   5 B    3.391 --    67 N    1.221    69 N    0.997    72 B    0.959
    81   7 N    3.372 --    64 B    1.043    75 N    1.034    94 B    0.987
    82   5 B    3.454 --    95 N    1.191    89 N    1.078    58 B    0.932
    83   7 N    3.406 --    78 B    1.178    90 B    1.074    91 N    0.958
    84   5 B    3.364 --    39 N    1.141    38 B    0.970    63 N    0.926
                            96 B    0.127
    85   7 N    3.560 --    40 B    1.276   100 B    1.105    74 B    0.963
    86   5 B    3.367 --    50 B    1.285    74 B    1.009    46 B    0.641
                           100 B    0.186
    87   7 N    2.986 --    95 N    1.045    48 B    0.961    59 N    0.792
    88   5 B    3.455 --    89 N    1.266    46 B    0.932    56 B    0.926
    89   7 N    3.480 --    88 B    1.266    82 B    1.078    49 N    0.967
    90   5 B    3.442 --   109 N    1.129    83 N    1.074    38 B    1.000
    91   7 N    3.184 --    47 N    1.043    83 N    0.958   109 N    0.950
    92   5 B    3.525 --    97 N    1.159    57 N    1.143   107 N    0.990
    93   7 N    3.216 --    66 B    1.031    99 N    0.984    79 N    0.975
    94   5 B    3.507 --   103 N    1.263    67 N    0.993    81 N    0.987
    95   7 N    3.440 --    82 B    1.191    87 N    1.045    69 N    0.990
    96   5 B    3.327 --    63 N    1.063    39 N    1.002    40 B    0.958
                            84 B    0.127
    97   7 N    3.491 --    92 B    1.159    70 B    1.127    39 N    1.006
    98   5 B    3.385 --    41 N    1.150    52 B    1.005   102 B    1.002
    99   7 N    3.448 --    62 B    1.249    54 B    1.000    93 N    0.984
   100   5 B    3.443 --    41 N    1.152    85 N    1.105    50 B    0.627
                            86 B    0.186   102 B    0.120
   101   7 N    3.332 --    66 B    1.207   106 B    1.039    43 N    0.888
   102   5 B    3.334 --    50 B    1.004    98 B    1.002    45 N    0.973
                           100 B    0.120
   103   7 N    3.439 --    94 B    1.263    71 N    0.984    47 N    0.945
   104   5 B    3.445 --    55 N    1.144   105 N    1.114    42 B    0.996
   105   7 N    3.398 --    66 B    1.126   104 B    1.114    61 N    0.941
   106   5 B    3.439 --    69 N    1.259   101 N    1.039    43 N    0.967
   107   7 N    3.476 --    38 B    1.283    55 N    0.993    92 B    0.990
   108   5 B    3.360 --    73 N    1.171    40 B    0.978    70 B    0.924
   109   7 N    3.417 --    90 B    1.129    68 B    1.101    91 N    0.950
 ---------------------------------------------------------------------------

Topologies differ in total number of bonds
Writing topology from bond orders to xtbtopo.mol

molecular dipole:
                 x           y           z       tot (Debye)
 q only:        1.765       3.390      -2.331
   full:        0.228       3.488      -0.208       8.901
molecular quadrupole (traceless):
                xx          xy          yy          xz          yz          zz
 q only:      -51.866       6.502     -20.213       6.448      37.566      72.079
  q+dip:      -43.244      11.789      -1.281       8.896      76.791      44.525
   full:      -35.649      11.008      -4.299      13.907      76.815      39.948

           -------------------------------------------------
          |                Geometry Summary                 |
           -------------------------------------------------

      molecular mass/u    :     1151.7577792
   center of mass at/Å    :        0.0359115       0.0399479       2.4771062
  moments of inertia/u·Å² :        0.1198676E+05   0.3246596E+05   0.3531301E+05
rotational constants/cm⁻¹ :        0.1406354E-02   0.5192403E-03   0.4773774E-03

 * 131 selected distances

     #   Z          #   Z                                           value/Å
     1   6 C        2   6 C                                       1.5292920
     2   6 C        3   7 N                                       1.4483013
     3   7 N        4   6 C                                       1.3495020
     4   6 C        5   8 O                                       1.2203729
     6   6 C        7   6 C                                       1.3880919
     7   6 C        8   6 C                                       1.3925017
     8   6 C        9   6 C                                       1.3824987
     9   6 C       10   6 C                                       1.3852513
    10   6 C       11   7 N                                       1.3753477
    11   7 N       12   6 C                                       1.3671945
    12   6 C       13   6 C                                       1.4829787
    12   6 C       14   7 N                                       1.3008909
     6   6 C       15   6 C                                       1.3985564
    10   6 C       15   6 C                                       1.4127821
    14   7 N       15   6 C                                       1.3772511
    16   6 C       17   6 C                                       1.5268095
    17   6 C       18   6 C                                       1.5317635
     2   6 C       19   7 N                                       1.4672452
    18   6 C       19   7 N                                       1.4561103
     1   6 C       20   1 H                                       1.0855179
     1   6 C       21   1 H                                       1.0865168
     1   6 C       22   1 H                                       1.0877143
     3   7 N       23   1 H                                       1.0143133
     7   6 C       24   1 H                                       1.0796710
     8   6 C       25   1 H                                       1.0794904
     9   6 C       26   1 H                                       1.0800881
    11   7 N       27   1 H                                       1.0061810 (min)
    13   6 C       28   1 H                                       1.0893703
    13   6 C       29   1 H                                       1.0857448
    13   6 C       30   1 H                                       1.0899707
    16   6 C       31   1 H                                       1.0879283
    16   6 C       32   1 H                                       1.0904141
    17   6 C       33   1 H                                       1.0883659
    17   6 C       34   1 H                                       1.0899372
    18   6 C       35   1 H                                       1.0959205
    18   6 C       36   1 H                                       1.0887148
    19   7 N       37   1 H                                       1.0156784
    45   7 N       46   5 B                                       1.4428950
    48   5 B       49   7 N                                       1.4039708
    44   5 B       51   7 N                                       1.4719904
    47   7 N       52   5 B                                       1.4396903
    51   7 N       54   5 B                                       1.3873798
    53   7 N       56   5 B                                       1.4226133
    55   7 N       57   7 N                                       1.4207937
    45   7 N       58   5 B                                       1.4233386
    48   5 B       59   7 N                                       1.3941028
    44   5 B       60   5 B                                       1.5748298
    57   7 N       61   7 N                                       1.4197953
    59   7 N       62   5 B                                       1.4348645
    43   7 N       64   5 B                                       1.3895103
    60   5 B       65   7 N                                       1.4844516
    64   5 B       67   7 N                                       1.4720033
    41   7 N       68   5 B                                       1.4906523
    63   7 N       68   5 B                                       1.4139945
    65   7 N       70   5 B                                       1.4404289
    52   5 B       71   7 N                                       1.4568775
    58   5 B       72   5 B                                       1.6641952
    71   7 N       72   5 B                                       1.4081754
    60   5 B       73   7 N                                       1.4215449
    56   5 B       74   5 B                                       1.6422928
    42   5 B       75   7 N                                       1.4061971
    49   7 N       76   5 B                                       1.4486166
    53   7 N       76   5 B                                       1.4597955
    44   5 B       77   7 N                                       1.4265715
    62   5 B       77   7 N                                       1.4932816
    76   5 B       77   7 N                                       1.4579867
    42   5 B       78   5 B                                       1.5733817
    75   7 N       78   5 B                                       1.4131677
    54   5 B       79   7 N                                       1.4427317
    61   7 N       79   7 N                                       1.3918181
    67   7 N       80   5 B                                       1.4201250
    69   7 N       80   5 B                                       1.4794384
    72   5 B       80   5 B                                       1.6740724 (max)
    64   5 B       81   7 N                                       1.4504328
    75   7 N       81   7 N                                       1.3699042
    78   5 B       83   7 N                                       1.4098394
    38   5 B       84   5 B                                       1.6083282
    39   7 N       84   5 B                                       1.4249573
    63   7 N       84   5 B                                       1.4997867
    40   5 B       85   7 N                                       1.4098418
    74   5 B       85   7 N                                       1.4908718
    50   5 B       86   5 B                                       1.5159254
    74   5 B       86   5 B                                       1.6060431
    48   5 B       87   7 N                                       1.4295254
    46   5 B       88   5 B                                       1.6489218
    56   5 B       88   5 B                                       1.6619924
    82   5 B       89   7 N                                       1.4619787
    88   5 B       89   7 N                                       1.4028128
    38   5 B       90   5 B                                       1.6192990
    83   7 N       90   5 B                                       1.4425716
    47   7 N       91   7 N                                       1.3679079
    57   7 N       92   5 B                                       1.4365944
    66   5 B       93   7 N                                       1.4556875
    79   7 N       93   7 N                                       1.4372787
    67   7 N       94   5 B                                       1.4564183
    81   7 N       94   5 B                                       1.4631470
    82   5 B       95   7 N                                       1.4269003
    87   7 N       95   7 N                                       1.3894619
    39   7 N       96   5 B                                       1.4596892
    40   5 B       96   5 B                                       1.6127616
    63   7 N       96   5 B                                       1.4503107
    70   5 B       97   7 N                                       1.4488476
    92   5 B       97   7 N                                       1.4416572
    41   7 N       98   5 B                                       1.4576431
    52   5 B       98   5 B                                       1.6051979
    54   5 B       99   7 N                                       1.4618378
    62   5 B       99   7 N                                       1.3906578
    93   7 N       99   7 N                                       1.4202918
    41   7 N      100   5 B                                       1.4584014
    85   7 N      100   5 B                                       1.4560269
    66   5 B      101   7 N                                       1.3896798
    45   7 N      102   5 B                                       1.4967605
    50   5 B      102   5 B                                       1.6003569
    98   5 B      102   5 B                                       1.6242015
    47   7 N      103   7 N                                       1.4304780
    71   7 N      103   7 N                                       1.4182218
    94   5 B      103   7 N                                       1.3746830
    42   5 B      104   5 B                                       1.6422536
    55   7 N      104   5 B                                       1.4360782
    66   5 B      105   7 N                                       1.4412339
   104   5 B      105   7 N                                       1.4548079
    43   7 N      106   5 B                                       1.4253049
    69   7 N      106   5 B                                       1.4009270
   101   7 N      106   5 B                                       1.4166616
    38   5 B      107   7 N                                       1.4017958
    55   7 N      107   7 N                                       1.4065796
    92   5 B      107   7 N                                       1.4855795
    40   5 B      108   5 B                                       1.6503113
    73   7 N      108   5 B                                       1.4322033
    68   5 B      109   7 N                                       1.4506718
    90   5 B      109   7 N                                       1.4434984

 * 8 distinct bonds (by element types)

   Z      Z             #   av. dist./Å        max./Å        min./Å
   5 B    5 B          17     1.6190803     1.6740724     1.5159254
   1 H    6 C          15     1.0870243     1.0959205     1.0794904
   6 C    6 C          10     1.4430526     1.5317635     1.3824987
   1 H    7 N           3     1.0120576     1.0156784     1.0061810
   5 B    7 N          66     1.4391321     1.4997867     1.3746830
   6 C    7 N           8     1.3927304     1.4672452     1.3008909
   7 N    7 N          11     1.4065937     1.4372787     1.3679079
   6 C    8 O           1     1.2203729     1.2203729     1.2203729


optimized geometry written to: xtbopt.xyz


           -------------------------------------------------
          | TOTAL ENERGY             -205.189362203980 Eh   |
          | GRADIENT NORM               0.002792857885 Eh/α |
          | HOMO-LUMO GAP               0.636357100420 eV   |
           -------------------------------------------------

------------------------------------------------------------------------
 * finished run on 2026/08/31 at 22:24:20.306     
------------------------------------------------------------------------
 total:
 * wall-time:     0 d,  0 h,  0 min,  4.622 sec
 *  cpu-time:     0 d,  0 h,  0 min, 45.812 sec
 * ratio c/w:     9.912 speedup
 SCF:
 * wall-time:     0 d,  0 h,  0 min,  0.530 sec
 *  cpu-time:     0 d,  0 h,  0 min,  4.781 sec
 * ratio c/w:     9.021 speedup
 ANC optimizer:
 * wall-time:     0 d,  0 h,  0 min,  4.026 sec
 *  cpu-time:     0 d,  0 h,  0 min, 40.531 sec
 * ratio c/w:    10.067 speedup

normal termination of xtb
