      -----------------------------------------------------------      
     |                   =====================                   |     
     |                           x T B                           |     
     |                   =====================                   |     
     |                         S. Grimme                         |     
     |          Mulliken Center for Theoretical Chemistry        |     
     |                    University of Bonn                     |     
      -----------------------------------------------------------      

   * xtb version 6.7.1pre (5071a88) compiled by 'Marcel@Raven' on 2024-07-23

   xtb is free software: you can redistribute it and/or modify it under
   the terms of the GNU Lesser General Public License as published by
   the Free Software Foundation, either version 3 of the License, or
   (at your option) any later version.
   
   xtb is distributed in the hope that it will be useful,
   but WITHOUT ANY WARRANTY; without even the implied warranty of
   MERCHANTABILITY or FITNESS FOR A PARTICULAR PURPOSE.  See the
   GNU Lesser General Public License for more details.
   
   Cite this work as:
   * C. Bannwarth, E. Caldeweyher, S. Ehlert, A. Hansen, P. Pracht,
     J. Seibert, S. Spicher, S. Grimme, WIREs Comput. Mol. Sci., 2020, 11,
     e01493. DOI: 10.1002/wcms.1493
   
   for GFN2-xTB:
   * C. Bannwarth, S. Ehlert and S. Grimme., J. Chem. Theory Comput., 2019,
     15, 1652-1671. DOI: 10.1021/acs.jctc.8b01176
   for GFN1-xTB:
   * S. Grimme, C. Bannwarth, P. Shushkov, J. Chem. Theory Comput., 2017,
     13, 1989-2009. DOI: 10.1021/acs.jctc.7b00118
   for GFN0-xTB:
   * P. Pracht, E. Caldeweyher, S. Ehlert, S. Grimme, ChemRxiv, 2019, preprint.
     DOI: 10.26434/chemrxiv.8326202.v1
   for GFN-FF:
   * S. Spicher and S. Grimme, Angew. Chem. Int. Ed., 2020, 59, 15665-15673.
     DOI: 10.1002/anie.202004239
   
   for ALPB and GBSA implicit solvation:
   * S. Ehlert, M. Stahn, S. Spicher, S. Grimme, J. Chem. Theory Comput.,
     2021, 17, 4250-4261. DOI: 10.1021/acs.jctc.1c00471
   
   for ddCOSMO and CPCM-X implicit solvation:
   * M. Stahn, S. Ehlert, S. Grimme, J. Phys. Chem. A,
     2023, XX, XXXX-XXXX. DOI: 10.1021/acs.jpca.3c04382
   
   for DFT-D4:
   * E. Caldeweyher, C. Bannwarth and S. Grimme, J. Chem. Phys., 2017,
     147, 034112. DOI: 10.1063/1.4993215
   * E. Caldeweyher, S. Ehlert, A. Hansen, H. Neugebauer, S. Spicher,
     C. Bannwarth and S. Grimme, J. Chem. Phys., 2019, 150, 154122.
     DOI: 10.1063/1.5090222
   * E. Caldeweyher, J.-M. Mewes, S. Ehlert and S. Grimme, Phys. Chem. Chem. Phys.
     2020, 22, 8499-8512. DOI: 10.1039/D0CP00502A
   
   for sTDA-xTB:
   * S. Grimme and C. Bannwarth, J. Chem. Phys., 2016, 145, 054103.
     DOI: 10.1063/1.4959605
   
   in the mass-spec context:
   * V. Asgeirsson, C. Bauer and S. Grimme, Chem. Sci., 2017, 8, 4879.
     DOI: 10.1039/c7sc00601b
   * J. Koopman and S. Grimme, ACS Omega 2019, 4, 12, 15120-15133.
     DOI: 10.1021/acsomega.9b02011
   
   for metadynamics refer to:
   * S. Grimme, J. Chem. Theory Comput., 2019, 155, 2847-2862
     DOI: 10.1021/acs.jctc.9b00143
   
   for SPH calculations refer to:
   * S. Spicher and S. Grimme, J. Chem. Theory Comput., 2021, 17, 1701-1714
     DOI: 10.1021/acs.jctc.0c01306
   
   for ONIOM refer to:
   * C. Plett, A. Katbashev, S. Ehlert, S. Grimme, M. Bursch,
     Phys. Chem. Chem. Phys., 2023, 25, 17860-17868. DOI: 10.1039/D3CP02178E
   
   for DIPRO refer to:
   * J. Kohn, N. Gildemeister, S. Grimme, D. Fazzi, A. Hansen,
     J. Chem. Phys., 2023, just accepted.
   
   for PTB refer to:
   * S. Grimme, M. Mueller, A. Hansen, J. Chem. Phys., 2023, 158, 124111.
     DOI: 10.1063/5.0137838
   
   with help from (in alphabetical order)
   P. Atkinson, C. Bannwarth, F. Bohle, G. Brandenburg, E. Caldeweyher
   M. Checinski, S. Dohm, S. Ehlert, S. Ehrlich, I. Gerasimov, C. Hölzer
   A. Katbashev, J. Kohn, J. Koopman, C. Lavigne, S. Lehtola, F. März, M. Müller,
   F. Musil, H. Neugebauer, J. Pisarek, C. Plett, P. Pracht, F. Pultar,
   J. Seibert, P. Shushkov, S. Spicher, M. Stahn, M. Steiner, T. Strunk,
   J. Stückrath, T. Rose, and J. Unsleber
   
 * started run on 2026/08/31 at 22:21:30.569     
   ID    Z sym.   atoms
    1    6 C      1, 2, 4, 6-10, 12, 13, 15-18
    2    7 N      3, 11, 14, 19, 39, 41, 43, 45, 47, 49, 51, 53, 55, 57, 59,
                  61, 63, 65, 67, 69, 71, 73, 75, 77, 79, 81, 83, 85, 87, 89,
                  91, 93, 95, 97, 99, 101, 103, 105, 107, 109
    3    8 O      5
    4    1 H      20-37
    5    5 B      38, 40, 42, 44, 46, 48, 50, 52, 54, 56, 58, 60, 62, 64, 66,
                  68, 70, 72, 74, 76, 78, 80, 82, 84, 86, 88, 90, 92, 94, 96,
                  98, 100, 102, 104, 106, 108

           -------------------------------------------------
          |                Calculation Setup                |
           -------------------------------------------------

          program call               : "c:\Users\Andre\Proyectos doctorado\kras-pancreatic-gC3N4-ai\tools\xtb\xtb-6.7.1\bin\xtb.exe" "c:\Users\Andre\Proyectos doctorado\nano-qsar-ai-therapeutics\calculations\tnbc\Veliparib\Veliparib_B36N36_clean_complex.xyz" --gfn 2 --sp --chrg 0 --uhf 0 --etemp 300 --iterations 500 --norestart
          coordinate file            : c:\Users\Andre\Proyectos doctorado\nano-qsar-ai-therapeutics\calculations\tnbc\Veliparib\Veliparib_B36N36_clean_complex.xyz
          omp threads                :                    16


molecular fragmentation (1/2 indicates fragments):
111111111111111111111111111111111111122222222222222222222222222222222222
2222222222222222222222222222222222222
# atoms in fragment 1/2:    37    72
 fragment masses (1/2) :      258.32      893.44
CMA distance (Bohr)    :  20.116
constraining FC (au)   :  0.0500

           -------------------------------------------------
          |                 G F N 2 - x T B                 |
           -------------------------------------------------

        Reference                      10.1021/acs.jctc.8b01176
      * Hamiltonian:
        H0-scaling (s, p, d)           1.850000    2.230000    2.230000
        zeta-weighting                 0.500000
      * Dispersion:
        s8                             2.700000
        a1                             0.520000
        a2                             5.000000
        s9                             5.000000
      * Repulsion:
        kExp                           1.500000    1.000000
        rExp                           1.000000
      * Coulomb:
        alpha                          2.000000
        third order                    shell-resolved
        anisotropic                    true
        a3                             3.000000
        a5                             4.000000
        cn-shift                       1.200000
        cn-exp                         4.000000
        max-rad                        5.000000


          ...................................................
          :                      SETUP                      :
          :.................................................:
          :  # basis functions                 382          :
          :  # atomic orbitals                 382          :
          :  # shells                          200          :
          :  # electrons                       388          :
          :  max. iterations                   500          :
          :  Hamiltonian                  GFN2-xTB          :
          :  restarted?                      false          :
          :  GBSA solvation                  false          :
          :  PC potential                    false          :
          :  electronic temp.          300.0000000     K    :
          :  accuracy                    1.0000000          :
          :  -> integral cutoff          0.2500000E+02      :
          :  -> integral neglect         0.1000000E-07      :
          :  -> SCF convergence          0.1000000E-05 Eh   :
          :  -> wf. convergence          0.1000000E-03 e    :
          :  Broyden damping             0.4000000          :
          :  net charge                          0          :
          :  unpaired electrons                  0          :
          ...................................................

 iter      E             dE          RMSdq      gap      omega  full diag
   1   -206.3773816 -0.206377E+03  0.115E+01    0.61       0.0  T
   2   -206.8347609 -0.457379E+00  0.699E+00    0.44       1.0  T
   3   -204.0270251  0.280774E+01  0.446E+00    0.14       1.0  T
   4   -207.0603257 -0.303330E+01  0.131E+00    0.25       1.0  T
   5   -207.2669725 -0.206647E+00  0.710E-01    0.58       1.0  T
   6   -207.2999451 -0.329726E-01  0.517E-01    0.63       1.0  T
   7   -207.3020352 -0.209011E-02  0.378E-01    0.79       1.0  T
   8   -207.3006980  0.133712E-02  0.273E-01    0.62       1.0  T
   9   -207.3110996 -0.104015E-01  0.946E-02    0.64       1.0  T
  10   -207.3125684 -0.146881E-02  0.314E-02    0.63       1.0  T
  11   -207.3126831 -0.114731E-03  0.167E-02    0.63       1.0  T
  12   -207.3126978 -0.146694E-04  0.929E-03    0.63       1.0  T
  13   -207.3126998 -0.204014E-05  0.444E-03    0.63       2.2  T
  14   -207.3127027 -0.283241E-05  0.133E-03    0.63       7.2  T
  15   -207.3127028 -0.157782E-06  0.647E-04    0.63      14.8  T
  16   -207.3127028 -0.199574E-07  0.323E-04    0.63      29.6  T

   *** convergence criteria satisfied after 16 iterations ***

         #    Occupation            Energy/Eh            Energy/eV
      -------------------------------------------------------------
         1        2.0000           -0.6940318             -18.8856
       ...           ...                  ...                  ...
       188        2.0000           -0.3236304              -8.8064
       189        2.0000           -0.3208011              -8.7294
       190        2.0000           -0.3190960              -8.6830
       191        2.0000           -0.3168863              -8.6229
       192        2.0000           -0.3118043              -8.4846
       193        2.0000           -0.3099545              -8.4343
       194        2.0000           -0.3026854              -8.2365 (HOMO)
       195        0.0000           -0.2796882              -7.6107 (LUMO)
       196                         -0.2713731              -7.3844
       197                         -0.2608710              -7.0987
       198                         -0.2564748              -6.9790
       199                         -0.2476819              -6.7398
       ...                                ...                  ...
       382                          0.9870564              26.8592
      -------------------------------------------------------------
                  HL-Gap            0.0229971 Eh            0.6258 eV
             Fermi-level           -0.2911866 Eh           -7.9236 eV

 SCC (total)                   0 d,  0 h,  0 min,  0.508 sec
 SCC setup                      ...        0 min,  0.001 sec (  0.197%)
 Dispersion                     ...        0 min,  0.003 sec (  0.591%)
 classical contributions        ...        0 min,  0.000 sec (  0.000%)
 integral evaluation            ...        0 min,  0.011 sec (  2.165%)
 iterations                     ...        0 min,  0.463 sec ( 91.142%)
 molecular gradient             ...        0 min,  0.027 sec (  5.315%)
 printout                       ...        0 min,  0.003 sec (  0.591%)

         :::::::::::::::::::::::::::::::::::::::::::::::::::::
         ::                     SUMMARY                     ::
         :::::::::::::::::::::::::::::::::::::::::::::::::::::
         :: total energy            -205.181215642961 Eh    ::
         :: gradient norm              0.065848905189 Eh/a0 ::
         :: HOMO-LUMO gap              0.625783687228 eV    ::
         ::.................................................::
         :: SCC energy              -207.298555293777 Eh    ::
         :: -> isotropic ES            0.699894055498 Eh    ::
         :: -> anisotropic ES         -0.025189227737 Eh    ::
         :: -> anisotropic XC          0.093273907820 Eh    ::
         :: -> dispersion             -0.183578833828 Eh    ::
         :: repulsion energy           2.117339650817 Eh    ::
         :: add. restraining           0.000000000000 Eh    ::
         :: total charge              -0.000000000000 e     ::
         :::::::::::::::::::::::::::::::::::::::::::::::::::::

           -------------------------------------------------
          |                Property Printout                |
           -------------------------------------------------

    * Orbital Energies and Occupations

         #    Occupation            Energy/Eh            Energy/eV
      -------------------------------------------------------------
         1        2.0000           -0.6940318             -18.8856
       ...           ...                  ...                  ...
       182        2.0000           -0.3357920              -9.1374
       183        2.0000           -0.3347188              -9.1082
       184        2.0000           -0.3310802              -9.0092
       185        2.0000           -0.3286710              -8.9436
       186        2.0000           -0.3259090              -8.8684
       187        2.0000           -0.3251052              -8.8466
       188        2.0000           -0.3236304              -8.8064
       189        2.0000           -0.3208011              -8.7294
       190        2.0000           -0.3190960              -8.6830
       191        2.0000           -0.3168863              -8.6229
       192        2.0000           -0.3118043              -8.4846
       193        2.0000           -0.3099545              -8.4343
       194        2.0000           -0.3026854              -8.2365 (HOMO)
       195        0.0000           -0.2796882              -7.6107 (LUMO)
       196                         -0.2713731              -7.3844
       197                         -0.2608710              -7.0987
       198                         -0.2564748              -6.9790
       199                         -0.2476819              -6.7398
       200                         -0.2417988              -6.5797
       201                         -0.2307599              -6.2793
       202                         -0.2266412              -6.1672
       203                         -0.2251359              -6.1263
       204                         -0.2183608              -5.9419
       205                         -0.2097540              -5.7077
       ...                                ...                  ...
       382                          0.9870564              26.8592
      -------------------------------------------------------------
                  HL-Gap            0.0229971 Eh            0.6258 eV
             Fermi-level           -0.2911866 Eh           -7.9236 eV

     #   Z          covCN         q      C6AA      α(0)
     1   6 C        3.755    -0.119    22.846     6.815
     2   6 C        3.813     0.152    18.130     6.060
     3   7 N        2.693    -0.208    25.522     7.503
     4   6 C        2.752     0.269    22.456     7.760
     5   8 O        0.858    -0.449    22.691     6.387
     6   6 C        2.966    -0.031    28.761     8.797
     7   6 C        2.912    -0.030    28.740     8.791
     8   6 C        2.915    -0.036    28.902     8.816
     9   6 C        2.904    -0.054    29.352     8.883
    10   6 C        3.050     0.043    26.991     8.520
    11   7 N        2.804    -0.127    23.756     7.239
    12   6 C        3.110     0.149    24.634     8.131
    13   6 C        3.752    -0.120    22.867     6.819
    14   7 N        1.889    -0.301    28.639     7.934
    15   6 C        3.180     0.058    26.282     8.369
    16   6 C        3.827    -0.067    21.758     6.637
    17   6 C        3.824    -0.063    21.682     6.626
    18   6 C        3.787     0.014    20.352     6.425
    19   7 N        2.699    -0.287    27.390     7.773
    20   1 H        0.924     0.052     2.296     2.370
    21   1 H        0.924     0.049     2.327     2.386
    22   1 H        0.924     0.036     2.502     2.474
    23   1 H        0.860     0.202     1.098     1.641
    24   1 H        0.925     0.077     2.011     2.218
    25   1 H        0.925     0.044     2.398     2.422
    26   1 H        0.925     0.031     2.567     2.505
    27   1 H        0.860     0.160     1.334     1.809
    28   1 H        0.924     0.058     2.223     2.332
    29   1 H        0.924     0.072     2.060     2.244
    30   1 H        0.924     0.058     2.218     2.329
    31   1 H        0.924     0.039     2.468     2.457
    32   1 H        0.924     0.027     2.624     2.533
    33   1 H        0.924     0.021     2.713     2.576
    34   1 H        0.924     0.053     2.280     2.361
    35   1 H        0.924     0.026     2.637     2.540
    36   1 H        0.924     0.030     2.586     2.515
    37   1 H        0.859     0.169     1.280     1.772
    38   5 B        2.781     0.075    20.216     7.518
    39   7 N        2.774    -0.228    25.989     7.572
    40   5 B        2.788     0.092    19.938     7.464
    41   7 N        2.524    -0.315    28.144     7.879
    42   5 B        2.779     0.084    20.074     7.491
    43   7 N        2.655    -0.270    26.977     7.714
    44   5 B        2.849     0.241    17.672     7.019
    45   7 N        2.529    -0.273    27.097     7.731
    46   5 B        3.195     0.150    18.932     7.257
    47   7 N        2.979    -0.111    23.410     7.186
    48   5 B        2.644     0.372    16.328     6.814
    49   7 N        2.669    -0.213    25.642     7.521
    50   5 B        3.181     0.021    21.011     7.645
    51   7 N        2.888    -0.222    25.827     7.548
    52   5 B        3.009     0.209    18.078     7.093
    53   7 N        2.660    -0.163    24.539     7.357
    54   5 B        2.906     0.319    16.620     6.803
    55   7 N        3.156    -0.082    22.839     7.098
    56   5 B        2.779     0.093    19.919     7.463
    57   7 N        3.037    -0.125    23.715     7.233
    58   5 B        2.758     0.090    20.007     7.484
    59   7 N        2.634    -0.309    27.951     7.852
    60   5 B        3.040     0.226    17.838     7.045
    61   7 N        2.981     0.006    21.151     6.831
    62   5 B        2.582     0.325    17.311     7.088
    63   7 N        2.596    -0.361    29.315     8.041
    64   5 B        3.287     0.340    16.336     6.740
    65   7 N        2.784    -0.254    26.594     7.659
    66   5 B        2.559     0.321    17.586     7.183
    67   7 N        2.579    -0.369    29.535     8.071
    68   5 B        2.530     0.301    18.225     7.377
    69   7 N        2.665    -0.205    25.465     7.495
    70   5 B        2.698     0.195    18.516     7.221
    71   7 N        2.844    -0.168    24.619     7.369
    72   5 B        2.758     0.082    20.133     7.508
    73   7 N        2.672    -0.175    24.780     7.393
    74   5 B        2.877     0.110    19.580     7.386
    75   7 N        2.663    -0.145    24.137     7.297
    76   5 B        2.594     0.312    17.391     7.086
    77   7 N        2.519    -0.354    29.173     8.021
    78   5 B        2.684     0.183    18.734     7.271
    79   7 N        3.008    -0.122    23.652     7.223
    80   5 B        2.677     0.210    18.363     7.202
    81   7 N        2.716    -0.249    26.479     7.642
    82   5 B        2.647     0.164    19.169     7.381
    83   7 N        2.825    -0.207    25.500     7.500
    84   5 B        3.321     0.229    17.792     7.034
    85   7 N        2.531    -0.286    27.422     7.777
    86   5 B        2.950     0.035    20.790     7.607
    87   7 N        2.783    -0.185    25.011     7.428
    88   5 B        2.796     0.084    20.047     7.483
    89   7 N        2.673    -0.156    24.376     7.333
    90   5 B        3.021     0.210    18.055     7.088
    91   7 N        3.272     0.014    20.998     6.806
    92   5 B        2.869     0.305    16.813     6.845
    93   7 N        3.154    -0.111    23.423     7.188
    94   5 B        3.263     0.320    16.587     6.792
    95   7 N        2.833    -0.061    22.413     7.031
    96   5 B        3.303     0.231    17.768     7.029
    97   7 N        2.656    -0.183    24.973     7.422
    98   5 B        2.838     0.112    19.573     7.388
    99   7 N        2.834    -0.223    25.870     7.554
   100   5 B        2.863     0.252    17.505     6.985
   101   7 N        2.654    -0.229    26.006     7.574
   102   5 B        3.011     0.114    19.494     7.365
   103   7 N        3.153    -0.086    22.915     7.110
   104   5 B        2.674     0.202    18.483     7.228
   105   7 N        2.696    -0.227    25.953     7.566
   106   5 B        2.585     0.369    16.726     6.963
   107   7 N        2.881    -0.181    24.902     7.412
   108   5 B        2.825     0.106    19.682     7.410
   109   7 N        2.827    -0.253    26.572     7.656

 Mol. C6AA /au·bohr⁶  :     207705.812729
 Mol. C8AA /au·bohr⁸  :    5777495.673771
 Mol. α(0) /au        :        714.614862


Wiberg/Mayer (AO) data.
largest (>0.10) Wiberg bond orders for each atom

 ---------------------------------------------------------------------------
     #   Z sym  total        # sym  WBO       # sym  WBO       # sym  WBO
 ---------------------------------------------------------------------------
     1   6 C    3.994 --     2 C    0.992    22 H    0.985    21 H    0.984
                            20 H    0.983
     2   6 C    3.964 --     1 C    0.992    19 N    0.983     3 N    0.981
                            16 C    0.959
     3   7 N    3.439 --     4 C    1.238     2 C    0.981    23 H    0.895
                             5 O    0.200
     4   6 C    3.955 --     5 O    1.642     3 N    1.238     6 C    1.007
     5   8 O    1.984 --     4 C    1.642     3 N    0.200
     6   6 C    3.983 --     7 C    1.433    15 C    1.290     4 C    1.007
                             9 C    0.113
     7   6 C    3.982 --     6 C    1.433     8 C    1.407    24 H    0.963
     8   6 C    3.987 --     9 C    1.468     7 C    1.407    25 H    0.970
     9   6 C    3.986 --     8 C    1.468    10 C    1.339    26 H    0.969
                             6 C    0.113
    10   6 C    3.955 --     9 C    1.339    15 C    1.280    11 N    1.146
    11   7 N    3.539 --    12 C    1.211    10 C    1.146    27 H    0.944
                            14 N    0.109
    12   6 C    3.957 --    14 N    1.543    11 N    1.211    13 C    1.033
    13   6 C    3.992 --    12 C    1.033    29 H    0.980    28 H    0.967
                            30 H    0.967
    14   7 N    3.043 --    12 C    1.543    15 C    1.198    11 N    0.109
    15   6 C    3.978 --     6 C    1.290    10 C    1.280    14 N    1.198
    16   6 C    3.995 --    17 C    1.007    32 H    0.979    31 H    0.978
                             2 C    0.959
    17   6 C    3.996 --    16 C    1.007    18 C    1.001    33 H    0.979
                            34 H    0.977
    18   6 C    3.989 --    19 N    1.008    17 C    1.001    36 H    0.978
                            35 H    0.974
    19   7 N    3.044 --    18 C    1.008     2 C    0.983    37 H    0.938
    20   1 H    0.997 --     1 C    0.983
    21   1 H    0.998 --     1 C    0.984
    22   1 H    0.999 --     1 C    0.985
    23   1 H    0.959 --     3 N    0.895
    24   1 H    0.994 --     7 C    0.963
    25   1 H    0.997 --     8 C    0.970
    26   1 H    0.998 --     9 C    0.969
    27   1 H    0.973 --    11 N    0.944
    28   1 H    0.994 --    13 C    0.967
    29   1 H    0.994 --    13 C    0.980
    30   1 H    0.994 --    13 C    0.967
    31   1 H    0.999 --    16 C    0.978
    32   1 H    0.999 --    16 C    0.979
    33   1 H    0.999 --    17 C    0.979
    34   1 H    0.997 --    17 C    0.977
    35   1 H    0.999 --    18 C    0.974
    36   1 H    0.999 --    18 C    0.978
    37   1 H    0.971 --    19 N    0.938
    38   5 B    3.479 --   107 N    1.284    90 B    1.000    84 B    0.970
    39   7 N    3.398 --    84 B    1.142    97 N    1.007    96 B    1.001
    40   5 B    3.464 --    85 N    1.276   108 B    0.978    96 B    0.958
    41   7 N    3.529 --   100 B    1.152    98 B    1.150    68 B    1.018
    42   5 B    3.463 --    75 N    1.240   104 B    0.996    78 B    0.990
    43   7 N    3.265 --    64 B    1.202   106 B    0.967   101 N    0.888
    44   5 B    3.408 --    77 N    1.176    51 N    1.035    60 B    0.963
    45   7 N    3.568 --    58 B    1.277    46 B    1.158   102 B    0.973
    46   5 B    3.393 --    45 N    1.158    88 B    0.932    86 B    0.640
                            50 B    0.294
    47   7 N    3.322 --    52 B    1.113    91 N    1.043   103 N    0.945
    48   5 B    3.433 --    49 N    1.186    59 N    1.128    87 N    0.961
    49   7 N    3.445 --    48 B    1.186    76 B    1.086    89 N    0.967
    50   5 B    3.457 --    86 B    1.285   102 B    1.004   100 B    0.627
                            46 B    0.294
    51   7 N    3.428 --    54 B    1.230    44 B    1.035    65 N    0.929
    52   5 B    3.390 --    47 N    1.113    71 N    1.039    98 B    1.005
    53   7 N    3.510 --    56 B    1.206    76 B    1.123    73 N    0.999
    54   5 B    3.515 --    51 N    1.230    79 N    1.078    99 N    0.999
    55   7 N    3.348 --   104 B    1.138   107 N    0.991    57 N    0.983
    56   5 B    3.415 --    53 N    1.206    74 B    1.008    88 B    0.926
    57   7 N    3.331 --    92 B    1.139    55 N    0.983    61 N    0.974
    58   5 B    3.464 --    45 N    1.277    72 B    0.978    82 B    0.932
    59   7 N    3.218 --    48 B    1.128    62 B    1.065    87 N    0.792
    60   5 B    3.367 --    73 N    1.151    65 N    0.992    44 B    0.963
    61   7 N    3.100 --    79 N    1.014    57 N    0.974   105 N    0.939
    62   5 B    3.511 --    99 N    1.249    59 N    1.065    77 N    0.988
    63   7 N    3.433 --    68 B    1.202    96 B    1.061    84 B    0.925
    64   5 B    3.481 --    43 N    1.202    81 N    1.041    67 N    0.980
    65   7 N    3.282 --    70 B    1.169    60 B    0.992    51 N    0.929
    66   5 B    3.523 --   101 N    1.208   105 N    1.121    93 N    1.035
    67   7 N    3.430 --    80 B    1.220    94 B    0.993    64 B    0.980
    68   5 B    3.519 --    63 N    1.202   109 N    1.099    41 N    1.018
    69   7 N    3.441 --   106 B    1.259    80 B    0.998    95 N    0.990
    70   5 B    3.446 --    65 N    1.169    97 N    1.123   108 B    0.923
    71   7 N    3.469 --    72 B    1.259    52 B    1.039   103 N    0.984
    72   5 B    3.420 --    71 N    1.259    58 B    0.978    80 B    0.959
    73   7 N    3.510 --   108 B    1.172    60 B    1.151    53 N    0.999
    74   5 B    3.347 --    86 B    1.009    56 B    1.008    85 N    0.963
    75   7 N    3.508 --    42 B    1.240    78 B    1.094    81 N    1.035
    76   5 B    3.515 --    53 N    1.123    77 N    1.105    49 N    1.086
    77   7 N    3.477 --    44 B    1.176    76 B    1.105    62 B    0.988
    78   5 B    3.464 --    83 N    1.178    75 N    1.094    42 B    0.990
    79   7 N    3.270 --    54 B    1.078    61 N    1.014    93 N    0.976
    80   5 B    3.391 --    67 N    1.220    69 N    0.998    72 B    0.959
    81   7 N    3.371 --    64 B    1.041    75 N    1.035    94 B    0.986
    82   5 B    3.454 --    95 N    1.192    89 N    1.079    58 B    0.932
    83   7 N    3.405 --    78 B    1.178    90 B    1.072    91 N    0.959
    84   5 B    3.365 --    39 N    1.142    38 B    0.970    63 N    0.925
                            96 B    0.127
    85   7 N    3.560 --    40 B    1.276   100 B    1.106    74 B    0.963
    86   5 B    3.367 --    50 B    1.285    74 B    1.009    46 B    0.640
                           100 B    0.186
    87   7 N    2.986 --    95 N    1.045    48 B    0.961    59 N    0.792
    88   5 B    3.456 --    89 N    1.266    46 B    0.932    56 B    0.926
    89   7 N    3.481 --    88 B    1.266    82 B    1.079    49 N    0.967
    90   5 B    3.442 --   109 N    1.130    83 N    1.072    38 B    1.000
    91   7 N    3.186 --    47 N    1.043    83 N    0.959   109 N    0.950
    92   5 B    3.524 --    97 N    1.162    57 N    1.139   107 N    0.992
    93   7 N    3.221 --    66 B    1.035    99 N    0.985    79 N    0.976
    94   5 B    3.507 --   103 N    1.264    67 N    0.993    81 N    0.986
    95   7 N    3.440 --    82 B    1.192    87 N    1.045    69 N    0.990
    96   5 B    3.327 --    63 N    1.061    39 N    1.001    40 B    0.958
                            84 B    0.127
    97   7 N    3.490 --    92 B    1.162    70 B    1.123    39 N    1.007
    98   5 B    3.386 --    41 N    1.150    52 B    1.005   102 B    1.002
    99   7 N    3.448 --    62 B    1.249    54 B    0.999    93 N    0.985
   100   5 B    3.443 --    41 N    1.152    85 N    1.106    50 B    0.627
                            86 B    0.186   102 B    0.120
   101   7 N    3.332 --    66 B    1.208   106 B    1.038    43 N    0.888
   102   5 B    3.334 --    50 B    1.004    98 B    1.002    45 N    0.973
                           100 B    0.120
   103   7 N    3.439 --    94 B    1.264    71 N    0.984    47 N    0.945
   104   5 B    3.447 --    55 N    1.138   105 N    1.121    42 B    0.996
   105   7 N    3.399 --    66 B    1.121   104 B    1.121    61 N    0.939
   106   5 B    3.439 --    69 N    1.259   101 N    1.038    43 N    0.967
   107   7 N    3.475 --    38 B    1.284    92 B    0.992    55 N    0.991
   108   5 B    3.360 --    73 N    1.172    40 B    0.978    70 B    0.923
   109   7 N    3.417 --    90 B    1.130    68 B    1.099    91 N    0.950
 ---------------------------------------------------------------------------

Topologies differ in total number of bonds
Writing topology from bond orders to xtbtopo.mol

molecular dipole:
                 x           y           z       tot (Debye)
 q only:        3.266       1.961      -2.246
   full:        2.487       1.047      -0.113       6.865
molecular quadrupole (traceless):
                xx          xy          yy          xz          yz          zz
 q only:      -40.320     -10.296     -34.622      59.199     -15.976      74.942
  q+dip:      -26.437     -17.075     -23.350      89.844      -9.899      49.787
   full:      -21.879     -14.175     -23.175      93.766     -11.174      45.054


           -------------------------------------------------
          | TOTAL ENERGY             -205.181215642961 Eh   |
          | GRADIENT NORM               0.065848905189 Eh/α |
          | HOMO-LUMO GAP               0.625783687228 eV   |
           -------------------------------------------------

------------------------------------------------------------------------
 * finished run on 2026/08/31 at 22:21:31.134     
------------------------------------------------------------------------
 total:
 * wall-time:     0 d,  0 h,  0 min,  0.563 sec
 *  cpu-time:     0 d,  0 h,  0 min,  5.328 sec
 * ratio c/w:     9.464 speedup
 SCF:
 * wall-time:     0 d,  0 h,  0 min,  0.509 sec
 *  cpu-time:     0 d,  0 h,  0 min,  4.969 sec
 * ratio c/w:     9.762 speedup

normal termination of xtb
