      -----------------------------------------------------------      
     |                   =====================                   |     
     |                           x T B                           |     
     |                   =====================                   |     
     |                         S. Grimme                         |     
     |          Mulliken Center for Theoretical Chemistry        |     
     |                    University of Bonn                     |     
      -----------------------------------------------------------      

   * xtb version 6.7.1pre (5071a88) compiled by 'Marcel@Raven' on 2024-07-23

   xtb is free software: you can redistribute it and/or modify it under
   the terms of the GNU Lesser General Public License as published by
   the Free Software Foundation, either version 3 of the License, or
   (at your option) any later version.
   
   xtb is distributed in the hope that it will be useful,
   but WITHOUT ANY WARRANTY; without even the implied warranty of
   MERCHANTABILITY or FITNESS FOR A PARTICULAR PURPOSE.  See the
   GNU Lesser General Public License for more details.
   
   Cite this work as:
   * C. Bannwarth, E. Caldeweyher, S. Ehlert, A. Hansen, P. Pracht,
     J. Seibert, S. Spicher, S. Grimme, WIREs Comput. Mol. Sci., 2020, 11,
     e01493. DOI: 10.1002/wcms.1493
   
   for GFN2-xTB:
   * C. Bannwarth, S. Ehlert and S. Grimme., J. Chem. Theory Comput., 2019,
     15, 1652-1671. DOI: 10.1021/acs.jctc.8b01176
   for GFN1-xTB:
   * S. Grimme, C. Bannwarth, P. Shushkov, J. Chem. Theory Comput., 2017,
     13, 1989-2009. DOI: 10.1021/acs.jctc.7b00118
   for GFN0-xTB:
   * P. Pracht, E. Caldeweyher, S. Ehlert, S. Grimme, ChemRxiv, 2019, preprint.
     DOI: 10.26434/chemrxiv.8326202.v1
   for GFN-FF:
   * S. Spicher and S. Grimme, Angew. Chem. Int. Ed., 2020, 59, 15665-15673.
     DOI: 10.1002/anie.202004239
   
   for ALPB and GBSA implicit solvation:
   * S. Ehlert, M. Stahn, S. Spicher, S. Grimme, J. Chem. Theory Comput.,
     2021, 17, 4250-4261. DOI: 10.1021/acs.jctc.1c00471
   
   for ddCOSMO and CPCM-X implicit solvation:
   * M. Stahn, S. Ehlert, S. Grimme, J. Phys. Chem. A,
     2023, XX, XXXX-XXXX. DOI: 10.1021/acs.jpca.3c04382
   
   for DFT-D4:
   * E. Caldeweyher, C. Bannwarth and S. Grimme, J. Chem. Phys., 2017,
     147, 034112. DOI: 10.1063/1.4993215
   * E. Caldeweyher, S. Ehlert, A. Hansen, H. Neugebauer, S. Spicher,
     C. Bannwarth and S. Grimme, J. Chem. Phys., 2019, 150, 154122.
     DOI: 10.1063/1.5090222
   * E. Caldeweyher, J.-M. Mewes, S. Ehlert and S. Grimme, Phys. Chem. Chem. Phys.
     2020, 22, 8499-8512. DOI: 10.1039/D0CP00502A
   
   for sTDA-xTB:
   * S. Grimme and C. Bannwarth, J. Chem. Phys., 2016, 145, 054103.
     DOI: 10.1063/1.4959605
   
   in the mass-spec context:
   * V. Asgeirsson, C. Bauer and S. Grimme, Chem. Sci., 2017, 8, 4879.
     DOI: 10.1039/c7sc00601b
   * J. Koopman and S. Grimme, ACS Omega 2019, 4, 12, 15120-15133.
     DOI: 10.1021/acsomega.9b02011
   
   for metadynamics refer to:
   * S. Grimme, J. Chem. Theory Comput., 2019, 155, 2847-2862
     DOI: 10.1021/acs.jctc.9b00143
   
   for SPH calculations refer to:
   * S. Spicher and S. Grimme, J. Chem. Theory Comput., 2021, 17, 1701-1714
     DOI: 10.1021/acs.jctc.0c01306
   
   for ONIOM refer to:
   * C. Plett, A. Katbashev, S. Ehlert, S. Grimme, M. Bursch,
     Phys. Chem. Chem. Phys., 2023, 25, 17860-17868. DOI: 10.1039/D3CP02178E
   
   for DIPRO refer to:
   * J. Kohn, N. Gildemeister, S. Grimme, D. Fazzi, A. Hansen,
     J. Chem. Phys., 2023, just accepted.
   
   for PTB refer to:
   * S. Grimme, M. Mueller, A. Hansen, J. Chem. Phys., 2023, 158, 124111.
     DOI: 10.1063/5.0137838
   
   with help from (in alphabetical order)
   P. Atkinson, C. Bannwarth, F. Bohle, G. Brandenburg, E. Caldeweyher
   M. Checinski, S. Dohm, S. Ehlert, S. Ehrlich, I. Gerasimov, C. Hölzer
   A. Katbashev, J. Kohn, J. Koopman, C. Lavigne, S. Lehtola, F. März, M. Müller,
   F. Musil, H. Neugebauer, J. Pisarek, C. Plett, P. Pracht, F. Pultar,
   J. Seibert, P. Shushkov, S. Spicher, M. Stahn, M. Steiner, T. Strunk,
   J. Stückrath, T. Rose, and J. Unsleber
   
 * started run on 2026/08/31 at 18:25:31.001     
   ID    Z sym.   atoms
    1    6 C      1, 2, 4, 6-10, 12, 13, 15-18
    2    7 N      3, 11, 14, 19, 74-109
    3    8 O      5
    4    1 H      20-37
    5    5 B      38-73

           -------------------------------------------------
          |                Calculation Setup                |
           -------------------------------------------------

          program call               : "c:\Users\Andre\Proyectos doctorado\kras-pancreatic-gC3N4-ai\tools\xtb\xtb-6.7.1\bin\xtb.exe" "c:\Users\Andre\Proyectos doctorado\nano-qsar-ai-therapeutics\calculations\tnbc\Veliparib\Veliparib_B36N36_complex.xyz" --gfn 2 --sp --chrg 0 --uhf 0 --iterations 500 --norestart
          coordinate file            : c:\Users\Andre\Proyectos doctorado\nano-qsar-ai-therapeutics\calculations\tnbc\Veliparib\Veliparib_B36N36_complex.xyz
          omp threads                :                    16


molecular fragmentation (1/2 indicates fragments):
111111111111111111111111111111111111111111111111111211211111111111111111
1111111111111112112111111111111111111
# atoms in fragment 1/2:   105     4
 fragment masses (1/2) :     1102.12       49.64
CMA distance (Bohr)    :   8.563
constraining FC (au)   :  0.0500

           -------------------------------------------------
          |                 G F N 2 - x T B                 |
           -------------------------------------------------

        Reference                      10.1021/acs.jctc.8b01176
      * Hamiltonian:
        H0-scaling (s, p, d)           1.850000    2.230000    2.230000
        zeta-weighting                 0.500000
      * Dispersion:
        s8                             2.700000
        a1                             0.520000
        a2                             5.000000
        s9                             5.000000
      * Repulsion:
        kExp                           1.500000    1.000000
        rExp                           1.000000
      * Coulomb:
        alpha                          2.000000
        third order                    shell-resolved
        anisotropic                    true
        a3                             3.000000
        a5                             4.000000
        cn-shift                       1.200000
        cn-exp                         4.000000
        max-rad                        5.000000


          ...................................................
          :                      SETUP                      :
          :.................................................:
          :  # basis functions                 382          :
          :  # atomic orbitals                 382          :
          :  # shells                          200          :
          :  # electrons                       388          :
          :  max. iterations                   500          :
          :  Hamiltonian                  GFN2-xTB          :
          :  restarted?                      false          :
          :  GBSA solvation                  false          :
          :  PC potential                    false          :
          :  electronic temp.          300.0000000     K    :
          :  accuracy                    1.0000000          :
          :  -> integral cutoff          0.2500000E+02      :
          :  -> integral neglect         0.1000000E-07      :
          :  -> SCF convergence          0.1000000E-05 Eh   :
          :  -> wf. convergence          0.1000000E-03 e    :
          :  Broyden damping             0.4000000          :
          :  net charge                          0          :
          :  unpaired electrons                  0          :
          ...................................................

 iter      E             dE          RMSdq      gap      omega  full diag
   1   -192.7736229 -0.192774E+03  0.151E+01    0.14       0.0  T
   2   -184.3258221  0.844780E+01  0.113E+01    0.40       1.0  T
   3   -126.9984190  0.573274E+02  0.108E+01    0.15       1.0  T
   4    -50.2864075  0.767120E+02  0.122E+01    0.31       1.0  T
   5   -190.3630793 -0.140077E+03  0.593E+00    0.11       1.0  T
   6   -202.1388181 -0.117757E+02  0.377E+00    0.17       1.0  T
   7   -202.0495582  0.892598E-01  0.267E+00    0.24       1.0  T
   8   -202.8780572 -0.828499E+00  0.232E+00    0.42       1.0  T
   9   -203.0454539 -0.167397E+00  0.183E+00    0.26       1.0  T
  10   -203.2902489 -0.244795E+00  0.134E+00    0.30       1.0  T
  11   -203.4151199 -0.124871E+00  0.108E+00    0.20       1.0  T
  12   -203.4615831 -0.464632E-01  0.768E-01    0.03       1.0  T
  13   -203.4597181  0.186499E-02  0.664E-01    0.18       1.0  T
  14   -203.5374487 -0.777307E-01  0.296E-01    0.09       1.0  T
  15   -203.5275407  0.990801E-02  0.270E-01    0.11       1.0  T
  16   -203.5281540 -0.613299E-03  0.321E-01    0.12       1.0  T
  17   -203.5367895 -0.863547E-02  0.245E-01    0.10       1.0  T
  18   -203.5475939 -0.108044E-01  0.126E-01    0.10       1.0  T
  19   -203.5469861  0.607777E-03  0.118E-01    0.09       1.0  T
  20   -203.5494548 -0.246864E-02  0.441E-02    0.09       1.0  T
  21   -203.5492094  0.245371E-03  0.471E-02    0.09       1.0  T
  22   -203.5496426 -0.433211E-03  0.106E-02    0.09       1.0  T
  23   -203.5496483 -0.566739E-05  0.806E-03    0.09       1.2  T
  24   -203.5496072  0.411278E-04  0.164E-02    0.09       1.0  T
  25   -203.5496277 -0.205191E-04  0.123E-02    0.09       1.0  T
  26   -203.5496468 -0.191166E-04  0.669E-03    0.09       1.4  T
  27   -203.5496483 -0.151167E-05  0.544E-03    0.09       1.8  T
  28   -203.5496526 -0.432150E-05  0.257E-03    0.09       3.7  T
  29   -203.5496526  0.664174E-07  0.227E-03    0.09       4.2  T
  30   -203.5496533 -0.735351E-06  0.123E-03    0.09       7.8  T
  31   -203.5496536 -0.282430E-06  0.202E-04    0.09      47.4  T
  32   -203.5496536 -0.115963E-08  0.158E-04    0.09      60.6  T

   *** convergence criteria satisfied after 32 iterations ***

         #    Occupation            Energy/Eh            Energy/eV
      -------------------------------------------------------------
         1        2.0000           -1.1089010             -30.1747
       ...           ...                  ...                  ...
       188        2.0000           -0.1853148              -5.0427
       189        2.0000           -0.1805882              -4.9141
       190        2.0000           -0.1652123              -4.4957
       191        2.0000           -0.1609785              -4.3804
       192        2.0000           -0.1571623              -4.2766
       193        2.0000           -0.1437765              -3.9124
       194        1.6896           -0.1348386              -3.6691 (HOMO)
       195        0.3022           -0.1315890              -3.5807 (LUMO)
       196        0.0076           -0.1279354              -3.4813
       197        0.0006           -0.1255513              -3.4164
       198                         -0.1162608              -3.1636
       199                         -0.1089101              -2.9636
       ...                                ...                  ...
       382                         52.9893880            1441.9146
      -------------------------------------------------------------
                  HL-Gap            0.0032496 Eh            0.0884 eV
             Fermi-level           -0.1332288 Eh           -3.6253 eV

 SCC (total)                   0 d,  0 h,  0 min,  0.797 sec
 SCC setup                      ...        0 min,  0.001 sec (  0.125%)
 Dispersion                     ...        0 min,  0.004 sec (  0.502%)
 classical contributions        ...        0 min,  0.000 sec (  0.000%)
 integral evaluation            ...        0 min,  0.016 sec (  2.008%)
 iterations                     ...        0 min,  0.743 sec ( 93.225%)
 molecular gradient             ...        0 min,  0.031 sec (  3.890%)
 printout                       ...        0 min,  0.002 sec (  0.251%)

         :::::::::::::::::::::::::::::::::::::::::::::::::::::
         ::                     SUMMARY                     ::
         :::::::::::::::::::::::::::::::::::::::::::::::::::::
         :: total energy              75.555628723230 Eh    ::
         :: gradient norm            257.768468927097 Eh/a0 ::
         :: HOMO-LUMO gap              0.088426698338 eV    ::
         ::.................................................::
         :: SCC energy              -203.515246535003 Eh    ::
         :: -> isotropic ES            1.282262786984 Eh    ::
         :: -> anisotropic ES          0.152332978107 Eh    ::
         :: -> anisotropic XC          0.478700878492 Eh    ::
         :: -> dispersion             -0.306513990020 Eh    ::
         :: repulsion energy         279.070875258233 Eh    ::
         :: add. restraining           0.000000000000 Eh    ::
         :: total charge              -0.000000000000 e     ::
         :::::::::::::::::::::::::::::::::::::::::::::::::::::

           -------------------------------------------------
          |                Property Printout                |
           -------------------------------------------------

    * Orbital Energies and Occupations

         #    Occupation            Energy/Eh            Energy/eV
      -------------------------------------------------------------
         1        2.0000           -1.1089010             -30.1747
       ...           ...                  ...                  ...
       182        2.0000           -0.2399823              -6.5303
       183        2.0000           -0.2254335              -6.1344
       184        2.0000           -0.2182751              -5.9396
       185        2.0000           -0.2017558              -5.4901
       186        2.0000           -0.1992983              -5.4232
       187        2.0000           -0.1874639              -5.1012
       188        2.0000           -0.1853148              -5.0427
       189        2.0000           -0.1805882              -4.9141
       190        2.0000           -0.1652123              -4.4957
       191        2.0000           -0.1609785              -4.3804
       192        2.0000           -0.1571623              -4.2766
       193        2.0000           -0.1437765              -3.9124
       194        1.6896           -0.1348386              -3.6691 (HOMO)
       195        0.3022           -0.1315890              -3.5807 (LUMO)
       196        0.0076           -0.1279354              -3.4813
       197        0.0006           -0.1255513              -3.4164
       198                         -0.1162608              -3.1636
       199                         -0.1089101              -2.9636
       200                         -0.1040107              -2.8303
       201                         -0.0982842              -2.6744
       202                         -0.0849657              -2.3120
       203                         -0.0792366              -2.1561
       204                         -0.0740468              -2.0149
       205                         -0.0694275              -1.8892
       ...                                ...                  ...
       382                         52.9893880            1441.9146
      -------------------------------------------------------------
                  HL-Gap            0.0032496 Eh            0.0884 eV
             Fermi-level           -0.1332288 Eh           -3.6253 eV

     #   Z          covCN         q      C6AA      α(0)
     1   6 C        6.406    -0.442    30.229     7.808
     2   6 C        4.922     0.126    18.458     6.101
     3   7 N        2.693    -0.300    27.730     7.821
     4   6 C        2.752     0.164    24.453     8.097
     5   8 O        1.600    -0.540    23.799     6.584
     6   6 C        2.969    -0.142    31.638     9.226
     7   6 C        4.397    -0.319    27.047     7.386
     8   6 C        4.746    -0.219    24.736     7.063
     9   6 C        6.668     0.280    16.298     5.733
    10   6 C        8.361    -0.171    23.724     6.917
    11   7 N        8.115     1.475     6.776     3.866
    12   6 C        7.819    -0.050    21.377     6.566
    13   6 C        8.474    -0.015    20.755     6.470
    14   7 N        2.535    -0.624    37.483     9.092
    15   6 C        4.062    -0.186    24.037     6.964
    16   6 C        7.382    -0.327    27.236     7.412
    17   6 C        8.277    -0.015    20.750     6.469
    18   6 C        9.175     0.002    20.451     6.422
    19   7 N        4.321    -0.435    31.335     8.314
    20   1 H        2.440     0.349     0.577     1.186
    21   1 H        2.564     0.318     0.652     1.261
    22   1 H        0.959     0.124     1.580     1.965
    23   1 H        0.860     0.189     1.164     1.690
    24   1 H        2.503     0.303     0.695     1.302
    25   1 H        0.925    -0.010     3.243     2.816
    26   1 H        1.944    -0.235    13.752     5.789
    27   1 H        2.685     0.344     0.589     1.198
    28   1 H        1.643    -0.050     4.063     3.147
    29   1 H        3.378     0.642     0.208     0.712
    30   1 H        1.020    -0.110     5.912     3.798
    31   1 H        0.941     0.102     1.769     2.079
    32   1 H        3.276     0.635     0.213     0.720
    33   1 H        2.056    -0.124     6.437     3.961
    34   1 H        2.153     0.251     0.868     1.454
    35   1 H        2.224     0.281     0.762     1.363
    36   1 H        2.474     0.192     1.130     1.659
    37   1 H        1.829     0.305     0.688     1.295
    38   5 B        7.988     0.097    21.018     7.387
    39   5 B        6.324     0.055    21.742     7.513
    40   5 B        5.103     0.081    21.294     7.435
    41   5 B        5.102     0.085    21.221     7.422
    42   5 B        5.102     0.108    20.843     7.356
    43   5 B        8.522     0.467    15.841     6.413
    44   5 B        8.545     0.401    16.632     6.571
    45   5 B        5.283     0.200    19.373     7.092
    46   5 B        9.730     0.248    18.671     6.962
    47   5 B        5.250     0.127    20.516     7.298
    48   5 B        6.523     0.159    20.009     7.207
    49   5 B        7.726     0.122    20.600     7.313
    50   5 B        2.445     0.169    22.220     8.462
    51   5 B        2.553     0.229    18.950     7.469
    52   5 B        1.850     0.118    40.444    13.395
    53   5 B        3.406     0.225    17.870     7.045
    54   5 B        1.851     0.080    41.717    13.604
    55   5 B        1.866     0.131    39.985    13.317
    56   5 B        1.850     0.087    41.472    13.564
    57   5 B        1.880     0.145    39.513    13.236
    58   5 B        1.850     0.089    41.397    13.552
    59   5 B        3.738    -0.093    24.480     7.990
    60   5 B        2.354     0.133    26.972     9.873
    61   5 B        1.850     0.095    41.187    13.517
    62   5 B        4.912     0.181    19.662     7.145
    63   5 B        4.954     0.326    17.582     6.756
    64   5 B        5.377     0.245    18.704     6.968
    65   5 B        4.397     0.298    17.959     6.828
    66   5 B        4.420     0.298    17.963     6.829
    67   5 B        8.205    -0.267    28.540     8.608
    68   5 B        4.397     0.345    17.339     6.709
    69   5 B        7.532     0.499    15.470     6.337
    70   5 B        6.616     0.326    17.586     6.757
    71   5 B        4.447     0.321    17.652     6.770
    72   5 B        8.998     0.588    14.523     6.140
    73   5 B        5.289     0.334    17.485     6.737
    74   7 N        6.278     0.088    19.710     6.594
    75   7 N        4.386    -0.050    22.201     6.998
    76   7 N        4.372    -0.063    22.458     7.038
    77   7 N        4.372    -0.080    22.796     7.091
    78   7 N        4.372    -0.092    23.029     7.127
    79   7 N        7.342    -0.227    25.946     7.565
    80   7 N        7.354    -0.469    32.329     8.445
    81   7 N        4.384    -0.179    24.862     7.406
    82   7 N        7.391    -0.278    27.168     7.742
    83   7 N        4.384    -0.078    22.748     7.084
    84   7 N        4.398    -0.159    24.419     7.339
    85   7 N        6.480    -0.253    26.549     7.653
    86   7 N        0.954    -0.271    26.762     7.457
    87   7 N        0.967    -0.392    29.770     7.858
    88   7 N        0.932    -0.114    23.378     6.982
    89   7 N        1.581    -0.252    26.865     7.610
    90   7 N        0.932    -0.170    24.567     7.157
    91   7 N        0.932    -0.158    24.317     7.121
    92   7 N        0.932    -0.183    24.853     7.199
    93   7 N        0.932    -0.190    25.010     7.221
    94   7 N        0.932    -0.170    24.575     7.158
    95   7 N        2.324    -0.201    25.590     7.510
    96   7 N        0.932    -0.150    24.126     7.092
    97   7 N        0.932    -0.156    24.262     7.112
    98   7 N        4.125    -0.546    34.754     8.756
    99   7 N        3.977    -0.386    29.965     8.130
   100   7 N        4.283    -0.491    33.008     8.533
   101   7 N        3.977    -0.412    30.697     8.229
   102   7 N        3.977    -0.510    33.605     8.610
   103   7 N        7.171    -0.002    21.304     6.855
   104   7 N        3.977    -0.445    31.627     8.353
   105   7 N        7.069    -0.341    28.761     7.965
   106   7 N        4.722    -0.541    34.601     8.737
   107   7 N        3.977    -0.409    30.592     8.215
   108   7 N        6.897    -0.044    22.079     6.979
   109   7 N        3.988    -0.446    31.655     8.356

 Mol. C6AA /au·bohr⁶  :     222996.858117
 Mol. C8AA /au·bohr⁸  :    6303829.789333
 Mol. α(0) /au        :        748.562456


Wiberg/Mayer (AO) data.
largest (>0.10) Wiberg bond orders for each atom

 ---------------------------------------------------------------------------
     #   Z sym  total        # sym  WBO       # sym  WBO       # sym  WBO
 ---------------------------------------------------------------------------
     1   6 C    3.890 --     2 C    0.912    22 H    0.827    21 H    0.580
                            20 H    0.466    70 B    0.353   106 N    0.172
                            75 N    0.131
     2   6 C    3.964 --     3 N    1.003    19 N    0.937     1 C    0.912
                            16 C    0.839
     3   7 N    3.241 --     4 C    1.048     2 C    1.003    23 H    0.893
     4   6 C    3.813 --     5 O    1.293     6 C    1.146     3 N    1.048
     5   8 O    1.995 --     4 C    1.293    51 B    0.241
     6   6 C    3.906 --    15 C    1.199     7 C    1.174     4 C    1.146
     7   6 C    3.808 --     6 C    1.174     8 C    1.092    24 H    0.649
                            89 N    0.133    50 B    0.131    15 C    0.121
     8   6 C    3.610 --     7 C    1.092    25 H    0.951     9 C    0.637
                            69 B    0.540
     9   6 C    3.651 --   105 N    0.903     8 C    0.637    69 B    0.523
                            79 N    0.490    26 H    0.458    10 C    0.231
                            43 B    0.217
    10   6 C    3.650 --    43 B    1.193    79 N    0.664    15 C    0.645
                             9 C    0.231    69 B    0.187    11 N    0.174
                           103 N    0.112
    11   7 N    3.826 --    67 B    2.239   103 N    1.029    10 C    0.174
                            12 C    0.140
    12   6 C    3.780 --    14 N    0.945    44 B    0.544    67 B    0.499
                            13 C    0.439    80 N    0.259   103 N    0.235
                            38 B    0.194    11 N    0.140    74 N    0.112
    13   6 C    3.882 --    28 H    0.831    74 N    0.809    30 H    0.759
                            38 B    0.499    12 C    0.439
    14   7 N    2.615 --    15 C    1.020    12 C    0.945    80 N    0.109
    15   6 C    3.501 --     6 C    1.199    14 N    1.020    10 C    0.645
                             7 C    0.121
    16   6 C    3.894 --    31 H    0.852     2 C    0.839    59 B    0.523
                            17 C    0.446    46 B    0.335    32 H    0.151
                           108 N    0.145    95 N    0.112
    17   6 C    3.842 --    72 B    1.418   108 N    0.718    33 H    0.490
                            16 C    0.446    34 H    0.441
    18   6 C    3.675 --   108 N    0.938    19 N    0.745    35 H    0.502
                            36 H    0.487    72 B    0.321    82 N    0.174
    19   7 N    3.011 --     2 C    0.937    18 C    0.745    37 H    0.713
    20   1 H    0.878 --     1 C    0.466    70 B    0.319
    21   1 H    0.897 --     1 C    0.580    39 B    0.181
    22   1 H    0.983 --     1 C    0.827
    23   1 H    0.964 --     3 N    0.893
    24   1 H    0.906 --     7 C    0.649    53 B    0.159
    25   1 H    0.995 --     8 C    0.951
    26   1 H    0.913 --     9 C    0.458    69 B    0.143
    27   1 H    0.881 --   103 N    0.726
    28   1 H    0.995 --    13 C    0.831
    29   1 H    0.588 --    74 N    0.388    38 B    0.179
    30   1 H    0.980 --    13 C    0.759
    31   1 H    0.984 --    16 C    0.852
    32   1 H    0.597 --    95 N    0.242    59 B    0.187    16 C    0.151
    33   1 H    0.808 --    17 C    0.490
    34   1 H    0.930 --    17 C    0.441    72 B    0.157
    35   1 H    0.905 --    18 C    0.502    82 N    0.227
    36   1 H    0.962 --    18 C    0.487    85 N    0.201
    37   1 H    0.905 --    19 N    0.713
    38   5 B    3.450 --    74 N    1.846    13 C    0.499    62 B    0.226
                            12 C    0.194    29 H    0.179    64 B    0.106
    39   5 B    3.695 --    75 N    3.113    21 H    0.181    65 B    0.127
                            48 B    0.110
    40   5 B    3.684 --    76 N    3.164    54 B    0.160    62 B    0.152
                            63 B    0.105
    41   5 B    3.677 --    77 N    3.105    64 B    0.176    56 B    0.170
                            65 B    0.138
    42   5 B    3.641 --    78 N    3.095    66 B    0.166    58 B    0.164
                            68 B    0.143
    43   5 B    3.346 --    79 N    1.593    10 C    1.193     9 C    0.217
    44   5 B    3.361 --    80 N    2.348    12 C    0.544
    45   5 B    3.595 --    81 N    3.131    50 B    0.130    68 B    0.116
                            69 B    0.105
    46   5 B    3.517 --    82 N    2.760    16 C    0.335
    47   5 B    3.636 --    83 N    3.106    61 B    0.160    73 B    0.138
                            71 B    0.130
    48   5 B    3.619 --    84 N    3.165    71 B    0.114    39 B    0.110
    49   5 B    3.603 --    85 N    2.883    51 B    0.149    73 B    0.103
    50   5 B    3.625 --    86 N    3.326     7 C    0.131    45 B    0.130
    51   5 B    3.594 --    87 N    3.138     5 O    0.241    49 B    0.149
    52   5 B    3.653 --    88 N    3.523    55 B    0.120
    53   5 B    3.580 --    89 N    3.193    24 H    0.159    57 B    0.107
    54   5 B    3.675 --    90 N    3.434    40 B    0.160
    55   5 B    3.647 --    91 N    3.467    52 B    0.120
    56   5 B    3.671 --    92 N    3.441    41 B    0.170
    57   5 B    3.634 --    93 N    3.467    53 B    0.107
    58   5 B    3.659 --    94 N    3.451    42 B    0.164
    59   5 B    3.714 --    95 N    2.882    16 C    0.523    32 H    0.187
    60   5 B    3.647 --    96 N    3.432
    61   5 B    3.664 --    97 N    3.465    47 B    0.160
    62   5 B    3.537 --    98 N    2.863    38 B    0.226    40 B    0.152
    63   5 B    3.477 --    99 N    3.011    40 B    0.105
    64   5 B    3.468 --   100 N    2.872    41 B    0.176    38 B    0.106
    65   5 B    3.451 --   101 N    2.962    41 B    0.138    39 B    0.127
    66   5 B    3.433 --   102 N    2.865    42 B    0.166
    67   5 B    3.651 --    11 N    2.239   103 N    0.622    12 C    0.499
    68   5 B    3.392 --   104 N    2.967    42 B    0.143    45 B    0.116
    69   5 B    3.306 --   105 N    1.603     8 C    0.540     9 C    0.523
                            10 C    0.187    26 H    0.143    45 B    0.105
    70   5 B    3.477 --   106 N    2.642     1 C    0.353    20 H    0.319
    71   5 B    3.425 --   107 N    2.957    47 B    0.130    48 B    0.114
    72   5 B    3.290 --    17 C    1.418   108 N    1.081    18 C    0.321
                            34 H    0.157
    73   5 B    3.451 --   109 N    2.913    47 B    0.138    49 B    0.103
    74   7 N    3.509 --    38 B    1.846    13 C    0.809    29 H    0.388
                            12 C    0.112
    75   7 N    3.658 --    39 B    3.113     1 C    0.131    99 N    0.104
    76   7 N    3.683 --    40 B    3.164    99 N    0.107
    77   7 N    3.659 --    41 B    3.105   101 N    0.143
    78   7 N    3.609 --    42 B    3.095   104 N    0.139   102 N    0.100
    79   7 N    3.235 --    43 B    1.593    10 C    0.664     9 C    0.490
    80   7 N    3.326 --    44 B    2.348    12 C    0.259    14 N    0.109
    81   7 N    3.594 --    45 B    3.131   104 N    0.100
    82   7 N    3.488 --    46 B    2.760    35 H    0.227    18 C    0.174
    83   7 N    3.647 --    47 B    3.106   107 N    0.138   109 N    0.111
    84   7 N    3.565 --    48 B    3.165
    85   7 N    3.550 --    49 B    2.883    36 H    0.201
    86   7 N    3.517 --    50 B    3.326
    87   7 N    3.417 --    51 B    3.138
    88   7 N    3.645 --    52 B    3.523    91 N    0.107
    89   7 N    3.518 --    53 B    3.193     7 C    0.133
    90   7 N    3.593 --    54 B    3.434
    91   7 N    3.616 --    55 B    3.467    88 N    0.107
    92   7 N    3.592 --    56 B    3.441
    93   7 N    3.593 --    57 B    3.467
    94   7 N    3.583 --    58 B    3.451
    95   7 N    3.376 --    59 B    2.882    32 H    0.242    16 C    0.112
    96   7 N    3.622 --    60 B    3.432
    97   7 N    3.608 --    61 B    3.465
    98   7 N    3.264 --    62 B    2.863
    99   7 N    3.396 --    63 B    3.011    76 N    0.107    75 N    0.104
   100   7 N    3.311 --    64 B    2.872
   101   7 N    3.380 --    65 B    2.962    77 N    0.143
   102   7 N    3.319 --    66 B    2.865    78 N    0.100
   103   7 N    3.221 --    11 N    1.029    27 H    0.726    67 B    0.622
                            12 C    0.235    10 C    0.112
   104   7 N    3.355 --    68 B    2.967    78 N    0.139    81 N    0.100
   105   7 N    3.021 --    69 B    1.603     9 C    0.903
   106   7 N    3.107 --    70 B    2.642     1 C    0.172
   107   7 N    3.334 --    71 B    2.957    83 N    0.138
   108   7 N    3.293 --    72 B    1.081    18 C    0.938    17 C    0.718
                            16 C    0.145
   109   7 N    3.347 --    73 B    2.913    83 N    0.111
 ---------------------------------------------------------------------------

Topologies differ in total number of bonds
Writing topology from bond orders to xtbtopo.mol

molecular dipole:
                 x           y           z       tot (Debye)
 q only:        1.261       0.594       2.004
   full:        4.595      -0.396       3.429      14.608
molecular quadrupole (traceless):
                xx          xy          yy          xz          yz          zz
 q only:       62.386     -84.624      -4.870      51.701     -22.726     -57.516
  q+dip:      110.668    -116.895     -44.508      76.913     -32.357     -66.160
   full:       98.614    -115.311     -32.176      76.925     -30.991     -66.438


           -------------------------------------------------
          | TOTAL ENERGY               75.555628723230 Eh   |
          | GRADIENT NORM             257.768468927097 Eh/α |
          | HOMO-LUMO GAP               0.088426698338 eV   |
           -------------------------------------------------

------------------------------------------------------------------------
 * finished run on 2026/08/31 at 18:25:31.856     
------------------------------------------------------------------------
 total:
 * wall-time:     0 d,  0 h,  0 min,  0.854 sec
 *  cpu-time:     0 d,  0 h,  0 min,  9.500 sec
 * ratio c/w:    11.124 speedup
 SCF:
 * wall-time:     0 d,  0 h,  0 min,  0.799 sec
 *  cpu-time:     0 d,  0 h,  0 min,  8.953 sec
 * ratio c/w:    11.205 speedup

normal termination of xtb
