      -----------------------------------------------------------      
     |                   =====================                   |     
     |                           x T B                           |     
     |                   =====================                   |     
     |                         S. Grimme                         |     
     |          Mulliken Center for Theoretical Chemistry        |     
     |                    University of Bonn                     |     
      -----------------------------------------------------------      

   * xtb version 6.7.1pre (5071a88) compiled by 'Marcel@Raven' on 2024-07-23

   xtb is free software: you can redistribute it and/or modify it under
   the terms of the GNU Lesser General Public License as published by
   the Free Software Foundation, either version 3 of the License, or
   (at your option) any later version.
   
   xtb is distributed in the hope that it will be useful,
   but WITHOUT ANY WARRANTY; without even the implied warranty of
   MERCHANTABILITY or FITNESS FOR A PARTICULAR PURPOSE.  See the
   GNU Lesser General Public License for more details.
   
   Cite this work as:
   * C. Bannwarth, E. Caldeweyher, S. Ehlert, A. Hansen, P. Pracht,
     J. Seibert, S. Spicher, S. Grimme, WIREs Comput. Mol. Sci., 2020, 11,
     e01493. DOI: 10.1002/wcms.1493
   
   for GFN2-xTB:
   * C. Bannwarth, S. Ehlert and S. Grimme., J. Chem. Theory Comput., 2019,
     15, 1652-1671. DOI: 10.1021/acs.jctc.8b01176
   for GFN1-xTB:
   * S. Grimme, C. Bannwarth, P. Shushkov, J. Chem. Theory Comput., 2017,
     13, 1989-2009. DOI: 10.1021/acs.jctc.7b00118
   for GFN0-xTB:
   * P. Pracht, E. Caldeweyher, S. Ehlert, S. Grimme, ChemRxiv, 2019, preprint.
     DOI: 10.26434/chemrxiv.8326202.v1
   for GFN-FF:
   * S. Spicher and S. Grimme, Angew. Chem. Int. Ed., 2020, 59, 15665-15673.
     DOI: 10.1002/anie.202004239
   
   for ALPB and GBSA implicit solvation:
   * S. Ehlert, M. Stahn, S. Spicher, S. Grimme, J. Chem. Theory Comput.,
     2021, 17, 4250-4261. DOI: 10.1021/acs.jctc.1c00471
   
   for ddCOSMO and CPCM-X implicit solvation:
   * M. Stahn, S. Ehlert, S. Grimme, J. Phys. Chem. A,
     2023, XX, XXXX-XXXX. DOI: 10.1021/acs.jpca.3c04382
   
   for DFT-D4:
   * E. Caldeweyher, C. Bannwarth and S. Grimme, J. Chem. Phys., 2017,
     147, 034112. DOI: 10.1063/1.4993215
   * E. Caldeweyher, S. Ehlert, A. Hansen, H. Neugebauer, S. Spicher,
     C. Bannwarth and S. Grimme, J. Chem. Phys., 2019, 150, 154122.
     DOI: 10.1063/1.5090222
   * E. Caldeweyher, J.-M. Mewes, S. Ehlert and S. Grimme, Phys. Chem. Chem. Phys.
     2020, 22, 8499-8512. DOI: 10.1039/D0CP00502A
   
   for sTDA-xTB:
   * S. Grimme and C. Bannwarth, J. Chem. Phys., 2016, 145, 054103.
     DOI: 10.1063/1.4959605
   
   in the mass-spec context:
   * V. Asgeirsson, C. Bauer and S. Grimme, Chem. Sci., 2017, 8, 4879.
     DOI: 10.1039/c7sc00601b
   * J. Koopman and S. Grimme, ACS Omega 2019, 4, 12, 15120-15133.
     DOI: 10.1021/acsomega.9b02011
   
   for metadynamics refer to:
   * S. Grimme, J. Chem. Theory Comput., 2019, 155, 2847-2862
     DOI: 10.1021/acs.jctc.9b00143
   
   for SPH calculations refer to:
   * S. Spicher and S. Grimme, J. Chem. Theory Comput., 2021, 17, 1701-1714
     DOI: 10.1021/acs.jctc.0c01306
   
   for ONIOM refer to:
   * C. Plett, A. Katbashev, S. Ehlert, S. Grimme, M. Bursch,
     Phys. Chem. Chem. Phys., 2023, 25, 17860-17868. DOI: 10.1039/D3CP02178E
   
   for DIPRO refer to:
   * J. Kohn, N. Gildemeister, S. Grimme, D. Fazzi, A. Hansen,
     J. Chem. Phys., 2023, just accepted.
   
   for PTB refer to:
   * S. Grimme, M. Mueller, A. Hansen, J. Chem. Phys., 2023, 158, 124111.
     DOI: 10.1063/5.0137838
   
   with help from (in alphabetical order)
   P. Atkinson, C. Bannwarth, F. Bohle, G. Brandenburg, E. Caldeweyher
   M. Checinski, S. Dohm, S. Ehlert, S. Ehrlich, I. Gerasimov, C. Hölzer
   A. Katbashev, J. Kohn, J. Koopman, C. Lavigne, S. Lehtola, F. März, M. Müller,
   F. Musil, H. Neugebauer, J. Pisarek, C. Plett, P. Pracht, F. Pultar,
   J. Seibert, P. Shushkov, S. Spicher, M. Stahn, M. Steiner, T. Strunk,
   J. Stückrath, T. Rose, and J. Unsleber
   
 * started run on 2026/08/31 at 22:21:31.175     
   ID    Z sym.   atoms
    1    6 C      1-5, 7, 8, 11, 13-16, 18-21
    2    7 N      6, 9, 10, 17, 39, 41, 43, 45, 47, 49, 51, 53, 55, 57, 59,
                  61, 63, 65, 67, 69, 71, 73, 75, 77, 79, 81, 83, 85, 87, 89,
                  91, 93, 95, 97, 99, 101, 103, 105, 107, 109
    3    8 O      12
    4    9 F      22
    5    1 H      23-37
    6    5 B      38, 40, 42, 44, 46, 48, 50, 52, 54, 56, 58, 60, 62, 64, 66,
                  68, 70, 72, 74, 76, 78, 80, 82, 84, 86, 88, 90, 92, 94, 96,
                  98, 100, 102, 104, 106, 108

           -------------------------------------------------
          |                Calculation Setup                |
           -------------------------------------------------

          program call               : "c:\Users\Andre\Proyectos doctorado\kras-pancreatic-gC3N4-ai\tools\xtb\xtb-6.7.1\bin\xtb.exe" "c:\Users\Andre\Proyectos doctorado\nano-qsar-ai-therapeutics\calculations\tnbc\Pamiparib\Pamiparib_B36N36_clean_complex.xyz" --gfn 2 --sp --chrg 0 --uhf 0 --etemp 300 --iterations 500 --norestart
          coordinate file            : c:\Users\Andre\Proyectos doctorado\nano-qsar-ai-therapeutics\calculations\tnbc\Pamiparib\Pamiparib_B36N36_clean_complex.xyz
          omp threads                :                    16


molecular fragmentation (1/2 indicates fragments):
111111111111111111111111111111111111122222222222222222222222222222222222
2222222222222222222222222222222222222
# atoms in fragment 1/2:    37    72
 fragment masses (1/2) :      298.32      893.44
CMA distance (Bohr)    :  18.515
constraining FC (au)   :  0.0500

           -------------------------------------------------
          |                 G F N 2 - x T B                 |
           -------------------------------------------------

        Reference                      10.1021/acs.jctc.8b01176
      * Hamiltonian:
        H0-scaling (s, p, d)           1.850000    2.230000    2.230000
        zeta-weighting                 0.500000
      * Dispersion:
        s8                             2.700000
        a1                             0.520000
        a2                             5.000000
        s9                             5.000000
      * Repulsion:
        kExp                           1.500000    1.000000
        rExp                           1.000000
      * Coulomb:
        alpha                          2.000000
        third order                    shell-resolved
        anisotropic                    true
        a3                             3.000000
        a5                             4.000000
        cn-shift                       1.200000
        cn-exp                         4.000000
        max-rad                        5.000000


          ...................................................
          :                      SETUP                      :
          :.................................................:
          :  # basis functions                 391          :
          :  # atomic orbitals                 391          :
          :  # shells                          203          :
          :  # electrons                       400          :
          :  max. iterations                   500          :
          :  Hamiltonian                  GFN2-xTB          :
          :  restarted?                      false          :
          :  GBSA solvation                  false          :
          :  PC potential                    false          :
          :  electronic temp.          300.0000000     K    :
          :  accuracy                    1.0000000          :
          :  -> integral cutoff          0.2500000E+02      :
          :  -> integral neglect         0.1000000E-07      :
          :  -> SCF convergence          0.1000000E-05 Eh   :
          :  -> wf. convergence          0.1000000E-03 e    :
          :  Broyden damping             0.4000000          :
          :  net charge                          0          :
          :  unpaired electrons                  0          :
          ...................................................

 iter      E             dE          RMSdq      gap      omega  full diag
   1   -213.8644664 -0.213864E+03  0.115E+01    0.61       0.0  T
   2   -214.3344466 -0.469980E+00  0.703E+00    0.39       1.0  T
   3   -211.4647656  0.286968E+01  0.454E+00    0.15       1.0  T
   4   -213.4964443 -0.203168E+01  0.234E+00    0.09       1.0  T
   5   -213.5021019 -0.565756E-02  0.200E+00    0.23       1.0  T
   6   -214.8149338 -0.131283E+01  0.844E-01    0.78       1.0  T
   7   -214.8404021 -0.254683E-01  0.585E-01    0.80       1.0  T
   8   -214.8376038  0.279833E-02  0.432E-01    0.82       1.0  T
   9   -214.8384816 -0.877810E-03  0.242E-01    0.74       1.0  T
  10   -214.8403143 -0.183270E-02  0.143E-01    0.78       1.0  T
  11   -214.8437737 -0.345936E-02  0.539E-02    0.73       1.0  T
  12   -214.8439068 -0.133119E-03  0.427E-02    0.74       1.0  T
  13   -214.8439504 -0.436361E-04  0.308E-02    0.74       1.0  T
  14   -214.8439755 -0.250405E-04  0.216E-02    0.75       1.0  T
  15   -214.8439896 -0.141095E-04  0.115E-02    0.75       1.0  T
  16   -214.8439951 -0.553176E-05  0.560E-03    0.75       1.7  T
  17   -214.8439962 -0.110352E-05  0.144E-03    0.75       6.6  T
  18   -214.8439963 -0.835542E-07  0.579E-04    0.75      16.5  T
  19   -214.8439963 -0.148028E-07  0.304E-04    0.75      31.6  T

   *** convergence criteria satisfied after 19 iterations ***

         #    Occupation            Energy/Eh            Energy/eV
      -------------------------------------------------------------
         1        2.0000           -0.8084912             -22.0002
       ...           ...                  ...                  ...
       194        2.0000           -0.3316661              -9.0251
       195        2.0000           -0.3292279              -8.9587
       196        2.0000           -0.3281612              -8.9297
       197        2.0000           -0.3247690              -8.8374
       198        2.0000           -0.3192666              -8.6877
       199        2.0000           -0.3174971              -8.6395
       200        2.0000           -0.3151833              -8.5766 (HOMO)
       201        0.0000           -0.2875467              -7.8245 (LUMO)
       202                         -0.2794729              -7.6048
       203                         -0.2713179              -7.3829
       204                         -0.2684060              -7.3037
       205                         -0.2557269              -6.9587
       ...                                ...                  ...
       391                          0.9797940              26.6616
      -------------------------------------------------------------
                  HL-Gap            0.0276366 Eh            0.7520 eV
             Fermi-level           -0.3013193 Eh           -8.1993 eV

 SCC (total)                   0 d,  0 h,  0 min,  0.623 sec
 SCC setup                      ...        0 min,  0.001 sec (  0.161%)
 Dispersion                     ...        0 min,  0.003 sec (  0.482%)
 classical contributions        ...        0 min,  0.000 sec (  0.000%)
 integral evaluation            ...        0 min,  0.011 sec (  1.766%)
 iterations                     ...        0 min,  0.578 sec ( 92.777%)
 molecular gradient             ...        0 min,  0.028 sec (  4.494%)
 printout                       ...        0 min,  0.002 sec (  0.321%)

         :::::::::::::::::::::::::::::::::::::::::::::::::::::
         ::                     SUMMARY                     ::
         :::::::::::::::::::::::::::::::::::::::::::::::::::::
         :: total energy            -212.653124861918 Eh    ::
         :: gradient norm              0.082883634204 Eh/a0 ::
         :: HOMO-LUMO gap              0.752030719719 eV    ::
         ::.................................................::
         :: SCC energy              -214.828283940736 Eh    ::
         :: -> isotropic ES            0.693873076163 Eh    ::
         :: -> anisotropic ES         -0.025582506108 Eh    ::
         :: -> anisotropic XC          0.088878677562 Eh    ::
         :: -> dispersion             -0.190242041770 Eh    ::
         :: repulsion energy           2.175159078818 Eh    ::
         :: add. restraining           0.000000000000 Eh    ::
         :: total charge               0.000000000073 e     ::
         :::::::::::::::::::::::::::::::::::::::::::::::::::::

           -------------------------------------------------
          |                Property Printout                |
           -------------------------------------------------

    * Orbital Energies and Occupations

         #    Occupation            Energy/Eh            Energy/eV
      -------------------------------------------------------------
         1        2.0000           -0.8084912             -22.0002
       ...           ...                  ...                  ...
       188        2.0000           -0.3448732              -9.3845
       189        2.0000           -0.3431591              -9.3378
       190        2.0000           -0.3388363              -9.2202
       191        2.0000           -0.3368904              -9.1673
       192        2.0000           -0.3350886              -9.1182
       193        2.0000           -0.3327724              -9.0552
       194        2.0000           -0.3316661              -9.0251
       195        2.0000           -0.3292279              -8.9587
       196        2.0000           -0.3281612              -8.9297
       197        2.0000           -0.3247690              -8.8374
       198        2.0000           -0.3192666              -8.6877
       199        2.0000           -0.3174971              -8.6395
       200        2.0000           -0.3151833              -8.5766 (HOMO)
       201        0.0000           -0.2875467              -7.8245 (LUMO)
       202                         -0.2794729              -7.6048
       203                         -0.2713179              -7.3829
       204                         -0.2684060              -7.3037
       205                         -0.2557269              -6.9587
       206                         -0.2531923              -6.8897
       207                         -0.2495793              -6.7914
       208                         -0.2396137              -6.5202
       209                         -0.2351405              -6.3985
       210                         -0.2337064              -6.3595
       211                         -0.2268500              -6.1729
       ...                                ...                  ...
       391                          0.9797940              26.6616
      -------------------------------------------------------------
                  HL-Gap            0.0276366 Eh            0.7520 eV
             Fermi-level           -0.3013193 Eh           -8.1993 eV

     #   Z          covCN         q      C6AA      α(0)
     1   6 C        3.753    -0.111    22.687     6.792
     2   6 C        3.876     0.078    19.238     6.236
     3   6 C        3.821    -0.063    21.697     6.629
     4   6 C        3.816    -0.061    21.654     6.623
     5   6 C        3.782     0.003    20.557     6.459
     6   7 N        2.734    -0.189    25.101     7.441
     7   6 C        3.749    -0.007    20.758     6.498
     8   6 C        2.884     0.085    26.109     8.377
     9   7 N        1.898    -0.198    26.127     7.578
    10   7 N        2.760    -0.069    22.584     7.058
    11   6 C        2.752     0.256    22.696     7.801
    12   8 O        0.861    -0.436    22.408     6.347
    13   6 C        2.968    -0.012    28.320     8.729
    14   6 C        3.111    -0.008    28.059     8.678
    15   6 C        3.112    -0.040    28.825     8.795
    16   6 C        3.067     0.038    27.071     8.532
    17   7 N        2.798    -0.101    23.221     7.157
    18   6 C        3.093     0.047    26.837     8.491
    19   6 C        2.907    -0.072    29.793     8.950
    20   6 C        2.778     0.166    24.400     8.091
    21   6 C        2.917    -0.051    29.269     8.872
    22   9 F        0.787    -0.220    11.444     3.996
    23   1 H        0.924     0.052     2.290     2.366
    24   1 H        0.924     0.049     2.328     2.386
    25   1 H        0.924     0.034     2.526     2.486
    26   1 H        0.924     0.037     2.489     2.467
    27   1 H        0.923     0.036     2.506     2.476
    28   1 H        0.924     0.032     2.564     2.504
    29   1 H        0.924     0.031     2.567     2.505
    30   1 H        0.924     0.036     2.505     2.475
    31   1 H        0.924     0.038     2.475     2.460
    32   1 H        0.924     0.064     2.154     2.295
    33   1 H        0.923     0.041     2.435     2.440
    34   1 H        0.860     0.198     1.114     1.654
    35   1 H        0.860     0.171     1.266     1.762
    36   1 H        0.925     0.059     2.216     2.328
    37   1 H        0.925     0.086     1.914     2.163
    38   5 B        2.781     0.078    20.163     7.508
    39   7 N        2.774    -0.227    25.947     7.565
    40   5 B        2.788     0.092    19.928     7.462
    41   7 N        2.524    -0.313    28.104     7.873
    42   5 B        2.779     0.083    20.082     7.493
    43   7 N        2.655    -0.270    26.999     7.717
    44   5 B        2.849     0.241    17.671     7.019
    45   7 N        2.529    -0.272    27.068     7.727
    46   5 B        3.195     0.150    18.925     7.255
    47   7 N        2.979    -0.109    23.380     7.181
    48   5 B        2.644     0.373    16.317     6.812
    49   7 N        2.669    -0.212    25.629     7.519
    50   5 B        3.181     0.023    20.975     7.638
    51   7 N        2.888    -0.226    25.921     7.562
    52   5 B        3.009     0.209    18.071     7.091
    53   7 N        2.660    -0.163    24.529     7.356
    54   5 B        2.906     0.319    16.613     6.802
    55   7 N        3.156    -0.082    22.823     7.095
    56   5 B        2.779     0.094    19.904     7.460
    57   7 N        3.037    -0.128    23.765     7.240
    58   5 B        2.758     0.090    20.006     7.484
    59   7 N        2.634    -0.311    27.996     7.858
    60   5 B        3.040     0.227    17.826     7.042
    61   7 N        2.981    -0.007    21.381     6.868
    62   5 B        2.582     0.326    17.304     7.087
    63   7 N        2.596    -0.359    29.253     8.033
    64   5 B        3.287     0.340    16.337     6.741
    65   7 N        2.784    -0.254    26.602     7.660
    66   5 B        2.559     0.320    17.593     7.184
    67   7 N        2.579    -0.368    29.505     8.067
    68   5 B        2.530     0.301    18.225     7.377
    69   7 N        2.665    -0.205    25.455     7.493
    70   5 B        2.698     0.197    18.492     7.217
    71   7 N        2.844    -0.167    24.597     7.366
    72   5 B        2.758     0.082    20.130     7.507
    73   7 N        2.672    -0.174    24.764     7.391
    74   5 B        2.877     0.111    19.570     7.384
    75   7 N        2.663    -0.144    24.120     7.294
    76   5 B        2.594     0.312    17.387     7.085
    77   7 N        2.519    -0.355    29.179     8.022
    78   5 B        2.684     0.185    18.707     7.266
    79   7 N        3.008    -0.135    23.913     7.263
    80   5 B        2.677     0.210    18.356     7.201
    81   7 N        2.716    -0.248    26.459     7.640
    82   5 B        2.647     0.164    19.161     7.379
    83   7 N        2.825    -0.205    25.455     7.493
    84   5 B        3.321     0.231    17.759     7.027
    85   7 N        2.531    -0.285    27.391     7.773
    86   5 B        2.950     0.037    20.762     7.602
    87   7 N        2.783    -0.185    24.998     7.426
    88   5 B        2.796     0.085    20.033     7.480
    89   7 N        2.673    -0.155    24.363     7.331
    90   5 B        3.021     0.211    18.044     7.086
    91   7 N        3.272     0.016    20.965     6.800
    92   5 B        2.869     0.306    16.791     6.841
    93   7 N        3.154    -0.118    23.570     7.211
    94   5 B        3.263     0.320    16.582     6.791
    95   7 N        2.833    -0.061    22.411     7.031
    96   5 B        3.303     0.231    17.759     7.027
    97   7 N        2.656    -0.182    24.951     7.419
    98   5 B        2.838     0.113    19.561     7.386
    99   7 N        2.834    -0.226    25.923     7.562
   100   5 B        2.863     0.253    17.501     6.984
   101   7 N        2.654    -0.232    26.073     7.584
   102   5 B        3.011     0.115    19.479     7.362
   103   7 N        3.153    -0.086    22.903     7.108
   104   5 B        2.674     0.203    18.480     7.228
   105   7 N        2.696    -0.233    26.101     7.588
   106   5 B        2.585     0.369    16.722     6.962
   107   7 N        2.881    -0.179    24.876     7.408
   108   5 B        2.825     0.107    19.661     7.407
   109   7 N        2.827    -0.252    26.542     7.652

 Mol. C6AA /au·bohr⁶  :     215582.743024
 Mol. C8AA /au·bohr⁸  :    6023282.725582
 Mol. α(0) /au        :        727.748608


Wiberg/Mayer (AO) data.
largest (>0.10) Wiberg bond orders for each atom

 ---------------------------------------------------------------------------
     #   Z sym  total        # sym  WBO       # sym  WBO       # sym  WBO
 ---------------------------------------------------------------------------
     1   6 C    3.989 --    24 H    0.986    25 H    0.983     2 C    0.982
                            23 H    0.982
     2   6 C    3.982 --    16 C    0.999     1 C    0.982     6 N    0.970
                             3 C    0.961
     3   6 C    3.991 --     4 C    1.004    27 H    0.978    26 H    0.977
                             2 C    0.961
     4   6 C    3.996 --     3 C    1.004     5 C    0.995    29 H    0.983
                            28 H    0.982
     5   6 C    3.984 --     6 N    0.999     4 C    0.995    30 H    0.976
                            31 H    0.973
     6   7 N    3.088 --     5 C    0.999     7 C    0.993     2 C    0.970
     7   6 C    3.983 --     6 N    0.993     8 C    0.990    32 H    0.968
                            33 H    0.950
     8   6 C    3.977 --     9 N    1.668    15 C    1.114     7 C    0.990
     9   7 N    3.025 --     8 C    1.668    10 N    1.100
    10   7 N    3.523 --    11 C    1.171     9 N    1.100    34 H    0.927
                            12 O    0.157
    11   6 C    3.950 --    12 O    1.653    10 N    1.171    13 C    1.025
    12   8 O    1.987 --    11 C    1.653    10 N    0.157
    13   6 C    3.985 --    21 C    1.419    14 C    1.298    11 C    1.025
                            19 C    0.107
    14   6 C    3.988 --    13 C    1.298    18 C    1.255    15 C    1.193
    15   6 C    3.977 --    16 C    1.451    14 C    1.193     8 C    1.114
    16   6 C    3.949 --    15 C    1.451    17 N    1.206     2 C    0.999
    17   7 N    3.550 --    16 C    1.206    18 C    1.165    35 H    0.940
    18   6 C    3.960 --    19 C    1.340    14 C    1.255    17 N    1.165
    19   6 C    3.981 --    20 C    1.417    18 C    1.340    36 H    0.966
                            13 C    0.107
    20   6 C    3.881 --    19 C    1.417    21 C    1.367    22 F    0.964
    21   6 C    3.984 --    13 C    1.419    20 C    1.367    37 H    0.961
    22   9 F    1.091 --    20 C    0.964
    23   1 H    0.996 --     1 C    0.982
    24   1 H    0.998 --     1 C    0.986
    25   1 H    0.999 --     1 C    0.983
    26   1 H    0.998 --     3 C    0.977
    27   1 H    0.999 --     3 C    0.978
    28   1 H    0.998 --     4 C    0.982
    29   1 H    0.999 --     4 C    0.983
    30   1 H    0.998 --     5 C    0.976
    31   1 H    0.998 --     5 C    0.973
    32   1 H    0.995 --     7 C    0.968
    33   1 H    0.996 --     7 C    0.950
    34   1 H    0.960 --    10 N    0.927
    35   1 H    0.970 --    17 N    0.940
    36   1 H    0.996 --    19 C    0.966
    37   1 H    0.992 --    21 C    0.961
    38   5 B    3.474 --   107 N    1.281    90 B    1.000    84 B    0.969
    39   7 N    3.398 --    84 B    1.143    97 N    1.007    96 B    1.001
    40   5 B    3.465 --    85 N    1.277   108 B    0.978    96 B    0.958
    41   7 N    3.531 --   100 B    1.153    98 B    1.150    68 B    1.018
    42   5 B    3.464 --    75 N    1.241   104 B    0.995    78 B    0.990
    43   7 N    3.262 --    64 B    1.199   106 B    0.968   101 N    0.888
    44   5 B    3.407 --    77 N    1.177    51 N    1.031    60 B    0.963
    45   7 N    3.569 --    58 B    1.277    46 B    1.158   102 B    0.973
    46   5 B    3.393 --    45 N    1.158    88 B    0.932    86 B    0.640
                            50 B    0.294
    47   7 N    3.324 --    52 B    1.113    91 N    1.044   103 N    0.945
    48   5 B    3.432 --    49 N    1.187    59 N    1.125    87 N    0.962
    49   7 N    3.446 --    48 B    1.187    76 B    1.087    89 N    0.967
    50   5 B    3.455 --    86 B    1.284   102 B    1.003   100 B    0.626
                            46 B    0.294
    51   7 N    3.426 --    54 B    1.235    44 B    1.031    65 N    0.928
    52   5 B    3.390 --    47 N    1.113    71 N    1.038    98 B    1.005
    53   7 N    3.510 --    56 B    1.205    76 B    1.124    73 N    0.999
    54   5 B    3.514 --    51 N    1.235    79 N    1.069    99 N    1.002
    55   7 N    3.351 --   104 B    1.144   107 N    0.990    57 N    0.982
    56   5 B    3.413 --    53 N    1.205    74 B    1.008    88 B    0.927
    57   7 N    3.324 --    92 B    1.134    55 N    0.982    61 N    0.973
    58   5 B    3.464 --    45 N    1.277    72 B    0.978    82 B    0.932
    59   7 N    3.217 --    48 B    1.125    62 B    1.068    87 N    0.792
    60   5 B    3.369 --    73 N    1.153    65 N    0.991    44 B    0.963
    61   7 N    3.094 --    79 N    1.012    57 N    0.973   105 N    0.938
    62   5 B    3.510 --    99 N    1.244    59 N    1.068    77 N    0.990
    63   7 N    3.434 --    68 B    1.201    96 B    1.062    84 B    0.926
    64   5 B    3.481 --    43 N    1.199    81 N    1.043    67 N    0.981
    65   7 N    3.279 --    70 B    1.166    60 B    0.991    51 N    0.928
    66   5 B    3.523 --   101 N    1.212   105 N    1.121    93 N    1.031
    67   7 N    3.431 --    80 B    1.221    94 B    0.993    64 B    0.981
    68   5 B    3.519 --    63 N    1.201   109 N    1.099    41 N    1.018
    69   7 N    3.442 --   106 B    1.262    80 B    0.997    95 N    0.990
    70   5 B    3.444 --    65 N    1.166    97 N    1.125   108 B    0.922
    71   7 N    3.470 --    72 B    1.261    52 B    1.038   103 N    0.984
    72   5 B    3.421 --    71 N    1.261    58 B    0.978    80 B    0.959
    73   7 N    3.512 --   108 B    1.171    60 B    1.153    53 N    0.999
    74   5 B    3.347 --    86 B    1.009    56 B    1.008    85 N    0.963
    75   7 N    3.509 --    42 B    1.241    78 B    1.092    81 N    1.035
    76   5 B    3.515 --    53 N    1.124    77 N    1.102    49 N    1.087
    77   7 N    3.477 --    44 B    1.177    76 B    1.102    62 B    0.990
    78   5 B    3.464 --    83 N    1.180    75 N    1.092    42 B    0.990
    79   7 N    3.256 --    54 B    1.069    61 N    1.012    93 N    0.975
    80   5 B    3.390 --    67 N    1.221    69 N    0.997    72 B    0.959
    81   7 N    3.372 --    64 B    1.043    75 N    1.035    94 B    0.985
    82   5 B    3.453 --    95 N    1.190    89 N    1.079    58 B    0.932
    83   7 N    3.408 --    78 B    1.180    90 B    1.073    91 N    0.959
    84   5 B    3.364 --    39 N    1.143    38 B    0.969    63 N    0.926
                            96 B    0.127
    85   7 N    3.562 --    40 B    1.277   100 B    1.105    74 B    0.963
    86   5 B    3.367 --    50 B    1.284    74 B    1.009    46 B    0.640
                           100 B    0.186
    87   7 N    2.986 --    95 N    1.045    48 B    0.962    59 N    0.792
    88   5 B    3.454 --    89 N    1.265    46 B    0.932    56 B    0.927
    89   7 N    3.480 --    88 B    1.265    82 B    1.079    49 N    0.967
    90   5 B    3.443 --   109 N    1.131    83 N    1.073    38 B    1.000
    91   7 N    3.187 --    47 N    1.044    83 N    0.959   109 N    0.951
    92   5 B    3.522 --    97 N    1.163    57 N    1.134   107 N    0.995
    93   7 N    3.212 --    66 B    1.031    99 N    0.983    79 N    0.975
    94   5 B    3.507 --   103 N    1.265    67 N    0.993    81 N    0.985
    95   7 N    3.439 --    82 B    1.190    87 N    1.045    69 N    0.990
    96   5 B    3.327 --    63 N    1.062    39 N    1.001    40 B    0.958
                            84 B    0.127
    97   7 N    3.492 --    92 B    1.163    70 B    1.125    39 N    1.007
    98   5 B    3.385 --    41 N    1.150    52 B    1.005   102 B    1.002
    99   7 N    3.444 --    62 B    1.244    54 B    1.002    93 N    0.983
   100   5 B    3.444 --    41 N    1.153    85 N    1.105    50 B    0.626
                            86 B    0.186   102 B    0.120
   101   7 N    3.332 --    66 B    1.212   106 B    1.034    43 N    0.888
   102   5 B    3.333 --    50 B    1.003    98 B    1.002    45 N    0.973
                           100 B    0.120
   103   7 N    3.440 --    94 B    1.265    71 N    0.984    47 N    0.945
   104   5 B    3.445 --    55 N    1.144   105 N    1.113    42 B    0.995
   105   7 N    3.390 --    66 B    1.121   104 B    1.113    61 N    0.938
   106   5 B    3.439 --    69 N    1.262   101 N    1.034    43 N    0.968
   107   7 N    3.475 --    38 B    1.281    92 B    0.995    55 N    0.990
   108   5 B    3.359 --    73 N    1.171    40 B    0.978    70 B    0.922
   109   7 N    3.418 --    90 B    1.131    68 B    1.099    91 N    0.951
 ---------------------------------------------------------------------------

Topologies differ in total number of bonds
Writing topology from bond orders to xtbtopo.mol

molecular dipole:
                 x           y           z       tot (Debye)
 q only:       -0.972       2.757      -4.781
   full:       -2.825       2.204      -3.293      12.370
molecular quadrupole (traceless):
                xx          xy          yy          xz          yz          zz
 q only:      -27.783       1.776      26.631     -73.046       7.057       1.152
  q+dip:       -8.417       1.831      54.160     -78.558      21.510     -45.743
   full:       -4.161       3.426      51.678     -74.567      24.334     -47.517


           -------------------------------------------------
          | TOTAL ENERGY             -212.653124861918 Eh   |
          | GRADIENT NORM               0.082883634204 Eh/α |
          | HOMO-LUMO GAP               0.752030719719 eV   |
           -------------------------------------------------

------------------------------------------------------------------------
 * finished run on 2026/08/31 at 22:21:31.852     
------------------------------------------------------------------------
 total:
 * wall-time:     0 d,  0 h,  0 min,  0.676 sec
 *  cpu-time:     0 d,  0 h,  0 min,  6.484 sec
 * ratio c/w:     9.592 speedup
 SCF:
 * wall-time:     0 d,  0 h,  0 min,  0.625 sec
 *  cpu-time:     0 d,  0 h,  0 min,  6.219 sec
 * ratio c/w:     9.950 speedup

normal termination of xtb
