      -----------------------------------------------------------      
     |                   =====================                   |     
     |                           x T B                           |     
     |                   =====================                   |     
     |                         S. Grimme                         |     
     |          Mulliken Center for Theoretical Chemistry        |     
     |                    University of Bonn                     |     
      -----------------------------------------------------------      

   * xtb version 6.7.1pre (5071a88) compiled by 'Marcel@Raven' on 2024-07-23

   xtb is free software: you can redistribute it and/or modify it under
   the terms of the GNU Lesser General Public License as published by
   the Free Software Foundation, either version 3 of the License, or
   (at your option) any later version.
   
   xtb is distributed in the hope that it will be useful,
   but WITHOUT ANY WARRANTY; without even the implied warranty of
   MERCHANTABILITY or FITNESS FOR A PARTICULAR PURPOSE.  See the
   GNU Lesser General Public License for more details.
   
   Cite this work as:
   * C. Bannwarth, E. Caldeweyher, S. Ehlert, A. Hansen, P. Pracht,
     J. Seibert, S. Spicher, S. Grimme, WIREs Comput. Mol. Sci., 2020, 11,
     e01493. DOI: 10.1002/wcms.1493
   
   for GFN2-xTB:
   * C. Bannwarth, S. Ehlert and S. Grimme., J. Chem. Theory Comput., 2019,
     15, 1652-1671. DOI: 10.1021/acs.jctc.8b01176
   for GFN1-xTB:
   * S. Grimme, C. Bannwarth, P. Shushkov, J. Chem. Theory Comput., 2017,
     13, 1989-2009. DOI: 10.1021/acs.jctc.7b00118
   for GFN0-xTB:
   * P. Pracht, E. Caldeweyher, S. Ehlert, S. Grimme, ChemRxiv, 2019, preprint.
     DOI: 10.26434/chemrxiv.8326202.v1
   for GFN-FF:
   * S. Spicher and S. Grimme, Angew. Chem. Int. Ed., 2020, 59, 15665-15673.
     DOI: 10.1002/anie.202004239
   
   for ALPB and GBSA implicit solvation:
   * S. Ehlert, M. Stahn, S. Spicher, S. Grimme, J. Chem. Theory Comput.,
     2021, 17, 4250-4261. DOI: 10.1021/acs.jctc.1c00471
   
   for ddCOSMO and CPCM-X implicit solvation:
   * M. Stahn, S. Ehlert, S. Grimme, J. Phys. Chem. A,
     2023, XX, XXXX-XXXX. DOI: 10.1021/acs.jpca.3c04382
   
   for DFT-D4:
   * E. Caldeweyher, C. Bannwarth and S. Grimme, J. Chem. Phys., 2017,
     147, 034112. DOI: 10.1063/1.4993215
   * E. Caldeweyher, S. Ehlert, A. Hansen, H. Neugebauer, S. Spicher,
     C. Bannwarth and S. Grimme, J. Chem. Phys., 2019, 150, 154122.
     DOI: 10.1063/1.5090222
   * E. Caldeweyher, J.-M. Mewes, S. Ehlert and S. Grimme, Phys. Chem. Chem. Phys.
     2020, 22, 8499-8512. DOI: 10.1039/D0CP00502A
   
   for sTDA-xTB:
   * S. Grimme and C. Bannwarth, J. Chem. Phys., 2016, 145, 054103.
     DOI: 10.1063/1.4959605
   
   in the mass-spec context:
   * V. Asgeirsson, C. Bauer and S. Grimme, Chem. Sci., 2017, 8, 4879.
     DOI: 10.1039/c7sc00601b
   * J. Koopman and S. Grimme, ACS Omega 2019, 4, 12, 15120-15133.
     DOI: 10.1021/acsomega.9b02011
   
   for metadynamics refer to:
   * S. Grimme, J. Chem. Theory Comput., 2019, 155, 2847-2862
     DOI: 10.1021/acs.jctc.9b00143
   
   for SPH calculations refer to:
   * S. Spicher and S. Grimme, J. Chem. Theory Comput., 2021, 17, 1701-1714
     DOI: 10.1021/acs.jctc.0c01306
   
   for ONIOM refer to:
   * C. Plett, A. Katbashev, S. Ehlert, S. Grimme, M. Bursch,
     Phys. Chem. Chem. Phys., 2023, 25, 17860-17868. DOI: 10.1039/D3CP02178E
   
   for DIPRO refer to:
   * J. Kohn, N. Gildemeister, S. Grimme, D. Fazzi, A. Hansen,
     J. Chem. Phys., 2023, just accepted.
   
   for PTB refer to:
   * S. Grimme, M. Mueller, A. Hansen, J. Chem. Phys., 2023, 158, 124111.
     DOI: 10.1063/5.0137838
   
   with help from (in alphabetical order)
   P. Atkinson, C. Bannwarth, F. Bohle, G. Brandenburg, E. Caldeweyher
   M. Checinski, S. Dohm, S. Ehlert, S. Ehrlich, I. Gerasimov, C. Hölzer
   A. Katbashev, J. Kohn, J. Koopman, C. Lavigne, S. Lehtola, F. März, M. Müller,
   F. Musil, H. Neugebauer, J. Pisarek, C. Plett, P. Pracht, F. Pultar,
   J. Seibert, P. Shushkov, S. Spicher, M. Stahn, M. Steiner, T. Strunk,
   J. Stückrath, T. Rose, and J. Unsleber
   
 * started run on 2026/08/31 at 18:25:31.919     
   ID    Z sym.   atoms
    1    6 C      1-5, 7, 8, 11, 13-16, 18-21
    2    7 N      6, 9, 10, 17
    3    8 O      12
    4    9 F      22
    5    1 H      23-37

           -------------------------------------------------
          |                Calculation Setup                |
           -------------------------------------------------

          program call               : "c:\Users\Andre\Proyectos doctorado\kras-pancreatic-gC3N4-ai\tools\xtb\xtb-6.7.1\bin\xtb.exe" "c:\Users\Andre\Proyectos doctorado\nano-qsar-ai-therapeutics\calculations\tnbc\Pamiparib\Pamiparib_drug.xyz" --gfn 2 --sp --chrg 0 --uhf 0 --iterations 500 --norestart
          coordinate file            : c:\Users\Andre\Proyectos doctorado\nano-qsar-ai-therapeutics\calculations\tnbc\Pamiparib\Pamiparib_drug.xyz
          omp threads                :                    16


           -------------------------------------------------
          |                 G F N 2 - x T B                 |
           -------------------------------------------------

        Reference                      10.1021/acs.jctc.8b01176
      * Hamiltonian:
        H0-scaling (s, p, d)           1.850000    2.230000    2.230000
        zeta-weighting                 0.500000
      * Dispersion:
        s8                             2.700000
        a1                             0.520000
        a2                             5.000000
        s9                             5.000000
      * Repulsion:
        kExp                           1.500000    1.000000
        rExp                           1.000000
      * Coulomb:
        alpha                          2.000000
        third order                    shell-resolved
        anisotropic                    true
        a3                             3.000000
        a5                             4.000000
        cn-shift                       1.200000
        cn-exp                         4.000000
        max-rad                        5.000000


          ...................................................
          :                      SETUP                      :
          :.................................................:
          :  # basis functions                 103          :
          :  # atomic orbitals                 103          :
          :  # shells                           59          :
          :  # electrons                       112          :
          :  max. iterations                   500          :
          :  Hamiltonian                  GFN2-xTB          :
          :  restarted?                      false          :
          :  GBSA solvation                  false          :
          :  PC potential                    false          :
          :  electronic temp.          300.0000000     K    :
          :  accuracy                    1.0000000          :
          :  -> integral cutoff          0.2500000E+02      :
          :  -> integral neglect         0.1000000E-07      :
          :  -> SCF convergence          0.1000000E-05 Eh   :
          :  -> wf. convergence          0.1000000E-03 e    :
          :  Broyden damping             0.4000000          :
          :  net charge                          0          :
          :  unpaired electrons                  0          :
          ...................................................

 iter      E             dE          RMSdq      gap      omega  full diag
   1    -63.0968906 -0.630969E+02  0.365E+00    1.94       0.0  T
   2    -63.2226212 -0.125731E+00  0.239E+00    2.54       1.0  T
   3    -63.2405050 -0.178838E-01  0.128E+00    2.43       1.0  T
   4    -63.2419834 -0.147840E-02  0.565E-01    2.26       1.0  T
   5    -63.2500265 -0.804315E-02  0.115E-01    2.32       1.0  T
   6    -63.2501727 -0.146122E-03  0.697E-02    2.32       1.0  T
   7    -63.2502496 -0.769920E-04  0.282E-02    2.34       1.0  T
   8    -63.2502604 -0.107328E-04  0.148E-02    2.34       1.1  T
   9    -63.2502649 -0.452925E-05  0.544E-03    2.35       3.0  T
  10    -63.2502651 -0.221776E-06  0.252E-03    2.34       6.5  T
  11    -63.2502652 -0.604994E-07  0.956E-04    2.34      17.2  T
  12    -63.2502652 -0.105872E-07  0.477E-04    2.34      34.4  T

   *** convergence criteria satisfied after 12 iterations ***

         #    Occupation            Energy/Eh            Energy/eV
      -------------------------------------------------------------
         1        2.0000           -0.8176449             -22.2493
       ...           ...                  ...                  ...
        50        2.0000           -0.4376218             -11.9083
        51        2.0000           -0.4109475             -11.1824
        52        2.0000           -0.4075977             -11.0913
        53        2.0000           -0.4052210             -11.0266
        54        2.0000           -0.3798459             -10.3361
        55        2.0000           -0.3696297             -10.0581
        56        2.0000           -0.3673676              -9.9966 (HOMO)
        57                         -0.2812291              -7.6526 (LUMO)
        58                         -0.2637283              -7.1764
        59                         -0.2253195              -6.1313
        60                         -0.1778492              -4.8395
        61                         -0.1428390              -3.8868
       ...                                ...                  ...
       103                          0.7436692              20.2363
      -------------------------------------------------------------
                  HL-Gap            0.0861385 Eh            2.3439 eV
             Fermi-level           -0.3242983 Eh           -8.8246 eV

 SCC (total)                   0 d,  0 h,  0 min,  0.028 sec
 SCC setup                      ...        0 min,  0.000 sec (  0.000%)
 Dispersion                     ...        0 min,  0.001 sec (  3.571%)
 classical contributions        ...        0 min,  0.000 sec (  0.000%)
 integral evaluation            ...        0 min,  0.000 sec (  0.000%)
 iterations                     ...        0 min,  0.023 sec ( 82.143%)
 molecular gradient             ...        0 min,  0.003 sec ( 10.714%)
 printout                       ...        0 min,  0.001 sec (  3.572%)

         :::::::::::::::::::::::::::::::::::::::::::::::::::::
         ::                     SUMMARY                     ::
         :::::::::::::::::::::::::::::::::::::::::::::::::::::
         :: total energy             -62.440825430751 Eh    ::
         :: gradient norm              0.082740335132 Eh/a0 ::
         :: HOMO-LUMO gap              2.343946951171 eV    ::
         ::.................................................::
         :: SCC energy               -63.249967752664 Eh    ::
         :: -> isotropic ES            0.063297758621 Eh    ::
         :: -> anisotropic ES          0.006455844493 Eh    ::
         :: -> anisotropic XC          0.025968062433 Eh    ::
         :: -> dispersion             -0.044891390094 Eh    ::
         :: repulsion energy           0.809142321913 Eh    ::
         :: add. restraining           0.000000000000 Eh    ::
         :: total charge              -0.000000000000 e     ::
         :::::::::::::::::::::::::::::::::::::::::::::::::::::

           -------------------------------------------------
          |                Property Printout                |
           -------------------------------------------------

    * Orbital Energies and Occupations

         #    Occupation            Energy/Eh            Energy/eV
      -------------------------------------------------------------
         1        2.0000           -0.8176449             -22.2493
       ...           ...                  ...                  ...
        44        2.0000           -0.4645733             -12.6417
        45        2.0000           -0.4607111             -12.5366
        46        2.0000           -0.4581592             -12.4671
        47        2.0000           -0.4473862             -12.1740
        48        2.0000           -0.4467050             -12.1555
        49        2.0000           -0.4442890             -12.0897
        50        2.0000           -0.4376218             -11.9083
        51        2.0000           -0.4109475             -11.1824
        52        2.0000           -0.4075977             -11.0913
        53        2.0000           -0.4052210             -11.0266
        54        2.0000           -0.3798459             -10.3361
        55        2.0000           -0.3696297             -10.0581
        56        2.0000           -0.3673676              -9.9966 (HOMO)
        57                         -0.2812291              -7.6526 (LUMO)
        58                         -0.2637283              -7.1764
        59                         -0.2253195              -6.1313
        60                         -0.1778492              -4.8395
        61                         -0.1428390              -3.8868
        62                         -0.0770777              -2.0974
        63                         -0.0543372              -1.4786
        64                         -0.0364714              -0.9924
        65                         -0.0125795              -0.3423
        66                          0.0190897               0.5195
        67                          0.0274711               0.7475
       ...                                ...                  ...
       103                          0.7436692              20.2363
      -------------------------------------------------------------
                  HL-Gap            0.0861385 Eh            2.3439 eV
             Fermi-level           -0.3242983 Eh           -8.8246 eV

     #   Z          covCN         q      C6AA      α(0)
     1   6 C        3.753    -0.108    22.631     6.784
     2   6 C        3.876     0.078    19.241     6.237
     3   6 C        3.821    -0.057    21.585     6.612
     4   6 C        3.816    -0.059    21.615     6.617
     5   6 C        3.782     0.004    20.536     6.455
     6   7 N        2.734    -0.189    25.104     7.442
     7   6 C        3.749    -0.005    20.722     6.492
     8   6 C        2.884     0.085    26.115     8.378
     9   7 N        1.898    -0.196    26.069     7.569
    10   7 N        2.760    -0.068    22.565     7.055
    11   6 C        2.752     0.256    22.685     7.799
    12   8 O        0.861    -0.433    22.339     6.337
    13   6 C        2.968    -0.012    28.300     8.726
    14   6 C        3.111    -0.008    28.073     8.680
    15   6 C        3.112    -0.039    28.813     8.793
    16   6 C        3.067     0.037    27.098     8.536
    17   7 N        2.798    -0.105    23.288     7.167
    18   6 C        3.093     0.046    26.855     8.494
    19   6 C        2.907    -0.071    29.767     8.946
    20   6 C        2.778     0.167    24.385     8.088
    21   6 C        2.917    -0.049    29.225     8.865
    22   9 F        0.787    -0.217    11.409     3.990
    23   1 H        0.924     0.052     2.292     2.368
    24   1 H        0.924     0.050     2.318     2.381
    25   1 H        0.924     0.032     2.553     2.499
    26   1 H        0.924     0.031     2.579     2.511
    27   1 H        0.923     0.028     2.610     2.527
    28   1 H        0.924     0.031     2.568     2.506
    29   1 H        0.924     0.030     2.586     2.515
    30   1 H        0.924     0.037     2.494     2.470
    31   1 H        0.924     0.039     2.464     2.455
    32   1 H        0.924     0.064     2.148     2.292
    33   1 H        0.923     0.039     2.469     2.457
    34   1 H        0.860     0.200     1.107     1.648
    35   1 H        0.860     0.166     1.294     1.782
    36   1 H        0.925     0.055     2.259     2.350
    37   1 H        0.925     0.087     1.908     2.160

 Mol. C6AA /au·bohr⁶  :      16740.409344
 Mol. C8AA /au·bohr⁸  :     399232.738243
 Mol. α(0) /au        :        198.982565


Wiberg/Mayer (AO) data.
largest (>0.10) Wiberg bond orders for each atom

 ---------------------------------------------------------------------------
     #   Z sym  total        # sym  WBO       # sym  WBO       # sym  WBO
 ---------------------------------------------------------------------------
     1   6 C    3.989 --    24 H    0.985    25 H    0.983     2 C    0.982
                            23 H    0.982
     2   6 C    3.982 --    16 C    0.999     1 C    0.982     6 N    0.970
                             3 C    0.961
     3   6 C    3.992 --     4 C    1.004    27 H    0.979    26 H    0.978
                             2 C    0.961
     4   6 C    3.996 --     3 C    1.004     5 C    0.995    29 H    0.983
                            28 H    0.982
     5   6 C    3.984 --     6 N    1.000     4 C    0.995    30 H    0.976
                            31 H    0.973
     6   7 N    3.089 --     5 C    1.000     7 C    0.993     2 C    0.970
     7   6 C    3.983 --     6 N    0.993     8 C    0.990    32 H    0.967
                            33 H    0.950
     8   6 C    3.977 --     9 N    1.669    15 C    1.113     7 C    0.990
     9   7 N    3.027 --     8 C    1.669    10 N    1.102
    10   7 N    3.524 --    11 C    1.170     9 N    1.102    34 H    0.926
                            12 O    0.157
    11   6 C    3.950 --    12 O    1.656    10 N    1.170    13 C    1.025
    12   8 O    1.990 --    11 C    1.656    10 N    0.157
    13   6 C    3.985 --    21 C    1.420    14 C    1.298    11 C    1.025
                            19 C    0.108
    14   6 C    3.988 --    13 C    1.298    18 C    1.256    15 C    1.193
    15   6 C    3.977 --    16 C    1.453    14 C    1.193     8 C    1.113
    16   6 C    3.948 --    15 C    1.453    17 N    1.202     2 C    0.999
    17   7 N    3.544 --    16 C    1.202    18 C    1.162    35 H    0.941
    18   6 C    3.959 --    19 C    1.340    14 C    1.256    17 N    1.162
    19   6 C    3.980 --    20 C    1.416    18 C    1.340    36 H    0.966
                            13 C    0.108
    20   6 C    3.883 --    19 C    1.416    21 C    1.367    22 F    0.966
    21   6 C    3.984 --    13 C    1.420    20 C    1.367    37 H    0.960
    22   9 F    1.095 --    20 C    0.966
    23   1 H    0.996 --     1 C    0.982
    24   1 H    0.997 --     1 C    0.985
    25   1 H    0.999 --     1 C    0.983
    26   1 H    0.999 --     3 C    0.978
    27   1 H    0.999 --     3 C    0.979
    28   1 H    0.999 --     4 C    0.982
    29   1 H    0.999 --     4 C    0.983
    30   1 H    0.998 --     5 C    0.976
    31   1 H    0.998 --     5 C    0.973
    32   1 H    0.995 --     7 C    0.967
    33   1 H    0.996 --     7 C    0.950
    34   1 H    0.959 --    10 N    0.926
    35   1 H    0.971 --    17 N    0.941
    36   1 H    0.996 --    19 C    0.966
    37   1 H    0.992 --    21 C    0.960
 ---------------------------------------------------------------------------

Topologies differ in total number of bonds
Writing topology from bond orders to xtbtopo.mol

molecular dipole:
                 x           y           z       tot (Debye)
 q only:       -2.820       0.741      -0.403
   full:       -3.059       1.045      -1.012       8.609
molecular quadrupole (traceless):
                xx          xy          yy          xz          yz          zz
 q only:      -21.652       3.357      12.573       0.237      -0.865       9.079
  q+dip:      -23.611       3.581      15.680       2.194      -2.231       7.931
   full:      -24.659       4.292      15.114       2.296       0.478       9.546


           -------------------------------------------------
          | TOTAL ENERGY              -62.440825430751 Eh   |
          | GRADIENT NORM               0.082740335132 Eh/α |
          | HOMO-LUMO GAP               2.343946951171 eV   |
           -------------------------------------------------

------------------------------------------------------------------------
 * finished run on 2026/08/31 at 18:25:32.009     
------------------------------------------------------------------------
 total:
 * wall-time:     0 d,  0 h,  0 min,  0.089 sec
 *  cpu-time:     0 d,  0 h,  0 min,  0.531 sec
 * ratio c/w:     5.969 speedup
 SCF:
 * wall-time:     0 d,  0 h,  0 min,  0.028 sec
 *  cpu-time:     0 d,  0 h,  0 min,  0.391 sec
 * ratio c/w:    13.951 speedup

normal termination of xtb
