      -----------------------------------------------------------      
     |                   =====================                   |     
     |                           x T B                           |     
     |                   =====================                   |     
     |                         S. Grimme                         |     
     |          Mulliken Center for Theoretical Chemistry        |     
     |                    University of Bonn                     |     
      -----------------------------------------------------------      

   * xtb version 6.7.1pre (5071a88) compiled by 'Marcel@Raven' on 2024-07-23

   xtb is free software: you can redistribute it and/or modify it under
   the terms of the GNU Lesser General Public License as published by
   the Free Software Foundation, either version 3 of the License, or
   (at your option) any later version.
   
   xtb is distributed in the hope that it will be useful,
   but WITHOUT ANY WARRANTY; without even the implied warranty of
   MERCHANTABILITY or FITNESS FOR A PARTICULAR PURPOSE.  See the
   GNU Lesser General Public License for more details.
   
   Cite this work as:
   * C. Bannwarth, E. Caldeweyher, S. Ehlert, A. Hansen, P. Pracht,
     J. Seibert, S. Spicher, S. Grimme, WIREs Comput. Mol. Sci., 2020, 11,
     e01493. DOI: 10.1002/wcms.1493
   
   for GFN2-xTB:
   * C. Bannwarth, S. Ehlert and S. Grimme., J. Chem. Theory Comput., 2019,
     15, 1652-1671. DOI: 10.1021/acs.jctc.8b01176
   for GFN1-xTB:
   * S. Grimme, C. Bannwarth, P. Shushkov, J. Chem. Theory Comput., 2017,
     13, 1989-2009. DOI: 10.1021/acs.jctc.7b00118
   for GFN0-xTB:
   * P. Pracht, E. Caldeweyher, S. Ehlert, S. Grimme, ChemRxiv, 2019, preprint.
     DOI: 10.26434/chemrxiv.8326202.v1
   for GFN-FF:
   * S. Spicher and S. Grimme, Angew. Chem. Int. Ed., 2020, 59, 15665-15673.
     DOI: 10.1002/anie.202004239
   
   for ALPB and GBSA implicit solvation:
   * S. Ehlert, M. Stahn, S. Spicher, S. Grimme, J. Chem. Theory Comput.,
     2021, 17, 4250-4261. DOI: 10.1021/acs.jctc.1c00471
   
   for ddCOSMO and CPCM-X implicit solvation:
   * M. Stahn, S. Ehlert, S. Grimme, J. Phys. Chem. A,
     2023, XX, XXXX-XXXX. DOI: 10.1021/acs.jpca.3c04382
   
   for DFT-D4:
   * E. Caldeweyher, C. Bannwarth and S. Grimme, J. Chem. Phys., 2017,
     147, 034112. DOI: 10.1063/1.4993215
   * E. Caldeweyher, S. Ehlert, A. Hansen, H. Neugebauer, S. Spicher,
     C. Bannwarth and S. Grimme, J. Chem. Phys., 2019, 150, 154122.
     DOI: 10.1063/1.5090222
   * E. Caldeweyher, J.-M. Mewes, S. Ehlert and S. Grimme, Phys. Chem. Chem. Phys.
     2020, 22, 8499-8512. DOI: 10.1039/D0CP00502A
   
   for sTDA-xTB:
   * S. Grimme and C. Bannwarth, J. Chem. Phys., 2016, 145, 054103.
     DOI: 10.1063/1.4959605
   
   in the mass-spec context:
   * V. Asgeirsson, C. Bauer and S. Grimme, Chem. Sci., 2017, 8, 4879.
     DOI: 10.1039/c7sc00601b
   * J. Koopman and S. Grimme, ACS Omega 2019, 4, 12, 15120-15133.
     DOI: 10.1021/acsomega.9b02011
   
   for metadynamics refer to:
   * S. Grimme, J. Chem. Theory Comput., 2019, 155, 2847-2862
     DOI: 10.1021/acs.jctc.9b00143
   
   for SPH calculations refer to:
   * S. Spicher and S. Grimme, J. Chem. Theory Comput., 2021, 17, 1701-1714
     DOI: 10.1021/acs.jctc.0c01306
   
   for ONIOM refer to:
   * C. Plett, A. Katbashev, S. Ehlert, S. Grimme, M. Bursch,
     Phys. Chem. Chem. Phys., 2023, 25, 17860-17868. DOI: 10.1039/D3CP02178E
   
   for DIPRO refer to:
   * J. Kohn, N. Gildemeister, S. Grimme, D. Fazzi, A. Hansen,
     J. Chem. Phys., 2023, just accepted.
   
   for PTB refer to:
   * S. Grimme, M. Mueller, A. Hansen, J. Chem. Phys., 2023, 158, 124111.
     DOI: 10.1063/5.0137838
   
   with help from (in alphabetical order)
   P. Atkinson, C. Bannwarth, F. Bohle, G. Brandenburg, E. Caldeweyher
   M. Checinski, S. Dohm, S. Ehlert, S. Ehrlich, I. Gerasimov, C. Hölzer
   A. Katbashev, J. Kohn, J. Koopman, C. Lavigne, S. Lehtola, F. März, M. Müller,
   F. Musil, H. Neugebauer, J. Pisarek, C. Plett, P. Pracht, F. Pultar,
   J. Seibert, P. Shushkov, S. Spicher, M. Stahn, M. Steiner, T. Strunk,
   J. Stückrath, T. Rose, and J. Unsleber
   
 * started run on 2026/08/31 at 21:13:08.356     
   ID    Z sym.   atoms
    1    6 C      1-5, 7, 8, 11, 13-16, 18-21
    2    7 N      6, 9, 10, 17, 39, 41, 43, 45, 47, 49, 51, 53, 55, 57, 59,
                  61, 63, 65, 67, 69, 71, 73, 75, 77, 79, 81, 83, 85, 87, 89,
                  91, 93, 95, 97, 99, 101, 103, 105, 107, 109
    3    8 O      12
    4    9 F      22
    5    1 H      23-37
    6    5 B      38, 40, 42, 44, 46, 48, 50, 52, 54, 56, 58, 60, 62, 64, 66,
                  68, 70, 72, 74, 76, 78, 80, 82, 84, 86, 88, 90, 92, 94, 96,
                  98, 100, 102, 104, 106, 108

           -------------------------------------------------
          |                Calculation Setup                |
           -------------------------------------------------

          program call               : "c:\Users\Andre\Proyectos doctorado\kras-pancreatic-gC3N4-ai\tools\xtb\xtb-6.7.1\bin\xtb.exe" "c:\Users\Andre\Proyectos doctorado\nano-qsar-ai-therapeutics\calculations\tnbc\Pamiparib\Pamiparib_B36N36_phys_complex.xyz" --gfn 2 --sp --chrg 0 --uhf 0 --etemp 300 --iterations 500 --norestart
          coordinate file            : c:\Users\Andre\Proyectos doctorado\nano-qsar-ai-therapeutics\calculations\tnbc\Pamiparib\Pamiparib_B36N36_phys_complex.xyz
          omp threads                :                    16


molecular fragmentation (1/2 indicates fragments):
111111111111111111111111111111111111122222222222222222222222222222222222
2222222222222222222222222222222222222
# atoms in fragment 1/2:    37    72
 fragment masses (1/2) :      298.32      893.44
CMA distance (Bohr)    :  19.988
constraining FC (au)   :  0.0500

           -------------------------------------------------
          |                 G F N 2 - x T B                 |
           -------------------------------------------------

        Reference                      10.1021/acs.jctc.8b01176
      * Hamiltonian:
        H0-scaling (s, p, d)           1.850000    2.230000    2.230000
        zeta-weighting                 0.500000
      * Dispersion:
        s8                             2.700000
        a1                             0.520000
        a2                             5.000000
        s9                             5.000000
      * Repulsion:
        kExp                           1.500000    1.000000
        rExp                           1.000000
      * Coulomb:
        alpha                          2.000000
        third order                    shell-resolved
        anisotropic                    true
        a3                             3.000000
        a5                             4.000000
        cn-shift                       1.200000
        cn-exp                         4.000000
        max-rad                        5.000000


          ...................................................
          :                      SETUP                      :
          :.................................................:
          :  # basis functions                 391          :
          :  # atomic orbitals                 391          :
          :  # shells                          203          :
          :  # electrons                       400          :
          :  max. iterations                   500          :
          :  Hamiltonian                  GFN2-xTB          :
          :  restarted?                      false          :
          :  GBSA solvation                  false          :
          :  PC potential                    false          :
          :  electronic temp.          300.0000000     K    :
          :  accuracy                    1.0000000          :
          :  -> integral cutoff          0.2500000E+02      :
          :  -> integral neglect         0.1000000E-07      :
          :  -> SCF convergence          0.1000000E-05 Eh   :
          :  -> wf. convergence          0.1000000E-03 e    :
          :  Broyden damping             0.4000000          :
          :  net charge                          0          :
          :  unpaired electrons                  0          :
          ...................................................

 iter      E             dE          RMSdq      gap      omega  full diag
   1   -213.8646573 -0.213865E+03  0.115E+01    0.60       0.0  T
   2   -214.3326285 -0.467971E+00  0.703E+00    0.40       1.0  T
   3   -211.4442531  0.288838E+01  0.455E+00    0.15       1.0  T
   4   -213.2326192 -0.178837E+01  0.255E+00    0.18       1.0  T
   5   -213.4847576 -0.252138E+00  0.201E+00    0.21       1.0  T
   6   -214.8069260 -0.132217E+01  0.873E-01    0.73       1.0  T
   7   -214.8373459 -0.304199E-01  0.599E-01    0.80       1.0  T
   8   -214.8354114  0.193450E-02  0.448E-01    0.80       1.0  T
   9   -214.8373018 -0.189040E-02  0.236E-01    0.75       1.0  T
  10   -214.8375116 -0.209781E-03  0.143E-01    0.75       1.0  T
  11   -214.8407168 -0.320525E-02  0.635E-02    0.70       1.0  T
  12   -214.8409730 -0.256139E-03  0.504E-02    0.73       1.0  T
  13   -214.8410671 -0.940645E-04  0.381E-02    0.72       1.0  T
  14   -214.8411191 -0.520202E-04  0.293E-02    0.73       1.0  T
  15   -214.8411570 -0.379099E-04  0.161E-02    0.74       1.0  T
  16   -214.8411721 -0.151493E-04  0.768E-03    0.74       1.2  T
  17   -214.8411761 -0.399413E-05  0.220E-03    0.74       4.3  T
  18   -214.8411765 -0.402740E-06  0.992E-04    0.74       9.7  T
  19   -214.8411766 -0.936495E-07  0.583E-04    0.74      16.4  T

   *** convergence criteria satisfied after 19 iterations ***

         #    Occupation            Energy/Eh            Energy/eV
      -------------------------------------------------------------
         1        2.0000           -0.8096445             -22.0315
       ...           ...                  ...                  ...
       194        2.0000           -0.3310817              -9.0092
       195        2.0000           -0.3285750              -8.9410
       196        2.0000           -0.3275222              -8.9123
       197        2.0000           -0.3242370              -8.8229
       198        2.0000           -0.3187742              -8.6743
       199        2.0000           -0.3169385              -8.6243
       200        2.0000           -0.3142085              -8.5500 (HOMO)
       201        0.0000           -0.2869838              -7.8092 (LUMO)
       202                         -0.2788888              -7.5889
       203                         -0.2728078              -7.4235
       204                         -0.2678860              -7.2895
       205                         -0.2551601              -6.9433
       ...                                ...                  ...
       391                          0.9802961              26.6752
      -------------------------------------------------------------
                  HL-Gap            0.0272247 Eh            0.7408 eV
             Fermi-level           -0.3005665 Eh           -8.1788 eV

 SCC (total)                   0 d,  0 h,  0 min,  0.616 sec
 SCC setup                      ...        0 min,  0.001 sec (  0.162%)
 Dispersion                     ...        0 min,  0.004 sec (  0.649%)
 classical contributions        ...        0 min,  0.001 sec (  0.162%)
 integral evaluation            ...        0 min,  0.013 sec (  2.110%)
 iterations                     ...        0 min,  0.565 sec ( 91.721%)
 molecular gradient             ...        0 min,  0.029 sec (  4.708%)
 printout                       ...        0 min,  0.003 sec (  0.487%)

         :::::::::::::::::::::::::::::::::::::::::::::::::::::
         ::                     SUMMARY                     ::
         :::::::::::::::::::::::::::::::::::::::::::::::::::::
         :: total energy            -212.650730762878 Eh    ::
         :: gradient norm              0.082750464351 Eh/a0 ::
         :: HOMO-LUMO gap              0.740820978229 eV    ::
         ::.................................................::
         :: SCC energy              -214.825889841697 Eh    ::
         :: -> isotropic ES            0.694078172362 Eh    ::
         :: -> anisotropic ES         -0.025239876036 Eh    ::
         :: -> anisotropic XC          0.088801074803 Eh    ::
         :: -> dispersion             -0.188894435495 Eh    ::
         :: repulsion energy           2.175159078818 Eh    ::
         :: add. restraining           0.000000000000 Eh    ::
         :: total charge               0.000000000023 e     ::
         :::::::::::::::::::::::::::::::::::::::::::::::::::::

           -------------------------------------------------
          |                Property Printout                |
           -------------------------------------------------

    * Orbital Energies and Occupations

         #    Occupation            Energy/Eh            Energy/eV
      -------------------------------------------------------------
         1        2.0000           -0.8096445             -22.0315
       ...           ...                  ...                  ...
       188        2.0000           -0.3441887              -9.3659
       189        2.0000           -0.3425363              -9.3209
       190        2.0000           -0.3383053              -9.2058
       191        2.0000           -0.3362840              -9.1508
       192        2.0000           -0.3343647              -9.0985
       193        2.0000           -0.3322656              -9.0414
       194        2.0000           -0.3310817              -9.0092
       195        2.0000           -0.3285750              -8.9410
       196        2.0000           -0.3275222              -8.9123
       197        2.0000           -0.3242370              -8.8229
       198        2.0000           -0.3187742              -8.6743
       199        2.0000           -0.3169385              -8.6243
       200        2.0000           -0.3142085              -8.5500 (HOMO)
       201        0.0000           -0.2869838              -7.8092 (LUMO)
       202                         -0.2788888              -7.5889
       203                         -0.2728078              -7.4235
       204                         -0.2678860              -7.2895
       205                         -0.2551601              -6.9433
       206                         -0.2548970              -6.9361
       207                         -0.2490229              -6.7763
       208                         -0.2389414              -6.5019
       209                         -0.2345290              -6.3819
       210                         -0.2330765              -6.3423
       211                         -0.2262380              -6.1562
       ...                                ...                  ...
       391                          0.9802961              26.6752
      -------------------------------------------------------------
                  HL-Gap            0.0272247 Eh            0.7408 eV
             Fermi-level           -0.3005665 Eh           -8.1788 eV

     #   Z          covCN         q      C6AA      α(0)
     1   6 C        3.753    -0.111    22.677     6.791
     2   6 C        3.876     0.078    19.239     6.237
     3   6 C        3.821    -0.062    21.669     6.625
     4   6 C        3.816    -0.060    21.648     6.622
     5   6 C        3.782     0.003    20.554     6.458
     6   7 N        2.734    -0.189    25.104     7.441
     7   6 C        3.749    -0.006    20.751     6.497
     8   6 C        2.884     0.085    26.112     8.377
     9   7 N        1.898    -0.198    26.114     7.576
    10   7 N        2.760    -0.069    22.580     7.057
    11   6 C        2.752     0.256    22.694     7.801
    12   8 O        0.861    -0.435    22.394     6.345
    13   6 C        2.968    -0.012    28.317     8.728
    14   6 C        3.111    -0.008    28.064     8.679
    15   6 C        3.112    -0.040    28.824     8.795
    16   6 C        3.067     0.038    27.082     8.533
    17   7 N        2.798    -0.102    23.245     7.161
    18   6 C        3.093     0.047    26.842     8.492
    19   6 C        2.907    -0.072    29.787     8.949
    20   6 C        2.778     0.167    24.394     8.090
    21   6 C        2.917    -0.051    29.260     8.870
    22   9 F        0.787    -0.219    11.435     3.994
    23   1 H        0.924     0.052     2.290     2.366
    24   1 H        0.924     0.049     2.326     2.385
    25   1 H        0.924     0.034     2.530     2.488
    26   1 H        0.924     0.036     2.510     2.477
    27   1 H        0.923     0.034     2.531     2.488
    28   1 H        0.924     0.032     2.562     2.503
    29   1 H        0.924     0.031     2.567     2.505
    30   1 H        0.924     0.036     2.503     2.474
    31   1 H        0.924     0.038     2.473     2.459
    32   1 H        0.924     0.064     2.153     2.295
    33   1 H        0.923     0.041     2.441     2.443
    34   1 H        0.860     0.199     1.113     1.652
    35   1 H        0.860     0.170     1.272     1.766
    36   1 H        0.925     0.058     2.220     2.330
    37   1 H        0.925     0.087     1.912     2.162
    38   5 B        2.781     0.078    20.169     7.509
    39   7 N        2.774    -0.227    25.953     7.566
    40   5 B        2.788     0.092    19.929     7.463
    41   7 N        2.524    -0.314    28.108     7.874
    42   5 B        2.779     0.083    20.083     7.493
    43   7 N        2.655    -0.270    27.000     7.717
    44   5 B        2.849     0.241    17.672     7.019
    45   7 N        2.529    -0.272    27.071     7.727
    46   5 B        3.195     0.150    18.926     7.255
    47   7 N        2.979    -0.109    23.383     7.182
    48   5 B        2.644     0.373    16.319     6.812
    49   7 N        2.669    -0.212    25.630     7.519
    50   5 B        3.181     0.023    20.978     7.639
    51   7 N        2.888    -0.225    25.900     7.559
    52   5 B        3.009     0.209    18.072     7.091
    53   7 N        2.660    -0.163    24.529     7.356
    54   5 B        2.906     0.319    16.613     6.802
    55   7 N        3.156    -0.082    22.824     7.096
    56   5 B        2.779     0.094    19.905     7.460
    57   7 N        3.037    -0.127    23.754     7.239
    58   5 B        2.758     0.090    20.006     7.484
    59   7 N        2.634    -0.310    27.992     7.858
    60   5 B        3.040     0.227    17.827     7.043
    61   7 N        2.981    -0.006    21.361     6.864
    62   5 B        2.582     0.326    17.306     7.087
    63   7 N        2.596    -0.359    29.259     8.033
    64   5 B        3.287     0.340    16.337     6.741
    65   7 N        2.784    -0.254    26.594     7.659
    66   5 B        2.559     0.320    17.596     7.185
    67   7 N        2.579    -0.368    29.508     8.068
    68   5 B        2.530     0.301    18.225     7.377
    69   7 N        2.665    -0.205    25.456     7.493
    70   5 B        2.698     0.196    18.496     7.217
    71   7 N        2.844    -0.167    24.599     7.366
    72   5 B        2.758     0.082    20.130     7.507
    73   7 N        2.672    -0.174    24.764     7.391
    74   5 B        2.877     0.111    19.571     7.384
    75   7 N        2.663    -0.144    24.122     7.294
    76   5 B        2.594     0.312    17.388     7.086
    77   7 N        2.519    -0.355    29.177     8.022
    78   5 B        2.684     0.185    18.710     7.266
    79   7 N        3.008    -0.133    23.878     7.258
    80   5 B        2.677     0.210    18.357     7.201
    81   7 N        2.716    -0.248    26.462     7.640
    82   5 B        2.647     0.164    19.162     7.379
    83   7 N        2.825    -0.205    25.459     7.494
    84   5 B        3.321     0.231    17.763     7.028
    85   7 N        2.531    -0.285    27.394     7.773
    86   5 B        2.950     0.036    20.764     7.603
    87   7 N        2.783    -0.185    25.001     7.426
    88   5 B        2.796     0.085    20.034     7.481
    89   7 N        2.673    -0.155    24.364     7.331
    90   5 B        3.021     0.211    18.045     7.086
    91   7 N        3.272     0.016    20.967     6.801
    92   5 B        2.869     0.306    16.795     6.841
    93   7 N        3.154    -0.118    23.557     7.209
    94   5 B        3.263     0.320    16.582     6.791
    95   7 N        2.833    -0.061    22.411     7.031
    96   5 B        3.303     0.231    17.760     7.028
    97   7 N        2.656    -0.182    24.953     7.419
    98   5 B        2.838     0.113    19.561     7.386
    99   7 N        2.834    -0.225    25.914     7.561
   100   5 B        2.863     0.253    17.501     6.984
   101   7 N        2.654    -0.231    26.068     7.583
   102   5 B        3.011     0.115    19.480     7.362
   103   7 N        3.153    -0.086    22.904     7.108
   104   5 B        2.674     0.202    18.483     7.228
   105   7 N        2.696    -0.232    26.088     7.586
   106   5 B        2.585     0.369    16.722     6.962
   107   7 N        2.881    -0.180    24.878     7.408
   108   5 B        2.825     0.107    19.663     7.407
   109   7 N        2.827    -0.252    26.544     7.652

 Mol. C6AA /au·bohr⁶  :     215589.810443
 Mol. C8AA /au·bohr⁸  :    6023387.913924
 Mol. α(0) /au        :        727.763334


Wiberg/Mayer (AO) data.
largest (>0.10) Wiberg bond orders for each atom

 ---------------------------------------------------------------------------
     #   Z sym  total        # sym  WBO       # sym  WBO       # sym  WBO
 ---------------------------------------------------------------------------
     1   6 C    3.989 --    24 H    0.985    25 H    0.983     2 C    0.982
                            23 H    0.982
     2   6 C    3.982 --    16 C    0.999     1 C    0.982     6 N    0.970
                             3 C    0.961
     3   6 C    3.991 --     4 C    1.004    27 H    0.978    26 H    0.978
                             2 C    0.961
     4   6 C    3.996 --     3 C    1.004     5 C    0.995    29 H    0.983
                            28 H    0.982
     5   6 C    3.984 --     6 N    0.999     4 C    0.995    30 H    0.976
                            31 H    0.973
     6   7 N    3.088 --     5 C    0.999     7 C    0.993     2 C    0.970
     7   6 C    3.983 --     6 N    0.993     8 C    0.990    32 H    0.968
                            33 H    0.950
     8   6 C    3.977 --     9 N    1.668    15 C    1.114     7 C    0.990
     9   7 N    3.026 --     8 C    1.668    10 N    1.100
    10   7 N    3.523 --    11 C    1.171     9 N    1.100    34 H    0.927
                            12 O    0.157
    11   6 C    3.950 --    12 O    1.654    10 N    1.171    13 C    1.025
    12   8 O    1.988 --    11 C    1.654    10 N    0.157
    13   6 C    3.985 --    21 C    1.419    14 C    1.298    11 C    1.025
                            19 C    0.107
    14   6 C    3.988 --    13 C    1.298    18 C    1.255    15 C    1.193
    15   6 C    3.977 --    16 C    1.452    14 C    1.193     8 C    1.114
    16   6 C    3.949 --    15 C    1.452    17 N    1.205     2 C    0.999
    17   7 N    3.548 --    16 C    1.205    18 C    1.164    35 H    0.940
    18   6 C    3.960 --    19 C    1.340    14 C    1.255    17 N    1.164
    19   6 C    3.981 --    20 C    1.417    18 C    1.340    36 H    0.966
                            13 C    0.107
    20   6 C    3.882 --    19 C    1.417    21 C    1.367    22 F    0.964
    21   6 C    3.984 --    13 C    1.419    20 C    1.367    37 H    0.961
    22   9 F    1.092 --    20 C    0.964
    23   1 H    0.996 --     1 C    0.982
    24   1 H    0.998 --     1 C    0.985
    25   1 H    0.999 --     1 C    0.983
    26   1 H    0.999 --     3 C    0.978
    27   1 H    0.999 --     3 C    0.978
    28   1 H    0.998 --     4 C    0.982
    29   1 H    0.999 --     4 C    0.983
    30   1 H    0.998 --     5 C    0.976
    31   1 H    0.998 --     5 C    0.973
    32   1 H    0.995 --     7 C    0.968
    33   1 H    0.996 --     7 C    0.950
    34   1 H    0.960 --    10 N    0.927
    35   1 H    0.970 --    17 N    0.940
    36   1 H    0.996 --    19 C    0.966
    37   1 H    0.992 --    21 C    0.961
    38   5 B    3.475 --   107 N    1.281    90 B    1.000    84 B    0.969
    39   7 N    3.398 --    84 B    1.143    97 N    1.007    96 B    1.001
    40   5 B    3.465 --    85 N    1.277   108 B    0.978    96 B    0.958
    41   7 N    3.530 --   100 B    1.153    98 B    1.150    68 B    1.018
    42   5 B    3.464 --    75 N    1.241   104 B    0.995    78 B    0.990
    43   7 N    3.262 --    64 B    1.199   106 B    0.968   101 N    0.888
    44   5 B    3.407 --    77 N    1.177    51 N    1.032    60 B    0.963
    45   7 N    3.569 --    58 B    1.277    46 B    1.158   102 B    0.973
    46   5 B    3.393 --    45 N    1.158    88 B    0.932    86 B    0.640
                            50 B    0.294
    47   7 N    3.323 --    52 B    1.113    91 N    1.043   103 N    0.945
    48   5 B    3.432 --    49 N    1.187    59 N    1.126    87 N    0.962
    49   7 N    3.446 --    48 B    1.187    76 B    1.087    89 N    0.967
    50   5 B    3.455 --    86 B    1.284   102 B    1.003   100 B    0.626
                            46 B    0.294
    51   7 N    3.427 --    54 B    1.234    44 B    1.032    65 N    0.928
    52   5 B    3.390 --    47 N    1.113    71 N    1.038    98 B    1.005
    53   7 N    3.510 --    56 B    1.205    76 B    1.124    73 N    0.999
    54   5 B    3.514 --    51 N    1.234    79 N    1.070    99 N    1.002
    55   7 N    3.350 --   104 B    1.144   107 N    0.990    57 N    0.982
    56   5 B    3.413 --    53 N    1.205    74 B    1.008    88 B    0.927
    57   7 N    3.325 --    92 B    1.134    55 N    0.982    61 N    0.973
    58   5 B    3.464 --    45 N    1.277    72 B    0.978    82 B    0.932
    59   7 N    3.217 --    48 B    1.126    62 B    1.068    87 N    0.792
    60   5 B    3.369 --    73 N    1.153    65 N    0.991    44 B    0.963
    61   7 N    3.095 --    79 N    1.012    57 N    0.973   105 N    0.938
    62   5 B    3.511 --    99 N    1.245    59 N    1.068    77 N    0.989
    63   7 N    3.434 --    68 B    1.201    96 B    1.062    84 B    0.926
    64   5 B    3.481 --    43 N    1.199    81 N    1.043    67 N    0.981
    65   7 N    3.280 --    70 B    1.167    60 B    0.991    51 N    0.928
    66   5 B    3.524 --   101 N    1.212   105 N    1.121    93 N    1.032
    67   7 N    3.431 --    80 B    1.221    94 B    0.993    64 B    0.981
    68   5 B    3.519 --    63 N    1.201   109 N    1.099    41 N    1.018
    69   7 N    3.442 --   106 B    1.262    80 B    0.997    95 N    0.990
    70   5 B    3.445 --    65 N    1.167    97 N    1.125   108 B    0.923
    71   7 N    3.470 --    72 B    1.260    52 B    1.038   103 N    0.984
    72   5 B    3.421 --    71 N    1.260    58 B    0.978    80 B    0.959
    73   7 N    3.511 --   108 B    1.171    60 B    1.153    53 N    0.999
    74   5 B    3.347 --    86 B    1.009    56 B    1.008    85 N    0.963
    75   7 N    3.509 --    42 B    1.241    78 B    1.092    81 N    1.035
    76   5 B    3.515 --    53 N    1.124    77 N    1.103    49 N    1.087
    77   7 N    3.477 --    44 B    1.177    76 B    1.103    62 B    0.989
    78   5 B    3.464 --    83 N    1.180    75 N    1.092    42 B    0.990
    79   7 N    3.257 --    54 B    1.070    61 N    1.012    93 N    0.975
    80   5 B    3.390 --    67 N    1.221    69 N    0.997    72 B    0.959
    81   7 N    3.372 --    64 B    1.043    75 N    1.035    94 B    0.985
    82   5 B    3.453 --    95 N    1.190    89 N    1.079    58 B    0.932
    83   7 N    3.407 --    78 B    1.180    90 B    1.073    91 N    0.959
    84   5 B    3.364 --    39 N    1.143    38 B    0.969    63 N    0.926
                            96 B    0.127
    85   7 N    3.561 --    40 B    1.277   100 B    1.105    74 B    0.963
    86   5 B    3.367 --    50 B    1.284    74 B    1.009    46 B    0.640
                           100 B    0.186
    87   7 N    2.986 --    95 N    1.045    48 B    0.962    59 N    0.792
    88   5 B    3.454 --    89 N    1.265    46 B    0.932    56 B    0.927
    89   7 N    3.480 --    88 B    1.265    82 B    1.079    49 N    0.967
    90   5 B    3.443 --   109 N    1.131    83 N    1.073    38 B    1.000
    91   7 N    3.187 --    47 N    1.043    83 N    0.959   109 N    0.951
    92   5 B    3.523 --    97 N    1.163    57 N    1.134   107 N    0.995
    93   7 N    3.213 --    66 B    1.032    99 N    0.984    79 N    0.975
    94   5 B    3.507 --   103 N    1.265    67 N    0.993    81 N    0.985
    95   7 N    3.439 --    82 B    1.190    87 N    1.045    69 N    0.990
    96   5 B    3.327 --    63 N    1.062    39 N    1.001    40 B    0.958
                            84 B    0.127
    97   7 N    3.492 --    92 B    1.163    70 B    1.125    39 N    1.007
    98   5 B    3.385 --    41 N    1.150    52 B    1.005   102 B    1.002
    99   7 N    3.445 --    62 B    1.245    54 B    1.002    93 N    0.984
   100   5 B    3.444 --    41 N    1.153    85 N    1.105    50 B    0.626
                            86 B    0.186   102 B    0.120
   101   7 N    3.332 --    66 B    1.212   106 B    1.035    43 N    0.888
   102   5 B    3.333 --    50 B    1.003    98 B    1.002    45 N    0.973
                           100 B    0.120
   103   7 N    3.440 --    94 B    1.265    71 N    0.984    47 N    0.945
   104   5 B    3.445 --    55 N    1.144   105 N    1.114    42 B    0.995
   105   7 N    3.391 --    66 B    1.121   104 B    1.114    61 N    0.938
   106   5 B    3.439 --    69 N    1.262   101 N    1.035    43 N    0.968
   107   7 N    3.475 --    38 B    1.281    92 B    0.995    55 N    0.990
   108   5 B    3.359 --    73 N    1.171    40 B    0.978    70 B    0.923
   109   7 N    3.418 --    90 B    1.131    68 B    1.099    91 N    0.951
 ---------------------------------------------------------------------------

Topologies differ in total number of bonds
Writing topology from bond orders to xtbtopo.mol

molecular dipole:
                 x           y           z       tot (Debye)
 q only:       -0.968       2.760      -4.727
   full:       -2.830       2.210      -3.225      12.267
molecular quadrupole (traceless):
                xx          xy          yy          xz          yz          zz
 q only:      -27.261       1.761      26.869     -78.966       8.571       0.391
  q+dip:       -7.167       1.830      55.147     -85.046      23.775     -47.980
   full:       -2.914       3.426      52.668     -81.058      26.599     -49.754


           -------------------------------------------------
          | TOTAL ENERGY             -212.650730762878 Eh   |
          | GRADIENT NORM               0.082750464351 Eh/α |
          | HOMO-LUMO GAP               0.740820978229 eV   |
           -------------------------------------------------

------------------------------------------------------------------------
 * finished run on 2026/08/31 at 21:13:09.027     
------------------------------------------------------------------------
 total:
 * wall-time:     0 d,  0 h,  0 min,  0.668 sec
 *  cpu-time:     0 d,  0 h,  0 min,  6.297 sec
 * ratio c/w:     9.426 speedup
 SCF:
 * wall-time:     0 d,  0 h,  0 min,  0.617 sec
 *  cpu-time:     0 d,  0 h,  0 min,  5.922 sec
 * ratio c/w:     9.598 speedup

normal termination of xtb
