      -----------------------------------------------------------      
     |                   =====================                   |     
     |                           x T B                           |     
     |                   =====================                   |     
     |                         S. Grimme                         |     
     |          Mulliken Center for Theoretical Chemistry        |     
     |                    University of Bonn                     |     
      -----------------------------------------------------------      

   * xtb version 6.7.1pre (5071a88) compiled by 'Marcel@Raven' on 2024-07-23

   xtb is free software: you can redistribute it and/or modify it under
   the terms of the GNU Lesser General Public License as published by
   the Free Software Foundation, either version 3 of the License, or
   (at your option) any later version.
   
   xtb is distributed in the hope that it will be useful,
   but WITHOUT ANY WARRANTY; without even the implied warranty of
   MERCHANTABILITY or FITNESS FOR A PARTICULAR PURPOSE.  See the
   GNU Lesser General Public License for more details.
   
   Cite this work as:
   * C. Bannwarth, E. Caldeweyher, S. Ehlert, A. Hansen, P. Pracht,
     J. Seibert, S. Spicher, S. Grimme, WIREs Comput. Mol. Sci., 2020, 11,
     e01493. DOI: 10.1002/wcms.1493
   
   for GFN2-xTB:
   * C. Bannwarth, S. Ehlert and S. Grimme., J. Chem. Theory Comput., 2019,
     15, 1652-1671. DOI: 10.1021/acs.jctc.8b01176
   for GFN1-xTB:
   * S. Grimme, C. Bannwarth, P. Shushkov, J. Chem. Theory Comput., 2017,
     13, 1989-2009. DOI: 10.1021/acs.jctc.7b00118
   for GFN0-xTB:
   * P. Pracht, E. Caldeweyher, S. Ehlert, S. Grimme, ChemRxiv, 2019, preprint.
     DOI: 10.26434/chemrxiv.8326202.v1
   for GFN-FF:
   * S. Spicher and S. Grimme, Angew. Chem. Int. Ed., 2020, 59, 15665-15673.
     DOI: 10.1002/anie.202004239
   
   for ALPB and GBSA implicit solvation:
   * S. Ehlert, M. Stahn, S. Spicher, S. Grimme, J. Chem. Theory Comput.,
     2021, 17, 4250-4261. DOI: 10.1021/acs.jctc.1c00471
   
   for ddCOSMO and CPCM-X implicit solvation:
   * M. Stahn, S. Ehlert, S. Grimme, J. Phys. Chem. A,
     2023, XX, XXXX-XXXX. DOI: 10.1021/acs.jpca.3c04382
   
   for DFT-D4:
   * E. Caldeweyher, C. Bannwarth and S. Grimme, J. Chem. Phys., 2017,
     147, 034112. DOI: 10.1063/1.4993215
   * E. Caldeweyher, S. Ehlert, A. Hansen, H. Neugebauer, S. Spicher,
     C. Bannwarth and S. Grimme, J. Chem. Phys., 2019, 150, 154122.
     DOI: 10.1063/1.5090222
   * E. Caldeweyher, J.-M. Mewes, S. Ehlert and S. Grimme, Phys. Chem. Chem. Phys.
     2020, 22, 8499-8512. DOI: 10.1039/D0CP00502A
   
   for sTDA-xTB:
   * S. Grimme and C. Bannwarth, J. Chem. Phys., 2016, 145, 054103.
     DOI: 10.1063/1.4959605
   
   in the mass-spec context:
   * V. Asgeirsson, C. Bauer and S. Grimme, Chem. Sci., 2017, 8, 4879.
     DOI: 10.1039/c7sc00601b
   * J. Koopman and S. Grimme, ACS Omega 2019, 4, 12, 15120-15133.
     DOI: 10.1021/acsomega.9b02011
   
   for metadynamics refer to:
   * S. Grimme, J. Chem. Theory Comput., 2019, 155, 2847-2862
     DOI: 10.1021/acs.jctc.9b00143
   
   for SPH calculations refer to:
   * S. Spicher and S. Grimme, J. Chem. Theory Comput., 2021, 17, 1701-1714
     DOI: 10.1021/acs.jctc.0c01306
   
   for ONIOM refer to:
   * C. Plett, A. Katbashev, S. Ehlert, S. Grimme, M. Bursch,
     Phys. Chem. Chem. Phys., 2023, 25, 17860-17868. DOI: 10.1039/D3CP02178E
   
   for DIPRO refer to:
   * J. Kohn, N. Gildemeister, S. Grimme, D. Fazzi, A. Hansen,
     J. Chem. Phys., 2023, just accepted.
   
   for PTB refer to:
   * S. Grimme, M. Mueller, A. Hansen, J. Chem. Phys., 2023, 158, 124111.
     DOI: 10.1063/5.0137838
   
   with help from (in alphabetical order)
   P. Atkinson, C. Bannwarth, F. Bohle, G. Brandenburg, E. Caldeweyher
   M. Checinski, S. Dohm, S. Ehlert, S. Ehrlich, I. Gerasimov, C. Hölzer
   A. Katbashev, J. Kohn, J. Koopman, C. Lavigne, S. Lehtola, F. März, M. Müller,
   F. Musil, H. Neugebauer, J. Pisarek, C. Plett, P. Pracht, F. Pultar,
   J. Seibert, P. Shushkov, S. Spicher, M. Stahn, M. Steiner, T. Strunk,
   J. Stückrath, T. Rose, and J. Unsleber
   
 * started run on 2026/08/31 at 21:10:07.186     
   ID    Z sym.   atoms
    1    6 C      1-5, 7, 8, 11, 13-16, 18-21
    2    7 N      6, 9, 10, 17, 39, 41, 43, 45, 47, 49, 51, 53, 55, 57, 59,
                  61, 63, 65, 67, 69, 71, 73, 75, 77, 79, 81, 83, 85, 87, 89,
                  91, 93, 95, 97, 99, 101, 103, 105, 107, 109
    3    8 O      12
    4    9 F      22
    5    1 H      23-37
    6    5 B      38, 40, 42, 44, 46, 48, 50, 52, 54, 56, 58, 60, 62, 64, 66,
                  68, 70, 72, 74, 76, 78, 80, 82, 84, 86, 88, 90, 92, 94, 96,
                  98, 100, 102, 104, 106, 108

           -------------------------------------------------
          |                Calculation Setup                |
           -------------------------------------------------

          program call               : "c:\Users\Andre\Proyectos doctorado\kras-pancreatic-gC3N4-ai\tools\xtb\xtb-6.7.1\bin\xtb.exe" "c:\Users\Andre\Proyectos doctorado\nano-qsar-ai-therapeutics\calculations\tnbc\Pamiparib\Pamiparib_B36N36_relaxed_complex.xyz" --gfn 2 --opt normal --chrg 0 --uhf 0 --iterations 50 --norestart
          coordinate file            : c:\Users\Andre\Proyectos doctorado\nano-qsar-ai-therapeutics\calculations\tnbc\Pamiparib\Pamiparib_B36N36_relaxed_complex.xyz
          omp threads                :                    16


molecular fragmentation (1/2 indicates fragments):
111111111111111111111111111111111111122222222222222222222222222222222222
2222222222222222222222222222222222222
# atoms in fragment 1/2:    37    72
 fragment masses (1/2) :      298.32      893.44
CMA distance (Bohr)    :  16.345
constraining FC (au)   :  0.0500

           -------------------------------------------------
          |                 G F N 2 - x T B                 |
           -------------------------------------------------

        Reference                      10.1021/acs.jctc.8b01176
      * Hamiltonian:
        H0-scaling (s, p, d)           1.850000    2.230000    2.230000
        zeta-weighting                 0.500000
      * Dispersion:
        s8                             2.700000
        a1                             0.520000
        a2                             5.000000
        s9                             5.000000
      * Repulsion:
        kExp                           1.500000    1.000000
        rExp                           1.000000
      * Coulomb:
        alpha                          2.000000
        third order                    shell-resolved
        anisotropic                    true
        a3                             3.000000
        a5                             4.000000
        cn-shift                       1.200000
        cn-exp                         4.000000
        max-rad                        5.000000


          ...................................................
          :                      SETUP                      :
          :.................................................:
          :  # basis functions                 391          :
          :  # atomic orbitals                 391          :
          :  # shells                          203          :
          :  # electrons                       400          :
          :  max. iterations                    50          :
          :  Hamiltonian                  GFN2-xTB          :
          :  restarted?                      false          :
          :  GBSA solvation                  false          :
          :  PC potential                    false          :
          :  electronic temp.          300.0000000     K    :
          :  accuracy                    1.0000000          :
          :  -> integral cutoff          0.2500000E+02      :
          :  -> integral neglect         0.1000000E-07      :
          :  -> SCF convergence          0.1000000E-05 Eh   :
          :  -> wf. convergence          0.1000000E-03 e    :
          :  Broyden damping             0.4000000          :
          :  net charge                          0          :
          :  unpaired electrons                  0          :
          ...................................................

 iter      E             dE          RMSdq      gap      omega  full diag
   1   -213.8661176 -0.213866E+03  0.115E+01    0.63       0.0  T
   2   -214.3402714 -0.474154E+00  0.703E+00    0.38       1.0  T
   3   -211.4970371  0.284323E+01  0.453E+00    0.15       1.0  T
   4   -214.4376962 -0.294066E+01  0.146E+00    0.07       1.0  T
   5   -214.6930431 -0.255347E+00  0.953E-01    0.29       1.0  T
   6   -214.8276276 -0.134584E+00  0.623E-01    0.59       1.0  T
   7   -214.8478381 -0.202106E-01  0.452E-01    0.83       1.0  T
   8   -214.8419210  0.591718E-02  0.380E-01    0.74       1.0  T
   9   -214.8438579 -0.193694E-02  0.221E-01    0.82       1.0  T
  10   -214.8513576 -0.749966E-02  0.856E-02    0.78       1.0  T
  11   -214.8524846 -0.112705E-02  0.408E-02    0.78       1.0  T
  12   -214.8525497 -0.650709E-04  0.295E-02    0.78       1.0  T
  13   -214.8525526 -0.286781E-05  0.184E-02    0.78       1.0  T
  14   -214.8525673 -0.147718E-04  0.715E-03    0.77       1.3  T
  15   -214.8525716 -0.427108E-05  0.304E-03    0.77       3.2  T
  16   -214.8525720 -0.370243E-06  0.161E-03    0.77       6.0  T
  17   -214.8525720 -0.350370E-07  0.667E-04    0.77      14.4  T
  18   -214.8525720 -0.191150E-07  0.285E-04    0.77      33.6  T

   *** convergence criteria satisfied after 18 iterations ***

         #    Occupation            Energy/Eh            Energy/eV
      -------------------------------------------------------------
         1        2.0000           -0.8062844             -21.9401
       ...           ...                  ...                  ...
       194        2.0000           -0.3329978              -9.0613
       195        2.0000           -0.3307164              -8.9993
       196        2.0000           -0.3295460              -8.9674
       197        2.0000           -0.3259649              -8.8700
       198        2.0000           -0.3203821              -8.7180
       199        2.0000           -0.3188482              -8.6763
       200        2.0000           -0.3171143              -8.6291 (HOMO)
       201        0.0000           -0.2888234              -7.8593 (LUMO)
       202                         -0.2808216              -7.6415
       203                         -0.2695780              -7.3356
       204                         -0.2682122              -7.2984
       205                         -0.2570063              -6.9935
       ...                                ...                  ...
       391                          0.9786484              26.6304
      -------------------------------------------------------------
                  HL-Gap            0.0282909 Eh            0.7698 eV
             Fermi-level           -0.3028850 Eh           -8.2419 eV

 SCC (total)                   0 d,  0 h,  0 min,  0.561 sec
 SCC setup                      ...        0 min,  0.001 sec (  0.178%)
 Dispersion                     ...        0 min,  0.002 sec (  0.357%)
 classical contributions        ...        0 min,  0.000 sec (  0.000%)
 integral evaluation            ...        0 min,  0.011 sec (  1.961%)
 iterations                     ...        0 min,  0.514 sec ( 91.622%)
 molecular gradient             ...        0 min,  0.031 sec (  5.526%)
 printout                       ...        0 min,  0.002 sec (  0.356%)

         :::::::::::::::::::::::::::::::::::::::::::::::::::::
         ::                     SUMMARY                     ::
         :::::::::::::::::::::::::::::::::::::::::::::::::::::
         :: total energy            -212.660681987677 Eh    ::
         :: gradient norm              0.083303285346 Eh/a0 ::
         :: HOMO-LUMO gap              0.769834619883 eV    ::
         ::.................................................::
         :: SCC energy              -214.835841066506 Eh    ::
         :: -> isotropic ES            0.693339896208 Eh    ::
         :: -> anisotropic ES         -0.026386058433 Eh    ::
         :: -> anisotropic XC          0.089014064361 Eh    ::
         :: -> dispersion             -0.195497936041 Eh    ::
         :: repulsion energy           2.175159078829 Eh    ::
         :: add. restraining           0.000000000000 Eh    ::
         :: total charge               0.000000000342 e     ::
         :::::::::::::::::::::::::::::::::::::::::::::::::::::

      ----------------------------------------------------------- 
     |                   =====================                   |
     |                        A N C O P T                        |
     |                   =====================                   |
     |               Approximate Normal Coordinate               |
     |                Rational Function Optimizer                |
      ----------------------------------------------------------- 
      ----------------------------------------------------------- 
     |                   =====================                   |
     |                        A N C O P T                        |
     |                   =====================                   |
     |               Approximate Normal Coordinate               |
     |                Rational Function Optimizer                |
      ----------------------------------------------------------- 

          ...................................................
          :                      SETUP                      :
          :.................................................:
          :   optimization level            normal          :
          :   max. optcycles                   327          :
          :   ANC micro-cycles                  20          :
          :   degrees of freedom               321          :
          :.................................................:
          :   RF solver                   davidson          :
          :   write xtbopt.log                true          :
          :   linear?                        false          :
          :   energy convergence         0.5000000E-05 Eh   :
          :   grad. convergence          0.1000000E-02 Eh/α :
          :   maxmium RF displ.          1.0000000          :
          :   Hlow (freq-cutoff)         0.1000000E-01      :
          :   Hmax (freq-cutoff)         5.0000000          :
          :   S6 in model hess.         20.0000000          :
          ...................................................

generating ANC from exact Hessian ...
Using Lindh-Hessian (1995)
 Shifting diagonal of input Hessian by   1.008484853891176E-002
 Lowest  eigenvalues of input Hessian
    0.010000    0.010016    0.010024    0.000000    0.000000    0.000000
    0.000000    0.000000    0.000000    0.010172    0.010252    0.010313
    0.011471    0.011738    0.015555    0.016034    0.016915    0.017772
 Highest eigenvalues
    2.154603    2.159063    2.211257    2.260734    2.315001    2.348167
 

........................................................................
.............................. CYCLE    1 ..............................
........................................................................

 iter      E             dE          RMSdq      gap      omega  full diag
   1   -214.8525720 -0.214853E+03  0.126E-04    0.77       0.0  T
   2   -214.8525720  0.420357E-09  0.112E-04    0.77      85.5  T
   3   -214.8525720 -0.130584E-08  0.572E-05    0.77     167.4  T
     SCC iter.                  ...        0 min,  0.093 sec
     gradient                   ...        0 min,  0.031 sec
 * total energy  :  -212.6606820 Eh     change       -0.8146770E-08 Eh
   gradient norm :     0.0833039 Eh/α   predicted     0.0000000E+00 (-100.00%)
   displ. norm   :     0.3095628 α      lambda       -0.1174098E-01
   maximum displ.:     0.1523085 α      in ANC's #30, #58, #37, ...

........................................................................
.............................. CYCLE    2 ..............................
........................................................................

 iter      E             dE          RMSdq      gap      omega  full diag
   1   -214.8768727 -0.214877E+03  0.124E-01    0.78       0.0  T
   2   -214.8769710 -0.983002E-04  0.747E-02    0.77       1.0  T
   3   -214.8769197  0.513159E-04  0.278E-02    0.77       1.0  T
   4   -214.8769811 -0.613939E-04  0.937E-03    0.77       1.0  T
   5   -214.8769907 -0.956228E-05  0.329E-03    0.77       2.9  T
   6   -214.8769912 -0.568940E-06  0.200E-03    0.77       4.8  T
   7   -214.8769913 -0.109941E-06  0.159E-03    0.77       6.0  T
   8   -214.8769917 -0.381802E-06  0.508E-04    0.77      18.9  T
   9   -214.8769917 -0.246683E-07  0.291E-04    0.77      32.9  T
     SCC iter.                  ...        0 min,  0.244 sec
     gradient                   ...        0 min,  0.025 sec
 * total energy  :  -212.6687221 Eh     change       -0.8040141E-02 Eh
   gradient norm :     0.0358273 Eh/α   predicted    -0.6436224E-02 ( -19.95%)
   displ. norm   :     0.2524304 α      lambda       -0.3424929E-02
   maximum displ.:     0.1229663 α      in ANC's #30, #6, #37, ...

........................................................................
.............................. CYCLE    3 ..............................
........................................................................

 iter      E             dE          RMSdq      gap      omega  full diag
   1   -214.8902415 -0.214890E+03  0.837E-02    0.78       0.0  T
   2   -214.8902952 -0.536640E-04  0.514E-02    0.77       1.0  T
   3   -214.8902518  0.433956E-04  0.263E-02    0.77       1.0  T
   4   -214.8903075 -0.556779E-04  0.821E-03    0.77       1.2  T
   5   -214.8903142 -0.677190E-05  0.236E-03    0.77       4.1  T
   6   -214.8903144 -0.147481E-06  0.163E-03    0.77       5.9  T
   7   -214.8903147 -0.322302E-06  0.891E-04    0.77      10.7  T
   8   -214.8903148 -0.114996E-06  0.289E-04    0.77      33.1  T
     SCC iter.                  ...        0 min,  0.250 sec
     gradient                   ...        0 min,  0.029 sec
 * total energy  :  -212.6707067 Eh     change       -0.1984609E-02 Eh
   gradient norm :     0.0099535 Eh/α   predicted    -0.1822289E-02 (  -8.18%)
   displ. norm   :     0.1764147 α      lambda       -0.4635577E-03
   maximum displ.:     0.1348094 α      in ANC's #6, #8, #18, ...

........................................................................
.............................. CYCLE    4 ..............................
........................................................................

 iter      E             dE          RMSdq      gap      omega  full diag
   1   -214.8912291 -0.214891E+03  0.284E-02    0.78       0.0  T
   2   -214.8912351 -0.595932E-05  0.171E-02    0.77       1.0  T
   3   -214.8912291  0.602296E-05  0.910E-03    0.77       1.1  T
   4   -214.8912357 -0.665555E-05  0.334E-03    0.77       2.9  T
   5   -214.8912364 -0.688617E-06  0.221E-03    0.77       4.3  T
   6   -214.8912373 -0.912340E-06  0.683E-04    0.77      14.0  T
   7   -214.8912373 -0.345111E-07  0.386E-04    0.77      24.8  T
     SCC iter.                  ...        0 min,  0.364 sec
     gradient                   ...        0 min,  0.031 sec
 * total energy  :  -212.6710817 Eh     change       -0.3749332E-03 Eh
   gradient norm :     0.0056415 Eh/α   predicted    -0.2389963E-03 ( -36.26%)
   displ. norm   :     0.3221047 α      lambda       -0.5948971E-03
   maximum displ.:     0.2433770 α      in ANC's #6, #8, #18, ...

........................................................................
.............................. CYCLE    5 ..............................
........................................................................

 iter      E             dE          RMSdq      gap      omega  full diag
   1   -214.8903479 -0.214890E+03  0.429E-02    0.78       0.0  T
   2   -214.8903573 -0.941738E-05  0.251E-02    0.77       1.0  T
   3   -214.8903449  0.123622E-04  0.113E-02    0.78       1.0  T
   4   -214.8903556 -0.106829E-04  0.485E-03    0.78       2.0  T
   5   -214.8903591 -0.345826E-05  0.240E-03    0.77       4.0  T
   6   -214.8903601 -0.997004E-06  0.921E-04    0.78      10.4  T
   7   -214.8903601 -0.182438E-07  0.697E-04    0.78      13.7  T
     SCC iter.                  ...        0 min,  0.289 sec
     gradient                   ...        0 min,  0.031 sec
 * total energy  :  -212.6715664 Eh     change       -0.4847339E-03 Eh
   gradient norm :     0.0083968 Eh/α   predicted    -0.3283157E-03 ( -32.27%)
   displ. norm   :     0.3962830 α      lambda       -0.5808851E-03
   maximum displ.:     0.2979644 α      in ANC's #6, #8, #14, ...

........................................................................
.............................. CYCLE    6 ..............................
........................................................................

 iter      E             dE          RMSdq      gap      omega  full diag
   1   -214.8888980 -0.214889E+03  0.481E-02    0.78       0.0  T
   2   -214.8889059 -0.791967E-05  0.279E-02    0.78       1.0  T
   3   -214.8888920  0.139163E-04  0.107E-02    0.78       1.0  T
   4   -214.8889023 -0.103142E-04  0.522E-03    0.78       1.8  T
   5   -214.8889076 -0.527516E-05  0.202E-03    0.78       4.7  T
   6   -214.8889082 -0.606028E-06  0.835E-04    0.78      11.5  T
   7   -214.8889082  0.930601E-08  0.684E-04    0.78      14.0  T
     SCC iter.                  ...        0 min,  0.218 sec
     gradient                   ...        0 min,  0.030 sec
 * total energy  :  -212.6720738 Eh     change       -0.5073749E-03 Eh
   gradient norm :     0.0118631 Eh/α   predicted    -0.3360547E-03 ( -33.77%)
   displ. norm   :     0.4342323 α      lambda       -0.6329700E-03
   maximum displ.:     0.3266561 α      in ANC's #6, #8, #4, ...

........................................................................
.............................. CYCLE    7 ..............................
........................................................................

 iter      E             dE          RMSdq      gap      omega  full diag
   1   -214.8881490 -0.214888E+03  0.498E-02    0.78       0.0  T
   2   -214.8881553 -0.624453E-05  0.290E-02    0.78       1.0  T
   3   -214.8881386  0.166781E-04  0.113E-02    0.78       1.0  T
   4   -214.8881531 -0.145264E-04  0.465E-03    0.78       2.1  T
   5   -214.8881571 -0.391476E-05  0.195E-03    0.78       4.9  T
   6   -214.8881577 -0.600035E-06  0.711E-04    0.78      13.5  T
   7   -214.8881577 -0.117953E-08  0.483E-04    0.78      19.8  T
     SCC iter.                  ...        0 min,  0.248 sec
     gradient                   ...        0 min,  0.026 sec
 * total energy  :  -212.6726507 Eh     change       -0.5768787E-03 Eh
   gradient norm :     0.0109410 Eh/α   predicted    -0.3761654E-03 ( -34.79%)
   displ. norm   :     0.4810674 α      lambda       -0.7181971E-03
   maximum displ.:     0.3671621 α      in ANC's #6, #8, #4, ...

........................................................................
.............................. CYCLE    8 ..............................
........................................................................

 iter      E             dE          RMSdq      gap      omega  full diag
   1   -214.8887947 -0.214889E+03  0.532E-02    0.78       0.0  T
   2   -214.8888005 -0.581236E-05  0.310E-02    0.78       1.0  T
   3   -214.8887805  0.200240E-04  0.123E-02    0.78       1.0  T
   4   -214.8887999 -0.194195E-04  0.417E-03    0.78       2.3  T
   5   -214.8888025 -0.262450E-05  0.207E-03    0.78       4.6  T
   6   -214.8888032 -0.677645E-06  0.746E-04    0.78      12.8  T
   7   -214.8888032  0.175100E-08  0.534E-04    0.78      17.9  T
     SCC iter.                  ...        0 min,  0.209 sec
     gradient                   ...        0 min,  0.026 sec
 * total energy  :  -212.6732985 Eh     change       -0.6478320E-03 Eh
   gradient norm :     0.0069097 Eh/α   predicted    -0.4422152E-03 ( -31.74%)
   displ. norm   :     0.5032258 α      lambda       -0.6859234E-03
   maximum displ.:     0.3920701 α      in ANC's #6, #8, #4, ...

........................................................................
.............................. CYCLE    9 ..............................
........................................................................

 iter      E             dE          RMSdq      gap      omega  full diag
   1   -214.8902618 -0.214890E+03  0.540E-02    0.79       0.0  T
   2   -214.8902663 -0.451508E-05  0.315E-02    0.78       1.0  T
   3   -214.8902481  0.182531E-04  0.114E-02    0.79       1.0  T
   4   -214.8902652 -0.171726E-04  0.405E-03    0.79       2.4  T
   5   -214.8902676 -0.237397E-05  0.226E-03    0.78       4.2  T
   6   -214.8902685 -0.873118E-06  0.854E-04    0.78      11.2  T
   7   -214.8902685 -0.730432E-08  0.644E-04    0.78      14.9  T
     SCC iter.                  ...        0 min,  0.221 sec
     gradient                   ...        0 min,  0.027 sec
 * total energy  :  -212.6739124 Eh     change       -0.6138816E-03 Eh
   gradient norm :     0.0046390 Eh/α   predicted    -0.4298235E-03 ( -29.98%)
   displ. norm   :     0.4466403 α      lambda       -0.5469728E-03
   maximum displ.:     0.3553616 α      in ANC's #6, #8, #4, ...

........................................................................
.............................. CYCLE   10 ..............................
........................................................................

 iter      E             dE          RMSdq      gap      omega  full diag
   1   -214.8921413 -0.214892E+03  0.469E-02    0.79       0.0  T
   2   -214.8921434 -0.208722E-05  0.273E-02    0.79       1.0  T
   3   -214.8921344  0.903558E-05  0.804E-03    0.79       1.2  T
   4   -214.8921429 -0.856643E-05  0.303E-03    0.79       3.2  T
   5   -214.8921441 -0.113417E-05  0.164E-03    0.79       5.8  T
   6   -214.8921444 -0.377779E-06  0.717E-04    0.79      13.4  T
   7   -214.8921445 -0.162423E-07  0.454E-04    0.79      21.1  T
     SCC iter.                  ...        0 min,  0.201 sec
     gradient                   ...        0 min,  0.029 sec
 * total energy  :  -212.6744080 Eh     change       -0.4955984E-03 Eh
   gradient norm :     0.0056966 Eh/α   predicted    -0.3280443E-03 ( -33.81%)
   displ. norm   :     0.3687348 α      lambda       -0.4285006E-03
   maximum displ.:     0.2973038 α      in ANC's #6, #8, #4, ...

........................................................................
.............................. CYCLE   11 ..............................
........................................................................

 iter      E             dE          RMSdq      gap      omega  full diag
   1   -214.8938643 -0.214894E+03  0.384E-02    0.79       0.0  T
   2   -214.8938652 -0.951443E-06  0.225E-02    0.79       1.0  T
   3   -214.8938577  0.753287E-05  0.698E-03    0.79       1.4  T
   4   -214.8938642 -0.652316E-05  0.308E-03    0.79       3.1  T
   5   -214.8938657 -0.147006E-05  0.131E-03    0.79       7.3  T
   6   -214.8938659 -0.237361E-06  0.540E-04    0.79      17.7  T
   7   -214.8938659 -0.146672E-07  0.241E-04    0.79      39.7  T
     SCC iter.                  ...        0 min,  0.201 sec
     gradient                   ...        0 min,  0.026 sec
 * total energy  :  -212.6748045 Eh     change       -0.3964927E-03 Eh
   gradient norm :     0.0059179 Eh/α   predicted    -0.2433828E-03 ( -38.62%)
   displ. norm   :     0.3227191 α      lambda       -0.3776764E-03
   maximum displ.:     0.2612430 α      in ANC's #6, #8, #4, ...

........................................................................
.............................. CYCLE   12 ..............................
........................................................................

 iter      E             dE          RMSdq      gap      omega  full diag
   1   -214.8952523 -0.214895E+03  0.342E-02    0.79       0.0  T
   2   -214.8952533 -0.948353E-06  0.202E-02    0.79       1.0  T
   3   -214.8952407  0.125102E-04  0.865E-03    0.79       1.1  T
   4   -214.8952512 -0.104837E-04  0.388E-03    0.79       2.5  T
   5   -214.8952539 -0.268925E-05  0.140E-03    0.79       6.8  T
   6   -214.8952542 -0.267684E-06  0.553E-04    0.79      17.3  T
   7   -214.8952542  0.276341E-08  0.392E-04    0.79      24.4  T
     SCC iter.                  ...        0 min,  0.197 sec
     gradient                   ...        0 min,  0.024 sec
 * total energy  :  -212.6751568 Eh     change       -0.3523059E-03 Eh
   gradient norm :     0.0055530 Eh/α   predicted    -0.2085063E-03 ( -40.82%)
   displ. norm   :     0.3213061 α      lambda       -0.3762144E-03
   maximum displ.:     0.2586161 α      in ANC's #6, #4, #8, ...

........................................................................
.............................. CYCLE   13 ..............................
........................................................................

 iter      E             dE          RMSdq      gap      omega  full diag
   1   -214.8959755 -0.214896E+03  0.346E-02    0.79       0.0  T
   2   -214.8959768 -0.131867E-05  0.205E-02    0.79       1.0  T
   3   -214.8959573  0.195418E-04  0.107E-02    0.79       1.0  T
   4   -214.8959736 -0.162962E-04  0.477E-03    0.78       2.0  T
   5   -214.8959779 -0.430733E-05  0.164E-03    0.79       5.8  T
   6   -214.8959782 -0.358971E-06  0.698E-04    0.79      13.7  T
   7   -214.8959782 -0.140718E-07  0.500E-04    0.79      19.1  T
     SCC iter.                  ...        0 min,  0.192 sec
     gradient                   ...        0 min,  0.027 sec
 * total energy  :  -212.6755063 Eh     change       -0.3495014E-03 Eh
   gradient norm :     0.0040915 Eh/α   predicted    -0.2075283E-03 ( -40.62%)
   displ. norm   :     0.3466117 α      lambda       -0.3890141E-03
   maximum displ.:     0.2742769 α      in ANC's #6, #4, #7, ...

........................................................................
.............................. CYCLE   14 ..............................
........................................................................

 iter      E             dE          RMSdq      gap      omega  full diag
   1   -214.8964559 -0.214896E+03  0.373E-02    0.78       0.0  T
   2   -214.8964577 -0.182610E-05  0.222E-02    0.79       1.0  T
   3   -214.8964345  0.231757E-04  0.120E-02    0.79       1.0  T
   4   -214.8964539 -0.194092E-04  0.524E-03    0.78       1.8  T
   5   -214.8964591 -0.518462E-05  0.188E-03    0.79       5.1  T
   6   -214.8964596 -0.479377E-06  0.788E-04    0.79      12.2  T
   7   -214.8964596 -0.209210E-07  0.561E-04    0.79      17.1  T
     SCC iter.                  ...        0 min,  0.253 sec
     gradient                   ...        0 min,  0.034 sec
 * total energy  :  -212.6758630 Eh     change       -0.3567385E-03 Eh
   gradient norm :     0.0038496 Eh/α   predicted    -0.2178760E-03 ( -38.93%)
   displ. norm   :     0.3711047 α      lambda       -0.3856784E-03
   maximum displ.:     0.2904600 α      in ANC's #6, #4, #7, ...

........................................................................
.............................. CYCLE   15 ..............................
........................................................................

 iter      E             dE          RMSdq      gap      omega  full diag
   1   -214.8963070 -0.214896E+03  0.384E-02    0.78       0.0  T
   2   -214.8963087 -0.172695E-05  0.229E-02    0.78       1.0  T
   3   -214.8962854  0.233145E-04  0.122E-02    0.79       1.0  T
   4   -214.8963055 -0.200467E-04  0.499E-03    0.78       1.9  T
   5   -214.8963102 -0.477226E-05  0.181E-03    0.78       5.3  T
   6   -214.8963107 -0.431049E-06  0.820E-04    0.78      11.7  T
   7   -214.8963107 -0.325933E-07  0.563E-04    0.78      17.0  T
     SCC iter.                  ...        0 min,  0.297 sec
     gradient                   ...        0 min,  0.030 sec
 * total energy  :  -212.6762112 Eh     change       -0.3481859E-03 Eh
   gradient norm :     0.0031150 Eh/α   predicted    -0.2193977E-03 ( -36.99%)
   displ. norm   :     0.3852302 α      lambda       -0.3560950E-03
   maximum displ.:     0.2937480 α      in ANC's #6, #4, #7, ...

........................................................................
.............................. CYCLE   16 ..............................
........................................................................

 iter      E             dE          RMSdq      gap      omega  full diag
   1   -214.8964080 -0.214896E+03  0.383E-02    0.78       0.0  T
   2   -214.8964097 -0.162391E-05  0.228E-02    0.78       1.0  T
   3   -214.8963914  0.182877E-04  0.112E-02    0.78       1.0  T
   4   -214.8964084 -0.170389E-04  0.381E-03    0.78       2.5  T
   5   -214.8964110 -0.255755E-05  0.177E-03    0.78       5.4  T
   6   -214.8964114 -0.445687E-06  0.779E-04    0.78      12.3  T
   7   -214.8964114 -0.142496E-07  0.581E-04    0.78      16.5  T
     SCC iter.                  ...        0 min,  0.220 sec
     gradient                   ...        0 min,  0.029 sec
 * total energy  :  -212.6765293 Eh     change       -0.3181332E-03 Eh
   gradient norm :     0.0035132 Eh/α   predicted    -0.2044724E-03 ( -35.73%)
   displ. norm   :     0.3766380 α      lambda       -0.3113475E-03
   maximum displ.:     0.2842364 α      in ANC's #6, #4, #7, ...

........................................................................
.............................. CYCLE   17 ..............................
........................................................................

 iter      E             dE          RMSdq      gap      omega  full diag
   1   -214.8962786 -0.214896E+03  0.351E-02    0.78       0.0  T
   2   -214.8962795 -0.963345E-06  0.208E-02    0.78       1.0  T
   3   -214.8962685  0.110183E-04  0.904E-03    0.78       1.1  T
   4   -214.8962796 -0.110478E-04  0.237E-03    0.78       4.0  T
   5   -214.8962804 -0.884077E-06  0.119E-03    0.78       8.0  T
   6   -214.8962806 -0.193395E-06  0.534E-04    0.78      17.9  T
   7   -214.8962806  0.152845E-07  0.475E-04    0.78      20.2  T
     SCC iter.                  ...        0 min,  0.213 sec
     gradient                   ...        0 min,  0.026 sec
 * total energy  :  -212.6768067 Eh     change       -0.2773822E-03 Eh
   gradient norm :     0.0039785 Eh/α   predicted    -0.1777578E-03 ( -35.92%)
   displ. norm   :     0.3651741 α      lambda       -0.2709168E-03
   maximum displ.:     0.2693253 α      in ANC's #6, #4, #7, ...

........................................................................
.............................. CYCLE   18 ..............................
........................................................................

 iter      E             dE          RMSdq      gap      omega  full diag
   1   -214.8963957 -0.214896E+03  0.325E-02    0.78       0.0  T
   2   -214.8963966 -0.812295E-06  0.192E-02    0.78       1.0  T
   3   -214.8963872  0.936231E-05  0.845E-03    0.78       1.1  T
   4   -214.8963962 -0.901718E-05  0.269E-03    0.78       3.6  T
   5   -214.8963972 -0.102766E-05  0.123E-03    0.78       7.8  T
   6   -214.8963974 -0.190772E-06  0.578E-04    0.78      16.6  T
   7   -214.8963974 -0.359734E-08  0.422E-04    0.78      22.7  T
     SCC iter.                  ...        0 min,  0.245 sec
     gradient                   ...        0 min,  0.029 sec
 * total energy  :  -212.6770488 Eh     change       -0.2420693E-03 Eh
   gradient norm :     0.0037049 Eh/α   predicted    -0.1535234E-03 ( -36.58%)
   displ. norm   :     0.3667184 α      lambda       -0.2509781E-03
   maximum displ.:     0.2658806 α      in ANC's #6, #4, #7, ...

........................................................................
.............................. CYCLE   19 ..............................
........................................................................

 iter      E             dE          RMSdq      gap      omega  full diag
   1   -214.8966910 -0.214897E+03  0.318E-02    0.78       0.0  T
   2   -214.8966918 -0.713263E-06  0.188E-02    0.78       1.0  T
   3   -214.8966801  0.116929E-04  0.891E-03    0.78       1.1  T
   4   -214.8966904 -0.103669E-04  0.345E-03    0.78       2.8  T
   5   -214.8966924 -0.202554E-05  0.111E-03    0.78       8.6  T
   6   -214.8966926 -0.147340E-06  0.531E-04    0.78      18.0  T
   7   -214.8966926 -0.321251E-08  0.361E-04    0.78      26.5  T
     SCC iter.                  ...        0 min,  0.214 sec
     gradient                   ...        0 min,  0.028 sec
 * total energy  :  -212.6772726 Eh     change       -0.2238564E-03 Eh
   gradient norm :     0.0036743 Eh/α   predicted    -0.1423660E-03 ( -36.40%)
   displ. norm   :     0.3895640 α      lambda       -0.2465213E-03
   maximum displ.:     0.2776174 α      in ANC's #6, #4, #8, ...

........................................................................
.............................. CYCLE   20 ..............................
........................................................................

 iter      E             dE          RMSdq      gap      omega  full diag
   1   -214.8969353 -0.214897E+03  0.333E-02    0.78       0.0  T
   2   -214.8969365 -0.118716E-05  0.197E-02    0.78       1.0  T
   3   -214.8969200  0.164747E-04  0.103E-02    0.78       1.0  T
   4   -214.8969338 -0.137798E-04  0.452E-03    0.78       2.1  T
   5   -214.8969374 -0.362857E-05  0.133E-03    0.78       7.2  T
   6   -214.8969376 -0.231911E-06  0.574E-04    0.78      16.7  T
   7   -214.8969376 -0.877105E-08  0.348E-04    0.78      27.5  T
     SCC iter.                  ...        0 min,  0.202 sec
     gradient                   ...        0 min,  0.026 sec
 * total energy  :  -212.6774894 Eh     change       -0.2167175E-03 Eh
   gradient norm :     0.0030043 Eh/α   predicted    -0.1419673E-03 ( -34.49%)
   displ. norm   :     0.4336367 α      lambda       -0.2453700E-03
   maximum displ.:     0.3023572 α      in ANC's #6, #4, #8, ...
 * RMSD in coord.:     0.5888514 α      energy gain  -0.1680737E-01 Eh

generating ANC from exact Hessian ...
Using Lindh-Hessian (1995)
 Shifting diagonal of input Hessian by   1.008493215389978E-002
 Lowest  eigenvalues of input Hessian
    0.010000    0.010039    0.010041    0.000000    0.000000    0.000000
    0.000000    0.000000    0.000000    0.010217    0.010455    0.010627
    0.011640    0.011960    0.015791    0.016400    0.017166    0.018117
 Highest eigenvalues
    2.155927    2.197518    2.239517    2.261416    2.314744    2.401366
 

........................................................................
.............................. CYCLE   21 ..............................
........................................................................

 iter      E             dE          RMSdq      gap      omega  full diag
   1   -214.8975065 -0.214898E+03  0.380E-02    0.78       0.0  T
   2   -214.8975080 -0.146226E-05  0.224E-02    0.78       1.0  T
   3   -214.8974840  0.239785E-04  0.120E-02    0.77       1.0  T
   4   -214.8975043 -0.203095E-04  0.522E-03    0.78       1.8  T
   5   -214.8975092 -0.494375E-05  0.150E-03    0.78       6.4  T
   6   -214.8975095 -0.283255E-06  0.654E-04    0.78      14.6  T
   7   -214.8975095 -0.141789E-07  0.360E-04    0.78      26.6  T
     SCC iter.                  ...        0 min,  0.198 sec
     gradient                   ...        0 min,  0.025 sec
 * total energy  :  -212.6776980 Eh     change       -0.2086679E-03 Eh
   gradient norm :     0.0028925 Eh/α   predicted     0.0000000E+00 (-100.00%)
   displ. norm   :     0.0560523 α      lambda       -0.5445874E-04
   maximum displ.:     0.0344892 α      in ANC's #8, #6, #9, ...

........................................................................
.............................. CYCLE   22 ..............................
........................................................................

 iter      E             dE          RMSdq      gap      omega  full diag
   1   -214.8979537 -0.214898E+03  0.881E-03    0.78       0.0  T
   2   -214.8979539 -0.179975E-06  0.517E-03    0.78       1.9  T
   3   -214.8979533  0.627101E-06  0.240E-03    0.78       4.0  T
   4   -214.8979538 -0.571248E-06  0.965E-04    0.78       9.9  T
   5   -214.8979540 -0.120315E-06  0.483E-04    0.78      19.8  T
     SCC iter.                  ...        0 min,  0.172 sec
     gradient                   ...        0 min,  0.038 sec
 * total energy  :  -212.6777477 Eh     change       -0.4962238E-04 Eh
   gradient norm :     0.0016379 Eh/α   predicted    -0.2740075E-04 ( -44.78%)
   displ. norm   :     0.3856344 α      lambda       -0.2038641E-03
   maximum displ.:     0.2372787 α      in ANC's #8, #6, #9, ...

........................................................................
.............................. CYCLE   23 ..............................
........................................................................

 iter      E             dE          RMSdq      gap      omega  full diag
   1   -214.8986675 -0.214899E+03  0.582E-02    0.78       0.0  T
   2   -214.8986737 -0.620471E-05  0.342E-02    0.78       1.0  T
   3   -214.8986447  0.290230E-04  0.154E-02    0.78       1.0  T
   4   -214.8986715 -0.268360E-04  0.599E-03    0.78       1.6  T
   5   -214.8986762 -0.462315E-05  0.302E-03    0.78       3.2  T
   6   -214.8986774 -0.127508E-05  0.138E-03    0.78       6.9  T
   7   -214.8986774 -0.976985E-08  0.102E-03    0.78       9.4  T
   8   -214.8986776 -0.176597E-06  0.318E-04    0.78      30.2  T
   9   -214.8986776 -0.137304E-07  0.133E-04    0.78      72.0  T
     SCC iter.                  ...        0 min,  0.257 sec
     gradient                   ...        0 min,  0.026 sec
 * total energy  :  -212.6779255 Eh     change       -0.1778626E-03 Eh
   gradient norm :     0.0061959 Eh/α   predicted    -0.1086693E-03 ( -38.90%)
   displ. norm   :     0.1231740 α      lambda       -0.6926707E-04
   maximum displ.:     0.0757584 α      in ANC's #8, #6, #2, ...

........................................................................
.............................. CYCLE   24 ..............................
........................................................................

 iter      E             dE          RMSdq      gap      omega  full diag
   1   -214.8987225 -0.214899E+03  0.153E-02    0.78       0.0  T
   2   -214.8987231 -0.642106E-06  0.903E-03    0.78       1.1  T
   3   -214.8987215  0.162665E-05  0.376E-03    0.78       2.5  T
   4   -214.8987229 -0.141991E-05  0.160E-03    0.78       6.0  T
   5   -214.8987233 -0.388405E-06  0.707E-04    0.78      13.5  T
   6   -214.8987234 -0.698349E-07  0.315E-04    0.78      30.4  T
     SCC iter.                  ...        0 min,  0.173 sec
     gradient                   ...        0 min,  0.026 sec
 * total energy  :  -212.6779856 Eh     change       -0.6009075E-04 Eh
   gradient norm :     0.0042299 Eh/α   predicted    -0.3516432E-04 ( -41.48%)
   displ. norm   :     0.2212727 α      lambda       -0.1235408E-03
   maximum displ.:     0.1348026 α      in ANC's #8, #6, #2, ...

........................................................................
.............................. CYCLE   25 ..............................
........................................................................

 iter      E             dE          RMSdq      gap      omega  full diag
   1   -214.8987059 -0.214899E+03  0.257E-02    0.78       0.0  T
   2   -214.8987075 -0.154042E-05  0.152E-02    0.78       1.0  T
   3   -214.8987018  0.562925E-05  0.668E-03    0.78       1.4  T
   4   -214.8987063 -0.447953E-05  0.316E-03    0.78       3.0  T
   5   -214.8987080 -0.167371E-05  0.116E-03    0.78       8.2  T
   6   -214.8987082 -0.164090E-06  0.579E-04    0.78      16.5  T
   7   -214.8987082 -0.722841E-08  0.431E-04    0.78      22.2  T
     SCC iter.                  ...        0 min,  0.201 sec
     gradient                   ...        0 min,  0.029 sec
 * total energy  :  -212.6780844 Eh     change       -0.9876929E-04 Eh
   gradient norm :     0.0018633 Eh/α   predicted    -0.6479511E-04 ( -34.40%)
   displ. norm   :     0.4226929 α      lambda       -0.1098579E-03
   maximum displ.:     0.2581125 α      in ANC's #8, #6, #2, ...

........................................................................
.............................. CYCLE   26 ..............................
........................................................................

 iter      E             dE          RMSdq      gap      omega  full diag
   1   -214.8977892 -0.214898E+03  0.475E-02    0.78       0.0  T
   2   -214.8977917 -0.249416E-05  0.280E-02    0.78       1.0  T
   3   -214.8977734  0.183125E-04  0.107E-02    0.78       1.0  T
   4   -214.8977897 -0.162750E-04  0.437E-03    0.78       2.2  T
   5   -214.8977930 -0.334396E-05  0.156E-03    0.78       6.1  T
   6   -214.8977932 -0.168401E-06  0.948E-04    0.78      10.1  T
   7   -214.8977932 -0.113703E-07  0.711E-04    0.78      13.5  T
     SCC iter.                  ...        0 min,  0.208 sec
     gradient                   ...        0 min,  0.025 sec
 * total energy  :  -212.6782017 Eh     change       -0.1173251E-03 Eh
   gradient norm :     0.0045575 Eh/α   predicted    -0.5929372E-04 ( -49.46%)
   displ. norm   :     0.2181503 α      lambda       -0.7293327E-04
   maximum displ.:     0.1316470 α      in ANC's #8, #6, #2, ...

........................................................................
.............................. CYCLE   27 ..............................
........................................................................

 iter      E             dE          RMSdq      gap      omega  full diag
   1   -214.8980606 -0.214898E+03  0.249E-02    0.78       0.0  T
   2   -214.8980611 -0.543261E-06  0.147E-02    0.78       1.0  T
   3   -214.8980557  0.541111E-05  0.579E-03    0.78       1.7  T
   4   -214.8980608 -0.513835E-05  0.198E-03    0.78       4.8  T
   5   -214.8980615 -0.655154E-06  0.851E-04    0.78      11.3  T
   6   -214.8980616 -0.753476E-07  0.376E-04    0.78      25.5  T
     SCC iter.                  ...        0 min,  0.201 sec
     gradient                   ...        0 min,  0.027 sec
 * total energy  :  -212.6782669 Eh     change       -0.6518068E-04 Eh
   gradient norm :     0.0039579 Eh/α   predicted    -0.3820594E-04 ( -41.38%)
   displ. norm   :     0.3817184 α      lambda       -0.1282218E-03
   maximum displ.:     0.2242275 α      in ANC's #8, #6, #2, ...

........................................................................
.............................. CYCLE   28 ..............................
........................................................................

 iter      E             dE          RMSdq      gap      omega  full diag
   1   -214.8987425 -0.214899E+03  0.432E-02    0.78       0.0  T
   2   -214.8987448 -0.230330E-05  0.254E-02    0.78       1.0  T
   3   -214.8987316  0.132457E-04  0.994E-03    0.78       1.0  T
   4   -214.8987440 -0.124078E-04  0.369E-03    0.78       2.6  T
   5   -214.8987457 -0.171990E-05  0.211E-03    0.78       4.5  T
   6   -214.8987463 -0.602710E-06  0.841E-04    0.78      11.4  T
   7   -214.8987463 -0.171838E-08  0.618E-04    0.78      15.5  T
     SCC iter.                  ...        0 min,  0.259 sec
     gradient                   ...        0 min,  0.034 sec
 * total energy  :  -212.6783684 Eh     change       -0.1015245E-03 Eh
   gradient norm :     0.0020429 Eh/α   predicted    -0.7345290E-04 ( -27.65%)
   displ. norm   :     0.4238825 α      lambda       -0.9934691E-04
   maximum displ.:     0.2474968 α      in ANC's #6, #8, #2, ...

........................................................................
.............................. CYCLE   29 ..............................
........................................................................

 iter      E             dE          RMSdq      gap      omega  full diag
   1   -214.8989005 -0.214899E+03  0.489E-02    0.78       0.0  T
   2   -214.8989031 -0.259917E-05  0.289E-02    0.78       1.0  T
   3   -214.8988870  0.161353E-04  0.109E-02    0.78       1.0  T
   4   -214.8989029 -0.159328E-04  0.353E-03    0.78       2.7  T
   5   -214.8989043 -0.136253E-05  0.217E-03    0.78       4.4  T
   6   -214.8989049 -0.592581E-06  0.970E-04    0.78       9.9  T
   7   -214.8989049 -0.239859E-07  0.674E-04    0.78      14.2  T
     SCC iter.                  ...        0 min,  0.266 sec
     gradient                   ...        0 min,  0.025 sec
 * total energy  :  -212.6784403 Eh     change       -0.7191376E-04 Eh
   gradient norm :     0.0019350 Eh/α   predicted    -0.5860024E-04 ( -18.51%)
   displ. norm   :     0.4428302 α      lambda       -0.5206590E-04
   maximum displ.:     0.2581714 α      in ANC's #6, #8, #2, ...

........................................................................
.............................. CYCLE   30 ..............................
........................................................................

 iter      E             dE          RMSdq      gap      omega  full diag
   1   -214.8995267 -0.214900E+03  0.509E-02    0.78       0.0  T
   2   -214.8995293 -0.262064E-05  0.301E-02    0.78       1.0  T
   3   -214.8995132  0.161344E-04  0.104E-02    0.78       1.0  T
   4   -214.8995277 -0.144783E-04  0.423E-03    0.78       2.3  T
   5   -214.8995301 -0.244764E-05  0.239E-03    0.78       4.0  T
   6   -214.8995309 -0.814316E-06  0.970E-04    0.78       9.9  T
   7   -214.8995310 -0.442251E-07  0.529E-04    0.78      18.1  T
     SCC iter.                  ...        0 min,  0.251 sec
     gradient                   ...        0 min,  0.025 sec
 * total energy  :  -212.6784935 Eh     change       -0.5316814E-04 Eh
   gradient norm :     0.0023972 Eh/α   predicted    -0.2830663E-04 ( -46.76%)
   displ. norm   :     0.1517591 α      lambda       -0.3470526E-04
   maximum displ.:     0.0866784 α      in ANC's #6, #2, #8, ...

........................................................................
.............................. CYCLE   31 ..............................
........................................................................

 iter      E             dE          RMSdq      gap      omega  full diag
   1   -214.9002789 -0.214900E+03  0.201E-02    0.78       0.0  T
   2   -214.9002792 -0.329327E-06  0.120E-02    0.78       1.0  T
   3   -214.9002749  0.431588E-05  0.499E-03    0.78       1.9  T
   4   -214.9002790 -0.403228E-05  0.174E-03    0.78       5.5  T
   5   -214.9002795 -0.550528E-06  0.631E-04    0.78      15.2  T
   6   -214.9002795 -0.358657E-07  0.348E-04    0.78      27.5  T
     SCC iter.                  ...        0 min,  0.210 sec
     gradient                   ...        0 min,  0.027 sec
 * total energy  :  -212.6785232 Eh     change       -0.2975297E-04 Eh
   gradient norm :     0.0018148 Eh/α   predicted    -0.1775846E-04 ( -40.31%)
   displ. norm   :     0.3205242 α      lambda       -0.5864528E-04
   maximum displ.:     0.1725996 α      in ANC's #6, #2, #3, ...

........................................................................
.............................. CYCLE   32 ..............................
........................................................................

 iter      E             dE          RMSdq      gap      omega  full diag
   1   -214.9011111 -0.214901E+03  0.445E-02    0.78       0.0  T
   2   -214.9011131 -0.203427E-05  0.265E-02    0.78       1.0  T
   3   -214.9010835  0.296683E-04  0.134E-02    0.78       1.0  T
   4   -214.9011108 -0.272973E-04  0.472E-03    0.78       2.0  T
   5   -214.9011150 -0.426108E-05  0.166E-03    0.78       5.8  T
   6   -214.9011153 -0.286197E-06  0.884E-04    0.78      10.8  T
   7   -214.9011153 -0.226547E-08  0.721E-04    0.78      13.3  T
     SCC iter.                  ...        0 min,  0.209 sec
     gradient                   ...        0 min,  0.026 sec
 * total energy  :  -212.6785825 Eh     change       -0.5922766E-04 Eh
   gradient norm :     0.0022994 Eh/α   predicted    -0.3066543E-04 ( -48.22%)
   displ. norm   :     0.1589858 α      lambda       -0.3139487E-04
   maximum displ.:     0.0847582 α      in ANC's #2, #6, #3, ...

........................................................................
.............................. CYCLE   33 ..............................
........................................................................

 iter      E             dE          RMSdq      gap      omega  full diag
   1   -214.9003565 -0.214900E+03  0.216E-02    0.78       0.0  T
   2   -214.9003570 -0.437077E-06  0.129E-02    0.78       1.0  T
   3   -214.9003532  0.375377E-05  0.492E-03    0.78       1.9  T
   4   -214.9003565 -0.324712E-05  0.209E-03    0.78       4.6  T
   5   -214.9003572 -0.738240E-06  0.738E-04    0.78      13.0  T
   6   -214.9003572 -0.380969E-07  0.472E-04    0.78      20.3  T
     SCC iter.                  ...        0 min,  0.192 sec
     gradient                   ...        0 min,  0.026 sec
 * total energy  :  -212.6786094 Eh     change       -0.2693895E-04 Eh
   gradient norm :     0.0018990 Eh/α   predicted    -0.1609890E-04 ( -40.24%)
   displ. norm   :     0.3126395 α      lambda       -0.4507692E-04
   maximum displ.:     0.1751711 α      in ANC's #2, #6, #3, ...

........................................................................
.............................. CYCLE   34 ..............................
........................................................................

 iter      E             dE          RMSdq      gap      omega  full diag
   1   -214.8992738 -0.214899E+03  0.420E-02    0.78       0.0  T
   2   -214.8992754 -0.157622E-05  0.251E-02    0.77       1.0  T
   3   -214.8992635  0.119290E-04  0.914E-03    0.78       1.0  T
   4   -214.8992738 -0.103327E-04  0.399E-03    0.78       2.4  T
   5   -214.8992760 -0.224337E-05  0.172E-03    0.77       5.6  T
   6   -214.8992764 -0.328120E-06  0.918E-04    0.78      10.4  T
   7   -214.8992764 -0.572104E-07  0.536E-04    0.77      17.9  T
     SCC iter.                  ...        0 min,  0.214 sec
     gradient                   ...        0 min,  0.027 sec
 * total energy  :  -212.6786619 Eh     change       -0.5252464E-04 Eh
   gradient norm :     0.0019606 Eh/α   predicted    -0.2352077E-04 ( -55.22%)
   displ. norm   :     0.2968310 α      lambda       -0.4102975E-04
   maximum displ.:     0.1727668 α      in ANC's #2, #3, #6, ...

........................................................................
.............................. CYCLE   35 ..............................
........................................................................

 iter      E             dE          RMSdq      gap      omega  full diag
   1   -214.8988518 -0.214899E+03  0.394E-02    0.78       0.0  T
   2   -214.8988530 -0.118513E-05  0.236E-02    0.77       1.0  T
   3   -214.8988467  0.637054E-05  0.678E-03    0.77       1.4  T
   4   -214.8988521 -0.544964E-05  0.317E-03    0.77       3.0  T
   5   -214.8988533 -0.121926E-05  0.158E-03    0.77       6.0  T
   6   -214.8988536 -0.308463E-06  0.759E-04    0.77      12.6  T
   7   -214.8988537 -0.548472E-07  0.337E-04    0.77      28.4  T
     SCC iter.                  ...        0 min,  0.202 sec
     gradient                   ...        0 min,  0.029 sec
 * total energy  :  -212.6787145 Eh     change       -0.5253430E-04 Eh
   gradient norm :     0.0021871 Eh/α   predicted    -0.2131839E-04 ( -59.42%)
   displ. norm   :     0.2247021 α      lambda       -0.5289306E-04
   maximum displ.:     0.1341959 α      in ANC's #2, #3, #4, ...

........................................................................
.............................. CYCLE   36 ..............................
........................................................................

 iter      E             dE          RMSdq      gap      omega  full diag
   1   -214.8989642 -0.214899E+03  0.301E-02    0.77       0.0  T
   2   -214.8989648 -0.596806E-06  0.181E-02    0.77       1.0  T
   3   -214.8989610  0.379825E-05  0.492E-03    0.77       1.9  T
   4   -214.8989642 -0.326201E-05  0.225E-03    0.77       4.3  T
   5   -214.8989649 -0.689379E-06  0.120E-03    0.77       8.0  T
   6   -214.8989651 -0.176484E-06  0.583E-04    0.77      16.4  T
   7   -214.8989651 -0.274317E-07  0.324E-04    0.77      29.6  T
     SCC iter.                  ...        0 min,  0.215 sec
     gradient                   ...        0 min,  0.026 sec
 * total energy  :  -212.6787627 Eh     change       -0.4819802E-04 Eh
   gradient norm :     0.0020092 Eh/α   predicted    -0.2778328E-04 ( -42.36%)
   displ. norm   :     0.3244266 α      lambda       -0.8156470E-04
   maximum displ.:     0.1962331 α      in ANC's #2, #3, #4, ...

........................................................................
.............................. CYCLE   37 ..............................
........................................................................

 iter      E             dE          RMSdq      gap      omega  full diag
   1   -214.8992127 -0.214899E+03  0.444E-02    0.77       0.0  T
   2   -214.8992138 -0.107421E-05  0.267E-02    0.77       1.0  T
   3   -214.8991975  0.162575E-04  0.938E-03    0.77       1.0  T
   4   -214.8992124 -0.149550E-04  0.352E-03    0.77       2.7  T
   5   -214.8992145 -0.207771E-05  0.160E-03    0.77       6.0  T
   6   -214.8992147 -0.197494E-06  0.968E-04    0.77       9.9  T
   7   -214.8992148 -0.764760E-07  0.601E-04    0.77      15.9  T
     SCC iter.                  ...        0 min,  0.194 sec
     gradient                   ...        0 min,  0.026 sec
 * total energy  :  -212.6788345 Eh     change       -0.7179692E-04 Eh
   gradient norm :     0.0019555 Eh/α   predicted    -0.4507709E-04 ( -37.22%)
   displ. norm   :     0.5913886 α      lambda       -0.9236285E-04
   maximum displ.:     0.3614130 α      in ANC's #2, #3, #4, ...

........................................................................
.............................. CYCLE   38 ..............................
........................................................................

 iter      E             dE          RMSdq      gap      omega  full diag
   1   -214.8992329 -0.214899E+03  0.823E-02    0.77       0.0  T
   2   -214.8992363 -0.346522E-05  0.494E-02    0.77       1.0  T
   3   -214.8991770  0.593518E-04  0.180E-02    0.77       1.0  T
   4   -214.8992333 -0.562747E-04  0.613E-03    0.77       1.6  T
   5   -214.8992394 -0.614756E-05  0.275E-03    0.77       3.5  T
   6   -214.8992400 -0.625017E-06  0.145E-03    0.77       6.6  T
   7   -214.8992401 -0.607959E-07  0.108E-03    0.77       8.8  T
   8   -214.8992403 -0.210029E-06  0.288E-04    0.77      33.3  T
   9   -214.8992403 -0.785207E-08  0.145E-04    0.77      66.0  T
     SCC iter.                  ...        0 min,  0.240 sec
     gradient                   ...        0 min,  0.027 sec
 * total energy  :  -212.6789485 Eh     change       -0.1140626E-03 Eh
   gradient norm :     0.0028317 Eh/α   predicted    -0.5336094E-04 ( -53.22%)
   displ. norm   :     0.3393121 α      lambda       -0.7813421E-04
   maximum displ.:     0.2101447 α      in ANC's #2, #3, #4, ...

........................................................................
.............................. CYCLE   39 ..............................
........................................................................

 iter      E             dE          RMSdq      gap      omega  full diag
   1   -214.8994852 -0.214899E+03  0.480E-02    0.77       0.0  T
   2   -214.8994864 -0.122883E-05  0.288E-02    0.77       1.0  T
   3   -214.8994687  0.176390E-04  0.102E-02    0.77       1.0  T
   4   -214.8994854 -0.166547E-04  0.358E-03    0.77       2.7  T
   5   -214.8994873 -0.187702E-05  0.167E-03    0.77       5.7  T
   6   -214.8994875 -0.205381E-06  0.960E-04    0.77      10.0  T
   7   -214.8994875 -0.524952E-07  0.635E-04    0.77      15.1  T
     SCC iter.                  ...        0 min,  0.182 sec
     gradient                   ...        0 min,  0.025 sec
 * total energy  :  -212.6790227 Eh     change       -0.7418621E-04 Eh
   gradient norm :     0.0029774 Eh/α   predicted    -0.4356829E-04 ( -41.27%)
   displ. norm   :     0.3855914 α      lambda       -0.1126332E-03
   maximum displ.:     0.2399022 α      in ANC's #2, #3, #4, ...

........................................................................
.............................. CYCLE   40 ..............................
........................................................................

 iter      E             dE          RMSdq      gap      omega  full diag
   1   -214.9002786 -0.214900E+03  0.561E-02    0.77       0.0  T
   2   -214.9002804 -0.182348E-05  0.336E-02    0.77       1.0  T
   3   -214.9002535  0.269484E-04  0.128E-02    0.77       1.0  T
   4   -214.9002783 -0.248576E-04  0.477E-03    0.77       2.0  T
   5   -214.9002815 -0.321427E-05  0.220E-03    0.77       4.3  T
   6   -214.9002820 -0.424736E-06  0.131E-03    0.77       7.3  T
   7   -214.9002821 -0.151772E-06  0.733E-04    0.77      13.1  T
   8   -214.9002822 -0.990451E-07  0.192E-04    0.77      49.8  T
     SCC iter.                  ...        0 min,  0.249 sec
     gradient                   ...        0 min,  0.026 sec
 * total energy  :  -212.6791299 Eh     change       -0.1071682E-03 Eh
   gradient norm :     0.0027681 Eh/α   predicted    -0.6469131E-04 ( -39.64%)
   displ. norm   :     0.5387983 α      lambda       -0.1693355E-03
   maximum displ.:     0.3353894 α      in ANC's #2, #3, #4, ...

........................................................................
.............................. CYCLE   41 ..............................
........................................................................

 iter      E             dE          RMSdq      gap      omega  full diag
   1   -214.9006557 -0.214901E+03  0.795E-02    0.78       0.0  T
   2   -214.9006595 -0.378660E-05  0.475E-02    0.77       1.0  T
   3   -214.9006013  0.582066E-04  0.190E-02    0.78       1.0  T
   4   -214.9006540 -0.526824E-04  0.733E-03    0.77       1.3  T
   5   -214.9006616 -0.765491E-05  0.334E-03    0.78       2.9  T
   6   -214.9006628 -0.123644E-05  0.178E-03    0.78       5.4  T
   7   -214.9006631 -0.235290E-06  0.100E-03    0.78       9.6  T
   8   -214.9006633 -0.181767E-06  0.279E-04    0.78      34.4  T
   9   -214.9006633 -0.778050E-08  0.145E-04    0.78      66.0  T
     SCC iter.                  ...        0 min,  0.253 sec
     gradient                   ...        0 min,  0.027 sec
 * total energy  :  -212.6792892 Eh     change       -0.1593147E-03 Eh
   gradient norm :     0.0024517 Eh/α   predicted    -0.1092488E-03 ( -31.43%)
   displ. norm   :     0.6628746 α      lambda       -0.2075621E-03
   maximum displ.:     0.4127700 α      in ANC's #2, #3, #4, ...

........................................................................
.............................. CYCLE   42 ..............................
........................................................................

 iter      E             dE          RMSdq      gap      omega  full diag
   1   -214.9002897 -0.214900E+03  0.985E-02    0.78       0.0  T
   2   -214.9002954 -0.568626E-05  0.588E-02    0.78       1.0  T
   3   -214.9001994  0.959768E-04  0.243E-02    0.78       1.0  T
   4   -214.9002857 -0.862153E-04  0.947E-03    0.77       1.0  T
   5   -214.9002988 -0.131782E-04  0.413E-03    0.78       2.3  T
   6   -214.9003008 -0.194925E-05  0.216E-03    0.78       4.4  T
   7   -214.9003011 -0.319745E-06  0.121E-03    0.78       7.9  T
   8   -214.9003014 -0.262341E-06  0.341E-04    0.78      28.1  T
   9   -214.9003014 -0.117371E-07  0.179E-04    0.78      53.4  T
     SCC iter.                  ...        0 min,  0.269 sec
     gradient                   ...        0 min,  0.031 sec
 * total energy  :  -212.6794836 Eh     change       -0.1944021E-03 Eh
   gradient norm :     0.0026427 Eh/α   predicted    -0.1493875E-03 ( -23.16%)
   displ. norm   :     0.7280899 α      lambda       -0.2265541E-03
   maximum displ.:     0.4533572 α      in ANC's #2, #3, #4, ...
 * RMSD in coord.:     0.5370890 α      energy gain  -0.1994232E-02 Eh

generating ANC from exact Hessian ...
Using Lindh-Hessian (1995)
 Shifting diagonal of input Hessian by   1.008666839095124E-002
 Lowest  eigenvalues of input Hessian
    0.010000    0.010036    0.000000    0.010073    0.000000    0.000000
    0.000000    0.000000    0.000000    0.010247    0.010518    0.010879
    0.011763    0.012094    0.016075    0.016508    0.017310    0.018177
 Highest eigenvalues
    2.156147    2.196432    2.238639    2.258879    2.312563    2.399906
 

........................................................................
.............................. CYCLE   43 ..............................
........................................................................

 iter      E             dE          RMSdq      gap      omega  full diag
   1   -214.8996315 -0.214900E+03  0.108E-01    0.78       0.0  T
   2   -214.8996383 -0.678317E-05  0.648E-02    0.78       1.0  T
   3   -214.8995279  0.110362E-03  0.259E-02    0.78       1.0  T
   4   -214.8996265 -0.985550E-04  0.103E-02    0.78       1.0  T
   5   -214.8996421 -0.156485E-04  0.451E-03    0.78       2.1  T
   6   -214.8996445 -0.234355E-05  0.232E-03    0.78       4.1  T
   7   -214.8996449 -0.369882E-06  0.126E-03    0.78       7.6  T
   8   -214.8996451 -0.281400E-06  0.372E-04    0.78      25.8  T
   9   -214.8996451 -0.141407E-07  0.197E-04    0.78      48.7  T
     SCC iter.                  ...        0 min,  0.271 sec
     gradient                   ...        0 min,  0.028 sec
 * total energy  :  -212.6796967 Eh     change       -0.2131411E-03 Eh
   gradient norm :     0.0032492 Eh/α   predicted     0.0000000E+00 (-100.00%)
   displ. norm   :     0.0465634 α      lambda       -0.4873273E-04
   maximum displ.:     0.0262674 α      in ANC's #3, #10, #4, ...

........................................................................
.............................. CYCLE   44 ..............................
........................................................................

 iter      E             dE          RMSdq      gap      omega  full diag
   1   -214.9012058 -0.214901E+03  0.103E-02    0.78       0.0  T
   2   -214.9012060 -0.171262E-06  0.605E-03    0.78       1.6  T
   3   -214.9012033  0.266766E-05  0.431E-03    0.78       2.2  T
   4   -214.9012056 -0.227341E-05  0.190E-03    0.78       5.0  T
   5   -214.9012062 -0.628613E-06  0.552E-04    0.78      17.4  T
   6   -214.9012063 -0.333480E-07  0.305E-04    0.78      31.5  T
     SCC iter.                  ...        0 min,  0.186 sec
     gradient                   ...        0 min,  0.027 sec
 * total energy  :  -212.6797401 Eh     change       -0.4341044E-04 Eh
   gradient norm :     0.0020110 Eh/α   predicted    -0.2473551E-04 ( -43.02%)
   displ. norm   :     0.1831542 α      lambda       -0.1407141E-03
   maximum displ.:     0.1026078 α      in ANC's #3, #4, #10, ...

........................................................................
.............................. CYCLE   45 ..............................
........................................................................

 iter      E             dE          RMSdq      gap      omega  full diag
   1   -214.9039107 -0.214904E+03  0.379E-02    0.78       0.0  T
   2   -214.9039125 -0.180399E-05  0.224E-02    0.78       1.0  T
   3   -214.9038822  0.303186E-04  0.141E-02    0.77       1.0  T
   4   -214.9039089 -0.267109E-04  0.582E-03    0.78       1.6  T
   5   -214.9039145 -0.567889E-05  0.190E-03    0.78       5.1  T
   6   -214.9039149 -0.394371E-06  0.105E-03    0.78       9.1  T
   7   -214.9039150 -0.687859E-07  0.637E-04    0.78      15.0  T
   8   -214.9039151 -0.662251E-07  0.205E-04    0.78      46.8  T
     SCC iter.                  ...        0 min,  0.220 sec
     gradient                   ...        0 min,  0.027 sec
 * total energy  :  -212.6798321 Eh     change       -0.9196419E-04 Eh
   gradient norm :     0.0022439 Eh/α   predicted    -0.7272076E-04 ( -20.92%)
   displ. norm   :     0.1254659 α      lambda       -0.4658811E-04
   maximum displ.:     0.0764805 α      in ANC's #3, #4, #10, ...

........................................................................
.............................. CYCLE   46 ..............................
........................................................................

 iter      E             dE          RMSdq      gap      omega  full diag
   1   -214.9037370 -0.214904E+03  0.227E-02    0.78       0.0  T
   2   -214.9037375 -0.517807E-06  0.134E-02    0.78       1.0  T
   3   -214.9037296  0.786749E-05  0.718E-03    0.78       1.3  T
   4   -214.9037370 -0.732929E-05  0.259E-03    0.78       3.7  T
   5   -214.9037379 -0.979616E-06  0.112E-03    0.78       8.5  T
   6   -214.9037381 -0.149895E-06  0.607E-04    0.78      15.8  T
   7   -214.9037381 -0.203690E-07  0.378E-04    0.78      25.4  T
     SCC iter.                  ...        0 min,  0.182 sec
     gradient                   ...        0 min,  0.027 sec
 * total energy  :  -212.6798693 Eh     change       -0.3715147E-04 Eh
   gradient norm :     0.0027161 Eh/α   predicted    -0.2375186E-04 ( -36.07%)
   displ. norm   :     0.1422705 α      lambda       -0.5277100E-04
   maximum displ.:     0.0892760 α      in ANC's #3, #4, #14, ...

........................................................................
.............................. CYCLE   47 ..............................
........................................................................

 iter      E             dE          RMSdq      gap      omega  full diag
   1   -214.9024390 -0.214902E+03  0.227E-02    0.78       0.0  T
   2   -214.9024396 -0.608955E-06  0.134E-02    0.77       1.0  T
   3   -214.9024331  0.645332E-05  0.676E-03    0.78       1.4  T
   4   -214.9024393 -0.615009E-05  0.233E-03    0.78       4.1  T
   5   -214.9024400 -0.759293E-06  0.105E-03    0.77       9.1  T
   6   -214.9024402 -0.128834E-06  0.577E-04    0.77      16.6  T
   7   -214.9024402 -0.126859E-07  0.383E-04    0.77      25.0  T
     SCC iter.                  ...        0 min,  0.181 sec
     gradient                   ...        0 min,  0.026 sec
 * total energy  :  -212.6799145 Eh     change       -0.4526852E-04 Eh
   gradient norm :     0.0021936 Eh/α   predicted    -0.2691977E-04 ( -40.53%)
   displ. norm   :     0.1972952 α      lambda       -0.7242397E-04
   maximum displ.:     0.1250819 α      in ANC's #3, #4, #14, ...

........................................................................
.............................. CYCLE   48 ..............................
........................................................................

 iter      E             dE          RMSdq      gap      omega  full diag
   1   -214.9005980 -0.214901E+03  0.278E-02    0.78       0.0  T
   2   -214.9005991 -0.112979E-05  0.164E-02    0.77       1.0  T
   3   -214.9005902  0.889488E-05  0.818E-03    0.78       1.2  T
   4   -214.9005988 -0.858457E-05  0.269E-03    0.77       3.6  T
   5   -214.9006000 -0.112579E-05  0.112E-03    0.77       8.6  T
   6   -214.9006001 -0.155115E-06  0.548E-04    0.77      17.5  T
   7   -214.9006001 -0.129792E-07  0.318E-04    0.77      30.1  T
     SCC iter.                  ...        0 min,  0.224 sec
     gradient                   ...        0 min,  0.028 sec
 * total energy  :  -212.6799757 Eh     change       -0.6118825E-04 Eh
   gradient norm :     0.0016966 Eh/α   predicted    -0.3762321E-04 ( -38.51%)
   displ. norm   :     0.3747998 α      lambda       -0.8063889E-04
   maximum displ.:     0.2383991 α      in ANC's #3, #4, #2, ...

........................................................................
.............................. CYCLE   49 ..............................
........................................................................

 iter      E             dE          RMSdq      gap      omega  full diag
   1   -214.8984491 -0.214898E+03  0.480E-02    0.77       0.0  T
   2   -214.8984524 -0.337865E-05  0.285E-02    0.77       1.0  T
   3   -214.8984312  0.212532E-04  0.126E-02    0.77       1.0  T
   4   -214.8984514 -0.202142E-04  0.430E-03    0.77       2.2  T
   5   -214.8984544 -0.297169E-05  0.182E-03    0.77       5.3  T
   6   -214.8984548 -0.418605E-06  0.873E-04    0.77      11.0  T
   7   -214.8984548 -0.412429E-07  0.508E-04    0.77      18.9  T
     SCC iter.                  ...        0 min,  0.212 sec
     gradient                   ...        0 min,  0.026 sec
 * total energy  :  -212.6800697 Eh     change       -0.9403183E-04 Eh
   gradient norm :     0.0030617 Eh/α   predicted    -0.4283850E-04 ( -54.44%)
   displ. norm   :     0.2209771 α      lambda       -0.6775869E-04
   maximum displ.:     0.1417538 α      in ANC's #3, #4, #2, ...

........................................................................
.............................. CYCLE   50 ..............................
........................................................................

 iter      E             dE          RMSdq      gap      omega  full diag
   1   -214.8989010 -0.214899E+03  0.250E-02    0.77       0.0  T
   2   -214.8989019 -0.826005E-06  0.149E-02    0.77       1.0  T
   3   -214.8988967  0.514348E-05  0.598E-03    0.77       1.6  T
   4   -214.8989009 -0.418605E-05  0.284E-03    0.77       3.4  T
   5   -214.8989022 -0.130955E-05  0.105E-03    0.77       9.2  T
   6   -214.8989023 -0.127090E-06  0.537E-04    0.77      17.8  T
   7   -214.8989024 -0.830602E-08  0.367E-04    0.77      26.1  T
     SCC iter.                  ...        0 min,  0.199 sec
     gradient                   ...        0 min,  0.028 sec
 * total energy  :  -212.6801325 Eh     change       -0.6273397E-04 Eh
   gradient norm :     0.0031141 Eh/α   predicted    -0.3553544E-04 ( -43.36%)
   displ. norm   :     0.3334202 α      lambda       -0.1148936E-03
   maximum displ.:     0.2122541 α      in ANC's #3, #4, #2, ...

........................................................................
.............................. CYCLE   51 ..............................
........................................................................

 iter      E             dE          RMSdq      gap      omega  full diag
   1   -214.9004477 -0.214900E+03  0.362E-02    0.77       0.0  T
   2   -214.9004496 -0.180413E-05  0.215E-02    0.77       1.0  T
   3   -214.9004444  0.512251E-05  0.647E-03    0.77       1.5  T
   4   -214.9004499 -0.551657E-05  0.185E-03    0.77       5.2  T
   5   -214.9004503 -0.310769E-06  0.103E-03    0.77       9.3  T
   6   -214.9004503 -0.580886E-08  0.862E-04    0.77      11.1  T
   7   -214.9004504 -0.105688E-06  0.308E-04    0.77      31.0  T
     SCC iter.                  ...        0 min,  0.196 sec
     gradient                   ...        0 min,  0.028 sec
 * total energy  :  -212.6802365 Eh     change       -0.1040247E-03 Eh
   gradient norm :     0.0026152 Eh/α   predicted    -0.6383545E-04 ( -38.63%)
   displ. norm   :     0.4797038 α      lambda       -0.1560059E-03
   maximum displ.:     0.3048288 α      in ANC's #3, #4, #2, ...

........................................................................
.............................. CYCLE   52 ..............................
........................................................................

 iter      E             dE          RMSdq      gap      omega  full diag
   1   -214.9020059 -0.214902E+03  0.496E-02    0.77       0.0  T
   2   -214.9020090 -0.310254E-05  0.295E-02    0.77       1.0  T
   3   -214.9019979  0.110726E-04  0.929E-03    0.77       1.0  T
   4   -214.9020092 -0.113388E-04  0.306E-03    0.77       3.1  T
   5   -214.9020101 -0.915038E-06  0.176E-03    0.77       5.4  T
   6   -214.9020104 -0.263855E-06  0.109E-03    0.77       8.8  T
   7   -214.9020105 -0.115563E-06  0.530E-04    0.77      18.1  T
   8   -214.9020106 -0.445522E-07  0.202E-04    0.77      47.3  T
     SCC iter.                  ...        0 min,  0.230 sec
     gradient                   ...        0 min,  0.029 sec
 * total energy  :  -212.6803756 Eh     change       -0.1391327E-03 Eh
   gradient norm :     0.0023125 Eh/α   predicted    -0.9595629E-04 ( -31.03%)
   displ. norm   :     0.5476127 α      lambda       -0.1663007E-03
   maximum displ.:     0.3492592 α      in ANC's #3, #4, #2, ...

........................................................................
.............................. CYCLE   53 ..............................
........................................................................

 iter      E             dE          RMSdq      gap      omega  full diag
   1   -214.9032739 -0.214903E+03  0.558E-02    0.77       0.0  T
   2   -214.9032772 -0.326262E-05  0.333E-02    0.77       1.0  T
   3   -214.9032545  0.226718E-04  0.124E-02    0.77       1.0  T
   4   -214.9032757 -0.212291E-04  0.461E-03    0.77       2.1  T
   5   -214.9032790 -0.329397E-05  0.197E-03    0.77       4.9  T
   6   -214.9032794 -0.410601E-06  0.993E-04    0.77       9.6  T
   7   -214.9032795 -0.353942E-07  0.606E-04    0.77      15.8  T
     SCC iter.                  ...        0 min,  0.200 sec
     gradient                   ...        0 min,  0.028 sec
 * total energy  :  -212.6805277 Eh     change       -0.1521069E-03 Eh
   gradient norm :     0.0028124 Eh/α   predicted    -0.1080868E-03 ( -28.94%)
   displ. norm   :     0.5642060 α      lambda       -0.1760645E-03
   maximum displ.:     0.3605480 α      in ANC's #3, #4, #2, ...

........................................................................
.............................. CYCLE   54 ..............................
........................................................................

 iter      E             dE          RMSdq      gap      omega  full diag
   1   -214.9041326 -0.214904E+03  0.560E-02    0.77       0.0  T
   2   -214.9041352 -0.266130E-05  0.335E-02    0.77       1.0  T
   3   -214.9040995  0.357583E-04  0.147E-02    0.77       1.0  T
   4   -214.9041329 -0.334058E-04  0.522E-03    0.77       1.8  T
   5   -214.9041377 -0.486029E-05  0.190E-03    0.77       5.0  T
   6   -214.9041381 -0.347738E-06  0.939E-04    0.77      10.2  T
   7   -214.9041381 -0.392705E-07  0.519E-04    0.77      18.5  T
     SCC iter.                  ...        0 min,  0.183 sec
     gradient                   ...        0 min,  0.027 sec
 * total energy  :  -212.6806949 Eh     change       -0.1671382E-03 Eh
   gradient norm :     0.0032262 Eh/α   predicted    -0.1160576E-03 ( -30.56%)
   displ. norm   :     0.5998860 α      lambda       -0.2079630E-03
   maximum displ.:     0.3831329 α      in ANC's #3, #4, #2, ...

........................................................................
.............................. CYCLE   55 ..............................
........................................................................

 iter      E             dE          RMSdq      gap      omega  full diag
   1   -214.9046229 -0.214905E+03  0.598E-02    0.77       0.0  T
   2   -214.9046254 -0.251101E-05  0.358E-02    0.77       1.0  T
   3   -214.9045702  0.552640E-04  0.182E-02    0.77       1.0  T
   4   -214.9046229 -0.527126E-04  0.597E-03    0.77       1.6  T
   5   -214.9046290 -0.616186E-05  0.211E-03    0.77       4.5  T
   6   -214.9046294 -0.317117E-06  0.127E-03    0.77       7.5  T
   7   -214.9046294 -0.294616E-07  0.947E-04    0.77      10.1  T
   8   -214.9046296 -0.166580E-06  0.253E-04    0.77      37.8  T
     SCC iter.                  ...        0 min,  0.215 sec
     gradient                   ...        0 min,  0.028 sec
 * total energy  :  -212.6808954 Eh     change       -0.2005061E-03 Eh
   gradient norm :     0.0033459 Eh/α   predicted    -0.1414030E-03 ( -29.48%)
   displ. norm   :     0.6665418 α      lambda       -0.2562973E-03
   maximum displ.:     0.4246219 α      in ANC's #3, #4, #2, ...

........................................................................
.............................. CYCLE   56 ..............................
........................................................................

 iter      E             dE          RMSdq      gap      omega  full diag
   1   -214.9045695 -0.214905E+03  0.670E-02    0.77       0.0  T
   2   -214.9045726 -0.308522E-05  0.400E-02    0.77       1.0  T
   3   -214.9044934  0.792089E-04  0.216E-02    0.77       1.0  T
   4   -214.9045698 -0.764365E-04  0.674E-03    0.77       1.4  T
   5   -214.9045780 -0.820326E-05  0.233E-03    0.77       4.1  T
   6   -214.9045785 -0.504952E-06  0.114E-03    0.77       8.4  T
   7   -214.9045786 -0.762225E-07  0.477E-04    0.77      20.1  T
   8   -214.9045786 -0.249467E-07  0.231E-04    0.77      41.5  T
     SCC iter.                  ...        0 min,  0.229 sec
     gradient                   ...        0 min,  0.027 sec
 * total energy  :  -212.6811418 Eh     change       -0.2464381E-03 Eh
   gradient norm :     0.0035105 Eh/α   predicted    -0.1850848E-03 ( -24.90%)
   displ. norm   :     0.7256922 α      lambda       -0.3008776E-03
   maximum displ.:     0.4608462 α      in ANC's #3, #4, #2, ...

........................................................................
.............................. CYCLE   57 ..............................
........................................................................

 iter      E             dE          RMSdq      gap      omega  full diag
   1   -214.9039733 -0.214904E+03  0.743E-02    0.77       0.0  T
   2   -214.9039771 -0.378490E-05  0.444E-02    0.77       1.0  T
   3   -214.9038707  0.106326E-03  0.249E-02    0.77       1.0  T
   4   -214.9039738 -0.103039E-03  0.770E-03    0.77       1.2  T
   5   -214.9039845 -0.107538E-04  0.261E-03    0.77       3.7  T
   6   -214.9039852 -0.644083E-06  0.128E-03    0.77       7.5  T
   7   -214.9039853 -0.801984E-07  0.581E-04    0.77      16.5  T
   8   -214.9039853 -0.366348E-07  0.308E-04    0.77      31.1  T
     SCC iter.                  ...        0 min,  0.225 sec
     gradient                   ...        0 min,  0.027 sec
 * total energy  :  -212.6814277 Eh     change       -0.2859012E-03 Eh
   gradient norm :     0.0038826 Eh/α   predicted    -0.2296681E-03 ( -19.67%)
   displ. norm   :     0.7648675 α      lambda       -0.3322487E-03
   maximum displ.:     0.4837976 α      in ANC's #3, #4, #2, ...

........................................................................
.............................. CYCLE   58 ..............................
........................................................................

 iter      E             dE          RMSdq      gap      omega  full diag
   1   -214.9031526 -0.214903E+03  0.791E-02    0.77       0.0  T
   2   -214.9031570 -0.444157E-05  0.473E-02    0.78       1.0  T
   3   -214.9030367  0.120386E-03  0.264E-02    0.78       1.0  T
   4   -214.9031533 -0.116606E-03  0.821E-03    0.78       1.2  T
   5   -214.9031656 -0.123591E-04  0.282E-03    0.78       3.4  T
   6   -214.9031664 -0.756885E-06  0.139E-03    0.78       6.9  T
   7   -214.9031664 -0.546669E-07  0.806E-04    0.78      11.9  T
   8   -214.9031665 -0.861318E-07  0.391E-04    0.78      24.5  T
     SCC iter.                  ...        0 min,  0.251 sec
     gradient                   ...        0 min,  0.026 sec
 * total energy  :  -212.6817375 Eh     change       -0.3097961E-03 Eh
   gradient norm :     0.0042347 Eh/α   predicted    -0.2633154E-03 ( -15.00%)
   displ. norm   :     0.7867026 α      lambda       -0.3477272E-03
   maximum displ.:     0.4946715 α      in ANC's #3, #4, #2, ...

........................................................................
.............................. CYCLE   59 ..............................
........................................................................

 iter      E             dE          RMSdq      gap      omega  full diag
   1   -214.9024258 -0.214902E+03  0.822E-02    0.78       0.0  T
   2   -214.9024306 -0.475656E-05  0.491E-02    0.78       1.0  T
   3   -214.9023045  0.126082E-03  0.266E-02    0.78       1.0  T
   4   -214.9024256 -0.121045E-03  0.859E-03    0.78       1.1  T
   5   -214.9024391 -0.135773E-04  0.315E-03    0.78       3.0  T
   6   -214.9024400 -0.818085E-06  0.189E-03    0.78       5.1  T
   7   -214.9024400 -0.835320E-07  0.148E-03    0.78       6.5  T
   8   -214.9024404 -0.375925E-06  0.333E-04    0.78      28.8  T
   9   -214.9024404 -0.118369E-07  0.162E-04    0.78      59.0  T
     SCC iter.                  ...        0 min,  0.231 sec
     gradient                   ...        0 min,  0.025 sec
 * total energy  :  -212.6820532 Eh     change       -0.3156519E-03 Eh
   gradient norm :     0.0043605 Eh/α   predicted    -0.2814723E-03 ( -10.83%)
   displ. norm   :     0.7786658 α      lambda       -0.3398154E-03
   maximum displ.:     0.4846533 α      in ANC's #3, #4, #2, ...

........................................................................
.............................. CYCLE   60 ..............................
........................................................................

 iter      E             dE          RMSdq      gap      omega  full diag
   1   -214.9022335 -0.214902E+03  0.816E-02    0.78       0.0  T
   2   -214.9022383 -0.480827E-05  0.488E-02    0.78       1.0  T
   3   -214.9021330  0.105304E-03  0.241E-02    0.78       1.0  T
   4   -214.9022324 -0.994488E-04  0.831E-03    0.78       1.2  T
   5   -214.9022450 -0.125681E-04  0.322E-03    0.78       3.0  T
   6   -214.9022459 -0.910402E-06  0.195E-03    0.78       4.9  T
   7   -214.9022461 -0.199452E-06  0.138E-03    0.78       7.0  T
   8   -214.9022464 -0.314171E-06  0.310E-04    0.78      30.9  T
   9   -214.9022464 -0.975422E-08  0.157E-04    0.78      61.1  T
     SCC iter.                  ...        0 min,  0.241 sec
     gradient                   ...        0 min,  0.026 sec
 * total energy  :  -212.6823496 Eh     change       -0.2964383E-03 Eh
   gradient norm :     0.0041722 Eh/α   predicted    -0.2729273E-03 (  -7.93%)
   displ. norm   :     0.7137475 α      lambda       -0.2960654E-03
   maximum displ.:     0.4374696 α      in ANC's #3, #4, #2, ...

........................................................................
.............................. CYCLE   61 ..............................
........................................................................

 iter      E             dE          RMSdq      gap      omega  full diag
   1   -214.9026667 -0.214903E+03  0.753E-02    0.78       0.0  T
   2   -214.9026706 -0.392990E-05  0.450E-02    0.78       1.0  T
   3   -214.9026062  0.644148E-04  0.187E-02    0.78       1.0  T
   4   -214.9026648 -0.586194E-04  0.731E-03    0.78       1.3  T
   5   -214.9026742 -0.940822E-05  0.302E-03    0.78       3.2  T
   6   -214.9026752 -0.964511E-06  0.166E-03    0.78       5.8  T
   7   -214.9026754 -0.153427E-06  0.111E-03    0.78       8.6  T
   8   -214.9026756 -0.203423E-06  0.267E-04    0.78      35.8  T
   9   -214.9026756 -0.734195E-08  0.138E-04    0.78      69.2  T
     SCC iter.                  ...        0 min,  0.253 sec
     gradient                   ...        0 min,  0.031 sec
 * total energy  :  -212.6825974 Eh     change       -0.2478090E-03 Eh
   gradient norm :     0.0040849 Eh/α   predicted    -0.2234508E-03 (  -9.83%)
   displ. norm   :     0.6238101 α      lambda       -0.2475759E-03
   maximum displ.:     0.3767221 α      in ANC's #3, #4, #2, ...

........................................................................
.............................. CYCLE   62 ..............................
........................................................................

 iter      E             dE          RMSdq      gap      omega  full diag
   1   -214.9037277 -0.214904E+03  0.668E-02    0.78       0.0  T
   2   -214.9037306 -0.293530E-05  0.398E-02    0.78       1.0  T
   3   -214.9036994  0.311756E-04  0.136E-02    0.78       1.0  T
   4   -214.9037261 -0.266432E-04  0.613E-03    0.78       1.6  T
   5   -214.9037322 -0.606061E-05  0.258E-03    0.78       3.7  T
   6   -214.9037330 -0.858470E-06  0.115E-03    0.78       8.4  T
   7   -214.9037331 -0.723160E-07  0.587E-04    0.78      16.3  T
   8   -214.9037331 -0.541067E-07  0.193E-04    0.78      49.7  T
     SCC iter.                  ...        0 min,  0.311 sec
     gradient                   ...        0 min,  0.027 sec
 * total energy  :  -212.6828019 Eh     change       -0.2044450E-03 Eh
   gradient norm :     0.0041476 Eh/α   predicted    -0.1719615E-03 ( -15.89%)
   displ. norm   :     0.5576209 α      lambda       -0.2330457E-03
   maximum displ.:     0.3354897 α      in ANC's #4, #3, #2, ...

........................................................................
.............................. CYCLE   63 ..............................
........................................................................

 iter      E             dE          RMSdq      gap      omega  full diag
   1   -214.9053473 -0.214905E+03  0.635E-02    0.78       0.0  T
   2   -214.9053501 -0.278374E-05  0.378E-02    0.78       1.0  T
   3   -214.9053119  0.381913E-04  0.158E-02    0.77       1.0  T
   4   -214.9053462 -0.342917E-04  0.613E-03    0.78       1.6  T
   5   -214.9053520 -0.576664E-05  0.245E-03    0.78       3.9  T
   6   -214.9053527 -0.682739E-06  0.138E-03    0.78       6.9  T
   7   -214.9053528 -0.106950E-06  0.809E-04    0.78      11.8  T
   8   -214.9053529 -0.117129E-06  0.233E-04    0.78      41.1  T
     SCC iter.                  ...        0 min,  0.239 sec
     gradient                   ...        0 min,  0.029 sec
 * total energy  :  -212.6829933 Eh     change       -0.1913854E-03 Eh
   gradient norm :     0.0039837 Eh/α   predicted    -0.1527606E-03 ( -20.18%)
   displ. norm   :     0.5497316 α      lambda       -0.2173480E-03
   maximum displ.:     0.3319077 α      in ANC's #4, #3, #2, ...

........................................................................
.............................. CYCLE   64 ..............................
........................................................................

 iter      E             dE          RMSdq      gap      omega  full diag
   1   -214.9066946 -0.214907E+03  0.664E-02    0.77       0.0  T
   2   -214.9066980 -0.338994E-05  0.395E-02    0.77       1.0  T
   3   -214.9066370  0.610300E-04  0.200E-02    0.77       1.0  T
   4   -214.9066936 -0.566014E-04  0.699E-03    0.77       1.4  T
   5   -214.9067014 -0.782530E-05  0.265E-03    0.77       3.6  T
   6   -214.9067022 -0.773096E-06  0.158E-03    0.77       6.1  T
   7   -214.9067023 -0.149391E-06  0.955E-04    0.77      10.0  T
   8   -214.9067025 -0.161600E-06  0.252E-04    0.77      38.0  T
     SCC iter.                  ...        0 min,  0.221 sec
     gradient                   ...        0 min,  0.026 sec
 * total energy  :  -212.6831669 Eh     change       -0.1736489E-03 Eh
   gradient norm :     0.0040669 Eh/α   predicted    -0.1415166E-03 ( -18.50%)
   displ. norm   :     0.5465239 α      lambda       -0.1696579E-03
   maximum displ.:     0.3342471 α      in ANC's #4, #3, #2, ...

........................................................................
.............................. CYCLE   65 ..............................
........................................................................

 iter      E             dE          RMSdq      gap      omega  full diag
   1   -214.9064110 -0.214906E+03  0.647E-02    0.77       0.0  T
   2   -214.9064143 -0.329790E-05  0.386E-02    0.77       1.0  T
   3   -214.9063608  0.535130E-04  0.188E-02    0.77       1.0  T
   4   -214.9064098 -0.489976E-04  0.689E-03    0.77       1.4  T
   5   -214.9064174 -0.756852E-05  0.258E-03    0.77       3.7  T
   6   -214.9064181 -0.764376E-06  0.150E-03    0.77       6.4  T
   7   -214.9064183 -0.115064E-06  0.931E-04    0.77      10.3  T
   8   -214.9064184 -0.157521E-06  0.243E-04    0.77      39.5  T
     SCC iter.                  ...        0 min,  0.207 sec
     gradient                   ...        0 min,  0.026 sec
 * total energy  :  -212.6833016 Eh     change       -0.1346675E-03 Eh
   gradient norm :     0.0036946 Eh/α   predicted    -0.1101698E-03 ( -18.19%)
   displ. norm   :     0.4736823 α      lambda       -0.1335816E-03
   maximum displ.:     0.2867677 α      in ANC's #4, #3, #2, ...

........................................................................
.............................. CYCLE   66 ..............................
........................................................................

 iter      E             dE          RMSdq      gap      omega  full diag
   1   -214.9074718 -0.214907E+03  0.574E-02    0.77       0.0  T
   2   -214.9074746 -0.281639E-05  0.343E-02    0.77       1.0  T
   3   -214.9074285  0.460941E-04  0.175E-02    0.76       1.0  T
   4   -214.9074706 -0.420416E-04  0.646E-03    0.77       1.5  T
   5   -214.9074774 -0.685034E-05  0.228E-03    0.76       4.2  T
   6   -214.9074780 -0.559299E-06  0.138E-03    0.77       7.0  T
   7   -214.9074781 -0.119395E-06  0.830E-04    0.77      11.5  T
   8   -214.9074782 -0.120681E-06  0.231E-04    0.77      41.5  T
     SCC iter.                  ...        0 min,  0.270 sec
     gradient                   ...        0 min,  0.028 sec
 * total energy  :  -212.6834021 Eh     change       -0.1005646E-03 Eh
   gradient norm :     0.0031271 Eh/α   predicted    -0.8177934E-04 ( -18.68%)
   displ. norm   :     0.5295947 α      lambda       -0.1098160E-03
   maximum displ.:     0.3351208 α      in ANC's #4, #3, #2, ...
 * RMSD in coord.:     0.9610251 α      energy gain  -0.3918544E-02 Eh

generating ANC from exact Hessian ...
Using Lindh-Hessian (1995)
 Shifting diagonal of input Hessian by   1.009277305764918E-002
 Lowest  eigenvalues of input Hessian
    0.010000    0.000000    0.000000    0.000000    0.000000    0.000000
    0.000000    0.010128    0.010206    0.010369    0.010501    0.011240
    0.012107    0.012401    0.016188    0.016720    0.017275    0.018390
 Highest eigenvalues
    2.155800    2.197026    2.240575    2.260494    2.316073    2.401126
 

........................................................................
.............................. CYCLE   67 ..............................
........................................................................

 iter      E             dE          RMSdq      gap      omega  full diag
   1   -214.9047389 -0.214905E+03  0.578E-02    0.76       0.0  T
   2   -214.9047429 -0.401773E-05  0.345E-02    0.76       1.0  T
   3   -214.9047274  0.155116E-04  0.112E-02    0.76       1.0  T
   4   -214.9047417 -0.143123E-04  0.445E-03    0.76       2.2  T
   5   -214.9047440 -0.224719E-05  0.245E-03    0.76       3.9  T
   6   -214.9047448 -0.862568E-06  0.112E-03    0.76       8.6  T
   7   -214.9047449 -0.970172E-07  0.508E-04    0.76      18.9  T
   8   -214.9047450 -0.329000E-07  0.177E-04    0.76      54.2  T
     SCC iter.                  ...        0 min,  0.222 sec
     gradient                   ...        0 min,  0.023 sec
 * total energy  :  -212.6834792 Eh     change       -0.7708982E-04 Eh
   gradient norm :     0.0041935 Eh/α   predicted     0.0000000E+00 (-100.00%)
   displ. norm   :     0.0407131 α      lambda       -0.4178199E-04
   maximum displ.:     0.0233828 α      in ANC's #4, #6, #8, ...

........................................................................
.............................. CYCLE   68 ..............................
........................................................................

 iter      E             dE          RMSdq      gap      omega  full diag
   1   -214.9067249 -0.214907E+03  0.961E-03    0.76       0.0  T
   2   -214.9067253 -0.434284E-06  0.570E-03    0.76       1.7  T
   3   -214.9067236  0.177742E-05  0.389E-03    0.76       2.5  T
   4   -214.9067250 -0.147637E-05  0.175E-03    0.76       5.5  T
   5   -214.9067256 -0.568653E-06  0.521E-04    0.76      18.4  T
   6   -214.9067257 -0.421676E-07  0.199E-04    0.76      48.0  T
     SCC iter.                  ...        0 min,  0.163 sec
     gradient                   ...        0 min,  0.026 sec
 * total energy  :  -212.6835172 Eh     change       -0.3795887E-04 Eh
   gradient norm :     0.0018375 Eh/α   predicted    -0.2377940E-04 ( -37.35%)
   displ. norm   :     0.1628837 α      lambda       -0.7193641E-04
   maximum displ.:     0.0983680 α      in ANC's #4, #6, #8, ...

........................................................................
.............................. CYCLE   69 ..............................
........................................................................

 iter      E             dE          RMSdq      gap      omega  full diag
   1   -214.9100861 -0.214910E+03  0.364E-02    0.76       0.0  T
   2   -214.9100886 -0.249006E-05  0.214E-02    0.77       1.0  T
   3   -214.9100567  0.319077E-04  0.154E-02    0.77       1.0  T
   4   -214.9100864 -0.296688E-04  0.552E-03    0.77       1.7  T
   5   -214.9100913 -0.495546E-05  0.209E-03    0.77       4.6  T
   6   -214.9100920 -0.614361E-06  0.106E-03    0.77       9.0  T
   7   -214.9100920 -0.773838E-07  0.663E-04    0.77      14.5  T
   8   -214.9100921 -0.649730E-07  0.195E-04    0.77      49.1  T
     SCC iter.                  ...        0 min,  0.218 sec
     gradient                   ...        0 min,  0.027 sec
 * total energy  :  -212.6835750 Eh     change       -0.5781899E-04 Eh
   gradient norm :     0.0041131 Eh/α   predicted    -0.3639267E-04 ( -37.06%)
   displ. norm   :     0.0577464 α      lambda       -0.2564598E-04
   maximum displ.:     0.0406054 α      in ANC's #4, #6, #7, ...

........................................................................
.............................. CYCLE   70 ..............................
........................................................................

 iter      E             dE          RMSdq      gap      omega  full diag
   1   -214.9092233 -0.214909E+03  0.116E-02    0.77       0.0  T
   2   -214.9092234 -0.117344E-06  0.682E-03    0.77       1.4  T
   3   -214.9092189  0.453815E-05  0.556E-03    0.77       1.7  T
   4   -214.9092232 -0.427431E-05  0.186E-03    0.77       5.1  T
   5   -214.9092237 -0.566797E-06  0.655E-04    0.77      14.6  T
   6   -214.9092238 -0.600331E-07  0.347E-04    0.77      27.6  T
     SCC iter.                  ...        0 min,  0.179 sec
     gradient                   ...        0 min,  0.031 sec
 * total energy  :  -212.6835982 Eh     change       -0.2319479E-04 Eh
   gradient norm :     0.0028727 Eh/α   predicted    -0.1334326E-04 ( -42.47%)
   displ. norm   :     0.1132188 α      lambda       -0.4523896E-04
   maximum displ.:     0.0813106 α      in ANC's #4, #6, #7, ...

........................................................................
.............................. CYCLE   71 ..............................
........................................................................

 iter      E             dE          RMSdq      gap      omega  full diag
   1   -214.9072275 -0.214907E+03  0.214E-02    0.77       0.0  T
   2   -214.9072280 -0.490875E-06  0.127E-02    0.77       1.0  T
   3   -214.9072112  0.168226E-04  0.107E-02    0.77       1.0  T
   4   -214.9072265 -0.153300E-04  0.397E-03    0.77       2.4  T
   5   -214.9072292 -0.268257E-05  0.123E-03    0.77       7.8  T
   6   -214.9072294 -0.216859E-06  0.635E-04    0.77      15.1  T
   7   -214.9072295 -0.333480E-07  0.339E-04    0.77      28.2  T
     SCC iter.                  ...        0 min,  0.192 sec
     gradient                   ...        0 min,  0.026 sec
 * total energy  :  -212.6836303 Eh     change       -0.3205175E-04 Eh
   gradient norm :     0.0009257 Eh/α   predicted    -0.2291032E-04 ( -28.52%)
   displ. norm   :     0.1222793 α      lambda       -0.1802823E-04
   maximum displ.:     0.0937586 α      in ANC's #4, #6, #5, ...

........................................................................
.............................. CYCLE   72 ..............................
........................................................................

 iter      E             dE          RMSdq      gap      omega  full diag
   1   -214.9060593 -0.214906E+03  0.205E-02    0.77       0.0  T
   2   -214.9060595 -0.210244E-06  0.121E-02    0.77       1.0  T
   3   -214.9060416  0.178757E-04  0.108E-02    0.77       1.0  T
   4   -214.9060586 -0.170547E-04  0.346E-03    0.77       2.8  T
   5   -214.9060606 -0.197009E-05  0.116E-03    0.77       8.3  T
   6   -214.9060608 -0.190302E-06  0.617E-04    0.77      15.5  T
   7   -214.9060608 -0.376795E-07  0.301E-04    0.77      31.8  T
     SCC iter.                  ...        0 min,  0.185 sec
     gradient                   ...        0 min,  0.027 sec
 * total energy  :  -212.6836492 Eh     change       -0.1898960E-04 Eh
   gradient norm :     0.0020467 Eh/α   predicted    -0.9079705E-05 ( -52.19%)
   displ. norm   :     0.0427046 α      lambda       -0.1187782E-04
   maximum displ.:     0.0347453 α      in ANC's #4, #5, #3, ...

........................................................................
.............................. CYCLE   73 ..............................
........................................................................

 iter      E             dE          RMSdq      gap      omega  full diag
   1   -214.9063770 -0.214906E+03  0.575E-03    0.77       0.0  T
   2   -214.9063770 -0.207156E-07  0.337E-03    0.77       2.8  T
   3   -214.9063759  0.111986E-05  0.262E-03    0.77       3.7  T
   4   -214.9063770 -0.107231E-05  0.815E-04    0.77      11.8  T
   5   -214.9063771 -0.108585E-06  0.274E-04    0.77      35.0  T
   6   -214.9063771 -0.912181E-08  0.164E-04    0.77      58.6  T
     SCC iter.                  ...        0 min,  0.163 sec
     gradient                   ...        0 min,  0.027 sec
 * total energy  :  -212.6836604 Eh     change       -0.1116948E-04 Eh
   gradient norm :     0.0017142 Eh/α   predicted    -0.5952446E-05 ( -46.71%)
   displ. norm   :     0.1104892 α      lambda       -0.2394067E-04
   maximum displ.:     0.0854605 α      in ANC's #4, #5, #3, ...

........................................................................
.............................. CYCLE   74 ..............................
........................................................................

 iter      E             dE          RMSdq      gap      omega  full diag
   1   -214.9077938 -0.214908E+03  0.155E-02    0.77       0.0  T
   2   -214.9077941 -0.285811E-06  0.908E-03    0.77       1.1  T
   3   -214.9077906  0.348207E-05  0.458E-03    0.77       2.1  T
   4   -214.9077934 -0.274616E-05  0.226E-03    0.77       4.2  T
   5   -214.9077943 -0.956927E-06  0.608E-04    0.77      15.8  T
   6   -214.9077944 -0.405372E-07  0.286E-04    0.77      33.5  T
     SCC iter.                  ...        0 min,  0.170 sec
     gradient                   ...        0 min,  0.025 sec
 * total energy  :  -212.6836885 Eh     change       -0.2805654E-04 Eh
   gradient norm :     0.0008538 Eh/α   predicted    -0.1203581E-04 ( -57.10%)
   displ. norm   :     0.1235166 α      lambda       -0.1834499E-04
   maximum displ.:     0.0981007 α      in ANC's #4, #5, #3, ...

........................................................................
.............................. CYCLE   75 ..............................
........................................................................

 iter      E             dE          RMSdq      gap      omega  full diag
   1   -214.9084298 -0.214908E+03  0.154E-02    0.77       0.0  T
   2   -214.9084300 -0.260258E-06  0.902E-03    0.77       1.1  T
   3   -214.9084278  0.224890E-05  0.381E-03    0.77       2.5  T
   4   -214.9084295 -0.170968E-05  0.196E-03    0.77       4.9  T
   5   -214.9084302 -0.693983E-06  0.585E-04    0.77      16.4  T
   6   -214.9084302 -0.373753E-07  0.264E-04    0.77      36.3  T
     SCC iter.                  ...        0 min,  0.178 sec
     gradient                   ...        0 min,  0.030 sec
 * total energy  :  -212.6837121 Eh     change       -0.2361547E-04 Eh
   gradient norm :     0.0014236 Eh/α   predicted    -0.9239477E-05 ( -60.88%)
   displ. norm   :     0.1101790 α      lambda       -0.1640620E-04
   maximum displ.:     0.0871595 α      in ANC's #4, #5, #3, ...

........................................................................
.............................. CYCLE   76 ..............................
........................................................................

 iter      E             dE          RMSdq      gap      omega  full diag
   1   -214.9086130 -0.214909E+03  0.130E-02    0.77       0.0  T
   2   -214.9086131 -0.127267E-06  0.769E-03    0.77       1.2  T
   3   -214.9086105  0.258764E-05  0.376E-03    0.77       2.5  T
   4   -214.9086129 -0.234607E-05  0.145E-03    0.77       6.6  T
   5   -214.9086133 -0.380851E-06  0.533E-04    0.77      18.0  T
   6   -214.9086133 -0.207369E-07  0.330E-04    0.77      29.0  T
     SCC iter.                  ...        0 min,  0.202 sec
     gradient                   ...        0 min,  0.031 sec
 * total energy  :  -212.6837348 Eh     change       -0.2273383E-04 Eh
   gradient norm :     0.0014513 Eh/α   predicted    -0.8247691E-05 ( -63.72%)
   displ. norm   :     0.1192868 α      lambda       -0.1951777E-04
   maximum displ.:     0.0928320 α      in ANC's #4, #5, #3, ...

........................................................................
.............................. CYCLE   77 ..............................
........................................................................

 iter      E             dE          RMSdq      gap      omega  full diag
   1   -214.9083352 -0.214908E+03  0.141E-02    0.77       0.0  T
   2   -214.9083354 -0.190547E-06  0.826E-03    0.77       1.2  T
   3   -214.9083343  0.109135E-05  0.283E-03    0.77       3.4  T
   4   -214.9083354 -0.111347E-05  0.883E-04    0.77      10.9  T
   5   -214.9083355 -0.830256E-07  0.504E-04    0.77      19.0  T
   6   -214.9083355 -0.227730E-07  0.283E-04    0.77      33.9  T
     SCC iter.                  ...        0 min,  0.161 sec
     gradient                   ...        0 min,  0.026 sec
 * total energy  :  -212.6837619 Eh     change       -0.2709909E-04 Eh
   gradient norm :     0.0009952 Eh/α   predicted    -0.9821888E-05 ( -63.76%)
   displ. norm   :     0.1430945 α      lambda       -0.2267689E-04
   maximum displ.:     0.1105730 α      in ANC's #4, #5, #3, ...

........................................................................
.............................. CYCLE   78 ..............................
........................................................................

 iter      E             dE          RMSdq      gap      omega  full diag
   1   -214.9077358 -0.214908E+03  0.172E-02    0.77       0.0  T
   2   -214.9077361 -0.275676E-06  0.101E-02    0.77       1.0  T
   3   -214.9077330  0.310955E-05  0.449E-03    0.77       2.1  T
   4   -214.9077360 -0.307971E-05  0.135E-03    0.77       7.1  T
   5   -214.9077363 -0.270516E-06  0.634E-04    0.77      15.1  T
   6   -214.9077363 -0.357275E-07  0.345E-04    0.77      27.8  T
     SCC iter.                  ...        0 min,  0.162 sec
     gradient                   ...        0 min,  0.026 sec
 * total energy  :  -212.6837926 Eh     change       -0.3067854E-04 Eh
   gradient norm :     0.0007922 Eh/α   predicted    -0.1144526E-04 ( -62.69%)
   displ. norm   :     0.1494054 α      lambda       -0.2154812E-04
   maximum displ.:     0.1159889 α      in ANC's #4, #5, #3, ...

........................................................................
.............................. CYCLE   79 ..............................
........................................................................

 iter      E             dE          RMSdq      gap      omega  full diag
   1   -214.9072933 -0.214907E+03  0.175E-02    0.77       0.0  T
   2   -214.9072936 -0.292009E-06  0.102E-02    0.77       1.0  T
   3   -214.9072913  0.225618E-05  0.396E-03    0.77       2.4  T
   4   -214.9072936 -0.228992E-05  0.116E-03    0.77       8.3  T
   5   -214.9072938 -0.161989E-06  0.618E-04    0.77      15.5  T
   6   -214.9072938 -0.404738E-07  0.300E-04    0.77      31.9  T
     SCC iter.                  ...        0 min,  0.157 sec
     gradient                   ...        0 min,  0.025 sec
 * total energy  :  -212.6838217 Eh     change       -0.2906210E-04 Eh
   gradient norm :     0.0009550 Eh/α   predicted    -0.1088161E-04 ( -62.56%)
   displ. norm   :     0.1359035 α      lambda       -0.1801860E-04
   maximum displ.:     0.1070109 α      in ANC's #4, #5, #3, ...

........................................................................
.............................. CYCLE   80 ..............................
........................................................................

 iter      E             dE          RMSdq      gap      omega  full diag
   1   -214.9070949 -0.214907E+03  0.155E-02    0.77       0.0  T
   2   -214.9070952 -0.232990E-06  0.903E-03    0.77       1.1  T
   3   -214.9070934  0.176920E-05  0.347E-03    0.77       2.8  T
   4   -214.9070951 -0.174374E-05  0.116E-03    0.77       8.2  T
   5   -214.9070953 -0.165672E-06  0.577E-04    0.77      16.6  T
   6   -214.9070953 -0.284022E-07  0.356E-04    0.77      26.9  T
     SCC iter.                  ...        0 min,  0.157 sec
     gradient                   ...        0 min,  0.027 sec
 * total energy  :  -212.6838470 Eh     change       -0.2532371E-04 Eh
   gradient norm :     0.0010834 Eh/α   predicted    -0.9085282E-05 ( -64.12%)
   displ. norm   :     0.1187939 α      lambda       -0.1595128E-04
   maximum displ.:     0.0956027 α      in ANC's #4, #5, #3, ...

........................................................................
.............................. CYCLE   81 ..............................
........................................................................

 iter      E             dE          RMSdq      gap      omega  full diag
   1   -214.9071182 -0.214907E+03  0.131E-02    0.77       0.0  T
   2   -214.9071183 -0.110751E-06  0.768E-03    0.77       1.2  T
   3   -214.9071154  0.289824E-05  0.398E-03    0.76       2.4  T
   4   -214.9071181 -0.273561E-05  0.134E-03    0.77       7.2  T
   5   -214.9071184 -0.307768E-06  0.419E-04    0.77      22.9  T
   6   -214.9071184 -0.129857E-07  0.228E-04    0.77      42.0  T
     SCC iter.                  ...        0 min,  0.180 sec
     gradient                   ...        0 min,  0.027 sec
 * total energy  :  -212.6838699 Eh     change       -0.2295324E-04 Eh
   gradient norm :     0.0009424 Eh/α   predicted    -0.8030556E-05 ( -65.01%)
   displ. norm   :     0.1102997 α      lambda       -0.1554438E-04
   maximum displ.:     0.0909491 α      in ANC's #4, #5, #3, ...

........................................................................
.............................. CYCLE   82 ..............................
........................................................................

 iter      E             dE          RMSdq      gap      omega  full diag
   1   -214.9073306 -0.214907E+03  0.121E-02    0.77       0.0  T
   2   -214.9073307 -0.119781E-06  0.710E-03    0.77       1.3  T
   3   -214.9073297  0.103831E-05  0.251E-03    0.76       3.8  T
   4   -214.9073305 -0.849021E-06  0.121E-03    0.77       7.9  T
   5   -214.9073308 -0.262648E-06  0.378E-04    0.76      25.4  T
   6   -214.9073308 -0.121672E-07  0.194E-04    0.77      49.5  T
     SCC iter.                  ...        0 min,  0.158 sec
     gradient                   ...        0 min,  0.026 sec
 * total energy  :  -212.6838924 Eh     change       -0.2246829E-04 Eh
   gradient norm :     0.0006865 Eh/α   predicted    -0.7815160E-05 ( -65.22%)
   displ. norm   :     0.1079904 α      lambda       -0.1568022E-04
   maximum displ.:     0.0911574 α      in ANC's #4, #5, #3, ...

........................................................................
.............................. CYCLE   83 ..............................
........................................................................

 iter      E             dE          RMSdq      gap      omega  full diag
   1   -214.9075600 -0.214908E+03  0.127E-02    0.77       0.0  T
   2   -214.9075601 -0.127006E-06  0.745E-03    0.77       1.3  T
   3   -214.9075595  0.582336E-06  0.204E-03    0.76       4.7  T
   4   -214.9075600 -0.508694E-06  0.866E-04    0.77      11.1  T
   5   -214.9075601 -0.117775E-06  0.445E-04    0.77      21.5  T
     SCC iter.                  ...        0 min,  0.141 sec
     gradient                   ...        0 min,  0.025 sec
 * total energy  :  -212.6839149 Eh     change       -0.2246004E-04 Eh
   gradient norm :     0.0005259 Eh/α   predicted    -0.7883674E-05 ( -64.90%)
   displ. norm   :     0.1022117 α      lambda       -0.1498258E-04
   maximum displ.:     0.0884819 α      in ANC's #4, #3, #5, ...

........................................................................
.............................. CYCLE   84 ..............................
........................................................................

 iter      E             dE          RMSdq      gap      omega  full diag
   1   -214.9077816 -0.214908E+03  0.120E-02    0.77       0.0  T
   2   -214.9077817 -0.374981E-07  0.704E-03    0.77       1.4  T
   3   -214.9077784  0.327687E-05  0.433E-03    0.77       2.2  T
   4   -214.9077817 -0.327868E-05  0.108E-03    0.77       8.9  T
   5   -214.9077819 -0.183324E-06  0.438E-04    0.77      21.9  T
   6   -214.9077819 -0.141330E-07  0.293E-04    0.77      32.7  T
     SCC iter.                  ...        0 min,  0.155 sec
     gradient                   ...        0 min,  0.027 sec
 * total energy  :  -212.6839363 Eh     change       -0.2145125E-04 Eh
   gradient norm :     0.0004931 Eh/α   predicted    -0.7526514E-05 ( -64.91%)
   displ. norm   :     0.0910651 α      lambda       -0.1331113E-04
   maximum displ.:     0.0812187 α      in ANC's #4, #3, #5, ...

........................................................................
.............................. CYCLE   85 ..............................
........................................................................

 iter      E             dE          RMSdq      gap      omega  full diag
   1   -214.9079685 -0.214908E+03  0.112E-02    0.77       0.0  T
   2   -214.9079686 -0.628832E-07  0.656E-03    0.77       1.5  T
   3   -214.9079666  0.194973E-05  0.350E-03    0.77       2.7  T
   4   -214.9079685 -0.185115E-05  0.112E-03    0.77       8.5  T
   5   -214.9079687 -0.205186E-06  0.416E-04    0.77      23.0  T
   6   -214.9079687 -0.171998E-07  0.259E-04    0.77      37.0  T
     SCC iter.                  ...        0 min,  0.150 sec
     gradient                   ...        0 min,  0.025 sec
 * total energy  :  -212.6839556 Eh     change       -0.1928163E-04 Eh
   gradient norm :     0.0004887 Eh/α   predicted    -0.6680990E-05 ( -65.35%)
   displ. norm   :     0.0769017 α      lambda       -0.1137749E-04
   maximum displ.:     0.0707021 α      in ANC's #4, #3, #11, ...

........................................................................
.............................. CYCLE   86 ..............................
........................................................................

 iter      E             dE          RMSdq      gap      omega  full diag
   1   -214.9080620 -0.214908E+03  0.922E-03    0.77       0.0  T
   2   -214.9080620 -0.292180E-07  0.542E-03    0.77       1.8  T
   3   -214.9080601  0.195722E-05  0.344E-03    0.77       2.8  T
   4   -214.9080619 -0.186226E-05  0.107E-03    0.77       9.0  T
   5   -214.9080621 -0.195650E-06  0.313E-04    0.77      30.6  T
   6   -214.9080621 -0.791806E-08  0.216E-04    0.77      44.3  T
     SCC iter.                  ...        0 min,  0.153 sec
     gradient                   ...        0 min,  0.029 sec
 * total energy  :  -212.6839723 Eh     change       -0.1667609E-04 Eh
   gradient norm :     0.0004735 Eh/α   predicted    -0.5704360E-05 ( -65.79%)
   displ. norm   :     0.0642382 α      lambda       -0.9874077E-05
   maximum displ.:     0.0605548 α      in ANC's #4, #1, #11, ...

........................................................................
.............................. CYCLE   87 ..............................
........................................................................

 iter      E             dE          RMSdq      gap      omega  full diag
   1   -214.9081372 -0.214908E+03  0.755E-03    0.77       0.0  T
   2   -214.9081372 -0.230045E-07  0.442E-03    0.77       2.2  T
   3   -214.9081360  0.117368E-05  0.269E-03    0.77       3.6  T
   4   -214.9081371 -0.111916E-05  0.821E-04    0.77      11.7  T
   5   -214.9081372 -0.116052E-06  0.257E-04    0.77      37.3  T
   6   -214.9081372 -0.562511E-08  0.169E-04    0.77      56.6  T
     SCC iter.                  ...        0 min,  0.170 sec
     gradient                   ...        0 min,  0.026 sec
 * total energy  :  -212.6839868 Eh     change       -0.1455335E-04 Eh
   gradient norm :     0.0004373 Eh/α   predicted    -0.4946998E-05 ( -66.01%)
   displ. norm   :     0.0575676 α      lambda       -0.9191281E-05
   maximum displ.:     0.0546965 α      in ANC's #4, #1, #11, ...

........................................................................
.............................. CYCLE   88 ..............................
........................................................................

 iter      E             dE          RMSdq      gap      omega  full diag
   1   -214.9081713 -0.214908E+03  0.651E-03    0.77       0.0  T
   2   -214.9081714 -0.224413E-07  0.380E-03    0.77       2.5  T
   3   -214.9081706  0.731243E-06  0.208E-03    0.77       4.6  T
   4   -214.9081713 -0.694488E-06  0.657E-04    0.77      14.6  T
   5   -214.9081714 -0.730595E-07  0.196E-04    0.77      48.9  T
     SCC iter.                  ...        0 min,  0.126 sec
     gradient                   ...        0 min,  0.025 sec
 * total energy  :  -212.6840004 Eh     change       -0.1357490E-04 Eh
   gradient norm :     0.0004005 Eh/α   predicted    -0.4603045E-05 ( -66.09%)
   displ. norm   :     0.0562257 α      lambda       -0.9118829E-05
   maximum displ.:     0.0526856 α      in ANC's #4, #1, #5, ...

........................................................................
.............................. CYCLE   89 ..............................
........................................................................

 iter      E             dE          RMSdq      gap      omega  full diag
   1   -214.9081743 -0.214908E+03  0.619E-03    0.77       0.0  T
   2   -214.9081743 -0.206906E-07  0.361E-03    0.77       2.7  T
   3   -214.9081738  0.558277E-06  0.186E-03    0.77       5.1  T
   4   -214.9081743 -0.557138E-06  0.474E-04    0.77      20.2  T
   5   -214.9081743 -0.310274E-07  0.226E-04    0.77      42.3  T
     SCC iter.                  ...        0 min,  0.122 sec
     gradient                   ...        0 min,  0.029 sec
 * total energy  :  -212.6840139 Eh     change       -0.1353346E-04 Eh
   gradient norm :     0.0003779 Eh/α   predicted    -0.4570245E-05 ( -66.23%)
   displ. norm   :     0.0602854 α      lambda       -0.9736262E-05
   maximum displ.:     0.0548639 α      in ANC's #4, #1, #5, ...

........................................................................
.............................. CYCLE   90 ..............................
........................................................................

 iter      E             dE          RMSdq      gap      omega  full diag
   1   -214.9081870 -0.214908E+03  0.657E-03    0.77       0.0  T
   2   -214.9081870 -0.358471E-07  0.384E-03    0.77       2.5  T
   3   -214.9081867  0.367647E-06  0.147E-03    0.77       6.5  T
   4   -214.9081870 -0.346610E-06  0.534E-04    0.77      17.9  T
   5   -214.9081871 -0.435979E-07  0.252E-04    0.77      38.0  T
     SCC iter.                  ...        0 min,  0.136 sec
     gradient                   ...        0 min,  0.027 sec
 * total energy  :  -212.6840284 Eh     change       -0.1444074E-04 Eh
   gradient norm :     0.0003831 Eh/α   predicted    -0.4878152E-05 ( -66.22%)
   displ. norm   :     0.0677907 α      lambda       -0.1078538E-04
   maximum displ.:     0.0598143 α      in ANC's #4, #3, #1, ...

........................................................................
.............................. CYCLE   91 ..............................
........................................................................

 iter      E             dE          RMSdq      gap      omega  full diag
   1   -214.9081654 -0.214908E+03  0.743E-03    0.77       0.0  T
   2   -214.9081655 -0.564730E-07  0.433E-03    0.77       2.2  T
   3   -214.9081651  0.326159E-06  0.148E-03    0.77       6.5  T
   4   -214.9081655 -0.338847E-06  0.425E-04    0.77      22.5  T
   5   -214.9081655 -0.176095E-07  0.276E-04    0.77      34.7  T
     SCC iter.                  ...        0 min,  0.136 sec
     gradient                   ...        0 min,  0.029 sec
 * total energy  :  -212.6840442 Eh     change       -0.1586970E-04 Eh
   gradient norm :     0.0003710 Eh/α   predicted    -0.5406961E-05 ( -65.93%)
   displ. norm   :     0.0784814 α      lambda       -0.1203302E-04
   maximum displ.:     0.0672982 α      in ANC's #4, #3, #5, ...

........................................................................
.............................. CYCLE   92 ..............................
........................................................................

 iter      E             dE          RMSdq      gap      omega  full diag
   1   -214.9081643 -0.214908E+03  0.872E-03    0.77       0.0  T
   2   -214.9081644 -0.464868E-07  0.511E-03    0.77       1.9  T
   3   -214.9081626  0.183021E-05  0.324E-03    0.76       3.0  T
   4   -214.9081643 -0.173720E-05  0.106E-03    0.77       9.0  T
   5   -214.9081645 -0.190687E-06  0.360E-04    0.77      26.6  T
   6   -214.9081645 -0.125697E-07  0.198E-04    0.77      48.3  T
     SCC iter.                  ...        0 min,  0.174 sec
     gradient                   ...        0 min,  0.031 sec
 * total energy  :  -212.6840620 Eh     change       -0.1770786E-04 Eh
   gradient norm :     0.0003636 Eh/α   predicted    -0.6033435E-05 ( -65.93%)
   displ. norm   :     0.0888272 α      lambda       -0.1311287E-04
   maximum displ.:     0.0748683 α      in ANC's #4, #3, #1, ...
 * RMSD in coord.:     0.2114631 α      energy gain  -0.6598131E-03 Eh

generating ANC from exact Hessian ...
Using Lindh-Hessian (1995)
 Shifting diagonal of input Hessian by   1.009369883161050E-002
 Lowest  eigenvalues of input Hessian
    0.010000    0.000000    0.000000    0.000000    0.000000    0.000000
    0.000000    0.010124    0.010193    0.010394    0.010446    0.011252
    0.012113    0.012375    0.016077    0.016747    0.017252    0.018350
 Highest eigenvalues
    2.156767    2.198870    2.241503    2.260853    2.314151    2.406285
 

........................................................................
.............................. CYCLE   93 ..............................
........................................................................

 iter      E             dE          RMSdq      gap      omega  full diag
   1   -214.9081543 -0.214908E+03  0.988E-03    0.76       0.0  T
   2   -214.9081544 -0.925358E-07  0.580E-03    0.77       1.7  T
   3   -214.9081527  0.167464E-05  0.318E-03    0.76       3.0  T
   4   -214.9081542 -0.147928E-05  0.130E-03    0.77       7.4  T
   5   -214.9081545 -0.296694E-06  0.403E-04    0.77      23.8  T
   6   -214.9081545 -0.160489E-07  0.209E-04    0.77      45.8  T
     SCC iter.                  ...        0 min,  0.171 sec
     gradient                   ...        0 min,  0.026 sec
 * total energy  :  -212.6840812 Eh     change       -0.1926088E-04 Eh
   gradient norm :     0.0003591 Eh/α   predicted     0.0000000E+00 (-100.00%)
   displ. norm   :     0.0355516 α      lambda       -0.1813412E-06
   maximum displ.:     0.0341963 α      in ANC's #4, #5, #3, ...

........................................................................
.............................. CYCLE   94 ..............................
........................................................................

 iter      E             dE          RMSdq      gap      omega  full diag
   1   -214.9082391 -0.214908E+03  0.382E-03    0.76       0.0  T
   2   -214.9082391 -0.287665E-08  0.223E-03    0.77       4.3  T
   3   -214.9082387  0.400023E-06  0.143E-03    0.76       6.7  T
   4   -214.9082391 -0.396211E-06  0.357E-04    0.77      26.8  T
   5   -214.9082391 -0.213580E-07  0.113E-04    0.77      84.9  T
     SCC iter.                  ...        0 min,  0.128 sec
     gradient                   ...        0 min,  0.023 sec
 * total energy  :  -212.6840902 Eh     change       -0.8947667E-05 Eh
   gradient norm :     0.0002923 Eh/α   predicted    -0.3012747E-05 ( -66.33%)
   displ. norm   :     0.0481981 α      lambda       -0.7912836E-05
   maximum displ.:     0.0427870 α      in ANC's #4, #5, #3, ...

........................................................................
.............................. CYCLE   95 ..............................
........................................................................

 iter      E             dE          RMSdq      gap      omega  full diag
   1   -214.9082584 -0.214908E+03  0.532E-03    0.76       0.0  T
   2   -214.9082584 -0.536610E-08  0.311E-03    0.77       3.1  T
   3   -214.9082576  0.798917E-06  0.209E-03    0.76       4.6  T
   4   -214.9082584 -0.789454E-06  0.506E-04    0.76      18.9  T
   5   -214.9082584 -0.430366E-07  0.152E-04    0.76      63.1  T
     SCC iter.                  ...        0 min,  0.132 sec
     gradient                   ...        0 min,  0.027 sec
 * total energy  :  -212.6841019 Eh     change       -0.1169734E-04 Eh
   gradient norm :     0.0003010 Eh/α   predicted    -0.3960653E-05 ( -66.14%)
   displ. norm   :     0.0663209 α      lambda       -0.1033304E-04
   maximum displ.:     0.0551050 α      in ANC's #4, #5, #3, ...

........................................................................
.............................. CYCLE   96 ..............................
........................................................................

 iter      E             dE          RMSdq      gap      omega  full diag
   1   -214.9082247 -0.214908E+03  0.724E-03    0.76       0.0  T
   2   -214.9082247 -0.284180E-08  0.424E-03    0.76       2.3  T
   3   -214.9082229  0.176466E-05  0.316E-03    0.76       3.0  T
   4   -214.9082247 -0.175022E-05  0.743E-04    0.76      12.9  T
   5   -214.9082248 -0.916891E-07  0.235E-04    0.76      40.8  T
   6   -214.9082248 -0.422060E-08  0.144E-04    0.76      66.7  T
     SCC iter.                  ...        0 min,  0.160 sec
     gradient                   ...        0 min,  0.030 sec
 * total energy  :  -212.6841171 Eh     change       -0.1523499E-04 Eh
   gradient norm :     0.0003101 Eh/α   predicted    -0.5177285E-05 ( -66.02%)
   displ. norm   :     0.0909036 α      lambda       -0.1349465E-04
   maximum displ.:     0.0721044 α      in ANC's #4, #5, #3, ...

........................................................................
.............................. CYCLE   97 ..............................
........................................................................

 iter      E             dE          RMSdq      gap      omega  full diag
   1   -214.9082132 -0.214908E+03  0.960E-03    0.76       0.0  T
   2   -214.9082133 -0.325502E-07  0.563E-03    0.76       1.7  T
   3   -214.9082110  0.225426E-05  0.357E-03    0.76       2.7  T
   4   -214.9082132 -0.217198E-05  0.103E-03    0.76       9.3  T
   5   -214.9082134 -0.184893E-06  0.295E-04    0.76      32.5  T
   6   -214.9082134 -0.632301E-08  0.163E-04    0.76      58.9  T
     SCC iter.                  ...        0 min,  0.175 sec
     gradient                   ...        0 min,  0.026 sec
 * total energy  :  -212.6841369 Eh     change       -0.1983270E-04 Eh
   gradient norm :     0.0003447 Eh/α   predicted    -0.6774288E-05 ( -65.84%)
   displ. norm   :     0.1202890 α      lambda       -0.1709640E-04
   maximum displ.:     0.0926922 α      in ANC's #4, #5, #3, ...

........................................................................
.............................. CYCLE   98 ..............................
........................................................................

 iter      E             dE          RMSdq      gap      omega  full diag
   1   -214.9081840 -0.214908E+03  0.126E-02    0.76       0.0  T
   2   -214.9081841 -0.645500E-07  0.740E-03    0.76       1.3  T
   3   -214.9081804  0.373486E-05  0.451E-03    0.76       2.1  T
   4   -214.9081840 -0.358518E-05  0.135E-03    0.76       7.1  T
   5   -214.9081843 -0.316480E-06  0.373E-04    0.76      25.7  T
   6   -214.9081843 -0.794964E-08  0.194E-04    0.76      49.3  T
     SCC iter.                  ...        0 min,  0.180 sec
     gradient                   ...        0 min,  0.028 sec
 * total energy  :  -212.6841620 Eh     change       -0.2505655E-04 Eh
   gradient norm :     0.0003779 Eh/α   predicted    -0.8605327E-05 ( -65.66%)
   displ. norm   :     0.1476296 α      lambda       -0.2026323E-04
   maximum displ.:     0.1120244 α      in ANC's #4, #5, #3, ...

........................................................................
.............................. CYCLE   99 ..............................
........................................................................

 iter      E             dE          RMSdq      gap      omega  full diag
   1   -214.9081552 -0.214908E+03  0.153E-02    0.76       0.0  T
   2   -214.9081554 -0.155803E-06  0.897E-03    0.76       1.1  T
   3   -214.9081521  0.324458E-05  0.437E-03    0.76       2.2  T
   4   -214.9081550 -0.290420E-05  0.169E-03    0.76       5.7  T
   5   -214.9081555 -0.509139E-06  0.478E-04    0.76      20.0  T
   6   -214.9081555 -0.153678E-07  0.260E-04    0.76      36.8  T
     SCC iter.                  ...        0 min,  0.183 sec
     gradient                   ...        0 min,  0.041 sec
 * total energy  :  -212.6841915 Eh     change       -0.2953805E-04 Eh
   gradient norm :     0.0004109 Eh/α   predicted    -0.1023591E-04 ( -65.35%)
   displ. norm   :     0.1685204 α      lambda       -0.2246642E-04
   maximum displ.:     0.1272294 α      in ANC's #4, #5, #3, ...

........................................................................
.............................. CYCLE  100 ..............................
........................................................................

 iter      E             dE          RMSdq      gap      omega  full diag
   1   -214.9081678 -0.214908E+03  0.175E-02    0.76       0.0  T
   2   -214.9081681 -0.225726E-06  0.103E-02    0.76       1.0  T
   3   -214.9081645  0.352578E-05  0.436E-03    0.76       2.2  T
   4   -214.9081675 -0.299335E-05  0.198E-03    0.76       4.8  T
   5   -214.9081683 -0.732680E-06  0.579E-04    0.76      16.5  T
   6   -214.9081683 -0.140021E-07  0.352E-04    0.76      27.2  T
     SCC iter.                  ...        0 min,  0.169 sec
     gradient                   ...        0 min,  0.026 sec
 * total energy  :  -212.6842242 Eh     change       -0.3268683E-04 Eh
   gradient norm :     0.0004252 Eh/α   predicted    -0.1137520E-04 ( -65.20%)
   displ. norm   :     0.1754286 α      lambda       -0.2289267E-04
   maximum displ.:     0.1327998 α      in ANC's #4, #5, #3, ...

........................................................................
.............................. CYCLE  101 ..............................
........................................................................

 iter      E             dE          RMSdq      gap      omega  full diag
   1   -214.9082179 -0.214908E+03  0.184E-02    0.76       0.0  T
   2   -214.9082182 -0.298412E-06  0.107E-02    0.76       1.0  T
   3   -214.9082159  0.230248E-05  0.387E-03    0.76       2.5  T
   4   -214.9082177 -0.178367E-05  0.196E-03    0.76       4.9  T
   5   -214.9082184 -0.685490E-06  0.631E-04    0.76      15.2  T
   6   -214.9082184 -0.358253E-07  0.295E-04    0.76      32.5  T
     SCC iter.                  ...        0 min,  0.174 sec
     gradient                   ...        0 min,  0.028 sec
 * total energy  :  -212.6842576 Eh     change       -0.3336073E-04 Eh
   gradient norm :     0.0003992 Eh/α   predicted    -0.1160653E-04 ( -65.21%)
   displ. norm   :     0.1706557 α      lambda       -0.2202086E-04
   maximum displ.:     0.1302421 α      in ANC's #4, #5, #3, ...

........................................................................
.............................. CYCLE  102 ..............................
........................................................................

 iter      E             dE          RMSdq      gap      omega  full diag
   1   -214.9083086 -0.214908E+03  0.181E-02    0.76       0.0  T
   2   -214.9083088 -0.259676E-06  0.106E-02    0.76       1.0  T
   3   -214.9083057  0.317252E-05  0.414E-03    0.76       2.3  T
   4   -214.9083084 -0.270064E-05  0.190E-03    0.76       5.0  T
   5   -214.9083090 -0.666352E-06  0.630E-04    0.76      15.2  T
   6   -214.9083091 -0.126861E-07  0.436E-04    0.76      22.0  T
     SCC iter.                  ...        0 min,  0.176 sec
     gradient                   ...        0 min,  0.027 sec
 * total energy  :  -212.6842898 Eh     change       -0.3223077E-04 Eh
   gradient norm :     0.0003676 Eh/α   predicted    -0.1115518E-04 ( -65.39%)
   displ. norm   :     0.1589397 α      lambda       -0.2055009E-04
   maximum displ.:     0.1228626 α      in ANC's #4, #3, #5, ...

........................................................................
.............................. CYCLE  103 ..............................
........................................................................

 iter      E             dE          RMSdq      gap      omega  full diag
   1   -214.9084204 -0.214908E+03  0.171E-02    0.76       0.0  T
   2   -214.9084207 -0.276368E-06  0.100E-02    0.76       1.0  T
   3   -214.9084195  0.118065E-05  0.290E-03    0.76       3.3  T
   4   -214.9084204 -0.971438E-06  0.140E-03    0.76       6.8  T
   5   -214.9084208 -0.309346E-06  0.675E-04    0.76      14.2  T
   6   -214.9084208 -0.535693E-07  0.286E-04    0.76      33.5  T
     SCC iter.                  ...        0 min,  0.172 sec
     gradient                   ...        0 min,  0.028 sec
 * total energy  :  -212.6843202 Eh     change       -0.3038395E-04 Eh
   gradient norm :     0.0003281 Eh/α   predicted    -0.1039098E-04 ( -65.80%)
   displ. norm   :     0.1437799 α      lambda       -0.1900650E-04
   maximum displ.:     0.1126839 α      in ANC's #4, #3, #5, ...

........................................................................
.............................. CYCLE  104 ..............................
........................................................................

 iter      E             dE          RMSdq      gap      omega  full diag
   1   -214.9085406 -0.214909E+03  0.158E-02    0.76       0.0  T
   2   -214.9085408 -0.223076E-06  0.929E-03    0.76       1.0  T
   3   -214.9085396  0.128730E-05  0.289E-03    0.76       3.3  T
   4   -214.9085405 -0.950286E-06  0.156E-03    0.76       6.1  T
   5   -214.9085409 -0.440475E-06  0.554E-04    0.76      17.3  T
   6   -214.9085410 -0.256091E-07  0.270E-04    0.76      35.5  T
     SCC iter.                  ...        0 min,  0.181 sec
     gradient                   ...        0 min,  0.028 sec
 * total energy  :  -212.6843484 Eh     change       -0.2822265E-04 Eh
   gradient norm :     0.0003178 Eh/α   predicted    -0.9590939E-05 ( -66.02%)
   displ. norm   :     0.1327389 α      lambda       -0.1815664E-04
   maximum displ.:     0.1052122 α      in ANC's #4, #3, #5, ...

........................................................................
.............................. CYCLE  105 ..............................
........................................................................

 iter      E             dE          RMSdq      gap      omega  full diag
   1   -214.9086329 -0.214909E+03  0.147E-02    0.76       0.0  T
   2   -214.9086331 -0.193856E-06  0.864E-03    0.76       1.1  T
   3   -214.9086322  0.916680E-06  0.251E-03    0.76       3.8  T
   4   -214.9086329 -0.704557E-06  0.130E-03    0.76       7.4  T
   5   -214.9086332 -0.287316E-06  0.552E-04    0.76      17.3  T
   6   -214.9086332 -0.310959E-07  0.254E-04    0.76      37.7  T
     SCC iter.                  ...        0 min,  0.186 sec
     gradient                   ...        0 min,  0.030 sec
 * total energy  :  -212.6843755 Eh     change       -0.2707097E-04 Eh
   gradient norm :     0.0003165 Eh/α   predicted    -0.9149678E-05 ( -66.20%)
   displ. norm   :     0.1279473 α      lambda       -0.1816864E-04
   maximum displ.:     0.1020477 α      in ANC's #4, #3, #5, ...

........................................................................
.............................. CYCLE  106 ..............................
........................................................................

 iter      E             dE          RMSdq      gap      omega  full diag
   1   -214.9087255 -0.214909E+03  0.143E-02    0.76       0.0  T
   2   -214.9087256 -0.178104E-06  0.842E-03    0.76       1.1  T
   3   -214.9087247  0.975628E-06  0.256E-03    0.76       3.7  T
   4   -214.9087254 -0.748674E-06  0.132E-03    0.76       7.2  T
   5   -214.9087257 -0.300573E-06  0.530E-04    0.76      18.1  T
   6   -214.9087257 -0.264772E-07  0.257E-04    0.76      37.3  T
     SCC iter.                  ...        0 min,  0.175 sec
     gradient                   ...        0 min,  0.028 sec
 * total energy  :  -212.6844027 Eh     change       -0.2719090E-04 Eh
   gradient norm :     0.0003202 Eh/α   predicted    -0.9150755E-05 ( -66.35%)
   displ. norm   :     0.1308543 α      lambda       -0.1922946E-04
   maximum displ.:     0.1042781 α      in ANC's #4, #3, #1, ...

........................................................................
.............................. CYCLE  107 ..............................
........................................................................

 iter      E             dE          RMSdq      gap      omega  full diag
   1   -214.9087975 -0.214909E+03  0.146E-02    0.76       0.0  T
   2   -214.9087977 -0.173565E-06  0.861E-03    0.76       1.1  T
   3   -214.9087962  0.145166E-05  0.299E-03    0.76       3.2  T
   4   -214.9087974 -0.114339E-05  0.150E-03    0.76       6.4  T
   5   -214.9087978 -0.403028E-06  0.509E-04    0.76      18.8  T
   6   -214.9087978 -0.209269E-07  0.251E-04    0.76      38.1  T
     SCC iter.                  ...        0 min,  0.188 sec
     gradient                   ...        0 min,  0.028 sec
 * total energy  :  -212.6844315 Eh     change       -0.2884119E-04 Eh
   gradient norm :     0.0003301 Eh/α   predicted    -0.9688465E-05 ( -66.41%)
   displ. norm   :     0.1440050 α      lambda       -0.2175097E-04
   maximum displ.:     0.1139450 α      in ANC's #4, #3, #1, ...

........................................................................
.............................. CYCLE  108 ..............................
........................................................................

 iter      E             dE          RMSdq      gap      omega  full diag
   1   -214.9088535 -0.214909E+03  0.160E-02    0.76       0.0  T
   2   -214.9088537 -0.210904E-06  0.943E-03    0.76       1.0  T
   3   -214.9088520  0.167536E-05  0.322E-03    0.76       3.0  T
   4   -214.9088533 -0.130629E-05  0.164E-03    0.76       5.9  T
   5   -214.9088538 -0.475253E-06  0.565E-04    0.76      17.0  T
   6   -214.9088538 -0.264909E-07  0.280E-04    0.76      34.3  T
     SCC iter.                  ...        0 min,  0.171 sec
     gradient                   ...        0 min,  0.031 sec
 * total energy  :  -212.6844641 Eh     change       -0.3262762E-04 Eh
   gradient norm :     0.0003431 Eh/α   predicted    -0.1097628E-04 ( -66.36%)
   displ. norm   :     0.1695297 α      lambda       -0.2610281E-04
   maximum displ.:     0.1326091 α      in ANC's #4, #3, #1, ...

........................................................................
.............................. CYCLE  109 ..............................
........................................................................

 iter      E             dE          RMSdq      gap      omega  full diag
   1   -214.9088982 -0.214909E+03  0.188E-02    0.76       0.0  T
   2   -214.9088985 -0.280393E-06  0.110E-02    0.76       1.0  T
   3   -214.9088957  0.277228E-05  0.409E-03    0.76       2.3  T
   4   -214.9088980 -0.224227E-05  0.198E-03    0.76       4.8  T
   5   -214.9088987 -0.690371E-06  0.650E-04    0.76      14.7  T
   6   -214.9088987 -0.350919E-07  0.315E-04    0.76      30.4  T
     SCC iter.                  ...        0 min,  0.194 sec
     gradient                   ...        0 min,  0.028 sec
 * total energy  :  -212.6845032 Eh     change       -0.3910248E-04 Eh
   gradient norm :     0.0003630 Eh/α   predicted    -0.1322110E-04 ( -66.19%)
   displ. norm   :     0.2309103 α      lambda       -0.3580272E-04
   maximum displ.:     0.1786968 α      in ANC's #4, #3, #1, ...

........................................................................
.............................. CYCLE  110 ..............................
........................................................................

 iter      E             dE          RMSdq      gap      omega  full diag
   1   -214.9088790 -0.214909E+03  0.254E-02    0.76       0.0  T
   2   -214.9088795 -0.509749E-06  0.150E-02    0.76       1.0  T
   3   -214.9088740  0.550282E-05  0.569E-03    0.76       1.7  T
   4   -214.9088785 -0.450295E-05  0.271E-03    0.76       3.5  T
   5   -214.9088798 -0.130120E-05  0.882E-04    0.76      10.9  T
   6   -214.9088799 -0.602728E-07  0.451E-04    0.76      21.2  T
   7   -214.9088799 -0.109450E-07  0.241E-04    0.76      39.7  T
     SCC iter.                  ...        0 min,  0.195 sec
     gradient                   ...        0 min,  0.028 sec
 * total energy  :  -212.6845570 Eh     change       -0.5380480E-04 Eh
   gradient norm :     0.0004199 Eh/α   predicted    -0.1832880E-04 ( -65.93%)
   displ. norm   :     0.2315556 α      lambda       -0.3600508E-04
   maximum displ.:     0.1791865 α      in ANC's #4, #3, #1, ...

........................................................................
.............................. CYCLE  111 ..............................
........................................................................

 iter      E             dE          RMSdq      gap      omega  full diag
   1   -214.9086743 -0.214909E+03  0.254E-02    0.76       0.0  T
   2   -214.9086748 -0.502777E-06  0.150E-02    0.76       1.0  T
   3   -214.9086692  0.559143E-05  0.573E-03    0.76       1.7  T
   4   -214.9086739 -0.468718E-05  0.263E-03    0.76       3.6  T
   5   -214.9086751 -0.119692E-05  0.928E-04    0.76      10.3  T
   6   -214.9086752 -0.715708E-07  0.491E-04    0.76      19.5  T
   7   -214.9086752 -0.169606E-07  0.250E-04    0.76      38.4  T
     SCC iter.                  ...        0 min,  0.199 sec
     gradient                   ...        0 min,  0.028 sec
 * total energy  :  -212.6846111 Eh     change       -0.5404267E-04 Eh
   gradient norm :     0.0005975 Eh/α   predicted    -0.1843235E-04 ( -65.89%)
   displ. norm   :     1.4938992 α      lambda       -0.2341192E-03
   maximum displ.:     1.1641944 α      in ANC's #4, #3, #1, ...

........................................................................
.............................. CYCLE  112 ..............................
........................................................................

 iter      E             dE          RMSdq      gap      omega  full diag
   1   -214.9005351 -0.214901E+03  0.164E-01    0.75       0.0  T
   2   -214.9005556 -0.205372E-04  0.968E-02    0.76       1.0  T
   3   -214.9003272  0.228438E-03  0.372E-02    0.75       1.0  T
   4   -214.9005190 -0.191882E-03  0.169E-02    0.76       1.0  T
   5   -214.9005679 -0.488260E-04  0.609E-03    0.75       1.6  T
   6   -214.9005713 -0.339781E-05  0.305E-03    0.76       3.1  T
   7   -214.9005720 -0.679437E-06  0.141E-03    0.76       6.8  T
   8   -214.9005722 -0.281045E-06  0.483E-04    0.76      19.8  T
   9   -214.9005723 -0.207017E-07  0.297E-04    0.76      32.2  T
     SCC iter.                  ...        0 min,  0.263 sec
     gradient                   ...        0 min,  0.031 sec
 * total energy  :  -212.6848678 Eh     change       -0.2566691E-03 Eh
   gradient norm :     0.0076763 Eh/α   predicted    -0.2331738E-03 (  -9.15%)
   displ. norm   :     0.0988872 α      lambda        0.8149881E-04
   maximum displ.:     0.0661303 α      in ANC's #5, #4, #3, ...

........................................................................
.............................. CYCLE  113 ..............................
........................................................................

 iter      E             dE          RMSdq      gap      omega  full diag
   1   -214.9019190 -0.214902E+03  0.169E-02    0.76       0.0  T
   2   -214.9019191 -0.531767E-07  0.105E-02    0.75       1.0  T
   3   -214.9019073  0.117873E-04  0.827E-03    0.76       1.2  T
   4   -214.9019186 -0.113188E-04  0.260E-03    0.75       3.7  T
   5   -214.9019197 -0.109577E-05  0.824E-04    0.76      11.6  T
   6   -214.9019198 -0.902166E-07  0.466E-04    0.76      20.6  T
   7   -214.9019198 -0.266654E-07  0.224E-04    0.76      42.7  T
     SCC iter.                  ...        0 min,  0.226 sec
     gradient                   ...        0 min,  0.029 sec
 * total energy  :  -212.6848800 Eh     change       -0.1222809E-04 Eh
   gradient norm :     0.0072778 Eh/α   predicted     0.4114275E-04 (-436.46%)
   displ. norm   :     0.1295318 α      lambda       -0.6067948E-04
   maximum displ.:     0.0932494 α      in ANC's #4, #5, #1, ...

........................................................................
.............................. CYCLE  114 ..............................
........................................................................

 iter      E             dE          RMSdq      gap      omega  full diag
   1   -214.9028992 -0.214903E+03  0.124E-02    0.76       0.0  T
   2   -214.9028995 -0.253125E-06  0.736E-03    0.76       1.3  T
   3   -214.9028964  0.308624E-05  0.441E-03    0.75       2.2  T
   4   -214.9028994 -0.296608E-05  0.151E-03    0.76       6.4  T
   5   -214.9028997 -0.360298E-06  0.630E-04    0.76      15.2  T
   6   -214.9028998 -0.460987E-07  0.303E-04    0.76      31.6  T
     SCC iter.                  ...        0 min,  0.168 sec
     gradient                   ...        0 min,  0.028 sec
 * total energy  :  -212.6849283 Eh     change       -0.4830767E-04 Eh
   gradient norm :     0.0062300 Eh/α   predicted    -0.3085186E-04 ( -36.13%)
   displ. norm   :     0.2434761 α      lambda       -0.8817909E-04
   maximum displ.:     0.1735236 α      in ANC's #4, #5, #6, ...

........................................................................
.............................. CYCLE  115 ..............................
........................................................................

 iter      E             dE          RMSdq      gap      omega  full diag
   1   -214.9045946 -0.214905E+03  0.191E-02    0.76       0.0  T
   2   -214.9045954 -0.760739E-06  0.114E-02    0.76       1.0  T
   3   -214.9045851  0.103297E-04  0.820E-03    0.75       1.2  T
   4   -214.9045936 -0.854071E-05  0.385E-03    0.76       2.5  T
   5   -214.9045962 -0.265274E-05  0.104E-03    0.76       9.2  T
   6   -214.9045964 -0.134411E-06  0.470E-04    0.76      20.4  T
   7   -214.9045964 -0.858475E-08  0.345E-04    0.76      27.8  T
     SCC iter.                  ...        0 min,  0.190 sec
     gradient                   ...        0 min,  0.027 sec
 * total energy  :  -212.6849939 Eh     change       -0.6560879E-04 Eh
   gradient norm :     0.0049458 Eh/α   predicted    -0.4670421E-04 ( -28.81%)
   displ. norm   :     0.2583892 α      lambda       -0.6227279E-04
   maximum displ.:     0.1939981 α      in ANC's #4, #5, #6, ...

........................................................................
.............................. CYCLE  116 ..............................
........................................................................

 iter      E             dE          RMSdq      gap      omega  full diag
   1   -214.9060906 -0.214906E+03  0.194E-02    0.76       0.0  T
   2   -214.9060915 -0.859054E-06  0.114E-02    0.76       1.0  T
   3   -214.9060849  0.654891E-05  0.669E-03    0.75       1.4  T
   4   -214.9060903 -0.536510E-05  0.321E-03    0.76       3.0  T
   5   -214.9060921 -0.176661E-05  0.106E-03    0.76       9.0  T
   6   -214.9060922 -0.166188E-06  0.420E-04    0.76      22.8  T
   7   -214.9060922 -0.306900E-08  0.305E-04    0.76      31.4  T
     SCC iter.                  ...        0 min,  0.186 sec
     gradient                   ...        0 min,  0.026 sec
 * total energy  :  -212.6850395 Eh     change       -0.4561518E-04 Eh
   gradient norm :     0.0040215 Eh/α   predicted    -0.3322021E-04 ( -27.17%)
   displ. norm   :     0.2621517 α      lambda       -0.4606279E-04
   maximum displ.:     0.2147054 α      in ANC's #4, #5, #3, ...

........................................................................
.............................. CYCLE  117 ..............................
........................................................................

 iter      E             dE          RMSdq      gap      omega  full diag
   1   -214.9068307 -0.214907E+03  0.216E-02    0.76       0.0  T
   2   -214.9068314 -0.753126E-06  0.127E-02    0.76       1.0  T
   3   -214.9068251  0.635447E-05  0.642E-03    0.76       1.5  T
   4   -214.9068311 -0.607120E-05  0.233E-03    0.76       4.1  T
   5   -214.9068319 -0.767230E-06  0.116E-03    0.76       8.3  T
   6   -214.9068321 -0.210909E-06  0.431E-04    0.76      22.2  T
   7   -214.9068321 -0.713018E-08  0.270E-04    0.76      35.5  T
     SCC iter.                  ...        0 min,  0.189 sec
     gradient                   ...        0 min,  0.028 sec
 * total energy  :  -212.6850741 Eh     change       -0.3459952E-04 Eh
   gradient norm :     0.0036156 Eh/α   predicted    -0.2461638E-04 ( -28.85%)
   displ. norm   :     0.2902678 α      lambda       -0.4687297E-04
   maximum displ.:     0.2510986 α      in ANC's #4, #5, #3, ...

........................................................................
.............................. CYCLE  118 ..............................
........................................................................

 iter      E             dE          RMSdq      gap      omega  full diag
   1   -214.9065197 -0.214907E+03  0.273E-02    0.75       0.0  T
   2   -214.9065205 -0.797892E-06  0.160E-02    0.76       1.0  T
   3   -214.9065119  0.865226E-05  0.731E-03    0.76       1.3  T
   4   -214.9065210 -0.908912E-05  0.169E-03    0.76       5.7  T
   5   -214.9065213 -0.276198E-06  0.112E-03    0.76       8.5  T
   6   -214.9065214 -0.153658E-06  0.562E-04    0.76      17.1  T
   7   -214.9065214 -0.228248E-07  0.315E-04    0.76      30.4  T
     SCC iter.                  ...        0 min,  0.213 sec
     gradient                   ...        0 min,  0.030 sec
 * total energy  :  -212.6851111 Eh     change       -0.3701887E-04 Eh
   gradient norm :     0.0040084 Eh/α   predicted    -0.2541429E-04 ( -31.35%)
   displ. norm   :     0.3525549 α      lambda       -0.6072662E-04
   maximum displ.:     0.3047048 α      in ANC's #4, #3, #5, ...

........................................................................
.............................. CYCLE  119 ..............................
........................................................................

 iter      E             dE          RMSdq      gap      omega  full diag
   1   -214.9049630 -0.214905E+03  0.365E-02    0.75       0.0  T
   2   -214.9049641 -0.112730E-05  0.215E-02    0.76       1.0  T
   3   -214.9049509  0.132035E-04  0.893E-03    0.76       1.1  T
   4   -214.9049650 -0.140648E-04  0.177E-03    0.76       5.4  T
   5   -214.9049653 -0.318254E-06  0.107E-03    0.76       9.0  T
   6   -214.9049654 -0.835475E-07  0.626E-04    0.76      15.3  T
   7   -214.9049655 -0.430466E-07  0.324E-04    0.76      29.5  T
     SCC iter.                  ...        0 min,  0.229 sec
     gradient                   ...        0 min,  0.033 sec
 * total energy  :  -212.6851583 Eh     change       -0.4720878E-04 Eh
   gradient norm :     0.0051709 Eh/α   predicted    -0.3413952E-04 ( -27.68%)
   displ. norm   :     0.3280964 α      lambda       -0.6591684E-04
   maximum displ.:     0.2611865 α      in ANC's #4, #3, #1, ...

........................................................................
.............................. CYCLE  120 ..............................
........................................................................

 iter      E             dE          RMSdq      gap      omega  full diag
   1   -214.9030460 -0.214903E+03  0.367E-02    0.75       0.0  T
   2   -214.9030471 -0.108579E-05  0.216E-02    0.76       1.0  T
   3   -214.9030370  0.100770E-04  0.785E-03    0.76       1.2  T
   4   -214.9030477 -0.106690E-04  0.181E-03    0.75       5.3  T
   5   -214.9030480 -0.329055E-06  0.106E-03    0.76       9.0  T
   6   -214.9030481 -0.246922E-07  0.788E-04    0.75      12.2  T
   7   -214.9030481 -0.845515E-07  0.379E-04    0.76      25.3  T
     SCC iter.                  ...        0 min,  0.202 sec
     gradient                   ...        0 min,  0.028 sec
 * total energy  :  -212.6852108 Eh     change       -0.5250526E-04 Eh
   gradient norm :     0.0062271 Eh/α   predicted    -0.3650674E-04 ( -30.47%)
   displ. norm   :     0.3190482 α      lambda       -0.8727700E-04
   maximum displ.:     0.1910653 α      in ANC's #4, #3, #1, ...
 * RMSD in coord.:     0.5199355 α      energy gain  -0.1148895E-02 Eh

generating ANC from exact Hessian ...
Using Lindh-Hessian (1995)
 Shifting diagonal of input Hessian by   1.009530457589696E-002
 Lowest  eigenvalues of input Hessian
    0.010000    0.010009    0.000000    0.000000    0.000000    0.000000
    0.000000    0.000000    0.010180    0.010310    0.010553    0.011304
    0.011996    0.012220    0.015873    0.016660    0.017111    0.018170
 Highest eigenvalues
    2.156813    2.192779    2.235172    2.260325    2.310273    2.404484
 

........................................................................
.............................. CYCLE  121 ..............................
........................................................................

 iter      E             dE          RMSdq      gap      omega  full diag
   1   -214.9019742 -0.214902E+03  0.376E-02    0.75       0.0  T
   2   -214.9019754 -0.128624E-05  0.221E-02    0.75       1.0  T
   3   -214.9019672  0.820103E-05  0.725E-03    0.76       1.3  T
   4   -214.9019755 -0.826665E-05  0.234E-03    0.75       4.1  T
   5   -214.9019761 -0.555076E-06  0.149E-03    0.76       6.4  T
   6   -214.9019763 -0.200654E-06  0.958E-04    0.75      10.0  T
   7   -214.9019764 -0.125293E-06  0.345E-04    0.75      27.8  T
     SCC iter.                  ...        0 min,  0.186 sec
     gradient                   ...        0 min,  0.028 sec
 * total energy  :  -212.6852825 Eh     change       -0.7165767E-04 Eh
   gradient norm :     0.0064950 Eh/α   predicted     0.0000000E+00 (-100.00%)
   displ. norm   :     0.0622994 α      lambda       -0.1698502E-03
   maximum displ.:     0.0275066 α      in ANC's #5, #4, #3, ...

........................................................................
.............................. CYCLE  122 ..............................
........................................................................

 iter      E             dE          RMSdq      gap      omega  full diag
   1   -214.9083471 -0.214908E+03  0.180E-02    0.75       0.0  T
   2   -214.9083477 -0.579882E-06  0.109E-02    0.75       1.0  T
   3   -214.9083384  0.926145E-05  0.745E-03    0.75       1.3  T
   4   -214.9083454 -0.703460E-05  0.383E-03    0.76       2.5  T
   5   -214.9083482 -0.277830E-05  0.826E-04    0.75      11.6  T
   6   -214.9083483 -0.714608E-07  0.355E-04    0.75      27.0  T
   7   -214.9083483 -0.255255E-08  0.213E-04    0.75      45.0  T
     SCC iter.                  ...        0 min,  0.183 sec
     gradient                   ...        0 min,  0.029 sec
 * total energy  :  -212.6853957 Eh     change       -0.1131898E-03 Eh
   gradient norm :     0.0024268 Eh/α   predicted    -0.8571250E-04 ( -24.28%)
   displ. norm   :     0.0898082 α      lambda       -0.7656447E-04
   maximum displ.:     0.0485156 α      in ANC's #5, #4, #3, ...

........................................................................
.............................. CYCLE  123 ..............................
........................................................................

 iter      E             dE          RMSdq      gap      omega  full diag
   1   -214.9123823 -0.214912E+03  0.135E-02    0.75       0.0  T
   2   -214.9123827 -0.409132E-06  0.801E-03    0.75       1.2  T
   3   -214.9123777  0.494112E-05  0.586E-03    0.75       1.6  T
   4   -214.9123817 -0.392798E-05  0.281E-03    0.75       3.4  T
   5   -214.9123831 -0.138704E-05  0.855E-04    0.75      11.2  T
   6   -214.9123832 -0.102314E-06  0.375E-04    0.75      25.6  T
   7   -214.9123832 -0.107960E-07  0.217E-04    0.75      44.1  T
     SCC iter.                  ...        0 min,  0.188 sec
     gradient                   ...        0 min,  0.030 sec
 * total energy  :  -212.6854509 Eh     change       -0.5522868E-04 Eh
   gradient norm :     0.0018017 Eh/α   predicted    -0.3860426E-04 ( -30.10%)
   displ. norm   :     0.2097794 α      lambda       -0.7361369E-04
   maximum displ.:     0.1160951 α      in ANC's #5, #4, #3, ...

........................................................................
.............................. CYCLE  124 ..............................
........................................................................

 iter      E             dE          RMSdq      gap      omega  full diag
   1   -214.9154798 -0.214915E+03  0.274E-02    0.75       0.0  T
   2   -214.9154811 -0.129641E-05  0.163E-02    0.75       1.0  T
   3   -214.9154645  0.165790E-04  0.103E-02    0.75       1.0  T
   4   -214.9154776 -0.131321E-04  0.498E-03    0.75       1.9  T
   5   -214.9154821 -0.445763E-05  0.142E-03    0.75       6.7  T
   6   -214.9154823 -0.261243E-06  0.651E-04    0.75      14.7  T
   7   -214.9154823 -0.256470E-07  0.380E-04    0.75      25.2  T
     SCC iter.                  ...        0 min,  0.183 sec
     gradient                   ...        0 min,  0.027 sec
 * total energy  :  -212.6855348 Eh     change       -0.8391687E-04 Eh
   gradient norm :     0.0037431 Eh/α   predicted    -0.3760055E-04 ( -55.19%)
   displ. norm   :     0.2009435 α      lambda       -0.9808374E-04
   maximum displ.:     0.1134102 α      in ANC's #5, #4, #3, ...

........................................................................
.............................. CYCLE  125 ..............................
........................................................................

 iter      E             dE          RMSdq      gap      omega  full diag
   1   -214.9146208 -0.214915E+03  0.240E-02    0.75       0.0  T
   2   -214.9146218 -0.100380E-05  0.142E-02    0.75       1.0  T
   3   -214.9146151  0.676991E-05  0.688E-03    0.75       1.4  T
   4   -214.9146206 -0.552022E-05  0.323E-03    0.75       3.0  T
   5   -214.9146222 -0.167561E-05  0.122E-03    0.75       7.9  T
   6   -214.9146224 -0.201003E-06  0.558E-04    0.75      17.2  T
   7   -214.9146225 -0.190921E-07  0.337E-04    0.75      28.5  T
     SCC iter.                  ...        0 min,  0.193 sec
     gradient                   ...        0 min,  0.026 sec
 * total energy  :  -212.6856201 Eh     change       -0.8524463E-04 Eh
   gradient norm :     0.0034019 Eh/α   predicted    -0.5107883E-04 ( -40.08%)
   displ. norm   :     0.3353197 α      lambda       -0.1418636E-03
   maximum displ.:     0.1923064 α      in ANC's #5, #4, #3, ...

........................................................................
.............................. CYCLE  126 ..............................
........................................................................

 iter      E             dE          RMSdq      gap      omega  full diag
   1   -214.9115058 -0.214912E+03  0.390E-02    0.75       0.0  T
   2   -214.9115086 -0.279937E-05  0.232E-02    0.75       1.0  T
   3   -214.9114951  0.135749E-04  0.978E-03    0.75       1.0  T
   4   -214.9115053 -0.101888E-04  0.511E-03    0.75       1.9  T
   5   -214.9115095 -0.428325E-05  0.199E-03    0.75       4.8  T
   6   -214.9115101 -0.587420E-06  0.782E-04    0.75      12.2  T
   7   -214.9115102 -0.358684E-07  0.417E-04    0.75      23.0  T
     SCC iter.                  ...        0 min,  0.189 sec
     gradient                   ...        0 min,  0.026 sec
 * total energy  :  -212.6857253 Eh     change       -0.1051857E-03 Eh
   gradient norm :     0.0024096 Eh/α   predicted    -0.7891262E-04 ( -24.98%)
   displ. norm   :     0.2479743 α      lambda       -0.6890396E-04
   maximum displ.:     0.1490819 α      in ANC's #5, #4, #3, ...

........................................................................
.............................. CYCLE  127 ..............................
........................................................................

 iter      E             dE          RMSdq      gap      omega  full diag
   1   -214.9096925 -0.214910E+03  0.273E-02    0.75       0.0  T
   2   -214.9096938 -0.133937E-05  0.162E-02    0.75       1.0  T
   3   -214.9096881  0.569221E-05  0.651E-03    0.75       1.5  T
   4   -214.9096935 -0.531454E-05  0.256E-03    0.75       3.7  T
   5   -214.9096942 -0.787888E-06  0.145E-03    0.75       6.6  T
   6   -214.9096946 -0.326985E-06  0.595E-04    0.75      16.1  T
   7   -214.9096946 -0.283521E-07  0.302E-04    0.75      31.8  T
     SCC iter.                  ...        0 min,  0.214 sec
     gradient                   ...        0 min,  0.034 sec
 * total energy  :  -212.6857773 Eh     change       -0.5206757E-04 Eh
   gradient norm :     0.0022152 Eh/α   predicted    -0.3657238E-04 ( -29.76%)
   displ. norm   :     0.1498384 α      lambda       -0.4434097E-04
   maximum displ.:     0.0969105 α      in ANC's #5, #3, #4, ...

........................................................................
.............................. CYCLE  128 ..............................
........................................................................

 iter      E             dE          RMSdq      gap      omega  full diag
   1   -214.9093266 -0.214909E+03  0.166E-02    0.75       0.0  T
   2   -214.9093270 -0.383425E-06  0.983E-03    0.75       1.0  T
   3   -214.9093244  0.266575E-05  0.413E-03    0.75       2.3  T
   4   -214.9093269 -0.252144E-05  0.153E-03    0.75       6.3  T
   5   -214.9093272 -0.365591E-06  0.738E-04    0.75      13.0  T
   6   -214.9093273 -0.670328E-07  0.374E-04    0.75      25.6  T
     SCC iter.                  ...        0 min,  0.172 sec
     gradient                   ...        0 min,  0.029 sec
 * total energy  :  -212.6858158 Eh     change       -0.3846989E-04 Eh
   gradient norm :     0.0019110 Eh/α   predicted    -0.2267780E-04 ( -41.05%)
   displ. norm   :     0.2438947 α      lambda       -0.5979057E-04
   maximum displ.:     0.1662198 α      in ANC's #5, #3, #4, ...

........................................................................
.............................. CYCLE  129 ..............................
........................................................................

 iter      E             dE          RMSdq      gap      omega  full diag
   1   -214.9100732 -0.214910E+03  0.305E-02    0.75       0.0  T
   2   -214.9100744 -0.119257E-05  0.179E-02    0.75       1.0  T
   3   -214.9100654  0.900092E-05  0.779E-03    0.75       1.2  T
   4   -214.9100740 -0.857215E-05  0.284E-03    0.75       3.4  T
   5   -214.9100751 -0.107824E-05  0.157E-03    0.75       6.1  T
   6   -214.9100754 -0.332206E-06  0.702E-04    0.75      13.6  T
   7   -214.9100754 -0.229070E-07  0.463E-04    0.75      20.7  T
     SCC iter.                  ...        0 min,  0.193 sec
     gradient                   ...        0 min,  0.027 sec
 * total energy  :  -212.6858835 Eh     change       -0.6773548E-04 Eh
   gradient norm :     0.0021135 Eh/α   predicted    -0.3068609E-04 ( -54.70%)
   displ. norm   :     0.1482588 α      lambda       -0.4349306E-04
   maximum displ.:     0.1065518 α      in ANC's #5, #3, #6, ...

........................................................................
.............................. CYCLE  130 ..............................
........................................................................

 iter      E             dE          RMSdq      gap      omega  full diag
   1   -214.9104402 -0.214910E+03  0.185E-02    0.75       0.0  T
   2   -214.9104406 -0.445988E-06  0.109E-02    0.75       1.0  T
   3   -214.9104369  0.372669E-05  0.481E-03    0.75       2.0  T
   4   -214.9104400 -0.311890E-05  0.223E-03    0.75       4.3  T
   5   -214.9104409 -0.848996E-06  0.899E-04    0.75      10.7  T
   6   -214.9104410 -0.100744E-06  0.404E-04    0.75      23.7  T
     SCC iter.                  ...        0 min,  0.166 sec
     gradient                   ...        0 min,  0.027 sec
 * total energy  :  -212.6859230 Eh     change       -0.3946020E-04 Eh
   gradient norm :     0.0021336 Eh/α   predicted    -0.2222872E-04 ( -43.67%)
   displ. norm   :     0.1713790 α      lambda       -0.5714188E-04
   maximum displ.:     0.1228538 α      in ANC's #5, #3, #8, ...

........................................................................
.............................. CYCLE  131 ..............................
........................................................................

 iter      E             dE          RMSdq      gap      omega  full diag
   1   -214.9111076 -0.214911E+03  0.228E-02    0.75       0.0  T
   2   -214.9111083 -0.707239E-06  0.134E-02    0.75       1.0  T
   3   -214.9111008  0.748633E-05  0.686E-03    0.75       1.4  T
   4   -214.9111069 -0.607422E-05  0.326E-03    0.75       2.9  T
   5   -214.9111088 -0.187911E-05  0.113E-03    0.75       8.5  T
   6   -214.9111090 -0.171943E-06  0.458E-04    0.75      20.9  T
   7   -214.9111090 -0.320685E-08  0.274E-04    0.75      34.9  T
     SCC iter.                  ...        0 min,  0.184 sec
     gradient                   ...        0 min,  0.030 sec
 * total energy  :  -212.6859745 Eh     change       -0.5149810E-04 Eh
   gradient norm :     0.0018643 Eh/α   predicted    -0.2941596E-04 ( -42.88%)
   displ. norm   :     0.3432855 α      lambda       -0.7323553E-04
   maximum displ.:     0.2449260 α      in ANC's #5, #3, #8, ...

........................................................................
.............................. CYCLE  132 ..............................
........................................................................

 iter      E             dE          RMSdq      gap      omega  full diag
   1   -214.9115418 -0.214912E+03  0.456E-02    0.75       0.0  T
   2   -214.9115442 -0.244586E-05  0.268E-02    0.75       1.0  T
   3   -214.9115121  0.321359E-04  0.139E-02    0.74       1.0  T
   4   -214.9115386 -0.265224E-04  0.644E-03    0.75       1.5  T
   5   -214.9115460 -0.738115E-05  0.220E-03    0.75       4.3  T
   6   -214.9115466 -0.673771E-06  0.885E-04    0.75      10.8  T
   7   -214.9115467 -0.248415E-07  0.494E-04    0.75      19.4  T
     SCC iter.                  ...        0 min,  0.206 sec
     gradient                   ...        0 min,  0.033 sec
 * total energy  :  -212.6860654 Eh     change       -0.9091599E-04 Eh
   gradient norm :     0.0018750 Eh/α   predicted    -0.3853638E-04 ( -57.61%)
   displ. norm   :     0.3161245 α      lambda       -0.5863340E-04
   maximum displ.:     0.2278631 α      in ANC's #5, #3, #8, ...

........................................................................
.............................. CYCLE  133 ..............................
........................................................................

 iter      E             dE          RMSdq      gap      omega  full diag
   1   -214.9111374 -0.214911E+03  0.397E-02    0.75       0.0  T
   2   -214.9111385 -0.112706E-05  0.235E-02    0.75       1.0  T
   3   -214.9111132  0.252711E-04  0.119E-02    0.74       1.0  T
   4   -214.9111357 -0.224458E-04  0.478E-03    0.75       2.0  T
   5   -214.9111397 -0.398375E-05  0.166E-03    0.75       5.8  T
   6   -214.9111400 -0.343161E-06  0.760E-04    0.75      12.6  T
   7   -214.9111400 -0.225449E-07  0.443E-04    0.75      21.6  T
     SCC iter.                  ...        0 min,  0.239 sec
     gradient                   ...        0 min,  0.028 sec
 * total energy  :  -212.6861443 Eh     change       -0.7886604E-04 Eh
   gradient norm :     0.0019727 Eh/α   predicted    -0.3062027E-04 ( -61.17%)
   displ. norm   :     0.3254325 α      lambda       -0.6356212E-04
   maximum displ.:     0.2324366 α      in ANC's #5, #3, #8, ...

........................................................................
.............................. CYCLE  134 ..............................
........................................................................

 iter      E             dE          RMSdq      gap      omega  full diag
   1   -214.9106839 -0.214911E+03  0.396E-02    0.75       0.0  T
   2   -214.9106846 -0.655796E-06  0.235E-02    0.75       1.0  T
   3   -214.9106601  0.244819E-04  0.114E-02    0.74       1.0  T
   4   -214.9106832 -0.230798E-04  0.381E-03    0.75       2.5  T
   5   -214.9106855 -0.237500E-05  0.148E-03    0.75       6.5  T
   6   -214.9106858 -0.221644E-06  0.773E-04    0.75      12.4  T
   7   -214.9106858 -0.365518E-07  0.429E-04    0.75      22.3  T
     SCC iter.                  ...        0 min,  0.191 sec
     gradient                   ...        0 min,  0.027 sec
 * total energy  :  -212.6862319 Eh     change       -0.8761517E-04 Eh
   gradient norm :     0.0019581 Eh/α   predicted    -0.3327878E-04 ( -62.02%)
   displ. norm   :     0.4541498 α      lambda       -0.8963892E-04
   maximum displ.:     0.3196422 α      in ANC's #5, #3, #2, ...

........................................................................
.............................. CYCLE  135 ..............................
........................................................................

 iter      E             dE          RMSdq      gap      omega  full diag
   1   -214.9101813 -0.214910E+03  0.543E-02    0.74       0.0  T
   2   -214.9101827 -0.132991E-05  0.323E-02    0.74       1.0  T
   3   -214.9101508  0.318627E-04  0.131E-02    0.74       1.0  T
   4   -214.9101805 -0.296928E-04  0.468E-03    0.75       2.0  T
   5   -214.9101839 -0.344692E-05  0.198E-03    0.74       4.8  T
   6   -214.9101843 -0.369513E-06  0.107E-03    0.74       9.0  T
   7   -214.9101844 -0.956393E-07  0.531E-04    0.74      18.0  T
   8   -214.9101844 -0.399324E-07  0.184E-04    0.74      52.1  T
     SCC iter.                  ...        0 min,  0.206 sec
     gradient                   ...        0 min,  0.028 sec
 * total energy  :  -212.6863519 Eh     change       -0.1199571E-03 Eh
   gradient norm :     0.0021009 Eh/α   predicted    -0.4892963E-04 ( -59.21%)
   displ. norm   :     0.4309376 α      lambda       -0.1160394E-03
   maximum displ.:     0.3008999 α      in ANC's #5, #3, #2, ...

........................................................................
.............................. CYCLE  136 ..............................
........................................................................

 iter      E             dE          RMSdq      gap      omega  full diag
   1   -214.9096343 -0.214910E+03  0.507E-02    0.74       0.0  T
   2   -214.9096357 -0.144811E-05  0.302E-02    0.74       1.0  T
   3   -214.9096144  0.212844E-04  0.110E-02    0.74       1.0  T
   4   -214.9096338 -0.193899E-04  0.429E-03    0.74       2.2  T
   5   -214.9096366 -0.277066E-05  0.201E-03    0.74       4.8  T
   6   -214.9096370 -0.449371E-06  0.994E-04    0.74       9.6  T
   7   -214.9096371 -0.825733E-07  0.489E-04    0.74      19.6  T
     SCC iter.                  ...        0 min,  0.189 sec
     gradient                   ...        0 min,  0.028 sec
 * total energy  :  -212.6864547 Eh     change       -0.1028487E-03 Eh
   gradient norm :     0.0024614 Eh/α   predicted    -0.6879970E-04 ( -33.11%)
   displ. norm   :     0.6319928 α      lambda       -0.1501766E-03
   maximum displ.:     0.4391022 α      in ANC's #5, #3, #2, ...

........................................................................
.............................. CYCLE  137 ..............................
........................................................................

 iter      E             dE          RMSdq      gap      omega  full diag
   1   -214.9087545 -0.214909E+03  0.733E-02    0.74       0.0  T
   2   -214.9087580 -0.352357E-05  0.436E-02    0.74       1.0  T
   3   -214.9087207  0.372891E-04  0.148E-02    0.74       1.0  T
   4   -214.9087540 -0.333151E-04  0.614E-03    0.74       1.6  T
   5   -214.9087596 -0.558272E-05  0.299E-03    0.74       3.2  T
   6   -214.9087606 -0.101263E-05  0.148E-03    0.74       6.5  T
   7   -214.9087608 -0.189141E-06  0.757E-04    0.74      12.7  T
   8   -214.9087609 -0.791587E-07  0.267E-04    0.74      35.9  T
     SCC iter.                  ...        0 min,  0.239 sec
     gradient                   ...        0 min,  0.028 sec
 * total energy  :  -212.6865738 Eh     change       -0.1191259E-03 Eh
   gradient norm :     0.0031764 Eh/α   predicted    -0.1050855E-03 ( -11.79%)
   displ. norm   :     0.4896655 α      lambda       -0.9511211E-04
   maximum displ.:     0.3340225 α      in ANC's #5, #3, #2, ...

........................................................................
.............................. CYCLE  138 ..............................
........................................................................

 iter      E             dE          RMSdq      gap      omega  full diag
   1   -214.9090153 -0.214909E+03  0.562E-02    0.74       0.0  T
   2   -214.9090179 -0.250796E-05  0.333E-02    0.74       1.0  T
   3   -214.9089990  0.188988E-04  0.109E-02    0.74       1.0  T
   4   -214.9090159 -0.169145E-04  0.457E-03    0.74       2.1  T
   5   -214.9090186 -0.273747E-05  0.255E-03    0.74       3.8  T
   6   -214.9090195 -0.863955E-06  0.110E-03    0.74       8.7  T
   7   -214.9090196 -0.104839E-06  0.507E-04    0.74      18.9  T
   8   -214.9090196 -0.338557E-07  0.190E-04    0.74      50.4  T
     SCC iter.                  ...        0 min,  0.218 sec
     gradient                   ...        0 min,  0.027 sec
 * total energy  :  -212.6866469 Eh     change       -0.7311595E-04 Eh
   gradient norm :     0.0033422 Eh/α   predicted    -0.5895990E-04 ( -19.36%)
   displ. norm   :     0.3153982 α      lambda       -0.7144773E-04
   maximum displ.:     0.2064900 α      in ANC's #3, #5, #4, ...

........................................................................
.............................. CYCLE  139 ..............................
........................................................................

 iter      E             dE          RMSdq      gap      omega  full diag
   1   -214.9112003 -0.214911E+03  0.363E-02    0.74       0.0  T
   2   -214.9112018 -0.147726E-05  0.215E-02    0.74       1.0  T
   3   -214.9111941  0.770026E-05  0.740E-03    0.74       1.3  T
   4   -214.9112009 -0.681620E-05  0.314E-03    0.74       3.0  T
   5   -214.9112021 -0.120486E-05  0.187E-03    0.74       5.1  T
   6   -214.9112026 -0.509333E-06  0.719E-04    0.74      13.3  T
   7   -214.9112027 -0.394330E-07  0.301E-04    0.74      31.8  T
     SCC iter.                  ...        0 min,  0.197 sec
     gradient                   ...        0 min,  0.028 sec
 * total energy  :  -212.6867037 Eh     change       -0.5671576E-04 Eh
   gradient norm :     0.0026110 Eh/α   predicted    -0.3928040E-04 ( -30.74%)
   displ. norm   :     0.2803755 α      lambda       -0.6976238E-04
   maximum displ.:     0.1866821 α      in ANC's #3, #5, #4, ...

........................................................................
.............................. CYCLE  140 ..............................
........................................................................

 iter      E             dE          RMSdq      gap      omega  full diag
   1   -214.9134005 -0.214913E+03  0.343E-02    0.74       0.0  T
   2   -214.9134021 -0.162567E-05  0.202E-02    0.74       1.0  T
   3   -214.9133937  0.842165E-05  0.792E-03    0.74       1.2  T
   4   -214.9134006 -0.692947E-05  0.364E-03    0.74       2.6  T
   5   -214.9134026 -0.193051E-05  0.182E-03    0.74       5.3  T
   6   -214.9134030 -0.447331E-06  0.758E-04    0.74      12.6  T
   7   -214.9134031 -0.265357E-07  0.442E-04    0.74      21.7  T
     SCC iter.                  ...        0 min,  0.189 sec
     gradient                   ...        0 min,  0.025 sec
 * total energy  :  -212.6867575 Eh     change       -0.5380177E-04 Eh
   gradient norm :     0.0019455 Eh/α   predicted    -0.3762356E-04 ( -30.07%)
   displ. norm   :     0.3747246 α      lambda       -0.5709067E-04
   maximum displ.:     0.2506015 α      in ANC's #3, #5, #4, ...

........................................................................
.............................. CYCLE  141 ..............................
........................................................................

 iter      E             dE          RMSdq      gap      omega  full diag
   1   -214.9148103 -0.214915E+03  0.487E-02    0.73       0.0  T
   2   -214.9148135 -0.321582E-05  0.286E-02    0.74       1.0  T
   3   -214.9147883  0.251911E-04  0.133E-02    0.73       1.0  T
   4   -214.9148083 -0.199869E-04  0.628E-03    0.74       1.5  T
   5   -214.9148148 -0.648331E-05  0.248E-03    0.74       3.9  T
   6   -214.9148155 -0.727233E-06  0.124E-03    0.74       7.7  T
   7   -214.9148156 -0.942269E-07  0.728E-04    0.74      13.2  T
   8   -214.9148157 -0.972583E-07  0.219E-04    0.74      43.8  T
     SCC iter.                  ...        0 min,  0.226 sec
     gradient                   ...        0 min,  0.032 sec
 * total energy  :  -212.6868118 Eh     change       -0.5433506E-04 Eh
   gradient norm :     0.0019676 Eh/α   predicted    -0.3032720E-04 ( -44.18%)
   displ. norm   :     0.1625097 α      lambda       -0.2532858E-04
   maximum displ.:     0.1042390 α      in ANC's #3, #5, #4, ...

........................................................................
.............................. CYCLE  142 ..............................
........................................................................

 iter      E             dE          RMSdq      gap      omega  full diag
   1   -214.9134746 -0.214913E+03  0.223E-02    0.74       0.0  T
   2   -214.9134750 -0.423644E-06  0.131E-02    0.74       1.0  T
   3   -214.9134632  0.118446E-04  0.855E-03    0.74       1.1  T
   4   -214.9134740 -0.108013E-04  0.303E-03    0.74       3.2  T
   5   -214.9134755 -0.152881E-05  0.103E-03    0.74       9.3  T
   6   -214.9134756 -0.116699E-06  0.598E-04    0.74      16.0  T
   7   -214.9134756 -0.325838E-07  0.298E-04    0.74      32.2  T
     SCC iter.                  ...        0 min,  0.208 sec
     gradient                   ...        0 min,  0.028 sec
 * total energy  :  -212.6868423 Eh     change       -0.3046393E-04 Eh
   gradient norm :     0.0017323 Eh/α   predicted    -0.1281334E-04 ( -57.94%)
   displ. norm   :     0.1972723 α      lambda       -0.3939736E-04
   maximum displ.:     0.0954897 α      in ANC's #3, #6, #1, ...

........................................................................
.............................. CYCLE  143 ..............................
........................................................................

 iter      E             dE          RMSdq      gap      omega  full diag
   1   -214.9126341 -0.214913E+03  0.289E-02    0.74       0.0  T
   2   -214.9126345 -0.402051E-06  0.170E-02    0.74       1.0  T
   3   -214.9125978  0.366719E-04  0.151E-02    0.74       1.0  T
   4   -214.9126326 -0.347779E-04  0.478E-03    0.74       2.0  T
   5   -214.9126364 -0.381831E-05  0.148E-03    0.74       6.5  T
   6   -214.9126367 -0.245975E-06  0.841E-04    0.74      11.4  T
   7   -214.9126368 -0.683987E-07  0.420E-04    0.74      22.8  T
     SCC iter.                  ...        0 min,  0.222 sec
     gradient                   ...        0 min,  0.035 sec
 * total energy  :  -212.6868813 Eh     change       -0.3902507E-04 Eh
   gradient norm :     0.0024725 Eh/α   predicted    -0.2004309E-04 ( -48.64%)
   displ. norm   :     0.1488153 α      lambda       -0.3513221E-04
   maximum displ.:     0.0777219 α      in ANC's #3, #6, #1, ...

........................................................................
.............................. CYCLE  144 ..............................
........................................................................

 iter      E             dE          RMSdq      gap      omega  full diag
   1   -214.9112299 -0.214911E+03  0.198E-02    0.74       0.0  T
   2   -214.9112298  0.825732E-07  0.117E-02    0.74       1.0  T
   3   -214.9112086  0.212360E-04  0.110E-02    0.74       1.0  T
   4   -214.9112297 -0.211462E-04  0.264E-03    0.74       3.6  T
   5   -214.9112308 -0.108543E-05  0.850E-04    0.74      11.3  T
   6   -214.9112309 -0.650399E-07  0.509E-04    0.74      18.8  T
   7   -214.9112309 -0.199928E-07  0.273E-04    0.74      35.1  T
     SCC iter.                  ...        0 min,  0.221 sec
     gradient                   ...        0 min,  0.034 sec
 * total energy  :  -212.6869064 Eh     change       -0.2514653E-04 Eh
   gradient norm :     0.0020348 Eh/α   predicted    -0.1795708E-04 ( -28.59%)
   displ. norm   :     0.1637697 α      lambda       -0.3141453E-04
   maximum displ.:     0.0787647 α      in ANC's #3, #4, #1, ...

........................................................................
.............................. CYCLE  145 ..............................
........................................................................

 iter      E             dE          RMSdq      gap      omega  full diag
   1   -214.9106827 -0.214911E+03  0.202E-02    0.74       0.0  T
   2   -214.9106826  0.117275E-06  0.120E-02    0.74       1.0  T
   3   -214.9106609  0.217597E-04  0.110E-02    0.74       1.0  T
   4   -214.9106825 -0.216653E-04  0.265E-03    0.74       3.6  T
   5   -214.9106836 -0.112068E-05  0.858E-04    0.74      11.2  T
   6   -214.9106837 -0.687937E-07  0.476E-04    0.74      20.1  T
   7   -214.9106837 -0.106691E-07  0.290E-04    0.74      33.0  T
     SCC iter.                  ...        0 min,  0.222 sec
     gradient                   ...        0 min,  0.027 sec
 * total energy  :  -212.6869318 Eh     change       -0.2537057E-04 Eh
   gradient norm :     0.0021446 Eh/α   predicted    -0.1613099E-04 ( -36.42%)
   displ. norm   :     0.2292879 α      lambda       -0.4548336E-04
   maximum displ.:     0.1041314 α      in ANC's #3, #4, #1, ...

........................................................................
.............................. CYCLE  146 ..............................
........................................................................

 iter      E             dE          RMSdq      gap      omega  full diag
   1   -214.9109789 -0.214911E+03  0.271E-02    0.74       0.0  T
   2   -214.9109791 -0.188906E-06  0.161E-02    0.74       1.0  T
   3   -214.9109506  0.285603E-04  0.126E-02    0.74       1.0  T
   4   -214.9109781 -0.275229E-04  0.378E-03    0.74       2.5  T
   5   -214.9109806 -0.247079E-05  0.114E-03    0.74       8.4  T
   6   -214.9109807 -0.128521E-06  0.537E-04    0.74      17.8  T
   7   -214.9109807  0.523187E-09  0.355E-04    0.74      27.0  T
     SCC iter.                  ...        0 min,  0.249 sec
     gradient                   ...        0 min,  0.028 sec
 * total energy  :  -212.6869670 Eh     change       -0.3523801E-04 Eh
   gradient norm :     0.0022963 Eh/α   predicted    -0.2393949E-04 ( -32.06%)
   displ. norm   :     0.2535239 α      lambda       -0.4552558E-04
   maximum displ.:     0.1220008 α      in ANC's #4, #3, #1, ...

........................................................................
.............................. CYCLE  147 ..............................
........................................................................

 iter      E             dE          RMSdq      gap      omega  full diag
   1   -214.9119424 -0.214912E+03  0.287E-02    0.74       0.0  T
   2   -214.9119434 -0.939760E-06  0.171E-02    0.74       1.0  T
   3   -214.9119285  0.148851E-04  0.954E-03    0.74       1.0  T
   4   -214.9119416 -0.131040E-04  0.392E-03    0.74       2.4  T
   5   -214.9119443 -0.267455E-05  0.145E-03    0.74       6.6  T
   6   -214.9119445 -0.286697E-06  0.528E-04    0.74      18.2  T
   7   -214.9119446 -0.490465E-08  0.273E-04    0.74      35.1  T
     SCC iter.                  ...        0 min,  0.197 sec
     gradient                   ...        0 min,  0.030 sec
 * total energy  :  -212.6870022 Eh     change       -0.3511675E-04 Eh
   gradient norm :     0.0024861 Eh/α   predicted    -0.2422880E-04 ( -31.01%)
   displ. norm   :     0.2987348 α      lambda       -0.4744491E-04
   maximum displ.:     0.1454828 α      in ANC's #4, #3, #1, ...

........................................................................
.............................. CYCLE  148 ..............................
........................................................................

 iter      E             dE          RMSdq      gap      omega  full diag
   1   -214.9129610 -0.214913E+03  0.327E-02    0.74       0.0  T
   2   -214.9129626 -0.156072E-05  0.195E-02    0.74       1.0  T
   3   -214.9129525  0.101026E-04  0.870E-03    0.74       1.1  T
   4   -214.9129631 -0.106407E-04  0.221E-03    0.74       4.3  T
   5   -214.9129636 -0.455829E-06  0.129E-03    0.74       7.5  T
   6   -214.9129637 -0.167717E-06  0.755E-04    0.74      12.7  T
   7   -214.9129638 -0.495051E-07  0.436E-04    0.74      22.0  T
     SCC iter.                  ...        0 min,  0.190 sec
     gradient                   ...        0 min,  0.027 sec
 * total energy  :  -212.6870397 Eh     change       -0.3749489E-04 Eh
   gradient norm :     0.0025840 Eh/α   predicted    -0.2584180E-04 ( -31.08%)
   displ. norm   :     0.3723247 α      lambda       -0.5601759E-04
   maximum displ.:     0.1877494 α      in ANC's #3, #4, #1, ...

........................................................................
.............................. CYCLE  149 ..............................
........................................................................

 iter      E             dE          RMSdq      gap      omega  full diag
   1   -214.9136458 -0.214914E+03  0.392E-02    0.74       0.0  T
   2   -214.9136480 -0.225759E-05  0.234E-02    0.74       1.0  T
   3   -214.9136276  0.204329E-04  0.120E-02    0.74       1.0  T
   4   -214.9136459 -0.182810E-04  0.484E-03    0.74       2.0  T
   5   -214.9136494 -0.351284E-05  0.193E-03    0.74       5.0  T
   6   -214.9136499 -0.505742E-06  0.956E-04    0.74      10.0  T
   7   -214.9136499 -0.462373E-07  0.619E-04    0.74      15.5  T
     SCC iter.                  ...        0 min,  0.181 sec
     gradient                   ...        0 min,  0.027 sec
 * total energy  :  -212.6870840 Eh     change       -0.4434669E-04 Eh
   gradient norm :     0.0025068 Eh/α   predicted    -0.3189699E-04 ( -28.07%)
   displ. norm   :     0.4137519 α      lambda       -0.5963350E-04
   maximum displ.:     0.2137734 α      in ANC's #3, #4, #1, ...

........................................................................
.............................. CYCLE  150 ..............................
........................................................................

 iter      E             dE          RMSdq      gap      omega  full diag
   1   -214.9134995 -0.214913E+03  0.426E-02    0.74       0.0  T
   2   -214.9135019 -0.240559E-05  0.255E-02    0.74       1.0  T
   3   -214.9134739  0.280211E-04  0.137E-02    0.74       1.0  T
   4   -214.9134977 -0.238312E-04  0.598E-03    0.74       1.6  T
   5   -214.9135036 -0.588083E-05  0.198E-03    0.74       4.8  T
   6   -214.9135041 -0.450991E-06  0.108E-03    0.74       8.9  T
   7   -214.9135041 -0.756785E-07  0.666E-04    0.74      14.4  T
   8   -214.9135042 -0.754447E-07  0.180E-04    0.74      53.3  T
     SCC iter.                  ...        0 min,  0.226 sec
     gradient                   ...        0 min,  0.031 sec
 * total energy  :  -212.6871303 Eh     change       -0.4626740E-04 Eh
   gradient norm :     0.0025605 Eh/α   predicted    -0.3492519E-04 ( -24.51%)
   displ. norm   :     0.3753164 α      lambda       -0.5620588E-04
   maximum displ.:     0.1918288 α      in ANC's #3, #4, #1, ...
 * RMSD in coord.:     0.6174757 α      energy gain  -0.1919422E-02 Eh

generating ANC from exact Hessian ...
Using Lindh-Hessian (1995)
 Shifting diagonal of input Hessian by   1.009202357731227E-002
 Lowest  eigenvalues of input Hessian
    0.010000    0.010011    0.000000    0.000000    0.000000    0.000000
    0.000000    0.000000    0.010175    0.010588    0.010716    0.011390
    0.011961    0.012319    0.015921    0.016746    0.017616    0.018060
 Highest eigenvalues
    2.155454    2.198556    2.241050    2.259826    2.315376    2.406525
 

........................................................................
.............................. CYCLE  151 ..............................
........................................................................

 iter      E             dE          RMSdq      gap      omega  full diag
   1   -214.9130271 -0.214913E+03  0.385E-02    0.74       0.0  T
   2   -214.9130289 -0.184242E-05  0.230E-02    0.74       1.0  T
   3   -214.9130068  0.221256E-04  0.120E-02    0.74       1.0  T
   4   -214.9130253 -0.184810E-04  0.543E-03    0.74       1.8  T
   5   -214.9130302 -0.489686E-05  0.176E-03    0.74       5.5  T
   6   -214.9130305 -0.332748E-06  0.960E-04    0.74      10.0  T
   7   -214.9130306 -0.624690E-07  0.580E-04    0.74      16.5  T
     SCC iter.                  ...        0 min,  0.192 sec
     gradient                   ...        0 min,  0.027 sec
 * total energy  :  -212.6871723 Eh     change       -0.4207935E-04 Eh
   gradient norm :     0.0025767 Eh/α   predicted     0.0000000E+00 (-100.00%)
   displ. norm   :     0.0295020 α      lambda       -0.6766996E-05
   maximum displ.:     0.0142441 α      in ANC's #9, #11, #12, ...

........................................................................
.............................. CYCLE  152 ..............................
........................................................................

 iter      E             dE          RMSdq      gap      omega  full diag
   1   -214.9131935 -0.214913E+03  0.616E-03    0.74       0.0  T
   2   -214.9131935 -0.235527E-07  0.371E-03    0.74       2.6  T
   3   -214.9131913  0.224569E-05  0.370E-03    0.74       2.6  T
   4   -214.9131934 -0.209758E-05  0.134E-03    0.74       7.2  T
   5   -214.9131937 -0.326184E-06  0.324E-04    0.74      29.6  T
   6   -214.9131937 -0.140290E-07  0.126E-04    0.74      76.2  T
     SCC iter.                  ...        0 min,  0.171 sec
     gradient                   ...        0 min,  0.027 sec
 * total energy  :  -212.6871949 Eh     change       -0.2250879E-04 Eh
   gradient norm :     0.0016033 Eh/α   predicted    -0.1304669E-04 ( -42.04%)
   displ. norm   :     0.1775793 α      lambda       -0.7287684E-04
   maximum displ.:     0.0948024 α      in ANC's #9, #11, #8, ...

........................................................................
.............................. CYCLE  153 ..............................
........................................................................

 iter      E             dE          RMSdq      gap      omega  full diag
   1   -214.9130862 -0.214913E+03  0.332E-02    0.74       0.0  T
   2   -214.9130869 -0.694026E-06  0.199E-02    0.74       1.0  T
   3   -214.9130243  0.625390E-04  0.197E-02    0.73       1.0  T
   4   -214.9130821 -0.577964E-04  0.727E-03    0.74       1.3  T
   5   -214.9130918 -0.967407E-05  0.167E-03    0.74       5.7  T
   6   -214.9130922 -0.375156E-06  0.710E-04    0.74      13.5  T
   7   -214.9130922  0.381434E-08  0.489E-04    0.74      19.6  T
     SCC iter.                  ...        0 min,  0.192 sec
     gradient                   ...        0 min,  0.025 sec
 * total energy  :  -212.6872455 Eh     change       -0.5064375E-04 Eh
   gradient norm :     0.0031147 Eh/α   predicted    -0.3695096E-04 ( -27.04%)
   displ. norm   :     0.0347922 α      lambda       -0.1857737E-04
   maximum displ.:     0.0220769 α      in ANC's #9, #11, #7, ...

........................................................................
.............................. CYCLE  154 ..............................
........................................................................

 iter      E             dE          RMSdq      gap      omega  full diag
   1   -214.9130380 -0.214913E+03  0.495E-03    0.74       0.0  T
   2   -214.9130380 -0.362541E-07  0.293E-03    0.74       3.3  T
   3   -214.9130372  0.843142E-06  0.240E-03    0.74       4.0  T
   4   -214.9130380 -0.821412E-06  0.767E-04    0.74      12.5  T
   5   -214.9130381 -0.964507E-07  0.284E-04    0.74      33.7  T
     SCC iter.                  ...        0 min,  0.130 sec
     gradient                   ...        0 min,  0.026 sec
 * total energy  :  -212.6872619 Eh     change       -0.1641267E-04 Eh
   gradient norm :     0.0021768 Eh/α   predicted    -0.9300400E-05 ( -43.33%)
   displ. norm   :     0.1593628 α      lambda       -0.6100047E-04
   maximum displ.:     0.1015802 α      in ANC's #9, #11, #7, ...

........................................................................
.............................. CYCLE  155 ..............................
........................................................................

 iter      E             dE          RMSdq      gap      omega  full diag
   1   -214.9126147 -0.214913E+03  0.210E-02    0.74       0.0  T
   2   -214.9126156 -0.978084E-06  0.124E-02    0.74       1.0  T
   3   -214.9126087  0.693019E-05  0.723E-03    0.74       1.3  T
   4   -214.9126149 -0.618884E-05  0.289E-03    0.74       3.3  T
   5   -214.9126162 -0.127729E-05  0.124E-03    0.74       7.8  T
   6   -214.9126164 -0.246059E-06  0.482E-04    0.74      19.9  T
   7   -214.9126164 -0.715761E-08  0.336E-04    0.74      28.5  T
     SCC iter.                  ...        0 min,  0.204 sec
     gradient                   ...        0 min,  0.033 sec
 * total energy  :  -212.6872958 Eh     change       -0.3390096E-04 Eh
   gradient norm :     0.0020981 Eh/α   predicted    -0.3127569E-04 (  -7.74%)
   displ. norm   :     0.0463002 α      lambda       -0.1072095E-04
   maximum displ.:     0.0288640 α      in ANC's #9, #11, #7, ...

........................................................................
.............................. CYCLE  156 ..............................
........................................................................

 iter      E             dE          RMSdq      gap      omega  full diag
   1   -214.9127294 -0.214913E+03  0.577E-03    0.74       0.0  T
   2   -214.9127295 -0.242997E-07  0.345E-03    0.74       2.8  T
   3   -214.9127283  0.112927E-05  0.248E-03    0.74       3.9  T
   4   -214.9127294 -0.107304E-05  0.802E-04    0.74      11.9  T
   5   -214.9127295 -0.113956E-06  0.294E-04    0.74      32.6  T
   6   -214.9127295 -0.110198E-07  0.138E-04    0.74      69.5  T
     SCC iter.                  ...        0 min,  0.157 sec
     gradient                   ...        0 min,  0.026 sec
 * total energy  :  -212.6873052 Eh     change       -0.9428856E-05 Eh
   gradient norm :     0.0019165 Eh/α   predicted    -0.5376719E-05 ( -42.98%)
   displ. norm   :     0.2341667 α      lambda       -0.3734773E-04
   maximum displ.:     0.1384142 α      in ANC's #9, #11, #7, ...

........................................................................
.............................. CYCLE  157 ..............................
........................................................................

 iter      E             dE          RMSdq      gap      omega  full diag
   1   -214.9131025 -0.214913E+03  0.284E-02    0.74       0.0  T
   2   -214.9131029 -0.437918E-06  0.169E-02    0.74       1.0  T
   3   -214.9130758  0.271370E-04  0.122E-02    0.74       1.0  T
   4   -214.9131015 -0.256896E-04  0.396E-03    0.74       2.4  T
   5   -214.9131043 -0.282017E-05  0.121E-03    0.74       7.9  T
   6   -214.9131045 -0.189888E-06  0.485E-04    0.74      19.7  T
   7   -214.9131045  0.243637E-08  0.332E-04    0.74      28.9  T
     SCC iter.                  ...        0 min,  0.192 sec
     gradient                   ...        0 min,  0.029 sec
 * total energy  :  -212.6873311 Eh     change       -0.2585430E-04 Eh
   gradient norm :     0.0016521 Eh/α   predicted    -0.1913136E-04 ( -26.00%)
   displ. norm   :     0.0409400 α      lambda       -0.8566158E-05
   maximum displ.:     0.0198765 α      in ANC's #4, #2, #7, ...

........................................................................
.............................. CYCLE  158 ..............................
........................................................................

 iter      E             dE          RMSdq      gap      omega  full diag
   1   -214.9133022 -0.214913E+03  0.615E-03    0.74       0.0  T
   2   -214.9133022 -0.690888E-07  0.370E-03    0.74       2.6  T
   3   -214.9133017  0.542564E-06  0.187E-03    0.74       5.1  T
   4   -214.9133021 -0.464626E-06  0.800E-04    0.74      12.0  T
   5   -214.9133023 -0.120206E-06  0.274E-04    0.74      35.0  T
     SCC iter.                  ...        0 min,  0.152 sec
     gradient                   ...        0 min,  0.032 sec
 * total energy  :  -212.6873416 Eh     change       -0.1047909E-04 Eh
   gradient norm :     0.0011046 Eh/α   predicted    -0.4289848E-05 ( -59.06%)
   displ. norm   :     0.1482957 α      lambda       -0.2041380E-04
   maximum displ.:     0.0661343 α      in ANC's #4, #2, #7, ...

........................................................................
.............................. CYCLE  159 ..............................
........................................................................

 iter      E             dE          RMSdq      gap      omega  full diag
   1   -214.9132837 -0.214913E+03  0.165E-02    0.74       0.0  T
   2   -214.9132842 -0.533393E-06  0.981E-03    0.74       1.0  T
   3   -214.9132817  0.254177E-05  0.471E-03    0.74       2.0  T
   4   -214.9132839 -0.224386E-05  0.187E-03    0.74       5.1  T
   5   -214.9132844 -0.437474E-06  0.108E-03    0.74       8.8  T
   6   -214.9132846 -0.205054E-06  0.294E-04    0.74      32.6  T
   7   -214.9132846 -0.170661E-08  0.146E-04    0.74      65.4  T
     SCC iter.                  ...        0 min,  0.218 sec
     gradient                   ...        0 min,  0.030 sec
 * total energy  :  -212.6873601 Eh     change       -0.1854876E-04 Eh
   gradient norm :     0.0010238 Eh/α   predicted    -0.1032631E-04 ( -44.33%)
   displ. norm   :     0.1158172 α      lambda       -0.1215761E-04
   maximum displ.:     0.0660985 α      in ANC's #4, #2, #7, ...

........................................................................
.............................. CYCLE  160 ..............................
........................................................................

 iter      E             dE          RMSdq      gap      omega  full diag
   1   -214.9136426 -0.214914E+03  0.134E-02    0.74       0.0  T
   2   -214.9136429 -0.282734E-06  0.800E-03    0.74       1.2  T
   3   -214.9136384  0.448189E-05  0.544E-03    0.74       1.8  T
   4   -214.9136421 -0.365855E-05  0.248E-03    0.74       3.9  T
   5   -214.9136432 -0.112003E-05  0.714E-04    0.74      13.4  T
   6   -214.9136432 -0.732026E-07  0.255E-04    0.74      37.6  T
   7   -214.9136432 -0.326253E-09  0.151E-04    0.74      63.6  T
     SCC iter.                  ...        0 min,  0.219 sec
     gradient                   ...        0 min,  0.030 sec
 * total energy  :  -212.6873734 Eh     change       -0.1332075E-04 Eh
   gradient norm :     0.0013700 Eh/α   predicted    -0.6115720E-05 ( -54.09%)
   displ. norm   :     0.1545520 α      lambda       -0.1244058E-04
   maximum displ.:     0.0750631 α      in ANC's #4, #2, #7, ...

........................................................................
.............................. CYCLE  161 ..............................
........................................................................

 iter      E             dE          RMSdq      gap      omega  full diag
   1   -214.9132598 -0.214913E+03  0.135E-02    0.74       0.0  T
   2   -214.9132600 -0.279307E-06  0.795E-03    0.74       1.2  T
   3   -214.9132580  0.207078E-05  0.406E-03    0.74       2.4  T
   4   -214.9132597 -0.177025E-05  0.166E-03    0.74       5.8  T
   5   -214.9132602 -0.435618E-06  0.739E-04    0.74      13.0  T
   6   -214.9132603 -0.849623E-07  0.246E-04    0.74      38.9  T
     SCC iter.                  ...        0 min,  0.160 sec
     gradient                   ...        0 min,  0.030 sec
 * total energy  :  -212.6873885 Eh     change       -0.1501327E-04 Eh
   gradient norm :     0.0012163 Eh/α   predicted    -0.6287606E-05 ( -58.12%)
   displ. norm   :     0.1973094 α      lambda       -0.1940816E-04
   maximum displ.:     0.1115865 α      in ANC's #4, #2, #7, ...

........................................................................
.............................. CYCLE  162 ..............................
........................................................................

 iter      E             dE          RMSdq      gap      omega  full diag
   1   -214.9136716 -0.214914E+03  0.168E-02    0.74       0.0  T
   2   -214.9136721 -0.507097E-06  0.994E-03    0.74       1.0  T
   3   -214.9136683  0.377479E-05  0.568E-03    0.74       1.7  T
   4   -214.9136719 -0.354522E-05  0.200E-03    0.74       4.8  T
   5   -214.9136724 -0.561396E-06  0.991E-04    0.74       9.7  T
   6   -214.9136726 -0.154740E-06  0.360E-04    0.74      26.6  T
     SCC iter.                  ...        0 min,  0.164 sec
     gradient                   ...        0 min,  0.027 sec
 * total energy  :  -212.6874084 Eh     change       -0.1997172E-04 Eh
   gradient norm :     0.0011430 Eh/α   predicted    -0.9877519E-05 ( -50.54%)
   displ. norm   :     0.2224664 α      lambda       -0.1584979E-04
   maximum displ.:     0.1105390 α      in ANC's #4, #2, #7, ...

........................................................................
.............................. CYCLE  163 ..............................
........................................................................

 iter      E             dE          RMSdq      gap      omega  full diag
   1   -214.9130339 -0.214913E+03  0.180E-02    0.74       0.0  T
   2   -214.9130344 -0.524857E-06  0.107E-02    0.74       1.0  T
   3   -214.9130322  0.216945E-05  0.413E-03    0.74       2.3  T
   4   -214.9130342 -0.200238E-05  0.157E-03    0.74       6.1  T
   5   -214.9130346 -0.370952E-06  0.698E-04    0.74      13.7  T
   6   -214.9130347 -0.618753E-07  0.317E-04    0.74      30.2  T
     SCC iter.                  ...        0 min,  0.165 sec
     gradient                   ...        0 min,  0.028 sec
 * total energy  :  -212.6874242 Eh     change       -0.1576284E-04 Eh
   gradient norm :     0.0013914 Eh/α   predicted    -0.8103106E-05 ( -48.59%)
   displ. norm   :     0.1454493 α      lambda       -0.1139432E-04
   maximum displ.:     0.0825450 α      in ANC's #4, #2, #5, ...

........................................................................
.............................. CYCLE  164 ..............................
........................................................................

 iter      E             dE          RMSdq      gap      omega  full diag
   1   -214.9131768 -0.214913E+03  0.129E-02    0.74       0.0  T
   2   -214.9131770 -0.275564E-06  0.772E-03    0.74       1.2  T
   3   -214.9131745  0.253684E-05  0.410E-03    0.74       2.3  T
   4   -214.9131763 -0.181620E-05  0.218E-03    0.74       4.4  T
   5   -214.9131772 -0.890302E-06  0.561E-04    0.74      17.1  T
   6   -214.9131772 -0.382349E-07  0.233E-04    0.74      41.1  T
     SCC iter.                  ...        0 min,  0.165 sec
     gradient                   ...        0 min,  0.027 sec
 * total energy  :  -212.6874369 Eh     change       -0.1274542E-04 Eh
   gradient norm :     0.0010570 Eh/α   predicted    -0.5752708E-05 ( -54.86%)
   displ. norm   :     0.1367975 α      lambda       -0.9907945E-05
   maximum displ.:     0.0786625 α      in ANC's #4, #2, #5, ...

........................................................................
.............................. CYCLE  165 ..............................
........................................................................

 iter      E             dE          RMSdq      gap      omega  full diag
   1   -214.9134823 -0.214913E+03  0.137E-02    0.74       0.0  T
   2   -214.9134826 -0.353199E-06  0.825E-03    0.74       1.2  T
   3   -214.9134809  0.175326E-05  0.350E-03    0.74       2.7  T
   4   -214.9134824 -0.151660E-05  0.152E-03    0.74       6.3  T
   5   -214.9134827 -0.366822E-06  0.651E-04    0.74      14.7  T
   6   -214.9134828 -0.589185E-07  0.283E-04    0.74      33.8  T
     SCC iter.                  ...        0 min,  0.160 sec
     gradient                   ...        0 min,  0.029 sec
 * total energy  :  -212.6874469 Eh     change       -0.9997550E-05 Eh
   gradient norm :     0.0006324 Eh/α   predicted    -0.4999918E-05 ( -49.99%)
   displ. norm   :     0.0930746 α      lambda       -0.4896347E-05
   maximum displ.:     0.0527568 α      in ANC's #2, #4, #3, ...

........................................................................
.............................. CYCLE  166 ..............................
........................................................................

 iter      E             dE          RMSdq      gap      omega  full diag
   1   -214.9134218 -0.214913E+03  0.944E-03    0.74       0.0  T
   2   -214.9134219 -0.126403E-06  0.567E-03    0.74       1.7  T
   3   -214.9134205  0.142104E-05  0.306E-03    0.74       3.1  T
   4   -214.9134218 -0.125391E-05  0.124E-03    0.74       7.7  T
   5   -214.9134220 -0.250590E-06  0.487E-04    0.74      19.7  T
   6   -214.9134221 -0.353253E-07  0.202E-04    0.74      47.5  T
     SCC iter.                  ...        0 min,  0.180 sec
     gradient                   ...        0 min,  0.030 sec
 * total energy  :  -212.6874519 Eh     change       -0.4988711E-05 Eh
   gradient norm :     0.0005469 Eh/α   predicted    -0.2461350E-05 ( -50.66%)
   displ. norm   :     0.0558445 α      lambda       -0.3116431E-05
   maximum displ.:     0.0344214 α      in ANC's #2, #4, #3, ...

   *** GEOMETRY OPTIMIZATION CONVERGED AFTER 166 ITERATIONS ***

------------------------------------------------------------------------
 total energy gain   :        -0.0267699 Eh      -16.7984 kcal/mol
 total RMSD          :         2.5730841 a0        1.3616 Å
 total power (kW/mol):        -0.4234004 (step)   -1.7087 (real)
------------------------------------------------------------------------

 ANCopt (total)                0 d,  0 h,  0 min, 41.134 sec
 optimizer setup                ...        0 min,  0.002 sec (  0.005%)
 model hessian                  ...        0 min,  0.480 sec (  1.167%)
 ANC generation                 ...        0 min,  0.095 sec (  0.231%)
 coordinate transformation      ...        0 min,  0.013 sec (  0.032%)
 single point calculation       ...        0 min, 40.193 sec ( 97.712%)
 optimization log               ...        0 min,  0.258 sec (  0.627%)
 hessian update                 ...        0 min,  0.033 sec (  0.080%)
 rational function              ...        0 min,  0.032 sec (  0.078%)

================
 final structure:
================
109
 xtb: 6.7.1pre (5071a88)
C           -1.63662967404644        2.12264182182611        9.49239754660844
C           -1.68017346279190        1.23643395952361        8.23210619973145
C           -2.83095199425259        1.69375930368132        7.28333545854377
C           -3.82551964737691        0.53157780701277        7.30064716244659
C           -3.44449219026073       -0.22124917440370        8.58269990424081
N           -1.99485450477882       -0.13128293901205        8.67865505374344
C           -1.36261962408461       -1.27111837256219        8.01943603687441
C            0.10645470727272       -1.12613963220744        7.75139290844189
N            0.82250883120340       -2.18098734805428        7.68353279388878
N            2.13054068035578       -2.22650336989279        7.31620040430461
C            3.10792700510585       -1.42008837458217        6.78735261385313
O            4.16739118416875       -1.95551074592716        6.50255999606900
C            2.90540116961714        0.03566159643097        6.58376634842454
C            1.72270253072526        0.68891824642274        6.91914522537784
C            0.50192203443524        0.21775536778448        7.46713942358555
C           -0.34074424850103        1.29009620394784        7.58834094144240
N            0.30330183169715        2.41550788038936        7.14946706518532
C            1.55712547574312        2.07719660495553        6.71523911004096
C            2.57876087166113        2.84297587500465        6.17042354683377
C            3.73566645838296        2.16468486865457        5.84137044754123
C            3.92449307711594        0.80011707823662        6.03633728532513
F            4.75109248773499        2.87501571074563        5.29318955787987
H           -2.58607687709178        2.07816331212674       10.01659307099859
H           -0.85833451531336        1.76300143162127       10.16011467942554
H           -1.42839100179286        3.15711211090970        9.23001232298966
H           -3.28838909388844        2.60745640971193        7.66385811904246
H           -2.45489087098372        1.88270080731657        6.27940565023097
H           -4.86131552404771        0.86421650273619        7.30992173787736
H           -3.67327532125035       -0.10598740868181        6.43034723255081
H           -3.77032229847314       -1.25980879582012        8.58401931339677
H           -3.88064107635586        0.27619748538342        9.45416909700886
H           -1.53005212480858       -2.14417451457412        8.65546853568538
H           -1.81609887972390       -1.47432510038272        7.03665512014999
H            2.45660899688876       -3.18903693661228        7.35737898066343
H           -0.11260118231912        3.32576727889737        7.05238162350656
H            2.48831183946754        3.90095149900548        5.99030928553608
H            4.85453058644493        0.33303461587339        5.75623874942565
B            3.14148465585298       -2.37225928610565        2.37983682319603
N            3.42096771010010        0.27620104141783        2.16188847221569
B            2.96180169970801        1.95466730509488        0.12840111414679
N            2.68141590470695       -0.72433469891197       -1.87856801927604
B            0.07425282001998       -4.33724766407786        2.68929922889176
N           -3.29340740816622       -2.89193032745734        1.40837463877274
B           -0.88760651885243        3.49204875874879        2.98653941704828
N            0.03991545576869        0.42841290473776       -3.31851109646479
B            0.32192607668304        1.83764814295329       -3.18847424418253
N            1.21615767981388       -3.85776611857888       -1.61580020402884
B           -3.46705135847135        2.33974510662095        0.01805080054867
N           -2.26097338136240        2.89051141363193       -0.44220250402369
B            2.23999302601749        1.15944940881813       -3.83488469418443
N           -0.30947336113755        2.53836973275186        3.95471343042767
B            1.13949096751100       -2.75910125036677       -2.54284146528039
N            0.03832679198092        3.60502327707402        0.23086234767884
B           -1.02470111891271        1.35621645015186        4.08033676696277
N            1.08508345726222       -2.31863048875507        3.98270408840620
B            0.45584397798162        3.51343453405103       -1.12668604799651
N            0.80340103003845       -1.01920631821749        4.48293165011265
B           -1.09626158902548       -0.17855076241806       -2.71418761632470
N           -3.68483557184478        1.69320544206921        1.23496081922974
B            0.59569853820521        3.86486779914792        2.61041017545048
N           -0.53695150163224       -1.07915478341515        4.93729879320618
B           -2.65113989596876        1.88467392109989        2.20782038343964
N            3.89414788640971       -0.70626773190542        0.31924263745014
B           -2.58658560957419       -3.81087257633321        0.63946924706767
N            1.08385201786705        2.86526175189716        3.59256200540005
B           -2.26214133194276       -1.42372430736284        3.35915870450179
N           -2.55182283434282       -3.51092856581923       -0.80002705847512
B            3.18397928688137       -1.42801571937237       -0.66389387462404
N           -3.08718676301098       -1.14395215367328       -0.40767077926754
B            2.07981845046373        2.07505315538480        2.90966938991133
N           -0.30470063909213       -2.69592142829695       -2.35843971867440
B           -1.38228024235677       -1.79214693766364       -2.42497101103668
N            0.98968184191394        3.53631979625827        1.28489835479538
B            1.85373313314896        3.00533385661478       -1.82339743091293
N           -0.45034060197256       -4.88598151459285        1.50657971638513
B           -1.34665343355824        3.32810806019482        0.59172387809833
N           -1.78414601245236        3.07370759499400        1.96151549457758
B            0.96379277994471       -4.84885925390081        1.49703033261346
N           -1.24599142952112        0.11047604047940        4.78316173581371
B           -2.57637235434559       -2.19088911690804       -1.32151955879452
N           -1.48956483153578       -4.75836220282374        0.62367663122143
B           -2.04833926908881        0.78490658860208       -1.69210935005629
N            2.01532415048920       -4.44207445036785        0.65262106155503
B            3.81432165504875       -1.03740051560121        1.78126419318329
N            2.49647651229382        1.81589722031411       -1.19581927217326
B            1.91875226322253        2.56421995425164       -3.36612400673324
N           -3.93816037881391        0.99885758894601       -0.13335574516124
B           -0.59361690092526        2.75437036172928       -2.16784760640442
N           -1.76061721243840        2.21502936928696       -1.60559372706948
B            2.80835542531234       -3.32661658344642        1.11306730497377
N            2.22233218010523       -3.99338713614217       -0.69964422041197
B            1.89913530347342       -0.48136464393031        3.72433333658850
N           -2.41458266699664       -0.10303900960055        3.96676631644595
B           -1.28348421602904       -4.22359786210908       -0.72271964435650
N           -2.95859225386251        0.22700630858546       -0.74385096823163
B            3.66174877173674        0.65296470510519        0.77482649138413
N            2.45901784625315        0.69600698175890        3.11175737277157
B            1.91439058601162       -1.40337990707397       -2.91504177113835
N           -2.26451132787140        1.16459020033687        3.33542615646836
B            2.61516977506848        0.70916829432561       -2.13424783681889
N           -3.06828713475504       -1.73084523560493        2.27219026146763
B            1.33492744585087       -0.15979219913528       -3.78400746883274
N           -0.19663014612254       -3.75211876554909       -1.41850949158501
B           -0.11908827206301       -3.00919496456128        3.63177654637142
N           -1.16826327472879       -2.07529894733410        4.03392037526375
B           -3.37388761443529       -1.56495297715525        0.89616042463452
N            2.25921443698892       -1.86797762872608        3.34647029365778
B            2.20732638645206        2.78348002777685        1.34150162118825
N            2.83862687455879       -2.76482112675928       -0.21549894984483
 
 Bond Distances (Angstroems)
 ---------------------------
C1-C2=1.5413         C1-H23=1.0855        C1-H24=1.0867        C1-H25=1.0874        C2-C1=1.5413         C2-C3=1.5600         
C2-N6=1.4728         C2-C16=1.4871        C3-C2=1.5600         C3-C4=1.5297         C3-H26=1.0904        C3-H27=1.0886        
C4-C3=1.5297         C4-C5=1.5348         C4-H28=1.0879        C4-H29=1.0895        C5-C4=1.5348         C5-N6=1.4556         
C5-H30=1.0885        C5-H31=1.0941        N6-C2=1.4728         N6-C5=1.4556         N6-C7=1.4607         C7-N6=1.4607         
C7-C8=1.5003         C7-H32=1.0931        C7-H33=1.1013        C8-C7=1.5003         C8-N9=1.2767         C8-C15=1.4294        
N9-C8=1.2767         N9-N10=1.3594        N10-N9=1.3594        N10-C11=1.3731       N10-H34=1.0171       C11-N10=1.3731       
C11-O12=1.2208       C11-C13=1.4838       O12-C11=1.2208       C13-C11=1.4838       C13-C14=1.3921       C13-C21=1.3866       
C14-C13=1.3921       C14-C15=1.4187       C14-C18=1.4129       C15-C8=1.4294        C15-C14=1.4187       C15-C16=1.3692       
C16-C2=1.4871        C16-C15=1.3692       C16-N17=1.3689       N17-C16=1.3689       N17-C18=1.3693       N17-H35=1.0055       
C18-C14=1.4129       C18-N17=1.3693       C18-C19=1.3882       C19-C18=1.3882       C19-C20=1.3809       C19-H36=1.0770       
C20-C19=1.3809       C20-C21=1.3913       C20-F22=1.3551       C21-C13=1.3866       C21-C20=1.3913       C21-H37=1.0778       
F22-C20=1.3551       H23-C1=1.0855        H24-C1=1.0867        H25-C1=1.0874        H26-C3=1.0904        H27-C3=1.0886        
H28-C4=1.0879        H29-C4=1.0895        H30-C5=1.0885        H31-C5=1.0941        H32-C7=1.0931        H33-C7=1.1013        
H34-N10=1.0171       H35-N17=1.0055       H36-C19=1.0770       H37-C21=1.0778       B38-B84=1.6102       B38-B90=1.6206       
B38-N107=1.4025      N39-B84=1.4231       N39-B96=1.4573       N39-N97=1.4156       B40-N85=1.4104       B40-B96=1.6131       
B40-B108=1.6516      N41-B68=1.4910       N41-B98=1.4573       N41-B100=1.4576      B42-N75=1.4054       B42-B78=1.5731       
B42-B104=1.6399      N43-B64=1.3911       N43-N101=1.4646      N43-B106=1.4247      B44-N51=1.4769       B44-B60=1.5750       
B44-N77=1.4246       N45-B46=1.4430       N45-B58=1.4229       N45-B102=1.4966      B46-N45=1.4430       B46-B50=2.1347       
B46-B86=1.7633       B46-B88=1.6493       N47-B52=1.4396       N47-N91=1.3675       N47-N103=1.4304      B48-N49=1.4035       
B48-N59=1.3951       B48-N87=1.4293       N49-B48=1.4035       N49-B76=1.4479       N49-N89=1.4353       B50-B46=2.1347       
B50-B86=1.5154       B50-B100=1.7988      B50-B102=1.6007      N51-B44=1.4769       N51-B54=1.3874       N51-N65=1.4763       
B52-N47=1.4396       B52-N71=1.4573       B52-B98=1.6053       B52-N103=2.0088      N53-B56=1.4233       N53-N73=1.4215       
N53-B76=1.4578       B54-N51=1.3874       B54-N79=1.4473       B54-N99=1.4590       N55-N57=1.4206       N55-B104=1.4318      
N55-N107=1.4094      B56-N53=1.4233       B56-B74=1.6425       B56-B88=1.6618       N57-N55=1.4206       N57-N61=1.4165       
N57-B92=1.4371       B58-N45=1.4229       B58-B72=1.6641       B58-B82=1.6969       N59-B48=1.3951       N59-B62=1.4324       
N59-N87=1.5552       B60-B44=1.5750       B60-N65=1.4840       B60-N73=1.4213       N61-N57=1.4165       N61-N79=1.3935       
N61-N105=1.4856      B62-N59=1.4324       B62-N77=1.4920       B62-N99=1.3927       N63-B68=1.4113       N63-B84=1.5012       
N63-B96=1.4523       B64-N43=1.3911       B64-N67=1.4708       B64-N81=1.4496       B64-B94=1.9298       N65-N51=1.4763       
N65-B60=1.4840       N65-B70=1.4432       B66-N93=1.4617       B66-N101=1.3877      B66-N105=1.4410      N67-B64=1.4708       
N67-B80=1.4195       N67-B94=1.4569       B68-N41=1.4910       B68-N63=1.4113       B68-N109=1.4517      N69-B80=1.4806       
N69-N95=1.4174       N69-B106=1.3998      B70-N65=1.4432       B70-N97=1.4444       B70-B108=1.7255      N71-B52=1.4573       
N71-B72=1.4080       N71-N103=1.4180      B72-B58=1.6641       B72-N71=1.4080       B72-B80=1.6741       N73-N53=1.4215       
N73-B60=1.4213       N73-B108=1.4327      B74-B56=1.6425       B74-N85=1.4905       B74-B86=1.6059       N75-B42=1.4054       
N75-B78=1.4147       N75-N81=1.3696       B76-N49=1.4479       B76-N53=1.4578       B76-N77=1.4603       N77-B44=1.4246       
N77-B62=1.4920       N77-B76=1.4603       B78-B42=1.5731       B78-N75=1.4147       B78-N83=1.4086       N79-B54=1.4473       
N79-N61=1.3935       N79-N93=1.4414       B80-N67=1.4195       B80-N69=1.4806       B80-B72=1.6741       N81-B64=1.4496       
N81-N75=1.3696       N81-B94=1.4633       B82-B58=1.6969       B82-N89=1.4613       B82-N95=1.4279       N83-B78=1.4086       
N83-B90=1.4440       N83-N91=1.4397       B84-B38=1.6102       B84-N39=1.4231       B84-N63=1.5012       B84-B96=1.9732       
N85-B40=1.4104       N85-B74=1.4905       N85-B100=1.4559      B86-B46=1.7633       B86-B50=1.5154       B86-B74=1.6059       
N87-B48=1.4293       N87-N59=1.5552       N87-N95=1.3885       B88-B46=1.6493       B88-B56=1.6618       B88-N89=1.4032       
N89-N49=1.4353       N89-B82=1.4613       N89-B88=1.4032       B90-B38=1.6206       B90-N83=1.4440       B90-N109=1.4428      
N91-N47=1.3675       N91-N83=1.4397       N91-N109=1.4573      B92-N57=1.4371       B92-N97=1.4405       B92-N107=1.4816      
N93-B66=1.4617       N93-N79=1.4414       N93-N99=1.4241       B94-B64=1.9298       B94-N67=1.4569       B94-N81=1.4633       
B94-N103=1.3739      N95-N69=1.4174       N95-B82=1.4279       N95-N87=1.3885       B96-N39=1.4573       B96-B40=1.6131       
B96-N63=1.4523       B96-B84=1.9732       N97-N39=1.4156       N97-B70=1.4444       N97-B92=1.4405       B98-N41=1.4573       
B98-B52=1.6053       B98-B102=1.6240      N99-B54=1.4590       N99-B62=1.3927       N99-N93=1.4241       B100-N41=1.4576      
B100-B50=1.7988      B100-N85=1.4559      N101-N43=1.4646      N101-B66=1.3877      N101-B106=1.4193     B102-N45=1.4966      
B102-B50=1.6007      B102-B98=1.6240      N103-N47=1.4304      N103-B52=2.0088      N103-N71=1.4180      N103-B94=1.3739      
B104-B42=1.6399      B104-N55=1.4318      B104-N105=1.4610     N105-N61=1.4856      N105-B66=1.4410      N105-B104=1.4610     
B106-N43=1.4247      B106-N69=1.3998      B106-N101=1.4193     N107-B38=1.4025      N107-N55=1.4094      N107-B92=1.4816      
B108-B40=1.6516      B108-B70=1.7255      B108-N73=1.4327      N109-B68=1.4517      N109-B90=1.4428      N109-N91=1.4573      
 B  B  Rav=1.6895 sigma=0.1391  Rmin=1.5154  Rmax=2.1347    24
 C  H  Rav=1.0883 sigma=0.0061  Rmin=1.0770  Rmax=1.1013    13
 C  C  Rav=1.4504 sigma=0.0651  Rmin=1.3692  Rmax=1.5600    16
 N  H  Rav=1.0113 sigma=0.0058  Rmin=1.0055  Rmax=1.0171     2
 N  B  Rav=1.4477 sigma=0.0751  Rmin=1.3739  Rmax=2.0088    67
 N  C  Rav=1.3967 sigma=0.0653  Rmin=1.2767  Rmax=1.4728     7
 N  N  Rav=1.4276 sigma=0.0426  Rmin=1.3594  Rmax=1.5552    22
 O  C  Rav=1.2208 sigma=0.0000  Rmin=1.2208  Rmax=1.2208     1
 F  C  Rav=1.3551 sigma=0.0000  Rmin=1.3551  Rmax=1.3551     1
 
 selected bond angles (degree)
 --------------------
H23-C1-C2=110.28               H24-C1-C2=109.41               H24-C1-H23=108.43              H25-C1-C2=110.80               
H25-C1-H23=108.85              H25-C1-H24=109.02              C3-C2-C1=110.46                N6-C2-C1=106.98                
N6-C2-C3=107.40                C16-C2-C1=107.93               C16-C2-C3=112.99               C16-C2-N6=110.93               
C4-C3-C2=104.48                H26-C3-C2=110.05               H26-C3-C4=111.10               H27-C3-C2=110.91               
H27-C3-C4=111.52               H27-C3-H26=108.74              C5-C4-C3=102.75                H28-C4-C3=112.76               
H28-C4-C5=112.28               H29-C4-C3=110.16               H29-C4-C5=110.21               H29-C4-H28=108.59              
N6-C5-C4=105.78                H30-C5-C4=113.25               H30-C5-N6=110.92               H31-C5-C4=110.08               
H31-C5-N6=108.44               H31-C5-H30=108.27              C5-N6-C2=104.49                C7-N6-C2=119.69                
C7-N6-C5=110.68                C8-C7-N6=115.41                H32-C7-N6=107.12               H32-C7-C8=109.34               
H33-C7-N6=111.62               H33-C7-C8=105.16               H33-C7-H32=107.99              N9-C8-C7=118.61                
C15-C8-C7=113.41               C15-C8-N9=127.66               N10-N9-C8=125.57               C11-N10-N9=140.30              
H34-N10-N9=109.22              H34-N10-C11=110.07             
 
 selected dihedral angles (degree)
 ---------------------------------
C3-C2-C1-H23= 58.38           C3-C2-C1-H24=177.57           C3-C2-C1-H25=297.80           N6-C2-C1-H23=301.79           
N6-C2-C1-H24= 60.97           N6-C2-C1-H25=181.21           C16-C2-C1-H23=182.36          C16-C2-C1-H24=301.54          
C16-C2-C1-H25= 61.78          C4-C3-C2-C1=246.72            C4-C3-C2-N6=  3.05            C4-C3-C2-C16=125.71           
H26-C3-C2-C1=  6.06           H26-C3-C2-N6=122.39           H26-C3-C2-C16=245.05          H27-C3-C2-C1=126.43           
H27-C3-C2-N6=242.77           H27-C3-C2-C16=  5.42          C5-C4-C3-C2= 19.51            C5-C4-C3-H26=260.88           
C5-C4-C3-H27=139.39           H28-C4-C3-C2=140.61           H28-C4-C3-H26= 21.98          H28-C4-C3-H27=260.49          
H29-C4-C3-C2=262.09           H29-C4-C3-H26=143.46          H29-C4-C3-H27= 21.97          N6-C5-C4-C3=323.42            
N6-C5-C4-H28=202.00           N6-C5-C4-H29= 80.80           H30-C5-C4-C3=201.74           H30-C5-C4-H28= 80.32          
H30-C5-C4-H29=319.12          H31-C5-C4-C3= 80.39           H31-C5-C4-H28=318.96          H31-C5-C4-H29=197.77          
C5-N6-C2-C1= 92.75            C5-N6-C2-C3=334.15            C5-N6-C2-C16=210.23           C7-N6-C2-C1=217.31            
C7-N6-C2-C3= 98.70            C7-N6-C2-C16=334.78           C2-N6-C5-C4= 39.03            C2-N6-C5-H30=162.20           
C2-N6-C5-H31=280.97           C7-N6-C5-C4=268.91            C7-N6-C5-H30= 32.08           C7-N6-C5-H31=150.85           
C8-C7-N6-C2= 43.87            C8-C7-N6-C5=165.41            H32-C7-N6-C2=165.87           H32-C7-N6-C5=287.41           
H33-C7-N6-C2=283.88           H33-C7-N6-C5= 45.42           N9-C8-C7-N6=152.92            N9-C8-C7-H32= 32.12           
N9-C8-C7-H33=276.38           C15-C8-C7-N6=326.92           C15-C8-C7-H32=206.12          C15-C8-C7-H33= 90.39          
N10-N9-C8-C7=172.93           N10-N9-C8-C15=359.88          C11-N10-N9-C8=350.88          H34-N10-N9-C8=179.45          
 
 CMA Distance (Angstroems)
 ---------------------------
R(CMA):  6.6510
           -------------------------------------------------
          |                Final Singlepoint                |
           -------------------------------------------------

          ...................................................
          :                      SETUP                      :
          :.................................................:
          :  # basis functions                 391          :
          :  # atomic orbitals                 391          :
          :  # shells                          203          :
          :  # electrons                       400          :
          :  max. iterations                    50          :
          :  Hamiltonian                  GFN2-xTB          :
          :  restarted?                      false          :
          :  GBSA solvation                  false          :
          :  PC potential                    false          :
          :  electronic temp.          300.0000000     K    :
          :  accuracy                    1.0000000          :
          :  -> integral cutoff          0.2500000E+02      :
          :  -> integral neglect         0.1000000E-07      :
          :  -> SCF convergence          0.1000000E-05 Eh   :
          :  -> wf. convergence          0.1000000E-03 e    :
          :  Broyden damping             0.4000000          :
          :  net charge                          0          :
          :  unpaired electrons                  0          :
          ...................................................

 iter      E             dE          RMSdq      gap      omega  full diag
   1   -214.9134221 -0.214913E+03  0.145E-04    0.74       0.0  T
   2   -214.9134221  0.818571E-08  0.235E-04    0.74      40.7  T
   3   -214.9134221 -0.119428E-07  0.389E-05    0.74     246.4  T

   *** convergence criteria satisfied after 3 iterations ***

         #    Occupation            Energy/Eh            Energy/eV
      -------------------------------------------------------------
         1        2.0000           -0.8002007             -21.7746
       ...           ...                  ...                  ...
       194        2.0000           -0.3307748              -9.0008
       195        2.0000           -0.3281326              -8.9289
       196        2.0000           -0.3273537              -8.9077
       197        2.0000           -0.3233750              -8.7995
       198        2.0000           -0.3178631              -8.6495
       199        2.0000           -0.3163060              -8.6071
       200        2.0000           -0.3140243              -8.5450 (HOMO)
       201        0.0000           -0.2867340              -7.8024 (LUMO)
       202                         -0.2780886              -7.5672
       203                         -0.2672991              -7.2736
       204                         -0.2596085              -7.0643
       205                         -0.2536149              -6.9012
       ...                                ...                  ...
       391                          0.9817929              26.7159
      -------------------------------------------------------------
                  HL-Gap            0.0272902 Eh            0.7426 eV
             Fermi-level           -0.3003304 Eh           -8.1724 eV

 SCC (total)                   0 d,  0 h,  0 min,  0.125 sec
 SCC setup                      ...        0 min,  0.001 sec (  0.800%)
 Dispersion                     ...        0 min,  0.001 sec (  0.800%)
 classical contributions        ...        0 min,  0.000 sec (  0.000%)
 integral evaluation            ...        0 min,  0.011 sec (  8.800%)
 iterations                     ...        0 min,  0.083 sec ( 66.400%)
 molecular gradient             ...        0 min,  0.027 sec ( 21.600%)
 printout                       ...        0 min,  0.002 sec (  1.600%)

         :::::::::::::::::::::::::::::::::::::::::::::::::::::
         ::                     SUMMARY                     ::
         :::::::::::::::::::::::::::::::::::::::::::::::::::::
         :: total energy            -212.687451929461 Eh    ::
         :: gradient norm              0.000556276104 Eh/a0 ::
         :: HOMO-LUMO gap              0.742605200956 eV    ::
         ::.................................................::
         :: SCC energy              -214.892645060470 Eh    ::
         :: -> isotropic ES            0.695644052088 Eh    ::
         :: -> anisotropic ES         -0.031885070233 Eh    ::
         :: -> anisotropic XC          0.088251960536 Eh    ::
         :: -> dispersion             -0.215755287857 Eh    ::
         :: repulsion energy           2.205193131010 Eh    ::
         :: add. restraining           0.000000000000 Eh    ::
         :: total charge               0.000000000110 e     ::
         :::::::::::::::::::::::::::::::::::::::::::::::::::::

           -------------------------------------------------
          |                Property Printout                |
           -------------------------------------------------

    * Orbital Energies and Occupations

         #    Occupation            Energy/Eh            Energy/eV
      -------------------------------------------------------------
         1        2.0000           -0.8002007             -21.7746
       ...           ...                  ...                  ...
       188        2.0000           -0.3423850              -9.3168
       189        2.0000           -0.3416474              -9.2967
       190        2.0000           -0.3376843              -9.1889
       191        2.0000           -0.3359413              -9.1414
       192        2.0000           -0.3334591              -9.0739
       193        2.0000           -0.3313280              -9.0159
       194        2.0000           -0.3307748              -9.0008
       195        2.0000           -0.3281326              -8.9289
       196        2.0000           -0.3273537              -8.9077
       197        2.0000           -0.3233750              -8.7995
       198        2.0000           -0.3178631              -8.6495
       199        2.0000           -0.3163060              -8.6071
       200        2.0000           -0.3140243              -8.5450 (HOMO)
       201        0.0000           -0.2867340              -7.8024 (LUMO)
       202                         -0.2780886              -7.5672
       203                         -0.2672991              -7.2736
       204                         -0.2596085              -7.0643
       205                         -0.2536149              -6.9012
       206                         -0.2484210              -6.7599
       207                         -0.2403260              -6.5396
       208                         -0.2394307              -6.5152
       209                         -0.2336486              -6.3579
       210                         -0.2330689              -6.3421
       211                         -0.2252742              -6.1300
       ...                                ...                  ...
       391                          0.9817929              26.7159
      -------------------------------------------------------------
                  HL-Gap            0.0272902 Eh            0.7426 eV
             Fermi-level           -0.3003304 Eh           -8.1724 eV

     #   Z          covCN         q      C6AA      α(0)
     1   6 C        3.763    -0.118    22.796     6.806
     2   6 C        3.889     0.073    19.314     6.248
     3   6 C        3.820    -0.075    21.915     6.662
     4   6 C        3.815    -0.067    21.780     6.642
     5   6 C        3.811    -0.001    20.586     6.458
     6   7 N        2.739    -0.180    24.902     7.412
     7   6 C        3.766    -0.014    20.873     6.512
     8   6 C        2.890     0.094    25.917     8.346
     9   7 N        1.901    -0.191    25.956     7.553
    10   7 N        2.769    -0.074    22.685     7.074
    11   6 C        2.751     0.259    22.640     7.791
    12   8 O        0.862    -0.434    22.374     6.342
    13   6 C        2.966    -0.018    28.458     8.750
    14   6 C        3.113    -0.014    28.213     8.701
    15   6 C        3.090    -0.043    28.953     8.820
    16   6 C        3.085     0.038    27.053     8.526
    17   7 N        2.784    -0.100    23.187     7.152
    18   6 C        3.094     0.048    26.811     8.486
    19   6 C        2.908    -0.070    29.744     8.943
    20   6 C        2.792     0.161    24.511     8.110
    21   6 C        2.925    -0.058    29.442     8.898
    22   9 F        0.787    -0.235    11.600     4.023
    23   1 H        0.925     0.054     2.269     2.356
    24   1 H        0.925     0.053     2.278     2.361
    25   1 H        0.925     0.035     2.510     2.478
    26   1 H        0.924     0.035     2.519     2.482
    27   1 H        0.925     0.037     2.493     2.469
    28   1 H        0.925     0.034     2.530     2.487
    29   1 H        0.925     0.045     2.384     2.415
    30   1 H        0.925     0.038     2.475     2.460
    31   1 H        0.924     0.039     2.461     2.453
    32   1 H        0.924     0.066     2.135     2.285
    33   1 H        0.923     0.060     2.201     2.320
    34   1 H        0.860     0.199     1.109     1.650
    35   1 H        0.860     0.171     1.267     1.763
    36   1 H        0.926     0.064     2.154     2.295
    37   1 H        0.926     0.086     1.918     2.166
    38   5 B        2.780     0.086    20.038     7.484
    39   7 N        2.781    -0.220    25.797     7.543
    40   5 B        2.788     0.094    19.894     7.456
    41   7 N        2.524    -0.312    28.079     7.870
    42   5 B        2.780     0.084    20.062     7.489
    43   7 N        2.655    -0.270    26.984     7.715
    44   5 B        2.855     0.243    17.642     7.013
    45   7 N        2.529    -0.272    27.062     7.726
    46   5 B        3.197     0.150    18.930     7.256
    47   7 N        2.979    -0.109    23.366     7.179
    48   5 B        2.645     0.374    16.305     6.809
    49   7 N        2.669    -0.213    25.643     7.521
    50   5 B        3.182     0.024    20.964     7.636
    51   7 N        2.867    -0.244    26.349     7.624
    52   5 B        3.009     0.209    18.078     7.092
    53   7 N        2.660    -0.163    24.537     7.357
    54   5 B        2.899     0.327    16.521     6.783
    55   7 N        3.160    -0.077    22.724     7.080
    56   5 B        2.779     0.095    19.897     7.458
    57   7 N        3.043    -0.133    23.882     7.258
    58   5 B        2.757     0.090    20.010     7.485
    59   7 N        2.633    -0.312    28.036     7.864
    60   5 B        3.021     0.226    17.834     7.044
    61   7 N        2.984    -0.003    21.306     6.856
    62   5 B        2.583     0.329    17.255     7.074
    63   7 N        2.600    -0.357    29.215     8.027
    64   5 B        3.286     0.340    16.339     6.741
    65   7 N        2.789    -0.263    26.814     7.691
    66   5 B        2.559     0.324    17.549     7.176
    67   7 N        2.579    -0.367    29.493     8.065
    68   5 B        2.529     0.300    18.243     7.382
    69   7 N        2.665    -0.205    25.466     7.495
    70   5 B        2.700     0.204    18.378     7.193
    71   7 N        2.844    -0.166    24.591     7.365
    72   5 B        2.758     0.082    20.135     7.508
    73   7 N        2.672    -0.175    24.790     7.395
    74   5 B        2.876     0.111    19.565     7.383
    75   7 N        2.663    -0.144    24.117     7.294
    76   5 B        2.594     0.313    17.377     7.084
    77   7 N        2.519    -0.358    29.257     8.033
    78   5 B        2.682     0.185    18.706     7.267
    79   7 N        3.002    -0.141    24.047     7.283
    80   5 B        2.677     0.210    18.358     7.202
    81   7 N        2.716    -0.247    26.436     7.636
    82   5 B        2.647     0.165    19.157     7.379
    83   7 N        2.827    -0.204    25.419     7.488
    84   5 B        3.318     0.235    17.715     7.019
    85   7 N        2.531    -0.285    27.390     7.772
    86   5 B        2.951     0.036    20.765     7.603
    87   7 N        2.782    -0.184    24.987     7.424
    88   5 B        2.796     0.085    20.032     7.480
    89   7 N        2.673    -0.156    24.369     7.332
    90   5 B        3.019     0.212    18.033     7.083
    91   7 N        3.272     0.017    20.957     6.799
    92   5 B        2.875     0.313    16.698     6.821
    93   7 N        3.145    -0.126    23.737     7.236
    94   5 B        3.263     0.320    16.589     6.793
    95   7 N        2.833    -0.061    22.412     7.031
    96   5 B        3.300     0.232    17.747     7.025
    97   7 N        2.656    -0.189    25.098     7.440
    98   5 B        2.837     0.113    19.562     7.386
    99   7 N        2.830    -0.231    26.047     7.580
   100   5 B        2.859     0.253    17.501     6.984
   101   7 N        2.654    -0.234    26.120     7.590
   102   5 B        3.008     0.115    19.475     7.361
   103   7 N        3.154    -0.085    22.890     7.106
   104   5 B        2.675     0.204    18.450     7.221
   105   7 N        2.696    -0.237    26.206     7.603
   106   5 B        2.585     0.370    16.716     6.961
   107   7 N        2.885    -0.179    24.874     7.407
   108   5 B        2.825     0.110    19.614     7.398
   109   7 N        2.829    -0.251    26.526     7.649

 Mol. C6AA /au·bohr⁶  :     215496.183441
 Mol. C8AA /au·bohr⁸  :    6021986.087649
 Mol. α(0) /au        :        727.561305


Wiberg/Mayer (AO) data.
largest (>0.10) Wiberg bond orders for each atom

 ---------------------------------------------------------------------------
     #   Z sym  total        # sym  WBO       # sym  WBO       # sym  WBO
 ---------------------------------------------------------------------------
     1   6 C    3.989 --    24 H    0.985    25 H    0.985    23 H    0.981
                             2 C    0.974
     2   6 C    3.983 --    16 C    1.005     6 N    0.980     1 C    0.974
                             3 C    0.950
     3   6 C    3.989 --     4 C    1.008    26 H    0.980    27 H    0.975
                             2 C    0.950
     4   6 C    3.995 --     3 C    1.008     5 C    0.994    28 H    0.979
                            29 H    0.977
     5   6 C    3.985 --     6 N    1.002     4 C    0.994    30 H    0.976
                            31 H    0.971
     6   7 N    3.116 --     5 C    1.002     7 C    1.000     2 C    0.980
     7   6 C    3.983 --     6 N    1.000     8 C    0.999    32 H    0.962
                            33 H    0.935
     8   6 C    3.979 --     9 N    1.677    15 C    1.101     7 C    0.999
     9   7 N    3.028 --     8 C    1.677    10 N    1.092
    10   7 N    3.522 --    11 C    1.178     9 N    1.092    34 H    0.926
                            12 O    0.164
    11   6 C    3.950 --    12 O    1.659    10 N    1.178    13 C    1.008
    12   8 O    1.995 --    11 C    1.659    10 N    0.164
    13   6 C    3.985 --    21 C    1.428    14 C    1.305    11 C    1.008
    14   6 C    3.987 --    13 C    1.305    18 C    1.250    15 C    1.181
    15   6 C    3.976 --    16 C    1.470    14 C    1.181     8 C    1.101
    16   6 C    3.950 --    15 C    1.470    17 N    1.195     2 C    1.005
    17   7 N    3.547 --    16 C    1.195    18 C    1.172    35 H    0.941
    18   6 C    3.963 --    19 C    1.340    14 C    1.250    17 N    1.172
    19   6 C    3.980 --    20 C    1.429    18 C    1.340    36 H    0.964
    20   6 C    3.879 --    19 C    1.429    21 C    1.360    22 F    0.949
    21   6 C    3.984 --    13 C    1.428    20 C    1.360    37 H    0.961
    22   9 F    1.069 --    20 C    0.949
    23   1 H    0.996 --     1 C    0.981
    24   1 H    0.997 --     1 C    0.985
    25   1 H    0.999 --     1 C    0.985
    26   1 H    0.999 --     3 C    0.980
    27   1 H    0.999 --     3 C    0.975
    28   1 H    0.998 --     4 C    0.979
    29   1 H    0.998 --     4 C    0.977
    30   1 H    0.998 --     5 C    0.976
    31   1 H    0.998 --     5 C    0.971
    32   1 H    0.994 --     7 C    0.962
    33   1 H    0.993 --     7 C    0.935
    34   1 H    0.959 --    10 N    0.926
    35   1 H    0.970 --    17 N    0.941
    36   1 H    0.995 --    19 C    0.964
    37   1 H    0.992 --    21 C    0.961
    38   5 B    3.465 --   107 N    1.275    90 B    0.999    84 B    0.968
    39   7 N    3.405 --    84 B    1.144    97 N    1.008    96 B    1.005
    40   5 B    3.464 --    85 N    1.275   108 B    0.976    96 B    0.958
    41   7 N    3.531 --   100 B    1.154    98 B    1.150    68 B    1.016
    42   5 B    3.464 --    75 N    1.242   104 B    0.996    78 B    0.989
    43   7 N    3.263 --    64 B    1.196   106 B    0.971   101 N    0.888
    44   5 B    3.403 --    77 N    1.181    51 N    1.023    60 B    0.963
    45   7 N    3.569 --    58 B    1.278    46 B    1.157   102 B    0.973
    46   5 B    3.394 --    45 N    1.157    88 B    0.932    86 B    0.641
                            50 B    0.295
    47   7 N    3.325 --    52 B    1.115    91 N    1.043   103 N    0.945
    48   5 B    3.432 --    49 N    1.188    59 N    1.122    87 N    0.962
    49   7 N    3.446 --    48 B    1.188    76 B    1.087    89 N    0.966
    50   5 B    3.455 --    86 B    1.285   102 B    1.002   100 B    0.624
                            46 B    0.295
    51   7 N    3.404 --    54 B    1.230    44 B    1.023    65 N    0.923
    52   5 B    3.391 --    47 N    1.115    71 N    1.037    98 B    1.005
    53   7 N    3.509 --    56 B    1.201    76 B    1.128    73 N    0.998
    54   5 B    3.508 --    51 N    1.230    79 N    1.059    99 N    1.009
    55   7 N    3.360 --   104 B    1.159   107 N    0.989    57 N    0.982
    56   5 B    3.411 --    53 N    1.201    74 B    1.008    88 B    0.928
    57   7 N    3.324 --    92 B    1.128    55 N    0.982    61 N    0.974
    58   5 B    3.465 --    45 N    1.278    72 B    0.978    82 B    0.932
    59   7 N    3.217 --    48 B    1.122    62 B    1.072    87 N    0.790
    60   5 B    3.372 --    73 N    1.152    65 N    0.997    44 B    0.963
    61   7 N    3.102 --    79 N    1.010    57 N    0.974   105 N    0.939
    62   5 B    3.508 --    99 N    1.238    59 N    1.072    77 N    0.990
    63   7 N    3.435 --    68 B    1.208    96 B    1.056    84 B    0.924
    64   5 B    3.481 --    43 N    1.196    81 N    1.046    67 N    0.981
    65   7 N    3.266 --    70 B    1.147    60 B    0.997    51 N    0.923
    66   5 B    3.520 --   101 N    1.215   105 N    1.128    93 N    1.018
    67   7 N    3.432 --    80 B    1.223    94 B    0.991    64 B    0.981
    68   5 B    3.521 --    63 N    1.208   109 N    1.096    41 N    1.016
    69   7 N    3.441 --   106 B    1.264    80 B    0.994    95 N    0.990
    70   5 B    3.437 --    65 N    1.147    97 N    1.134   108 B    0.920
    71   7 N    3.470 --    72 B    1.262    52 B    1.037   103 N    0.984
    72   5 B    3.422 --    71 N    1.262    58 B    0.978    80 B    0.959
    73   7 N    3.510 --   108 B    1.170    60 B    1.152    53 N    0.998
    74   5 B    3.347 --    86 B    1.008    56 B    1.008    85 N    0.963
    75   7 N    3.508 --    42 B    1.242    78 B    1.091    81 N    1.035
    76   5 B    3.514 --    53 N    1.128    77 N    1.097    49 N    1.087
    77   7 N    3.475 --    44 B    1.181    76 B    1.097    62 B    0.990
    78   5 B    3.464 --    83 N    1.182    75 N    1.091    42 B    0.989
    79   7 N    3.246 --    54 B    1.059    61 N    1.010    93 N    0.974
    80   5 B    3.390 --    67 N    1.223    69 N    0.994    72 B    0.959
    81   7 N    3.374 --    64 B    1.046    75 N    1.035    94 B    0.986
    82   5 B    3.452 --    95 N    1.188    89 N    1.080    58 B    0.932
    83   7 N    3.409 --    78 B    1.182    90 B    1.073    91 N    0.959
    84   5 B    3.362 --    39 N    1.144    38 B    0.968    63 N    0.924
                            96 B    0.128
    85   7 N    3.561 --    40 B    1.275   100 B    1.105    74 B    0.963
    86   5 B    3.369 --    50 B    1.285    74 B    1.008    46 B    0.641
                           100 B    0.187
    87   7 N    2.986 --    95 N    1.047    48 B    0.962    59 N    0.790
    88   5 B    3.453 --    89 N    1.264    46 B    0.932    56 B    0.928
    89   7 N    3.479 --    88 B    1.264    82 B    1.080    49 N    0.966
    90   5 B    3.445 --   109 N    1.134    83 N    1.073    38 B    0.999
    91   7 N    3.187 --    47 N    1.043    83 N    0.959   109 N    0.951
    92   5 B    3.518 --    97 N    1.152    57 N    1.128   107 N    1.000
    93   7 N    3.195 --    66 B    1.018    99 N    0.981    79 N    0.974
    94   5 B    3.508 --   103 N    1.266    67 N    0.991    81 N    0.986
    95   7 N    3.438 --    82 B    1.188    87 N    1.047    69 N    0.990
    96   5 B    3.325 --    63 N    1.056    39 N    1.005    40 B    0.958
                            84 B    0.128
    97   7 N    3.490 --    92 B    1.152    70 B    1.134    39 N    1.008
    98   5 B    3.385 --    41 N    1.150    52 B    1.005   102 B    1.002
    99   7 N    3.442 --    62 B    1.238    54 B    1.009    93 N    0.981
   100   5 B    3.444 --    41 N    1.154    85 N    1.105    50 B    0.624
                            86 B    0.187   102 B    0.119
   101   7 N    3.329 --    66 B    1.215   106 B    1.029    43 N    0.888
   102   5 B    3.332 --    98 B    1.002    50 B    1.002    45 N    0.973
                           100 B    0.119
   103   7 N    3.441 --    94 B    1.266    71 N    0.984    47 N    0.945
   104   5 B    3.442 --    55 N    1.159   105 N    1.096    42 B    0.996
   105   7 N    3.382 --    66 B    1.128   104 B    1.096    61 N    0.939
   106   5 B    3.439 --    69 N    1.264   101 N    1.029    43 N    0.971
   107   7 N    3.473 --    38 B    1.275    92 B    1.000    55 N    0.989
   108   5 B    3.357 --    73 N    1.170    40 B    0.976    70 B    0.920
   109   7 N    3.418 --    90 B    1.134    68 B    1.096    91 N    0.951
 ---------------------------------------------------------------------------

Topologies differ in total number of bonds
Writing topology from bond orders to xtbtopo.mol

molecular dipole:
                 x           y           z       tot (Debye)
 q only:       -0.047       3.040      -3.017
   full:       -2.160       2.597      -1.766       9.689
molecular quadrupole (traceless):
                xx          xy          yy          xz          yz          zz
 q only:      -37.872      -2.256      15.253     -44.708       9.128      22.618
  q+dip:      -26.825      -3.874      34.818     -45.811      30.044      -7.992
   full:      -23.117      -3.403      30.538     -39.230      30.706      -7.421

           -------------------------------------------------
          |                Geometry Summary                 |
           -------------------------------------------------

      molecular mass/u    :     1191.7538319
   center of mass at/Å    :        0.2027885      -0.1410438       2.3106733
  moments of inertia/u·Å² :        0.1303779E+05   0.2154046E+05   0.2174777E+05
rotational constants/cm⁻¹ :        0.1292983E-02   0.7826033E-03   0.7751429E-03

 * 129 selected distances

     #   Z          #   Z                                           value/Å
     1   6 C        2   6 C                                       1.5412966
     3   6 C        4   6 C                                       1.5297486
     4   6 C        5   6 C                                       1.5347932
     2   6 C        6   7 N                                       1.4727797
     5   6 C        6   7 N                                       1.4555930
     6   7 N        7   6 C                                       1.4606560
     8   6 C        9   7 N                                       1.2767312
    10   7 N       11   6 C                                       1.3730512
    11   6 C       12   8 O                                       1.2207574
    13   6 C       14   6 C                                       1.3921206
     8   6 C       15   6 C                                       1.4294225
    14   6 C       15   6 C                                       1.4186605
     2   6 C       16   6 C                                       1.4870724
    15   6 C       16   6 C                                       1.3691937
    16   6 C       17   7 N                                       1.3689256
    14   6 C       18   6 C                                       1.4129086
    17   7 N       18   6 C                                       1.3693365
    18   6 C       19   6 C                                       1.3881575
    19   6 C       20   6 C                                       1.3808640
    13   6 C       21   6 C                                       1.3865855
    20   6 C       21   6 C                                       1.3912991
     1   6 C       23   1 H                                       1.0854536
     1   6 C       24   1 H                                       1.0867065
     1   6 C       25   1 H                                       1.0873538
     3   6 C       26   1 H                                       1.0903618
     3   6 C       27   1 H                                       1.0885753
     4   6 C       28   1 H                                       1.0879374
     4   6 C       29   1 H                                       1.0895366
     5   6 C       30   1 H                                       1.0884729
     5   6 C       31   1 H                                       1.0941379
     7   6 C       32   1 H                                       1.0930683
     7   6 C       33   1 H                                       1.1012697
    10   7 N       34   1 H                                       1.0170975
    17   7 N       35   1 H                                       1.0054717 (min)
    19   6 C       36   1 H                                       1.0770027
    21   6 C       37   1 H                                       1.0777714
    45   7 N       46   5 B                                       1.4430467
    48   5 B       49   7 N                                       1.4034960
    44   5 B       51   7 N                                       1.4768558
    47   7 N       52   5 B                                       1.4395653
    51   7 N       54   5 B                                       1.3873784
    53   7 N       56   5 B                                       1.4232523
    55   7 N       57   7 N                                       1.4205901
    45   7 N       58   5 B                                       1.4228529
    48   5 B       59   7 N                                       1.3951035
    44   5 B       60   5 B                                       1.5750116
    57   7 N       61   7 N                                       1.4165411
    59   7 N       62   5 B                                       1.4323558
    43   7 N       64   5 B                                       1.3911390
    60   5 B       65   7 N                                       1.4839571
    64   5 B       67   7 N                                       1.4708246
    41   7 N       68   5 B                                       1.4910301
    63   7 N       68   5 B                                       1.4113176
    65   7 N       70   5 B                                       1.4431637
    52   5 B       71   7 N                                       1.4572870
    58   5 B       72   5 B                                       1.6640751
    71   7 N       72   5 B                                       1.4079819
    60   5 B       73   7 N                                       1.4213193
    56   5 B       74   5 B                                       1.6424578
    42   5 B       75   7 N                                       1.4053942
    49   7 N       76   5 B                                       1.4479212
    53   7 N       76   5 B                                       1.4577633
    44   5 B       77   7 N                                       1.4245936
    62   5 B       77   7 N                                       1.4920275
    76   5 B       77   7 N                                       1.4602907
    42   5 B       78   5 B                                       1.5730650
    75   7 N       78   5 B                                       1.4146529
    54   5 B       79   7 N                                       1.4473430
    61   7 N       79   7 N                                       1.3934553
    67   7 N       80   5 B                                       1.4195287
    69   7 N       80   5 B                                       1.4805838
    72   5 B       80   5 B                                       1.6740540 (max)
    64   5 B       81   7 N                                       1.4496348
    75   7 N       81   7 N                                       1.3695955
    78   5 B       83   7 N                                       1.4086233
    38   5 B       84   5 B                                       1.6102320
    39   7 N       84   5 B                                       1.4230782
    63   7 N       84   5 B                                       1.5011757
    40   5 B       85   7 N                                       1.4104413
    74   5 B       85   7 N                                       1.4905480
    50   5 B       86   5 B                                       1.5153590
    74   5 B       86   5 B                                       1.6058688
    48   5 B       87   7 N                                       1.4292821
    46   5 B       88   5 B                                       1.6493265
    56   5 B       88   5 B                                       1.6617956
    82   5 B       89   7 N                                       1.4613420
    88   5 B       89   7 N                                       1.4031779
    38   5 B       90   5 B                                       1.6206414
    83   7 N       90   5 B                                       1.4440069
    47   7 N       91   7 N                                       1.3675242
    57   7 N       92   5 B                                       1.4371427
    66   5 B       93   7 N                                       1.4617234
    67   7 N       94   5 B                                       1.4568999
    81   7 N       94   5 B                                       1.4632927
    82   5 B       95   7 N                                       1.4279382
    87   7 N       95   7 N                                       1.3885290
    39   7 N       96   5 B                                       1.4573495
    40   5 B       96   5 B                                       1.6131404
    63   7 N       96   5 B                                       1.4522669
    70   5 B       97   7 N                                       1.4444378
    92   5 B       97   7 N                                       1.4404590
    41   7 N       98   5 B                                       1.4572949
    52   5 B       98   5 B                                       1.6052985
    54   5 B       99   7 N                                       1.4590210
    62   5 B       99   7 N                                       1.3926584
    93   7 N       99   7 N                                       1.4240772
    41   7 N      100   5 B                                       1.4576323
    85   7 N      100   5 B                                       1.4558797
    66   5 B      101   7 N                                       1.3876942
    45   7 N      102   5 B                                       1.4965723
    50   5 B      102   5 B                                       1.6006658
    98   5 B      102   5 B                                       1.6240042
    47   7 N      103   7 N                                       1.4304037
    71   7 N      103   7 N                                       1.4179920
    94   5 B      103   7 N                                       1.3739244
    42   5 B      104   5 B                                       1.6399295
    55   7 N      104   5 B                                       1.4318028
    66   5 B      105   7 N                                       1.4409797
   104   5 B      105   7 N                                       1.4610442
    43   7 N      106   5 B                                       1.4246788
    69   7 N      106   5 B                                       1.3997911
   101   7 N      106   5 B                                       1.4192852
    38   5 B      107   7 N                                       1.4025268
    55   7 N      107   7 N                                       1.4094202
    92   5 B      107   7 N                                       1.4815983
    40   5 B      108   5 B                                       1.6515983
    73   7 N      108   5 B                                       1.4327003
    68   5 B      109   7 N                                       1.4516802
    90   5 B      109   7 N                                       1.4427817

 * 8 distinct bonds (by element types)

   Z      Z             #   av. dist./Å        max./Å        min./Å
   5 B    5 B          17     1.6192073     1.6740540     1.5153590
   1 H    6 C          13     1.0882806     1.1012697     1.0770027
   6 C    6 C          13     1.4355479     1.5412966     1.3691937
   1 H    7 N           2     1.0112846     1.0170975     1.0054717
   5 B    7 N          66     1.4391575     1.5011757     1.3739244
   6 C    7 N           7     1.3967247     1.4727797     1.2767312
   7 N    7 N          10     1.4038128     1.4304037     1.3675242
   6 C    8 O           1     1.2207574     1.2207574     1.2207574


optimized geometry written to: xtbopt.xyz


           -------------------------------------------------
          | TOTAL ENERGY             -212.687451929461 Eh   |
          | GRADIENT NORM               0.000556276104 Eh/α |
          | HOMO-LUMO GAP               0.742605200956 eV   |
           -------------------------------------------------

------------------------------------------------------------------------
 * finished run on 2026/08/31 at 21:10:49.081     
------------------------------------------------------------------------
 total:
 * wall-time:     0 d,  0 h,  0 min, 41.893 sec
 *  cpu-time:     0 d,  0 h,  6 min, 48.859 sec
 * ratio c/w:     9.760 speedup
 SCF:
 * wall-time:     0 d,  0 h,  0 min,  0.562 sec
 *  cpu-time:     0 d,  0 h,  0 min,  5.672 sec
 * ratio c/w:    10.092 speedup
 ANC optimizer:
 * wall-time:     0 d,  0 h,  0 min, 41.269 sec
 *  cpu-time:     0 d,  0 h,  6 min, 42.734 sec
 * ratio c/w:     9.759 speedup

normal termination of xtb
