      -----------------------------------------------------------      
     |                   =====================                   |     
     |                           x T B                           |     
     |                   =====================                   |     
     |                         S. Grimme                         |     
     |          Mulliken Center for Theoretical Chemistry        |     
     |                    University of Bonn                     |     
      -----------------------------------------------------------      

   * xtb version 6.7.1pre (5071a88) compiled by 'Marcel@Raven' on 2024-07-23

   xtb is free software: you can redistribute it and/or modify it under
   the terms of the GNU Lesser General Public License as published by
   the Free Software Foundation, either version 3 of the License, or
   (at your option) any later version.
   
   xtb is distributed in the hope that it will be useful,
   but WITHOUT ANY WARRANTY; without even the implied warranty of
   MERCHANTABILITY or FITNESS FOR A PARTICULAR PURPOSE.  See the
   GNU Lesser General Public License for more details.
   
   Cite this work as:
   * C. Bannwarth, E. Caldeweyher, S. Ehlert, A. Hansen, P. Pracht,
     J. Seibert, S. Spicher, S. Grimme, WIREs Comput. Mol. Sci., 2020, 11,
     e01493. DOI: 10.1002/wcms.1493
   
   for GFN2-xTB:
   * C. Bannwarth, S. Ehlert and S. Grimme., J. Chem. Theory Comput., 2019,
     15, 1652-1671. DOI: 10.1021/acs.jctc.8b01176
   for GFN1-xTB:
   * S. Grimme, C. Bannwarth, P. Shushkov, J. Chem. Theory Comput., 2017,
     13, 1989-2009. DOI: 10.1021/acs.jctc.7b00118
   for GFN0-xTB:
   * P. Pracht, E. Caldeweyher, S. Ehlert, S. Grimme, ChemRxiv, 2019, preprint.
     DOI: 10.26434/chemrxiv.8326202.v1
   for GFN-FF:
   * S. Spicher and S. Grimme, Angew. Chem. Int. Ed., 2020, 59, 15665-15673.
     DOI: 10.1002/anie.202004239
   
   for ALPB and GBSA implicit solvation:
   * S. Ehlert, M. Stahn, S. Spicher, S. Grimme, J. Chem. Theory Comput.,
     2021, 17, 4250-4261. DOI: 10.1021/acs.jctc.1c00471
   
   for ddCOSMO and CPCM-X implicit solvation:
   * M. Stahn, S. Ehlert, S. Grimme, J. Phys. Chem. A,
     2023, XX, XXXX-XXXX. DOI: 10.1021/acs.jpca.3c04382
   
   for DFT-D4:
   * E. Caldeweyher, C. Bannwarth and S. Grimme, J. Chem. Phys., 2017,
     147, 034112. DOI: 10.1063/1.4993215
   * E. Caldeweyher, S. Ehlert, A. Hansen, H. Neugebauer, S. Spicher,
     C. Bannwarth and S. Grimme, J. Chem. Phys., 2019, 150, 154122.
     DOI: 10.1063/1.5090222
   * E. Caldeweyher, J.-M. Mewes, S. Ehlert and S. Grimme, Phys. Chem. Chem. Phys.
     2020, 22, 8499-8512. DOI: 10.1039/D0CP00502A
   
   for sTDA-xTB:
   * S. Grimme and C. Bannwarth, J. Chem. Phys., 2016, 145, 054103.
     DOI: 10.1063/1.4959605
   
   in the mass-spec context:
   * V. Asgeirsson, C. Bauer and S. Grimme, Chem. Sci., 2017, 8, 4879.
     DOI: 10.1039/c7sc00601b
   * J. Koopman and S. Grimme, ACS Omega 2019, 4, 12, 15120-15133.
     DOI: 10.1021/acsomega.9b02011
   
   for metadynamics refer to:
   * S. Grimme, J. Chem. Theory Comput., 2019, 155, 2847-2862
     DOI: 10.1021/acs.jctc.9b00143
   
   for SPH calculations refer to:
   * S. Spicher and S. Grimme, J. Chem. Theory Comput., 2021, 17, 1701-1714
     DOI: 10.1021/acs.jctc.0c01306
   
   for ONIOM refer to:
   * C. Plett, A. Katbashev, S. Ehlert, S. Grimme, M. Bursch,
     Phys. Chem. Chem. Phys., 2023, 25, 17860-17868. DOI: 10.1039/D3CP02178E
   
   for DIPRO refer to:
   * J. Kohn, N. Gildemeister, S. Grimme, D. Fazzi, A. Hansen,
     J. Chem. Phys., 2023, just accepted.
   
   for PTB refer to:
   * S. Grimme, M. Mueller, A. Hansen, J. Chem. Phys., 2023, 158, 124111.
     DOI: 10.1063/5.0137838
   
   with help from (in alphabetical order)
   P. Atkinson, C. Bannwarth, F. Bohle, G. Brandenburg, E. Caldeweyher
   M. Checinski, S. Dohm, S. Ehlert, S. Ehrlich, I. Gerasimov, C. Hölzer
   A. Katbashev, J. Kohn, J. Koopman, C. Lavigne, S. Lehtola, F. März, M. Müller,
   F. Musil, H. Neugebauer, J. Pisarek, C. Plett, P. Pracht, F. Pultar,
   J. Seibert, P. Shushkov, S. Spicher, M. Stahn, M. Steiner, T. Strunk,
   J. Stückrath, T. Rose, and J. Unsleber
   
 * started run on 2026/08/31 at 18:25:33.934     
   ID    Z sym.   atoms
    1    6 C      1-5, 7, 8, 11, 13-16, 18-21
    2    7 N      6, 9, 10, 17, 74-109
    3    8 O      12
    4    9 F      22
    5    1 H      23-37
    6    5 B      38-73

           -------------------------------------------------
          |                Calculation Setup                |
           -------------------------------------------------

          program call               : "c:\Users\Andre\Proyectos doctorado\kras-pancreatic-gC3N4-ai\tools\xtb\xtb-6.7.1\bin\xtb.exe" "c:\Users\Andre\Proyectos doctorado\nano-qsar-ai-therapeutics\calculations\tnbc\Pamiparib\Pamiparib_B36N36_complex.xyz" --gfn 2 --sp --chrg 0 --uhf 0 --iterations 500 --norestart
          coordinate file            : c:\Users\Andre\Proyectos doctorado\nano-qsar-ai-therapeutics\calculations\tnbc\Pamiparib\Pamiparib_B36N36_complex.xyz
          omp threads                :                    16


molecular fragmentation (1/2 indicates fragments):
111111111111111111111111111111111111111111111111111121112111111111111111
1111111111111111211121111111111111111
# atoms in fragment 1/2:   105     4
 fragment masses (1/2) :     1142.12       49.64
CMA distance (Bohr)    :   8.511
constraining FC (au)   :  0.0500

           -------------------------------------------------
          |                 G F N 2 - x T B                 |
           -------------------------------------------------

        Reference                      10.1021/acs.jctc.8b01176
      * Hamiltonian:
        H0-scaling (s, p, d)           1.850000    2.230000    2.230000
        zeta-weighting                 0.500000
      * Dispersion:
        s8                             2.700000
        a1                             0.520000
        a2                             5.000000
        s9                             5.000000
      * Repulsion:
        kExp                           1.500000    1.000000
        rExp                           1.000000
      * Coulomb:
        alpha                          2.000000
        third order                    shell-resolved
        anisotropic                    true
        a3                             3.000000
        a5                             4.000000
        cn-shift                       1.200000
        cn-exp                         4.000000
        max-rad                        5.000000


          ...................................................
          :                      SETUP                      :
          :.................................................:
          :  # basis functions                 391          :
          :  # atomic orbitals                 391          :
          :  # shells                          203          :
          :  # electrons                       400          :
          :  max. iterations                   500          :
          :  Hamiltonian                  GFN2-xTB          :
          :  restarted?                      false          :
          :  GBSA solvation                  false          :
          :  PC potential                    false          :
          :  electronic temp.          300.0000000     K    :
          :  accuracy                    1.0000000          :
          :  -> integral cutoff          0.2500000E+02      :
          :  -> integral neglect         0.1000000E-07      :
          :  -> SCF convergence          0.1000000E-05 Eh   :
          :  -> wf. convergence          0.1000000E-03 e    :
          :  Broyden damping             0.4000000          :
          :  net charge                          0          :
          :  unpaired electrons                  0          :
          ...................................................

 iter      E             dE          RMSdq      gap      omega  full diag
   1   -203.7066797 -0.203707E+03  0.150E+01    0.13       0.0  T
   2   -200.7716701  0.293501E+01  0.106E+01    0.13       1.0  T
   3   -153.7095632  0.470621E+02  0.101E+01    0.09       1.0  T
   4    -86.6214288  0.670881E+02  0.106E+01    0.13       1.0  T
   5   -173.9212629 -0.872998E+02  0.755E+00    0.16       1.0  T
   6   -208.9528221 -0.350316E+02  0.403E+00    0.16       1.0  T
   7   -210.4286988 -0.147588E+01  0.269E+00    0.43       1.0  T
   8   -211.5144714 -0.108577E+01  0.191E+00    0.16       1.0  T
   9   -211.2485546  0.265917E+00  0.166E+00    0.39       1.0  T
  10   -211.5160729 -0.267518E+00  0.124E+00    0.19       1.0  T
  11   -211.3430091  0.173064E+00  0.110E+00    0.13       1.0  T
  12   -211.7056302 -0.362621E+00  0.695E-01    0.11       1.0  T
  13   -211.6622573  0.433729E-01  0.685E-01    0.18       1.0  T
  14   -211.8065438 -0.144287E+00  0.369E-01    0.04       1.0  T
  15   -211.8282421 -0.216983E-01  0.290E-01    0.02       1.0  T
  16   -211.8338788 -0.563670E-02  0.197E-01    0.00       1.0  T
  17   -211.7950598  0.388190E-01  0.289E-01    0.06       1.0  T
  18   -211.8377887 -0.427289E-01  0.116E-01    0.01       1.0  T
  19   -211.8345050  0.328372E-02  0.117E-01    0.02       1.0  T
  20   -211.8381907 -0.368570E-02  0.594E-02    0.01       1.0  T
  21   -211.8394148 -0.122411E-02  0.329E-02    0.00       1.0  T
  22   -211.8379371  0.147773E-02  0.545E-02    0.01       1.0  T
  23   -211.8387524 -0.815311E-03  0.396E-02    0.01       1.0  T
  24   -211.8396083 -0.855937E-03  0.115E-02    0.00       1.0  T
  25   -211.8395655  0.428719E-04  0.128E-02    0.00       1.0  T
  26   -211.8396487 -0.832569E-04  0.507E-03    0.00       1.9  T
  27   -211.8396559 -0.721486E-05  0.314E-03    0.00       3.0  T
  28   -211.8396596 -0.365697E-05  0.173E-03    0.00       5.5  T
  29   -211.8396608 -0.126127E-05  0.616E-04    0.00      15.5  T
  30   -211.8396609 -0.705412E-07  0.387E-04    0.00      24.7  T
  31   -211.8396610 -0.771364E-07  0.678E-05    0.00     141.4  T

   *** convergence criteria satisfied after 31 iterations ***

         #    Occupation            Energy/Eh            Energy/eV
      -------------------------------------------------------------
         1        2.0000           -1.0237304             -27.8571
       ...           ...                  ...                  ...
       194        2.0000           -0.2001714              -5.4469
       195        2.0000           -0.1853520              -5.0437
       196        2.0000           -0.1705663              -4.6413
       197        2.0000           -0.1633360              -4.4446
       198        2.0000           -0.1558185              -4.2400
       199        1.9993           -0.1513123              -4.1174
       200        1.0164           -0.1437207              -3.9108 (HOMO)
       201        0.9492           -0.1435929              -3.9074 (LUMO)
       202        0.0351           -0.1398645              -3.8059
       203                         -0.1174108              -3.1949
       204                         -0.1028928              -2.7999
       205                         -0.0982411              -2.6733
       ...                                ...                  ...
       391                         78.1404749            2126.3106
      -------------------------------------------------------------
                  HL-Gap            0.0001277 Eh            0.0035 eV
             Fermi-level           -0.1436895 Eh           -3.9100 eV

 SCC (total)                   0 d,  0 h,  0 min,  0.763 sec
 SCC setup                      ...        0 min,  0.001 sec (  0.131%)
 Dispersion                     ...        0 min,  0.003 sec (  0.393%)
 classical contributions        ...        0 min,  0.000 sec (  0.000%)
 integral evaluation            ...        0 min,  0.014 sec (  1.835%)
 iterations                     ...        0 min,  0.711 sec ( 93.185%)
 molecular gradient             ...        0 min,  0.031 sec (  4.063%)
 printout                       ...        0 min,  0.002 sec (  0.262%)

         :::::::::::::::::::::::::::::::::::::::::::::::::::::
         ::                     SUMMARY                     ::
         :::::::::::::::::::::::::::::::::::::::::::::::::::::
         :: total energy              32.100968397763 Eh    ::
         :: gradient norm            181.786449039737 Eh/a0 ::
         :: HOMO-LUMO gap              0.003476184815 eV    ::
         ::.................................................::
         :: SCC energy              -211.803167144642 Eh    ::
         :: -> isotropic ES            1.134319038691 Eh    ::
         :: -> anisotropic ES          0.132951445418 Eh    ::
         :: -> anisotropic XC          0.262217135380 Eh    ::
         :: -> dispersion             -0.322912626151 Eh    ::
         :: repulsion energy         243.904135542405 Eh    ::
         :: add. restraining           0.000000000000 Eh    ::
         :: total charge              -0.000000000013 e     ::
         :::::::::::::::::::::::::::::::::::::::::::::::::::::

           -------------------------------------------------
          |                Property Printout                |
           -------------------------------------------------

    * Orbital Energies and Occupations

         #    Occupation            Energy/Eh            Energy/eV
      -------------------------------------------------------------
         1        2.0000           -1.0237304             -27.8571
       ...           ...                  ...                  ...
       188        2.0000           -0.2319754              -6.3124
       189        2.0000           -0.2182117              -5.9378
       190        2.0000           -0.2145772              -5.8389
       191        2.0000           -0.2094834              -5.7003
       192        2.0000           -0.2067648              -5.6264
       193        2.0000           -0.2045802              -5.5669
       194        2.0000           -0.2001714              -5.4469
       195        2.0000           -0.1853520              -5.0437
       196        2.0000           -0.1705663              -4.6413
       197        2.0000           -0.1633360              -4.4446
       198        2.0000           -0.1558185              -4.2400
       199        1.9993           -0.1513123              -4.1174
       200        1.0164           -0.1437207              -3.9108 (HOMO)
       201        0.9492           -0.1435929              -3.9074 (LUMO)
       202        0.0351           -0.1398645              -3.8059
       203                         -0.1174108              -3.1949
       204                         -0.1028928              -2.7999
       205                         -0.0982411              -2.6733
       206                         -0.0940166              -2.5583
       207                         -0.0908973              -2.4734
       208                         -0.0804778              -2.1899
       209                         -0.0768734              -2.0918
       210                         -0.0687358              -1.8704
       211                         -0.0629958              -1.7142
       ...                                ...                  ...
       391                         78.1404749            2126.3106
      -------------------------------------------------------------
                  HL-Gap            0.0001277 Eh            0.0035 eV
             Fermi-level           -0.1436895 Eh           -3.9100 eV

     #   Z          covCN         q      C6AA      α(0)
     1   6 C        7.407    -0.409    29.316     7.689
     2   6 C        4.030    -0.018    20.809     6.480
     3   6 C        7.250    -0.209    24.514     7.032
     4   6 C        9.412    -0.068    21.715     6.618
     5   6 C        9.226    -0.037    21.139     6.529
     6   7 N        4.033    -0.247    26.423     7.635
     7   6 C        4.033    -0.165    23.613     6.903
     8   6 C        3.031    -0.096    30.373     9.040
     9   7 N        3.587    -0.248    26.450     7.639
    10   7 N        4.877    -0.218    25.741     7.535
    11   6 C        7.187     0.465    14.095     5.332
    12   8 O        4.134    -0.010    14.581     5.157
    13   6 C        7.454    -0.208    24.496     7.029
    14   6 C        3.156    -0.131    30.999     9.104
    15   6 C        3.112    -0.099    30.322     9.021
    16   6 C        3.067    -0.114    30.822     9.103
    17   7 N        2.897    -0.277    27.139     7.737
    18   6 C        4.622    -0.098    22.266     6.701
    19   6 C        7.173    -0.115    22.592     6.750
    20   6 C        8.073     0.335    15.601     5.609
    21   6 C        7.052    -0.422    29.671     7.736
    22   9 F        2.126    -0.484    14.619     4.518
    23   1 H        3.801     0.589     0.245     0.773
    24   1 H        0.970     0.091     1.864     2.133
    25   1 H        2.706     0.461     0.377     0.959
    26   1 H        2.926     0.318     0.653     1.262
    27   1 H        1.144     0.180     1.196     1.707
    28   1 H        1.247     0.106     1.719     2.047
    29   1 H        4.108     0.665     0.194     0.687
    30   1 H        3.524     0.716     0.167     0.638
    31   1 H        4.066     0.558     0.271     0.813
    32   1 H        0.935     0.078     1.996     2.209
    33   1 H        1.798     0.178     1.212     1.718
    34   1 H        0.860     0.061     2.197     2.322
    35   1 H        1.790     0.250     0.871     1.457
    36   1 H        1.198    -0.100     5.536     3.673
    37   1 H        0.925    -0.149     7.642     4.323
    38   5 B        5.102     0.080    21.307     7.438
    39   5 B        5.138     0.082    21.277     7.432
    40   5 B        5.102     0.111    20.789     7.346
    41   5 B        5.461     0.209    19.236     7.067
    42   5 B        7.495     0.276    18.269     6.887
    43   5 B        8.088     0.129    20.498     7.295
    44   5 B        6.057     0.147    20.206     7.243
    45   5 B        7.386     0.177    19.726     7.156
    46   5 B        7.178     0.042    21.983     7.555
    47   5 B        7.856     0.152    20.119     7.227
    48   5 B        7.761     0.207    19.265     7.072
    49   5 B        8.039     0.290    18.078     6.851
    50   5 B        1.850     0.088    41.433    13.557
    51   5 B        2.115     0.102    38.822    12.974
    52   5 B        1.855     0.104    40.907    13.471
    53   5 B        1.850     0.098    41.099    13.503
    54   5 B        1.850     0.091    41.327    13.540
    55   5 B        2.870     0.111    19.575     7.386
    56   5 B        2.836     0.250    17.553     6.997
    57   5 B        1.850     0.093    41.267    13.530
    58   5 B        1.935     0.117    40.232    13.345
    59   5 B        3.791     0.086    21.182     7.422
    60   5 B        2.512     0.182    20.302     7.835
    61   5 B        2.887     0.104    19.679     7.404
    62   5 B        4.397     0.300    17.940     6.825
    63   5 B        4.397     0.278    18.243     6.882
    64   5 B        4.514     0.354    17.216     6.685
    65   5 B        4.411     0.316    17.724     6.783
    66   5 B        4.424     0.350    17.269     6.696
    67   5 B        7.797     0.118    20.670     7.325
    68   5 B        8.454     0.154    20.091     7.222
    69   5 B        5.437     0.363    17.107     6.664
    70   5 B        6.906     0.212    19.192     7.059
    71   5 B        6.775    -0.027    23.248     7.769
    72   5 B        6.491     0.270    18.350     6.902
    73   5 B        6.801    -0.004    22.814     7.696
    74   7 N        4.372    -0.089    22.972     7.119
    75   7 N        4.372    -0.100    23.188     7.152
    76   7 N        4.372    -0.034    21.889     6.949
    77   7 N        4.372    -0.111    23.412     7.186
    78   7 N        6.201    -0.358    29.206     8.027
    79   7 N        7.024     0.036    20.604     6.742
    80   7 N        4.737    -0.288    27.410     7.776
    81   7 N        6.240    -0.236    26.171     7.598
    82   7 N        5.857    -0.255    26.616     7.662
    83   7 N        6.868    -0.428    31.142     8.288
    84   7 N        6.208    -0.193    25.186     7.454
    85   7 N        6.379    -0.308    27.917     7.847
    86   7 N        0.932    -0.223    25.758     7.329
    87   7 N        0.932    -0.143    23.989     7.072
    88   7 N        0.932    -0.130    23.712     7.031
    89   7 N        0.932    -0.106    23.218     6.958
    90   7 N        0.932    -0.176    24.689     7.175
    91   7 N        0.935    -0.159    24.322     7.120
    92   7 N        1.269    -0.445    30.018     7.787
    93   7 N        0.932    -0.091    22.914     6.912
    94   7 N        0.932    -0.192    25.053     7.228
    95   7 N        2.284    -0.336    28.984     7.992
    96   7 N        0.951    -0.293    27.309     7.535
    97   7 N        0.932    -0.231    25.923     7.352
    98   7 N        3.977    -0.358    29.208     8.027
    99   7 N        3.977    -0.359    29.231     8.030
   100   7 N        3.977    -0.401    30.374     8.186
   101   7 N        3.977    -0.382    29.858     8.116
   102   7 N        3.989    -0.433    31.271     8.305
   103   7 N        6.443     0.679    12.176     5.183
   104   7 N        7.456     0.989     9.611     4.604
   105   7 N        4.645    -0.464    32.194     8.427
   106   7 N        4.732    -0.493    33.062     8.540
   107   7 N        5.765    -0.275    27.088     7.730
   108   7 N        4.284    -0.456    31.964     8.397
   109   7 N        5.754    -0.298    27.662     7.812

 Mol. C6AA /au·bohr⁶  :     227815.550792
 Mol. C8AA /au·bohr⁸  :    6497071.444162
 Mol. α(0) /au        :        754.306489


Wiberg/Mayer (AO) data.
largest (>0.10) Wiberg bond orders for each atom

 ---------------------------------------------------------------------------
     #   Z sym  total        # sym  WBO       # sym  WBO       # sym  WBO
 ---------------------------------------------------------------------------
     1   6 C    3.879 --     2 C    0.908    24 H    0.850    46 B    0.550
                            59 B    0.421    25 H    0.370    23 H    0.191
                            70 B    0.157    95 N    0.146
     2   6 C    3.967 --    16 C    0.988     1 C    0.908     6 N    0.897
                             3 C    0.866
     3   6 C    3.912 --     2 C    0.866     4 C    0.792    27 H    0.776
                            26 H    0.506    49 B    0.331    72 B    0.122
                            85 N    0.120
     4   6 C    3.839 --    28 H    0.807     5 C    0.799     3 C    0.792
                           109 N    0.448    73 B    0.345    85 N    0.169
     5   6 C    3.678 --     4 C    0.799     6 N    0.716    71 B    0.656
                           107 N    0.468    84 N    0.346    48 B    0.187
                            31 H    0.155
     6   7 N    3.275 --     7 C    0.931     2 C    0.897     5 C    0.716
                            48 B    0.215    84 N    0.123
     7   6 C    3.918 --     8 C    0.972     6 N    0.931    32 H    0.858
                            33 H    0.740
     8   6 C    3.765 --    15 C    1.265     9 N    1.108     7 C    0.972
     9   7 N    3.111 --     8 C    1.108    10 N    0.923    56 B    0.360
                            41 B    0.107
    10   7 N    3.256 --     9 N    0.923    34 H    0.912    11 C    0.472
                           103 N    0.225    67 B    0.212    79 N    0.111
    11   6 C    3.838 --    67 B    1.200   103 N    0.606    79 N    0.548
                            10 N    0.472    13 C    0.388    43 B    0.319
                            12 O    0.170
    12   8 O    2.416 --   103 N    1.303    79 N    0.297    67 B    0.225
                            11 C    0.170
    13   6 C    3.712 --    14 C    1.206    21 C    1.180    11 C    0.388
                            43 B    0.168    18 C    0.108
    14   6 C    3.900 --    13 C    1.206    18 C    1.158    15 C    1.128
    15   6 C    3.944 --    16 C    1.272     8 C    1.265    14 C    1.128
    16   6 C    3.708 --    15 C    1.272    17 N    1.059     2 C    0.988
    17   7 N    3.310 --    16 C    1.059    18 C    1.057    35 H    0.745
                            91 N    0.135
    18   6 C    3.798 --    14 C    1.158    17 N    1.057    19 C    0.787
                            13 C    0.108
    19   6 C    3.765 --    68 B    1.787    18 C    0.787    36 H    0.726
    20   6 C    3.884 --   104 N    2.727    21 C    0.478    68 B    0.397
    21   6 C    3.544 --    13 C    1.180    37 H    0.936    20 C    0.478
                            68 B    0.116    81 N    0.102
    22   9 F    0.674 --   104 N    0.217    68 B    0.155
    23   1 H    0.653 --    82 N    0.221    46 B    0.197     1 C    0.191
    24   1 H    0.991 --     1 C    0.850
    25   1 H    0.785 --     1 C    0.370    59 B    0.272    95 N    0.102
    26   1 H    0.898 --     3 C    0.506    72 B    0.200    49 B    0.115
    27   1 H    0.967 --     3 C    0.776
    28   1 H    0.987 --     4 C    0.807
    29   1 H    0.558 --   109 N    0.354    73 B    0.118
    30   1 H    0.487 --   107 N    0.327    71 B    0.127
    31   1 H    0.681 --    84 N    0.367     5 C    0.155
    32   1 H    0.992 --     7 C    0.858
    33   1 H    0.964 --     7 C    0.740    61 B    0.144
    34   1 H    0.990 --    10 N    0.912
    35   1 H    0.936 --    17 N    0.745    55 B    0.150
    36   1 H    0.959 --    19 C    0.726
    37   1 H    0.977 --    21 C    0.936
    38   5 B    3.610 --    74 N    2.973    44 B    0.244    62 B    0.152
                            64 B    0.124
    39   5 B    3.628 --    75 N    2.942    48 B    0.290    63 B    0.144
                            65 B    0.122
    40   5 B    3.587 --    76 N    3.034    54 B    0.169    62 B    0.154
                            63 B    0.153
    41   5 B    3.552 --    77 N    3.091    64 B    0.116    65 B    0.109
                             9 N    0.107
    42   5 B    3.518 --    78 N    3.033    58 B    0.138
    43   5 B    3.288 --    79 N    2.230    11 C    0.319    60 B    0.178
                            13 C    0.168    69 B    0.134
    44   5 B    3.598 --    80 N    2.844    38 B    0.244    67 B    0.129
                            66 B    0.128
    45   5 B    3.579 --    81 N    3.047    50 B    0.194    69 B    0.103
    46   5 B    3.655 --    82 N    2.728     1 C    0.550    23 H    0.197
    47   5 B    3.630 --    83 N    2.962    73 B    0.203    61 B    0.134
    48   5 B    3.449 --    84 N    2.301    39 B    0.290     6 N    0.215
                             5 C    0.187    70 B    0.105
    49   5 B    3.488 --    85 N    2.725     3 C    0.331    26 H    0.115
    50   5 B    3.663 --    86 N    3.372    45 B    0.194
    51   5 B    3.665 --    87 N    3.504
    52   5 B    3.656 --    88 N    3.516
    53   5 B    3.667 --    89 N    3.535    57 B    0.126
    54   5 B    3.674 --    90 N    3.428    40 B    0.169
    55   5 B    3.660 --    91 N    3.380    35 H    0.150
    56   5 B    3.570 --    92 N    3.107     9 N    0.360
    57   5 B    3.671 --    93 N    3.541    53 B    0.126
    58   5 B    3.655 --    94 N    3.430    42 B    0.138
    59   5 B    3.642 --    95 N    2.857     1 C    0.421    25 H    0.272
    60   5 B    3.619 --    96 N    3.323    43 B    0.178
    61   5 B    3.670 --    97 N    3.311    33 H    0.144    47 B    0.134
    62   5 B    3.444 --    98 N    2.847    40 B    0.154    38 B    0.152
    63   5 B    3.463 --    99 N    2.860    40 B    0.153    39 B    0.144
    64   5 B    3.447 --   100 N    2.918    38 B    0.124    41 B    0.116
    65   5 B    3.467 --   101 N    2.925    39 B    0.122    41 B    0.109
    66   5 B    3.395 --   102 N    3.006    44 B    0.128
    67   5 B    3.463 --   103 N    1.264    11 C    1.200    12 O    0.225
                            10 N    0.212    80 N    0.139    44 B    0.129
    68   5 B    3.315 --    19 C    1.787   104 N    0.627    20 C    0.397
                            22 F    0.155    21 C    0.116
    69   5 B    3.398 --   105 N    2.960    43 B    0.134    45 B    0.103
    70   5 B    3.534 --   106 N    3.028     1 C    0.157    48 B    0.105
    71   5 B    3.415 --   107 N    2.084     5 C    0.656    30 H    0.127
    72   5 B    3.497 --   108 N    2.932    26 H    0.200     3 C    0.122
    73   5 B    3.081 --   109 N    1.988     4 C    0.345    47 B    0.203
                            29 H    0.118
    74   7 N    3.567 --    38 B    2.973    98 N    0.145   100 N    0.113
    75   7 N    3.555 --    39 B    2.942    99 N    0.140   101 N    0.115
    76   7 N    3.611 --    40 B    3.034    98 N    0.143    99 N    0.142
    77   7 N    3.579 --    41 B    3.091   100 N    0.111   101 N    0.101
    78   7 N    3.420 --    42 B    3.033
    79   7 N    3.603 --    43 B    2.230    11 C    0.548    12 O    0.297
                            10 N    0.111
    80   7 N    3.484 --    44 B    2.844    67 B    0.139   102 N    0.111
    81   7 N    3.566 --    45 B    3.047    21 C    0.102
    82   7 N    3.356 --    46 B    2.728    23 H    0.221
    83   7 N    3.416 --    47 B    2.962
    84   7 N    3.412 --    48 B    2.301    31 H    0.367     5 C    0.346
                             6 N    0.123
    85   7 N    3.440 --    49 B    2.725     4 C    0.169     3 C    0.120
    86   7 N    3.535 --    50 B    3.372
    87   7 N    3.630 --    51 B    3.504
    88   7 N    3.632 --    52 B    3.516
    89   7 N    3.655 --    53 B    3.535    93 N    0.117
    90   7 N    3.599 --    54 B    3.428
    91   7 N    3.611 --    55 B    3.380    17 N    0.135
    92   7 N    3.320 --    56 B    3.107
    93   7 N    3.665 --    57 B    3.541    89 N    0.117
    94   7 N    3.585 --    58 B    3.430
    95   7 N    3.260 --    59 B    2.857     1 C    0.146    25 H    0.102
    96   7 N    3.518 --    60 B    3.323
    97   7 N    3.554 --    61 B    3.311
    98   7 N    3.314 --    62 B    2.847    74 N    0.145    76 N    0.143
    99   7 N    3.303 --    63 B    2.860    76 N    0.142    75 N    0.140
   100   7 N    3.308 --    64 B    2.918    74 N    0.113    77 N    0.111
   101   7 N    3.300 --    65 B    2.925    75 N    0.115    77 N    0.101
   102   7 N    3.335 --    66 B    3.006    80 N    0.111
   103   7 N    3.751 --    12 O    1.303    67 B    1.264    11 C    0.606
                            10 N    0.225
   104   7 N    3.897 --    20 C    2.727    68 B    0.627    22 F    0.217
   105   7 N    3.329 --    69 B    2.960
   106   7 N    3.318 --    70 B    3.028
   107   7 N    3.151 --    71 B    2.084     5 C    0.468    30 H    0.327
   108   7 N    3.301 --    72 B    2.932
   109   7 N    3.105 --    73 B    1.988     4 C    0.448    29 H    0.354
 ---------------------------------------------------------------------------

Topologies differ in total number of bonds
Writing topology from bond orders to xtbtopo.mol

molecular dipole:
                 x           y           z       tot (Debye)
 q only:       -2.916      -0.652      -1.579
   full:       -0.774      -1.136      -0.000       3.494
molecular quadrupole (traceless):
                xx          xy          yy          xz          yz          zz
 q only:       53.644     -16.288     -21.098      12.523      -7.701     -32.546
  q+dip:      125.027     -25.570     -75.333      12.034     -19.879     -49.694
   full:      111.341     -25.488     -59.885      12.309     -20.103     -51.457


           -------------------------------------------------
          | TOTAL ENERGY               32.100968397763 Eh   |
          | GRADIENT NORM             181.786449039737 Eh/α |
          | HOMO-LUMO GAP               0.003476184815 eV   |
           -------------------------------------------------

------------------------------------------------------------------------
 * finished run on 2026/08/31 at 18:25:34.783     
------------------------------------------------------------------------
 total:
 * wall-time:     0 d,  0 h,  0 min,  0.848 sec
 *  cpu-time:     0 d,  0 h,  0 min,  9.250 sec
 * ratio c/w:    10.908 speedup
 SCF:
 * wall-time:     0 d,  0 h,  0 min,  0.764 sec
 *  cpu-time:     0 d,  0 h,  0 min,  8.672 sec
 * ratio c/w:    11.351 speedup

normal termination of xtb
