109
Drug@B36N36 complex
C     -2.102017      2.076503      0.386313
C     -1.672354      0.651345     -0.024980
C     -2.478511      0.150316     -1.224455
C     -3.741310     -0.456021     -0.621560
C     -3.475941     -0.566313      0.876365
N     -2.039518     -0.294326      1.071769
C     -1.297764     -1.591429      1.050536
C      0.226000     -1.413806      1.014843
N      0.979816     -2.294019      1.594094
N      2.341845     -2.346280      1.609208
C      3.385144     -1.670254      1.009297
O      4.531328     -2.076063      1.228920
C      3.235066     -0.498036      0.132804
C      1.983619      0.052019     -0.138072
C      0.690869     -0.307875      0.240996
C     -0.193691      0.618001     -0.266538
N      0.531928      1.510419     -1.013913
C      1.872331      1.189455     -0.942613
C      2.988317      1.808148     -1.512518
C      4.231570      1.238854     -1.238046
C      4.367329      0.113674     -0.433743
F      5.328749      1.800609     -1.763830
H     -3.176369      2.153131      0.585192
H     -1.573369      2.404484      1.289838
H     -1.878912      2.802671     -0.404413
H     -2.718423      0.945911     -1.938699
H     -1.937702     -0.626998     -1.780301
H     -4.611656      0.180890     -0.812999
H     -3.938120     -1.438093     -1.065047
H     -3.796253     -1.533752      1.280648
H     -4.059311      0.191538      1.412789
H     -1.551395     -2.161752      1.952364
H     -1.570886     -2.201299      0.179354
H      2.689334     -3.124504      2.165000
H      0.157938      2.305109     -1.516065
H      2.910354      2.690086     -2.137478
H      5.361968     -0.282344     -0.245059
B      2.101200      0.000000      3.345000
B     -2.101200      0.000000      3.345000
B      0.000000      2.101200      3.345000
B      0.000000     -2.101200      3.345000
B      3.345000      2.101200      0.000000
B      3.345000     -2.101200      0.000000
B      3.345000      0.000000      2.101200
B      3.345000      0.000000     -2.101200
B     -3.345000      2.101200      0.000000
B     -3.345000     -2.101200      0.000000
B     -3.345000      0.000000      2.101200
B     -3.345000      0.000000     -2.101200
B      2.101200      0.000000     -3.345000
B     -2.101200      0.000000     -3.345000
B      0.000000      2.101200     -3.345000
B      0.000000     -2.101200     -3.345000
B      0.000000      3.345000      2.101200
B      0.000000      3.345000     -2.101200
B      0.000000     -3.345000      2.101200
B      0.000000     -3.345000     -2.101200
B      2.101200      3.345000      0.000000
B     -2.101200      3.345000      0.000000
B      2.101200     -3.345000      0.000000
B     -2.101200     -3.345000      0.000000
B      1.480000      1.480000      3.580000
B     -1.480000      1.480000      3.580000
B      1.480000     -1.480000      3.580000
B     -1.480000     -1.480000      3.580000
B      3.580000      1.480000      1.480000
B      3.580000     -1.480000      1.480000
B      3.580000      1.480000     -1.480000
B      3.580000     -1.480000     -1.480000
B     -3.580000      1.480000      1.480000
B     -3.580000     -1.480000      1.480000
B     -3.580000      1.480000     -1.480000
B     -3.580000     -1.480000     -1.480000
N      2.101200      0.000000      3.920000
N     -2.101200      0.000000      3.920000
N      0.000000      2.101200      3.920000
N      0.000000     -2.101200      3.920000
N      3.920000      2.101200      0.000000
N      3.920000     -2.101200      0.000000
N      3.920000      0.000000      2.101200
N      3.920000      0.000000     -2.101200
N     -3.920000      2.101200      0.000000
N     -3.920000     -2.101200      0.000000
N     -3.920000      0.000000      2.101200
N     -3.920000      0.000000     -2.101200
N      2.101200      0.000000     -3.920000
N     -2.101200      0.000000     -3.920000
N      0.000000      2.101200     -3.920000
N      0.000000     -2.101200     -3.920000
N      0.000000      3.920000      2.101200
N      0.000000      3.920000     -2.101200
N      0.000000     -3.920000      2.101200
N      0.000000     -3.920000     -2.101200
N      2.101200      3.920000      0.000000
N     -2.101200      3.920000      0.000000
N      2.101200     -3.920000      0.000000
N     -2.101200     -3.920000      0.000000
N      1.480000      1.480000      4.220000
N     -1.480000      1.480000      4.220000
N      1.480000     -1.480000      4.220000
N     -1.480000     -1.480000      4.220000
N      4.220000      1.480000      1.480000
N      4.220000     -1.480000      1.480000
N      4.220000      1.480000     -1.480000
N      4.220000     -1.480000     -1.480000
N     -4.220000      1.480000      1.480000
N     -4.220000     -1.480000      1.480000
N     -4.220000      1.480000     -1.480000
N     -4.220000     -1.480000     -1.480000
