223
Everolimus/B36N36 GFN2 opt
C       4.13412077     -3.58522674      7.14608375
C       3.74734506     -3.81539973      8.60479086
C       4.98606198     -3.97231584      9.50428412
C       4.75482971     -5.00786524     10.60797348
C       3.32024807     -4.95558575     11.12520229
C       2.93025310     -3.61976061     11.76600796
C       3.62358685     -3.33145130     13.10888036
C       3.83797206     -1.83631666     13.21050847
C       2.90470707     -1.04133725     13.75645537
C       2.97941560      0.38895175     13.80598274
C       2.04019571      1.18835046     14.34573694
C       2.14166936      2.62220250     14.34403810
C       1.21922513      3.44607102     14.85029933
C       1.29918278      4.94651654     14.90448204
C       1.99818555      5.58086257     13.69720468
C       1.27167446      5.32917045     12.37082166
C       2.21456073      5.52594414     11.20265288
O       3.29893184      6.04374374     11.31308929
C       1.70985797      5.08515799      9.82467568
C       2.87560487      4.49281139      8.98507013
C       3.02790259      3.01627947      9.28463572
C       2.72142141      2.09621408      8.37584157
C       2.84260707      0.60807478      8.56064313
C       2.07741765      0.08973746      9.76583702
O       2.51878847     -0.76241812     10.49735296
C       0.71516811      0.72409234      9.93924376
C      -0.19038314     -0.03523543     10.91017507
O      -0.78999350     -1.09132111     10.14220601
C      -0.68680712     -2.34298680     10.52962631
O      -0.15690917     -2.73543255     11.53527155
C      -1.38742935     -3.24951005      9.49890234
C      -2.63286353     -3.91816009     10.07505837
C      -2.29750313     -4.88793220     11.21228497
C      -0.99773126     -5.65209478     10.92528363
C      -0.65378122     -5.62562687      9.43967853
N      -0.44222388     -4.25317386      9.03057677
C       0.63509667     -3.82884041      8.37843518
O       0.88164113     -2.65064182      8.12623448
C       1.59858306     -4.89867092      7.90184495
O       1.42644188     -5.55861862      6.90538797
C       2.86729777     -5.07894238      8.74616652
O       2.40551630     -5.26804979     10.06028151
O       3.54643699     -6.21296715      8.28327944
C      -1.34944032      0.80032971     11.49802610
C      -0.84525016      2.08681455     12.14187045
C      -2.12061693     -0.09576808     12.48429322
C      -3.40445386      0.47044856     13.11881283
C      -4.23184140      1.32296521     12.15823527
C      -5.61642933      1.58146338     12.75151743
C      -5.55624717      1.90882471     14.25493634
C      -4.14997400      2.35276870     14.68649701
C      -3.12981560      1.23553221     14.42623213
O      -3.85433115      3.55933166     14.00417566
C      -2.93500375      4.39155518     14.66247294
O      -5.87945935      0.77607227     15.05097025
C      -7.25928860      0.56066461     15.26771529
C      -7.74949298      1.37649068     16.47094818
O      -6.99154724      1.07288924     17.61305737
C       4.30694591      0.15489796      8.54823192
C       3.50979415      2.72535179     10.67246541
O       2.61236614      4.79008458      7.63143073
O       0.60904949      4.21603512      9.94280500
C      -0.20914066      4.15832237      8.78790229
C       0.07472003      6.27034995     12.19002675
C       2.02499130      5.35434403     16.19430817
C       5.09019785     -1.31704987     12.56794165
O       2.81337338     -3.86818512     14.13720257
C       3.44666317     -3.91040225     15.38806593
H       4.83353286     -2.75585027      7.07817727
H       4.60794530     -4.47727794      6.74076765
H       3.26114007     -3.33988590      6.54499448
H       3.13423251     -2.97904404      8.94788650
H       5.83355146     -4.29380878      8.89758037
H       5.23125539     -3.00492715      9.94309571
H       5.45674778     -4.85342825     11.42704285
H       4.92124857     -6.00665341     10.20171861
H       3.16204969     -5.75476109     11.86099092
H       3.12544444     -2.79908571     11.08329687
H       1.85823042     -3.62360806     11.96309066
H       4.60646465     -3.83319319     13.14772912
H       2.01986471     -1.50287231     14.17383329
H       3.84847779      0.85282792     13.36027296
H       1.16201692      0.75337814     14.80668397
H       3.03353128      3.02537498     13.88355594
H       0.34881488      3.01619762     15.33231254
H       0.27706097      5.33856765     14.96116929
H       2.07585609      6.65753183     13.85911365
H       3.01738498      5.20041464     13.62377599
H       0.90609160      4.30003166     12.34068515
H       1.40684825      6.00909501      9.30349590
H       3.78754414      5.02334845      9.30779526
H       2.36801525      2.40621543      7.40261349
H       2.34490863      0.11781747      7.71822014
H       0.88000208      1.74342370     10.28344546
H       0.22507525      0.76877754      8.96564062
H       0.41258391     -0.48096373     11.71282709
H      -1.65560429     -2.60657882      8.65557364
H      -3.31521133     -3.14382080     10.42850681
H      -3.13366991     -4.44881795      9.26348473
H      -2.18063441     -4.33533627     12.14359150
H      -3.13161465     -5.58024984     11.33726874
H      -0.17193187     -5.18296190     11.45915819
H      -1.07612145     -6.68590235     11.25992755
H      -1.45368552     -6.07013957      8.83752967
H       0.26624585     -6.18606645      9.27292581
H       3.02964921     -6.58232464      7.54777226
H      -2.00558670      1.05081877     10.65908335
H      -0.10406426      1.86291679     12.90485391
H      -0.39950157      2.74416100     11.40276729
H      -1.67079414      2.62950933     12.58815630
H      -2.40216203     -1.00067654     11.94257397
H      -1.44293078     -0.40038917     13.28538289
H      -4.02718119     -0.39026682     13.38802924
H      -3.74201631      2.27828325     11.98357868
H      -4.34045411      0.80940976     11.20156079
H      -6.09303542      2.40327051     12.21723581
H      -6.23789877      0.69097043     12.63227900
H      -6.25206157      2.72850921     14.47900916
H      -4.18086154      2.55958164     15.76904118
H      -3.17505786      0.53714479     15.26240396
H      -2.13327991      1.67221955     14.41757988
H      -2.84323500      5.28547588     14.04756605
H      -3.29544204      4.67210416     15.66048237
H      -1.95011006      3.92194130     14.76463740
H      -7.35529966     -0.50507535     15.49385585
H      -7.85172963      0.79644763     14.37665377
H      -7.67836922      2.45200593     16.24508394
H      -8.79049140      1.13579828     16.69546006
H      -6.07915826      0.95375637     17.31425932
H       4.71776933      0.27764243      7.54963579
H       4.36291567     -0.89466333      8.82182396
H       4.90622491      0.73296567      9.24799940
H       2.82887756      3.16209457     11.40153679
H       3.56538371      1.65905041     10.85989619
H       4.49112364      3.17347765     10.83156248
H       3.30739153      4.40544010      7.08777882
H      -1.01737194      3.46718143      9.01812640
H      -0.62117929      5.14854089      8.56389128
H       0.33893906      3.79745292      7.91678528
H       0.41321053      7.30031124     12.09687132
H      -0.49243013      5.99960445     11.30526389
H      -0.58183667      6.19849912     13.05283105
H       1.53197861      4.92183780     17.06207901
H       3.05258601      4.99977549     16.17206363
H       2.03194054      6.43642349     16.30338841
H       5.59788397     -0.60360292     13.21458387
H       5.77989112     -2.12839023     12.34568834
H       4.83750959     -0.81379487     11.63551898
H       4.34771981     -4.53858631     15.35543057
H       3.73161290     -2.90971693     15.73379783
H       2.73133398     -4.34412489     16.08427206
B       0.15371910     -4.38484052      2.94425745
N      -0.15321302     -4.44893028      4.36219941
B      -1.49305748     -4.39339709      3.80605506
N      -1.16927538     -4.69333476      2.41846667
N      -4.69168878     -1.50089423      1.06146093
B      -4.95321278     -1.25736845      2.47187559
N      -5.24656682      0.16629950      2.39879108
B      -4.63315831     -0.04767603      1.09650138
B      -1.65688581     -3.72344050      1.49878870
N      -2.94671290     -3.10245227      1.76824415
B      -3.43105036     -2.11663528      0.81420328
N      -2.50965797     -1.45774507     -0.10076201
B      -1.22662244     -2.10329342     -0.34162354
N      -0.70791797     -3.08888030      0.59449005
N       1.08661940      0.20485385     -0.92265281
B       0.99426320     -1.22137558     -0.64689163
N      -0.31268425     -1.47412838     -1.23476841
B      -0.33116925     -0.02141843     -1.15979960
B      -3.94616925     -1.03557990      4.67500110
N      -4.25951287     -1.87891758      3.53595667
B      -3.31985272     -2.92252359      3.16289192
N      -2.49486867     -3.48140255      4.21658973
B      -2.16289327     -2.64614108      5.35925042
N      -3.11616227     -1.60701253      5.71906590
N      -1.39313764     -0.71266615      7.35609411
B      -1.53579934      0.68687666      7.00551501
N      -2.96987321      0.71281734      6.75389231
B      -2.70749183     -0.72050584      6.74217125
N      -1.37269375      0.73859654     -0.57678674
B      -2.54635889     -0.00471118     -0.15385980
N      -3.56868319      0.72500905      0.57527077
B      -3.17540783      1.88196843      1.35867064
N      -1.99733572      2.61108860      0.92423775
B      -0.96317546      1.89583622      0.19787695
B       1.79981076     -2.62751951      3.28176791
N       1.05096944     -3.45976487      2.35789466
B       0.65020407     -2.89963145      1.08133322
N       1.47977006     -1.84384046      0.52654948
B       2.23207197     -0.99884558      1.43564593
N       2.62104451     -1.57164262      2.71092046
N      -3.67899990      2.05181034      2.71322854
B      -4.45402789      0.95667206      3.27888508
N      -4.11419513      0.40762263      4.58334494
B      -3.30745136      1.23208278      5.47088881
N      -2.51705970      2.33490717      4.94046314
B      -2.87946960      2.85220520      3.62867266
B      -0.69837555      3.85524655      3.41659081
N      -0.15962208      3.93969750      2.06782121
B      -1.55565959      3.64762845      1.77934006
N      -2.11514023      3.92809444      3.09323527
N       2.23632181      0.44571139      1.25243026
B       1.35233384      0.99232249      0.23320673
N       0.43574900      2.07735066      0.55453413
B       0.72599911      2.87465733      1.73677399
N       1.60287947      2.35897893      2.77844738
B       2.49930810      1.26687433      2.42387616
B      -0.38146858     -1.42812670      6.63597299
N      -0.80735668     -2.59864435      5.86115744
B       0.21930868     -3.28416849      5.08875717
N       1.43257600     -2.58215243      4.68594628
B       1.79016501     -1.38522543      5.43114808
N       0.78420878     -0.66355829      6.19123127
N      -0.15269129      3.05716623      4.44948837
B      -1.11075121      2.38134044      5.30666531
N      -0.58321625      1.44603486      6.28320049
B       0.65647394      0.75873491      5.97265842
N       1.61226400      1.45615568      5.12611013
B       1.10190321      2.39360661      4.14287347
N       2.98142491     -0.68760151      5.06541235
B       3.23030753     -0.68835660      3.63144725
N       3.36444625      0.74849355      3.43049119
B       2.75744639      0.71440035      4.75074575
