72
carrier @complex
B       0.15371910     -4.38484052      2.94425745
N      -0.15321302     -4.44893028      4.36219941
B      -1.49305748     -4.39339709      3.80605506
N      -1.16927538     -4.69333476      2.41846667
N      -4.69168878     -1.50089423      1.06146093
B      -4.95321278     -1.25736845      2.47187559
N      -5.24656682      0.16629950      2.39879108
B      -4.63315831     -0.04767603      1.09650138
B      -1.65688581     -3.72344050      1.49878870
N      -2.94671290     -3.10245227      1.76824415
B      -3.43105036     -2.11663528      0.81420328
N      -2.50965797     -1.45774507     -0.10076201
B      -1.22662244     -2.10329342     -0.34162354
N      -0.70791797     -3.08888030      0.59449005
N       1.08661940      0.20485385     -0.92265281
B       0.99426320     -1.22137558     -0.64689163
N      -0.31268425     -1.47412838     -1.23476841
B      -0.33116925     -0.02141843     -1.15979960
B      -3.94616925     -1.03557990      4.67500110
N      -4.25951287     -1.87891758      3.53595667
B      -3.31985272     -2.92252359      3.16289192
N      -2.49486867     -3.48140255      4.21658973
B      -2.16289327     -2.64614108      5.35925042
N      -3.11616227     -1.60701253      5.71906590
N      -1.39313764     -0.71266615      7.35609411
B      -1.53579934      0.68687666      7.00551501
N      -2.96987321      0.71281734      6.75389231
B      -2.70749183     -0.72050584      6.74217125
N      -1.37269375      0.73859654     -0.57678674
B      -2.54635889     -0.00471118     -0.15385980
N      -3.56868319      0.72500905      0.57527077
B      -3.17540783      1.88196843      1.35867064
N      -1.99733572      2.61108860      0.92423775
B      -0.96317546      1.89583622      0.19787695
B       1.79981076     -2.62751951      3.28176791
N       1.05096944     -3.45976487      2.35789466
B       0.65020407     -2.89963145      1.08133322
N       1.47977006     -1.84384046      0.52654948
B       2.23207197     -0.99884558      1.43564593
N       2.62104451     -1.57164262      2.71092046
N      -3.67899990      2.05181034      2.71322854
B      -4.45402789      0.95667206      3.27888508
N      -4.11419513      0.40762263      4.58334494
B      -3.30745136      1.23208278      5.47088881
N      -2.51705970      2.33490717      4.94046314
B      -2.87946960      2.85220520      3.62867266
B      -0.69837555      3.85524655      3.41659081
N      -0.15962208      3.93969750      2.06782121
B      -1.55565959      3.64762845      1.77934006
N      -2.11514023      3.92809444      3.09323527
N       2.23632181      0.44571139      1.25243026
B       1.35233384      0.99232249      0.23320673
N       0.43574900      2.07735066      0.55453413
B       0.72599911      2.87465733      1.73677399
N       1.60287947      2.35897893      2.77844738
B       2.49930810      1.26687433      2.42387616
B      -0.38146858     -1.42812670      6.63597299
N      -0.80735668     -2.59864435      5.86115744
B       0.21930868     -3.28416849      5.08875717
N       1.43257600     -2.58215243      4.68594628
B       1.79016501     -1.38522543      5.43114808
N       0.78420878     -0.66355829      6.19123127
N      -0.15269129      3.05716623      4.44948837
B      -1.11075121      2.38134044      5.30666531
N      -0.58321625      1.44603486      6.28320049
B       0.65647394      0.75873491      5.97265842
N       1.61226400      1.45615568      5.12611013
B       1.10190321      2.39360661      4.14287347
N       2.98142491     -0.68760151      5.06541235
B       3.23030753     -0.68835660      3.63144725
N       3.36444625      0.74849355      3.43049119
B       2.75744639      0.71440035      4.75074575
