62
drug @complex
C       3.46618409      5.24986054     10.05912057
N       2.21141524      5.95395169     10.00842363
C       2.31064058      7.39397426     10.04965312
C       0.99190510      5.37611228      9.91116301
O      -0.03248342      6.03385517      9.84270961
C       0.96689224      3.88675672      9.96027828
C       1.17769050      3.12433176     11.07693693
C       0.95849732      1.77510235     10.69893340
C       0.97313041      0.51661423     11.28542694
N       0.70717480     -0.56168476     10.58163499
C       0.42719956     -0.43578041      9.27246609
N       0.37521436      0.71509397      8.58915685
C       0.62400145      1.79570691      9.31439849
N       0.62028025      3.08382458      8.88891120
C       0.28621453      3.47365218      7.53842942
C      -1.03132470      4.26562103      7.44627507
C      -0.79505831      5.26820559      6.31944759
C       0.66330979      5.67294226      6.51667098
C       1.36080071      4.35568099      6.86546174
N       0.17622783     -1.54543749      8.53875922
C       0.00890083     -2.86060051      8.91865147
N      -0.28333570     -3.67045727      7.90506139
C      -0.50314228     -4.94964378      8.13602584
C      -0.45139286     -5.53563046      9.40414940
C      -0.11726057     -4.67494508     10.46063891
C       0.11476210     -3.33798713     10.22922908
N      -0.63799647     -6.89466546      9.63607321
C      -1.53800603     -7.29922803     10.69877106
C      -1.16823509     -8.70290196     11.17189413
N      -1.28788641     -9.60573077     10.04281381
C      -0.37010997     -9.21265938      8.99053401
C      -0.72416017     -7.80239988      8.51292870
H       3.96336685      5.43209183     11.01613154
H       4.12178548      5.60522645      9.25897812
H       3.30890198      4.18065262      9.94421229
H       2.86439996      7.76279490      9.18298563
H       2.82291680      7.71142962     10.96020730
H       1.30265578      7.80387311     10.03814325
H       1.44232355      3.48296901     12.05202725
H       1.19912663      0.35898172     12.33294767
H       0.18708753      2.52819368      7.00298762
H      -1.87457998      3.60666573      7.25003554
H      -1.20457741      4.79980653      8.38146828
H      -1.47059284      6.11968799      6.38415107
H      -0.92023265      4.78619692      5.35070532
H       1.08958835      6.13870447      5.62955989
H       0.73234872      6.37438590      7.34924071
H       2.22066364      4.50484983      7.51863279
H       1.70456122      3.86355119      5.95600975
H       0.03355330     -1.38243782      7.53909859
H      -0.74456713     -5.52320704      7.25213185
H      -0.02496791     -5.06169477     11.46485897
H       0.37426146     -2.66181225     11.02469829
H      -2.57638256     -7.32094387     10.33032912
H      -1.47855787     -6.59759940     11.52896014
H      -0.14454007     -8.68176689     11.58550337
H      -1.85846267     -9.02360540     11.95508594
H      -1.10498754    -10.56167245     10.33127367
H       0.67957615     -9.21130450      9.33391263
H      -0.46643407     -9.91453001      8.15964331
H      -1.73632891     -7.81686396      8.07961931
H      -0.00822554     -7.49985649      7.74838338
