52
Erlotinib - ETKDG+MMFF conformer
C     -5.922838      5.136174      0.606959
O     -4.534394      4.960546      0.855840
C     -4.140456      3.588441      0.887638
C     -3.954664      3.009183     -0.514926
O     -3.487583      1.663000     -0.455394
C     -2.138956      1.416764     -0.501972
C     -1.145081      2.393859     -0.381357
C      0.207487      2.079556     -0.425043
N      1.092445      3.070757     -0.294508
C      2.385286      2.732688     -0.326535
N      2.872686      1.501062     -0.488944
C      1.978666      0.507332     -0.633164
N      2.440642     -0.820500     -0.847599
C      3.741112     -1.340881     -0.653782
C      4.120934     -2.496291     -1.356112
C      5.369811     -3.089222     -1.151504
C      6.251322     -2.548722     -0.218451
C      5.877481     -1.424365      0.516899
C      6.770974     -0.880172      1.493591
C      7.520012     -0.422674      2.313146
C      4.625443     -0.834856      0.307559
C      0.588377      0.744146     -0.596645
C     -0.412287     -0.256385     -0.700865
C     -1.768044      0.071487     -0.658290
O     -2.796680     -0.830629     -0.740921
C     -2.510011     -2.192900     -1.048045
C     -2.256998     -3.006441      0.218398
O     -1.897378     -4.339010     -0.146091
C     -1.664486     -5.147766      1.000375
H     -6.190733      4.773887     -0.389017
H     -6.145238      6.205741      0.654140
H     -6.518580      4.624583      1.368952
H     -4.851598      2.990163      1.470584
H     -3.193279      3.541016      1.434912
H     -4.928956      2.971965     -1.015173
H     -3.340031      3.651154     -1.157000
H     -1.396596      3.439910     -0.234031
H      3.106391      3.534770     -0.212367
H      2.026850     -1.173855     -1.704357
H      3.445502     -2.947952     -2.078404
H      5.650840     -3.974818     -1.715251
H      7.221519     -3.012996     -0.060444
H      8.182532     -0.014300      3.040014
H      4.342153      0.024624      0.909424
H     -0.096914     -1.290669     -0.787626
H     -1.708709     -2.302367     -1.788763
H     -3.398943     -2.600089     -1.545632
H     -3.162442     -3.015809      0.837196
H     -1.454702     -2.558330      0.814874
H     -0.837504     -4.743725      1.592216
H     -1.395023     -6.152371      0.663688
H     -2.569363     -5.214718      1.611992
