      -----------------------------------------------------------      
     |                   =====================                   |     
     |                           x T B                           |     
     |                   =====================                   |     
     |                         S. Grimme                         |     
     |          Mulliken Center for Theoretical Chemistry        |     
     |                    University of Bonn                     |     
      -----------------------------------------------------------      

   * xtb version 6.7.1pre (5071a88) compiled by 'Marcel@Raven' on 2024-07-23

   xtb is free software: you can redistribute it and/or modify it under
   the terms of the GNU Lesser General Public License as published by
   the Free Software Foundation, either version 3 of the License, or
   (at your option) any later version.
   
   xtb is distributed in the hope that it will be useful,
   but WITHOUT ANY WARRANTY; without even the implied warranty of
   MERCHANTABILITY or FITNESS FOR A PARTICULAR PURPOSE.  See the
   GNU Lesser General Public License for more details.
   
   Cite this work as:
   * C. Bannwarth, E. Caldeweyher, S. Ehlert, A. Hansen, P. Pracht,
     J. Seibert, S. Spicher, S. Grimme, WIREs Comput. Mol. Sci., 2020, 11,
     e01493. DOI: 10.1002/wcms.1493
   
   for GFN2-xTB:
   * C. Bannwarth, S. Ehlert and S. Grimme., J. Chem. Theory Comput., 2019,
     15, 1652-1671. DOI: 10.1021/acs.jctc.8b01176
   for GFN1-xTB:
   * S. Grimme, C. Bannwarth, P. Shushkov, J. Chem. Theory Comput., 2017,
     13, 1989-2009. DOI: 10.1021/acs.jctc.7b00118
   for GFN0-xTB:
   * P. Pracht, E. Caldeweyher, S. Ehlert, S. Grimme, ChemRxiv, 2019, preprint.
     DOI: 10.26434/chemrxiv.8326202.v1
   for GFN-FF:
   * S. Spicher and S. Grimme, Angew. Chem. Int. Ed., 2020, 59, 15665-15673.
     DOI: 10.1002/anie.202004239
   
   for ALPB and GBSA implicit solvation:
   * S. Ehlert, M. Stahn, S. Spicher, S. Grimme, J. Chem. Theory Comput.,
     2021, 17, 4250-4261. DOI: 10.1021/acs.jctc.1c00471
   
   for ddCOSMO and CPCM-X implicit solvation:
   * M. Stahn, S. Ehlert, S. Grimme, J. Phys. Chem. A,
     2023, XX, XXXX-XXXX. DOI: 10.1021/acs.jpca.3c04382
   
   for DFT-D4:
   * E. Caldeweyher, C. Bannwarth and S. Grimme, J. Chem. Phys., 2017,
     147, 034112. DOI: 10.1063/1.4993215
   * E. Caldeweyher, S. Ehlert, A. Hansen, H. Neugebauer, S. Spicher,
     C. Bannwarth and S. Grimme, J. Chem. Phys., 2019, 150, 154122.
     DOI: 10.1063/1.5090222
   * E. Caldeweyher, J.-M. Mewes, S. Ehlert and S. Grimme, Phys. Chem. Chem. Phys.
     2020, 22, 8499-8512. DOI: 10.1039/D0CP00502A
   
   for sTDA-xTB:
   * S. Grimme and C. Bannwarth, J. Chem. Phys., 2016, 145, 054103.
     DOI: 10.1063/1.4959605
   
   in the mass-spec context:
   * V. Asgeirsson, C. Bauer and S. Grimme, Chem. Sci., 2017, 8, 4879.
     DOI: 10.1039/c7sc00601b
   * J. Koopman and S. Grimme, ACS Omega 2019, 4, 12, 15120-15133.
     DOI: 10.1021/acsomega.9b02011
   
   for metadynamics refer to:
   * S. Grimme, J. Chem. Theory Comput., 2019, 155, 2847-2862
     DOI: 10.1021/acs.jctc.9b00143
   
   for SPH calculations refer to:
   * S. Spicher and S. Grimme, J. Chem. Theory Comput., 2021, 17, 1701-1714
     DOI: 10.1021/acs.jctc.0c01306
   
   for ONIOM refer to:
   * C. Plett, A. Katbashev, S. Ehlert, S. Grimme, M. Bursch,
     Phys. Chem. Chem. Phys., 2023, 25, 17860-17868. DOI: 10.1039/D3CP02178E
   
   for DIPRO refer to:
   * J. Kohn, N. Gildemeister, S. Grimme, D. Fazzi, A. Hansen,
     J. Chem. Phys., 2023, just accepted.
   
   for PTB refer to:
   * S. Grimme, M. Mueller, A. Hansen, J. Chem. Phys., 2023, 158, 124111.
     DOI: 10.1063/5.0137838
   
   with help from (in alphabetical order)
   P. Atkinson, C. Bannwarth, F. Bohle, G. Brandenburg, E. Caldeweyher
   M. Checinski, S. Dohm, S. Ehlert, S. Ehrlich, I. Gerasimov, C. Hölzer
   A. Katbashev, J. Kohn, J. Koopman, C. Lavigne, S. Lehtola, F. März, M. Müller,
   F. Musil, H. Neugebauer, J. Pisarek, C. Plett, P. Pracht, F. Pultar,
   J. Seibert, P. Shushkov, S. Spicher, M. Stahn, M. Steiner, T. Strunk,
   J. Stückrath, T. Rose, and J. Unsleber
   
 * started run on 2026/08/31 at 18:40:24.641     
   ID    Z sym.   atoms
    1    6 C      1, 3, 4, 6-8, 10, 12, 14-24, 26, 27, 29
    2    8 O      2, 5, 25, 28
    3    7 N      9, 11, 13, 89-124
    4    1 H      30-52
    5    5 B      53-88

           -------------------------------------------------
          |                Calculation Setup                |
           -------------------------------------------------

          program call               : "c:\Users\Andre\Proyectos doctorado\kras-pancreatic-gC3N4-ai\tools\xtb\xtb-6.7.1\bin\xtb.exe" "c:\Users\Andre\Proyectos doctorado\nano-qsar-ai-therapeutics\calculations\tnbc\Erlotinib\Erlotinib_B36N36_complex.xyz" --gfn 2 --sp --chrg 0 --uhf 0 --iterations 500 --norestart
          coordinate file            : c:\Users\Andre\Proyectos doctorado\nano-qsar-ai-therapeutics\calculations\tnbc\Erlotinib\Erlotinib_B36N36_complex.xyz
          omp threads                :                    16


molecular fragmentation (1/2 indicates fragments):
111111111111111111111111111111111111111111111111111111111111111111221212
1111111111111111111111111111112212121111111111111111
# atoms in fragment 1/2:   116     8
 fragment masses (1/2) :     1187.60       99.27
CMA distance (Bohr)    :   6.455
constraining FC (au)   :  0.0500

           -------------------------------------------------
          |                 G F N 2 - x T B                 |
           -------------------------------------------------

        Reference                      10.1021/acs.jctc.8b01176
      * Hamiltonian:
        H0-scaling (s, p, d)           1.850000    2.230000    2.230000
        zeta-weighting                 0.500000
      * Dispersion:
        s8                             2.700000
        a1                             0.520000
        a2                             5.000000
        s9                             5.000000
      * Repulsion:
        kExp                           1.500000    1.000000
        rExp                           1.000000
      * Coulomb:
        alpha                          2.000000
        third order                    shell-resolved
        anisotropic                    true
        a3                             3.000000
        a5                             4.000000
        cn-shift                       1.200000
        cn-exp                         4.000000
        max-rad                        5.000000


          ...................................................
          :                      SETUP                      :
          :.................................................:
          :  # basis functions                 427          :
          :  # atomic orbitals                 427          :
          :  # shells                          225          :
          :  # electrons                       438          :
          :  max. iterations                   500          :
          :  Hamiltonian                  GFN2-xTB          :
          :  restarted?                      false          :
          :  GBSA solvation                  false          :
          :  PC potential                    false          :
          :  electronic temp.          300.0000000     K    :
          :  accuracy                    1.0000000          :
          :  -> integral cutoff          0.2500000E+02      :
          :  -> integral neglect         0.1000000E-07      :
          :  -> SCF convergence          0.1000000E-05 Eh   :
          :  -> wf. convergence          0.1000000E-03 e    :
          :  Broyden damping             0.4000000          :
          :  net charge                          0          :
          :  unpaired electrons                  0          :
          ...................................................

 iter      E             dE          RMSdq      gap      omega  full diag
   1   -213.2618940 -0.213262E+03  0.145E+01    0.53       0.0  T
   2   -135.6659433  0.775960E+02  0.137E+01    0.23       1.0  T
   3     -9.6806728  0.125985E+03  0.144E+01    0.08       1.0  T
   4    -53.7389447 -0.440583E+02  0.122E+01    0.23       1.0  T
   5   -152.9572091 -0.992183E+02  0.998E+00    0.44       1.0  T
   6   -217.0043538 -0.640471E+02  0.707E+00    0.28       1.0  T
   7   -228.1173004 -0.111129E+02  0.424E+00    0.08       1.0  T
   8   -229.1949929 -0.107769E+01  0.354E+00    0.20       1.0  T
   9   -229.1663709  0.286220E-01  0.311E+00    0.05       1.0  T
  10   -225.3972953  0.376908E+01  0.328E+00    0.20       1.0  T
  11   -229.7072021 -0.430991E+01  0.223E+00    0.04       1.0  T
  12   -229.8915982 -0.184396E+00  0.167E+00    0.15       1.0  T
  13   -229.8191835  0.724147E-01  0.145E+00    0.22       1.0  T
  14   -230.3371161 -0.517933E+00  0.123E+00    0.05       1.0  T
  15   -230.4741819 -0.137066E+00  0.984E-01    0.04       1.0  T
  16   -230.4901396 -0.159576E-01  0.929E-01    0.01       1.0  T
  17   -230.4504070  0.397326E-01  0.909E-01    0.07       1.0  T
  18   -230.4805310 -0.301240E-01  0.695E-01    0.06       1.0  T
  19   -230.5117725 -0.312416E-01  0.484E-01    0.10       1.0  T
  20   -230.4198969  0.918757E-01  0.784E-01    0.04       1.0  T
  21   -230.5428140 -0.122917E+00  0.285E-01    0.06       1.0  T
  22   -230.5633343 -0.205203E-01  0.207E-01    0.05       1.0  T
  23   -230.5665032 -0.316885E-02  0.127E-01    0.05       1.0  T
  24   -230.5678251 -0.132193E-02  0.956E-02    0.05       1.0  T
  25   -230.5687919 -0.966774E-03  0.530E-02    0.04       1.0  T
  26   -230.5689387 -0.146881E-03  0.511E-02    0.05       1.0  T
  27   -230.5694055 -0.466789E-03  0.411E-02    0.04       1.0  T
  28   -230.5694575 -0.519144E-04  0.346E-02    0.04       1.0  T
  29   -230.5694866 -0.291851E-04  0.307E-02    0.04       1.0  T
  30   -230.5696054 -0.118729E-03  0.176E-02    0.04       1.0  T
  31   -230.5696084 -0.304384E-05  0.164E-02    0.04       1.0  T
  32   -230.5696341 -0.257022E-04  0.115E-02    0.04       1.0  T
  33   -230.5696388 -0.466725E-05  0.913E-03    0.04       1.0  T
  34   -230.5696467 -0.795810E-05  0.642E-03    0.04       1.4  T
  35   -230.5696499 -0.316291E-05  0.444E-03    0.04       2.0  T
  36   -230.5696517 -0.182492E-05  0.267E-03    0.04       3.4  T
  37   -230.5696524 -0.708392E-06  0.133E-03    0.04       6.8  T
  38   -230.5696527 -0.226276E-06  0.626E-04    0.04      14.3  T
  39   -230.5696527 -0.567141E-07  0.367E-04    0.04      24.4  T

   *** convergence criteria satisfied after 39 iterations ***

         #    Occupation            Energy/Eh            Energy/eV
      -------------------------------------------------------------
         1        2.0000           -1.2600324             -34.2872
       ...           ...                  ...                  ...
       213        2.0000           -0.1741214              -4.7381
       214        2.0000           -0.1666280              -4.5342
       215        2.0000           -0.1643327              -4.4717
       216        2.0000           -0.1545853              -4.2065
       217        1.9998           -0.1484852              -4.0405
       218        1.9792           -0.1442436              -3.9251
       219        1.3446           -0.1406000              -3.8259 (HOMO)
       220        0.5366           -0.1389642              -3.7814 (LUMO)
       221        0.1371           -0.1374382              -3.7399
       222        0.0028           -0.1336729              -3.6374
       223        0.0000           -0.1274698              -3.4686
       224                         -0.1198151              -3.2603
       ...                                ...                  ...
       427                         76.1779799            2072.9083
      -------------------------------------------------------------
                  HL-Gap            0.0016358 Eh            0.0445 eV
             Fermi-level           -0.1399173 Eh           -3.8073 eV

 SCC (total)                   0 d,  0 h,  0 min,  0.967 sec
 SCC setup                      ...        0 min,  0.001 sec (  0.103%)
 Dispersion                     ...        0 min,  0.004 sec (  0.414%)
 classical contributions        ...        0 min,  0.000 sec (  0.000%)
 integral evaluation            ...        0 min,  0.016 sec (  1.655%)
 iterations                     ...        0 min,  0.910 sec ( 94.105%)
 molecular gradient             ...        0 min,  0.033 sec (  3.413%)
 printout                       ...        0 min,  0.003 sec (  0.310%)

         :::::::::::::::::::::::::::::::::::::::::::::::::::::
         ::                     SUMMARY                     ::
         :::::::::::::::::::::::::::::::::::::::::::::::::::::
         :: total energy               1.776325467247 Eh    ::
         :: gradient norm            165.352487120799 Eh/a0 ::
         :: HOMO-LUMO gap              0.044512881625 eV    ::
         ::.................................................::
         :: SCC energy              -230.533932125534 Eh    ::
         :: -> isotropic ES            1.509411992426 Eh    ::
         :: -> anisotropic ES          0.156046162098 Eh    ::
         :: -> anisotropic XC          0.365731129464 Eh    ::
         :: -> dispersion             -0.337923061720 Eh    ::
         :: repulsion energy         232.310257592780 Eh    ::
         :: add. restraining           0.000000000000 Eh    ::
         :: total charge               0.000000000000 e     ::
         :::::::::::::::::::::::::::::::::::::::::::::::::::::

           -------------------------------------------------
          |                Property Printout                |
           -------------------------------------------------

    * Orbital Energies and Occupations

         #    Occupation            Energy/Eh            Energy/eV
      -------------------------------------------------------------
         1        2.0000           -1.2600324             -34.2872
       ...           ...                  ...                  ...
       207        2.0000           -0.2167641              -5.8985
       208        2.0000           -0.2087812              -5.6812
       209        2.0000           -0.1997940              -5.4367
       210        2.0000           -0.1980695              -5.3897
       211        2.0000           -0.1935047              -5.2655
       212        2.0000           -0.1793795              -4.8812
       213        2.0000           -0.1741214              -4.7381
       214        2.0000           -0.1666280              -4.5342
       215        2.0000           -0.1643327              -4.4717
       216        2.0000           -0.1545853              -4.2065
       217        1.9998           -0.1484852              -4.0405
       218        1.9792           -0.1442436              -3.9251
       219        1.3446           -0.1406000              -3.8259 (HOMO)
       220        0.5366           -0.1389642              -3.7814 (LUMO)
       221        0.1371           -0.1374382              -3.7399
       222        0.0028           -0.1336729              -3.6374
       223        0.0000           -0.1274698              -3.4686
       224                         -0.1198151              -3.2603
       225                         -0.1180687              -3.2128
       226                         -0.1123770              -3.0579
       227                         -0.1084403              -2.9508
       228                         -0.1035832              -2.8186
       229                         -0.0938337              -2.5533
       230                         -0.0878775              -2.3913
       ...                                ...                  ...
       427                         76.1779799            2072.9083
      -------------------------------------------------------------
                  HL-Gap            0.0016358 Eh            0.0445 eV
             Fermi-level           -0.1399173 Eh           -3.8073 eV

     #   Z          covCN         q      C6AA      α(0)
     1   6 C        3.643     0.008    20.794     6.555
     2   8 O        1.697    -0.333    19.588     5.975
     3   6 C        5.498    -0.039    21.179     6.536
     4   6 C        7.670    -0.147    23.232     6.845
     5   8 O        5.441     0.686     8.037     3.829
     6   6 C        5.572    -0.145    23.186     6.838
     7   6 C        4.687    -0.480    31.292     7.944
     8   6 C        3.344    -0.062    26.758     8.170
     9   7 N        3.853    -0.151    24.258     7.315
    10   6 C        6.804    -0.093    22.180     6.688
    11   7 N        5.921     0.147    18.744     6.430
    12   6 C        3.841    -0.215    24.715     7.072
    13   7 N        5.458    -0.280    27.218     7.749
    14   6 C        7.722     0.293    16.123     5.703
    15   6 C        6.541     0.047    19.700     6.303
    16   6 C        3.457    -0.283    29.322     8.168
    17   6 C        2.928    -0.172    32.483     9.347
    18   6 C        3.623    -0.096    22.816     6.884
    19   6 C        1.977    -0.069    32.940     9.268
    20   6 C        1.908    -0.163    35.772     9.659
    21   6 C        7.271    -0.197    24.273     6.997
    22   6 C        2.979    -0.121    31.078     9.145
    23   6 C        2.913    -0.198    33.236     9.454
    24   6 C        3.121    -0.110    30.585     9.057
    25   8 O        4.975    -0.144    16.446     5.477
    26   6 C        7.952    -0.302    26.635     7.329
    27   6 C        6.990     0.367    15.215     5.540
    28   8 O        3.410     0.402    10.196     4.313
    29   6 C        4.835    -0.630    36.037     8.525
    30   1 H        0.924     0.032     2.558     2.501
    31   1 H        0.924     0.075     2.028     2.227
    32   1 H        0.924     0.046     2.375     2.410
    33   1 H        0.942     0.062     2.176     2.306
    34   1 H        0.928     0.095     1.833     2.117
    35   1 H        0.936    -0.001     3.075     2.742
    36   1 H        0.951     0.085     1.924     2.168
    37   1 H        2.745     0.549     0.279     0.825
    38   1 H        3.176     0.379     0.512     1.117
    39   1 H        1.002     0.234     0.937     1.512
    40   1 H        1.077    -0.050     4.062     3.147
    41   1 H        0.925    -0.044     3.951     3.108
    42   1 H        0.925    -0.036     3.771     3.037
    43   1 H        0.927     0.015     2.803     2.618
    44   1 H        1.946     0.256     0.848     1.438
    45   1 H        0.925    -0.071     4.658     3.375
    46   1 H        0.924    -0.011     3.264     2.826
    47   1 H        2.362     0.223     0.981     1.546
    48   1 H        2.738    -0.050     4.076     3.152
    49   1 H        1.753    -0.204    11.047     5.189
    50   1 H        1.613     0.185     1.170     1.689
    51   1 H        0.924     0.046     2.370     2.407
    52   1 H        0.924     0.007     2.941     2.682
    53   5 B        5.102     0.092    21.103     7.402
    54   5 B        5.102     0.092    21.113     7.404
    55   5 B        5.102     0.104    20.903     7.367
    56   5 B        5.102     0.088    21.170     7.413
    57   5 B        7.464     0.280    18.216     6.877
    58   5 B        8.394     0.082    21.270     7.431
    59   5 B        5.362     0.083    21.260     7.429
    60   5 B        6.763     0.224    19.014     7.026
    61   5 B        8.482     0.208    19.261     7.071
    62   5 B        8.658     0.414    16.471     6.539
    63   5 B        5.102     0.085    21.227     7.423
    64   5 B        6.041     0.224    19.011     7.025
    65   5 B        1.850     0.107    40.796    13.453
    66   5 B        1.850     0.094    41.231    13.524
    67   5 B        1.850     0.116    40.510    13.405
    68   5 B        1.850     0.089    41.414    13.554
    69   5 B        1.850     0.093    41.263    13.530
    70   5 B        2.407     0.192    23.222     8.849
    71   5 B        1.880     0.096    41.099    13.499
    72   5 B        1.850     0.142    39.697    13.270
    73   5 B        4.886     0.436    16.208     6.487
    74   5 B        4.989     0.186    19.588     7.131
    75   5 B        1.852     0.067    42.149    13.674
    76   5 B        6.217    -0.214    27.260     8.412
    77   5 B        4.397     0.280    18.219     6.877
    78   5 B        4.397     0.283    18.172     6.868
    79   5 B        4.397     0.288    18.106     6.856
    80   5 B        4.397     0.263    18.457     6.922
    81   5 B        4.641     0.250    18.644     6.957
    82   5 B        5.525     0.153    20.110     7.225
    83   5 B        5.990     0.344    17.353     6.712
    84   5 B        7.563     0.365    17.073     6.658
    85   5 B        4.769     0.193    19.477     7.111
    86   5 B        4.453     0.278    18.240     6.881
    87   5 B        6.796     0.216    19.133     7.048
    88   5 B        7.046     0.560    14.805     6.200
    89   7 N        4.372    -0.046    22.121     6.985
    90   7 N        4.372    -0.072    22.624     7.064
    91   7 N        4.372    -0.041    22.019     6.969
    92   7 N        4.372    -0.055    22.298     7.013
    93   7 N        6.199    -0.018    21.597     6.902
    94   7 N        7.517     0.309    16.376     6.010
    95   7 N        5.244    -0.126    23.717     7.233
    96   7 N        4.877    -0.257    26.666     7.670
    97   7 N        7.403     0.391    15.314     5.812
    98   7 N        6.239    -0.366    29.407     8.054
    99   7 N        4.372    -0.122    23.635     7.220
   100   7 N        4.526    -0.260    26.729     7.679
   101   7 N        0.932    -0.133    23.768     7.040
   102   7 N        0.932    -0.166    24.479     7.144
   103   7 N        0.932    -0.139    23.894     7.058
   104   7 N        0.932    -0.181    24.809     7.192
   105   7 N        0.932    -0.209    25.432     7.282
   106   7 N        0.949    -0.281    27.026     7.497
   107   7 N        1.605    -0.288    27.883     7.768
   108   7 N        0.932    -0.314    27.937     7.632
   109   7 N        3.670    -0.239    26.240     7.608
   110   7 N        2.644    -0.436    31.399     8.322
   111   7 N        0.932    -0.279    27.085     7.515
   112   7 N        3.900     1.378     7.251     3.999
   113   7 N        3.977    -0.355    29.119     8.015
   114   7 N        3.977    -0.347    28.923     7.988
   115   7 N        3.977    -0.336    28.625     7.946
   116   7 N        3.977    -0.349    28.954     7.992
   117   7 N        4.037    -0.432    31.254     8.303
   118   7 N        5.509    -0.198    25.278     7.467
   119   7 N        4.853    -0.564    35.333     8.828
   120   7 N        6.873     0.135    18.940     6.464
   121   7 N        4.118    -0.504    33.405     8.584
   122   7 N        3.977    -0.431    31.213     8.298
   123   7 N        5.603    -0.211    25.575     7.511
   124   7 N        5.488    -0.653    38.451     9.210

 Mol. C6AA /au·bohr⁶  :     281101.977391
 Mol. C8AA /au·bohr⁸  :    7835453.147375
 Mol. α(0) /au        :        840.045471


Wiberg/Mayer (AO) data.
largest (>0.10) Wiberg bond orders for each atom

 ---------------------------------------------------------------------------
     #   Z sym  total        # sym  WBO       # sym  WBO       # sym  WBO
 ---------------------------------------------------------------------------
     1   6 C    3.947 --     2 O    0.991    31 H    0.978    32 H    0.977
                            30 H    0.976
     2   8 O    2.054 --     1 C    0.991     3 C    0.957
     3   6 C    3.908 --     2 O    0.957    34 H    0.925     4 C    0.906
                            33 H    0.904
     4   6 C    3.886 --     3 C    0.906    35 H    0.844    36 H    0.814
                            97 N    0.755    61 B    0.271
     5   8 O    3.191 --    97 N    0.974    61 B    0.849   123 N    0.435
                            87 B    0.372     6 C    0.276
     6   6 C    3.650 --    24 C    1.061     7 C    1.031    61 B    0.336
                             5 O    0.276    97 N    0.234    87 B    0.218
                           123 N    0.120
     7   6 C    3.554 --     8 C    1.139     6 C    1.031    74 B    0.515
                            37 H    0.206   110 N    0.125
     8   6 C    3.781 --    22 C    1.225     7 C    1.139     9 N    0.926
     9   7 N    2.909 --     8 C    0.926    10 C    0.661    73 B    0.482
                           109 N    0.392
    10   6 C    3.362 --    73 B    0.787     9 N    0.661    11 N    0.501
                           109 N    0.460    57 B    0.394    38 H    0.315
    11   7 N    3.522 --    12 C    0.840    57 B    0.588    93 N    0.574
                            83 B    0.568    10 C    0.501   109 N    0.105
    12   6 C    3.430 --    22 C    1.133    11 N    0.840    13 N    0.835
    13   7 N    3.197 --    12 C    0.835    39 H    0.735    14 C    0.527
                            84 B    0.359    94 N    0.145    58 B    0.116
                           120 N    0.104
    14   6 C    3.840 --    94 N    0.854   120 N    0.797    21 C    0.753
                            13 N    0.527    84 B    0.421    58 B    0.227
                            15 C    0.107
    15   6 C    3.738 --    16 C    1.106   120 N    0.749    40 H    0.709
                            94 N    0.319    84 B    0.296    14 C    0.107
    16   6 C    3.682 --    17 C    1.222    15 C    1.106    41 H    0.967
    17   6 C    3.818 --    18 C    1.300    16 C    1.222    42 H    0.970
    18   6 C    3.879 --    17 C    1.300    19 C    1.129    21 C    1.045
    19   6 C    3.960 --    20 C    2.754    18 C    1.129
    20   6 C    3.921 --    19 C    2.754    43 H    0.976
    21   6 C    3.731 --    18 C    1.045    14 C    0.753    44 H    0.727
                           118 N    0.510    94 N    0.131    82 B    0.103
    22   6 C    3.893 --     8 C    1.225    23 C    1.179    12 C    1.133
    23   6 C    3.755 --    24 C    1.205    22 C    1.179    45 H    0.943
    24   6 C    3.619 --    23 C    1.205     6 C    1.061    25 O    0.838
    25   8 O    2.521 --    24 C    0.838    26 C    0.692    88 B    0.387
                            62 B    0.143
    26   6 C    3.771 --    46 H    0.834    25 O    0.692    47 H    0.685
                            62 B    0.270    88 B    0.234   124 N    0.150
                            76 B    0.134
    27   6 C    3.814 --    76 B    2.264   112 N    0.669    28 O    0.259
                            48 H    0.216    49 H    0.188
    28   8 O    3.005 --   112 N    2.262    27 C    0.259    29 C    0.231
                            76 B    0.157
    29   6 C    3.761 --    51 H    0.988    52 H    0.984    50 H    0.764
                            28 O    0.231    48 H    0.148    76 B    0.131
                            49 H    0.122
    30   1 H    0.999 --     1 C    0.976
    31   1 H    0.994 --     1 C    0.978
    32   1 H    0.998 --     1 C    0.977
    33   1 H    0.994 --     3 C    0.904
    34   1 H    0.990 --     3 C    0.925
    35   1 H    0.990 --     4 C    0.844
    36   1 H    0.984 --     4 C    0.814
    37   1 H    0.697 --    74 B    0.241   110 N    0.235     7 C    0.206
    38   1 H    0.840 --    10 C    0.315   109 N    0.173    73 B    0.161
    39   1 H    0.939 --    13 N    0.735    84 B    0.107
    40   1 H    0.981 --    15 C    0.709
    41   1 H    0.996 --    16 C    0.967
    42   1 H    0.997 --    17 C    0.970
    43   1 H    0.999 --    20 C    0.976
    44   1 H    0.932 --    21 C    0.727
    45   1 H    0.993 --    23 C    0.943
    46   1 H    0.994 --    26 C    0.834
    47   1 H    0.947 --    26 C    0.685    88 B    0.162
    48   1 H    0.844 --    27 C    0.216    29 C    0.148
    49   1 H    0.859 --    27 C    0.188    29 C    0.122
    50   1 H    0.963 --    29 C    0.764   107 N    0.170
    51   1 H    0.996 --    29 C    0.988
    52   1 H    0.998 --    29 C    0.984
    53   5 B    3.606 --    89 N    2.964    59 B    0.208    77 B    0.164
                            79 B    0.153
    54   5 B    3.610 --    90 N    2.958    63 B    0.212    78 B    0.157
                            80 B    0.154
    55   5 B    3.593 --    91 N    3.004    69 B    0.179    77 B    0.160
                            78 B    0.157
    56   5 B    3.603 --    92 N    2.949    71 B    0.224    80 B    0.158
                            79 B    0.158
    57   5 B    3.507 --    93 N    2.284    11 N    0.588    10 C    0.394
    58   5 B    3.222 --    94 N    1.897    75 B    0.298    14 C    0.227
                            82 B    0.226    13 N    0.116
    59   5 B    3.681 --    95 N    3.060    53 B    0.208    81 B    0.146
                            82 B    0.127
    60   5 B    3.588 --    96 N    3.078    65 B    0.132
    61   5 B    3.345 --    97 N    1.116     5 O    0.849     6 C    0.336
                             4 C    0.271    85 B    0.194    74 B    0.151
                           123 N    0.126
    62   5 B    3.293 --    98 N    2.690    26 C    0.270    25 O    0.143
    63   5 B    3.673 --    99 N    3.052    54 B    0.212    85 B    0.150
                            86 B    0.142
    64   5 B    3.580 --   100 N    2.994    87 B    0.176    66 B    0.151
    65   5 B    3.659 --   101 N    3.482    60 B    0.132
    66   5 B    3.661 --   102 N    3.443    64 B    0.151
    67   5 B    3.652 --   103 N    3.512    70 B    0.120
    68   5 B    3.633 --   104 N    3.410    72 B    0.156
    69   5 B    3.669 --   105 N    3.412    55 B    0.179
    70   5 B    3.614 --   106 N    3.379    67 B    0.120
    71   5 B    3.640 --   107 N    3.116    56 B    0.224
    72   5 B    3.606 --   108 N    3.334    68 B    0.156
    73   5 B    3.397 --   109 N    1.812    10 C    0.787     9 N    0.482
                            38 H    0.161
    74   5 B    3.606 --   110 N    2.576     7 C    0.515    37 H    0.241
                            61 B    0.151
    75   5 B    3.669 --   111 N    3.257    58 B    0.298
    76   5 B    3.561 --    27 C    2.264   112 N    0.750    28 O    0.157
                            26 C    0.134    29 C    0.131
    77   5 B    3.444 --   113 N    2.819    53 B    0.164    55 B    0.160
    78   5 B    3.460 --   114 N    2.834    54 B    0.157    55 B    0.157
    79   5 B    3.457 --   115 N    2.846    56 B    0.158    53 B    0.153
    80   5 B    3.476 --   116 N    2.832    56 B    0.158    54 B    0.154
    81   5 B    3.465 --   117 N    3.023    59 B    0.146
    82   5 B    3.318 --   118 N    2.445    58 B    0.226    59 B    0.127
                            21 C    0.103
    83   5 B    3.404 --   119 N    2.662    11 N    0.568
    84   5 B    3.241 --   120 N    1.378    14 C    0.421    13 N    0.359
                            15 C    0.296    39 H    0.107
    85   5 B    3.487 --   121 N    2.748    61 B    0.194    63 B    0.150
    86   5 B    3.459 --   122 N    2.962    63 B    0.142
    87   5 B    3.294 --   123 N    2.139     5 O    0.372     6 C    0.218
                            64 B    0.176
    88   5 B    3.206 --   124 N    2.309    25 O    0.387    26 C    0.234
                            47 H    0.162
    89   7 N    3.595 --    53 B    2.964   115 N    0.153   113 N    0.143
    90   7 N    3.590 --    54 B    2.958   114 N    0.143   116 N    0.130
    91   7 N    3.611 --    55 B    3.004   113 N    0.150   114 N    0.147
    92   7 N    3.591 --    56 B    2.949   116 N    0.151   115 N    0.141
    93   7 N    3.385 --    57 B    2.284    11 N    0.574
    94   7 N    3.687 --    58 B    1.897    14 C    0.854    15 C    0.319
                            13 N    0.145    21 C    0.131
    95   7 N    3.630 --    59 B    3.060
    96   7 N    3.541 --    60 B    3.078
    97   7 N    3.489 --    61 B    1.116     5 O    0.974     4 C    0.755
                             6 C    0.234
    98   7 N    3.298 --    62 B    2.690
    99   7 N    3.602 --    63 B    3.052
   100   7 N    3.518 --    64 B    2.994
   101   7 N    3.628 --    65 B    3.482
   102   7 N    3.591 --    66 B    3.443
   103   7 N    3.630 --    67 B    3.512
   104   7 N    3.546 --    68 B    3.410
   105   7 N    3.571 --    69 B    3.412
   106   7 N    3.543 --    70 B    3.379
   107   7 N    3.510 --    71 B    3.116    50 H    0.170
   108   7 N    3.482 --    72 B    3.334
   109   7 N    3.165 --    73 B    1.812    10 C    0.460     9 N    0.392
                            38 H    0.173    11 N    0.105
   110   7 N    3.175 --    74 B    2.576    37 H    0.235     7 C    0.125
   111   7 N    3.465 --    75 B    3.257
   112   7 N    3.877 --    28 O    2.262    76 B    0.750    27 C    0.669
   113   7 N    3.302 --    77 B    2.819    91 N    0.150    89 N    0.143
   114   7 N    3.319 --    78 B    2.834    91 N    0.147    90 N    0.143
   115   7 N    3.320 --    79 B    2.846    89 N    0.153    92 N    0.141
   116   7 N    3.326 --    80 B    2.832    92 N    0.151    90 N    0.130
   117   7 N    3.373 --    81 B    3.023
   118   7 N    3.430 --    82 B    2.445    21 C    0.510
   119   7 N    3.046 --    83 B    2.662
   120   7 N    3.427 --    84 B    1.378    14 C    0.797    15 C    0.749
                            13 N    0.104
   121   7 N    3.291 --    85 B    2.748
   122   7 N    3.354 --    86 B    2.962
   123   7 N    3.244 --    87 B    2.139     5 O    0.435    61 B    0.126
                             6 C    0.120
   124   7 N    2.939 --    88 B    2.309    26 C    0.150
 ---------------------------------------------------------------------------

Topologies differ in total number of bonds
Writing topology from bond orders to xtbtopo.mol

molecular dipole:
                 x           y           z       tot (Debye)
 q only:       -7.450      -1.014      -4.050
   full:       -6.249      -3.348      -3.313      19.889
molecular quadrupole (traceless):
                xx          xy          yy          xz          yz          zz
 q only:      -56.895      74.482      91.455      -1.785       5.802     -34.560
  q+dip:      -29.659      85.789      62.769      -1.679      13.552     -33.110
   full:      -43.622      79.932      85.019      -2.533      13.562     -41.396


           -------------------------------------------------
          | TOTAL ENERGY                1.776325467247 Eh   |
          | GRADIENT NORM             165.352487120799 Eh/α |
          | HOMO-LUMO GAP               0.044512881625 eV   |
           -------------------------------------------------

------------------------------------------------------------------------
 * finished run on 2026/08/31 at 18:40:25.664     
------------------------------------------------------------------------
 total:
 * wall-time:     0 d,  0 h,  0 min,  1.022 sec
 *  cpu-time:     0 d,  0 h,  0 min, 13.562 sec
 * ratio c/w:    13.271 speedup
 SCF:
 * wall-time:     0 d,  0 h,  0 min,  0.969 sec
 *  cpu-time:     0 d,  0 h,  0 min, 13.031 sec
 * ratio c/w:    13.448 speedup

normal termination of xtb
