      -----------------------------------------------------------      
     |                   =====================                   |     
     |                           x T B                           |     
     |                   =====================                   |     
     |                         S. Grimme                         |     
     |          Mulliken Center for Theoretical Chemistry        |     
     |                    University of Bonn                     |     
      -----------------------------------------------------------      

   * xtb version 6.7.1pre (5071a88) compiled by 'Marcel@Raven' on 2024-07-23

   xtb is free software: you can redistribute it and/or modify it under
   the terms of the GNU Lesser General Public License as published by
   the Free Software Foundation, either version 3 of the License, or
   (at your option) any later version.
   
   xtb is distributed in the hope that it will be useful,
   but WITHOUT ANY WARRANTY; without even the implied warranty of
   MERCHANTABILITY or FITNESS FOR A PARTICULAR PURPOSE.  See the
   GNU Lesser General Public License for more details.
   
   Cite this work as:
   * C. Bannwarth, E. Caldeweyher, S. Ehlert, A. Hansen, P. Pracht,
     J. Seibert, S. Spicher, S. Grimme, WIREs Comput. Mol. Sci., 2020, 11,
     e01493. DOI: 10.1002/wcms.1493
   
   for GFN2-xTB:
   * C. Bannwarth, S. Ehlert and S. Grimme., J. Chem. Theory Comput., 2019,
     15, 1652-1671. DOI: 10.1021/acs.jctc.8b01176
   for GFN1-xTB:
   * S. Grimme, C. Bannwarth, P. Shushkov, J. Chem. Theory Comput., 2017,
     13, 1989-2009. DOI: 10.1021/acs.jctc.7b00118
   for GFN0-xTB:
   * P. Pracht, E. Caldeweyher, S. Ehlert, S. Grimme, ChemRxiv, 2019, preprint.
     DOI: 10.26434/chemrxiv.8326202.v1
   for GFN-FF:
   * S. Spicher and S. Grimme, Angew. Chem. Int. Ed., 2020, 59, 15665-15673.
     DOI: 10.1002/anie.202004239
   
   for ALPB and GBSA implicit solvation:
   * S. Ehlert, M. Stahn, S. Spicher, S. Grimme, J. Chem. Theory Comput.,
     2021, 17, 4250-4261. DOI: 10.1021/acs.jctc.1c00471
   
   for ddCOSMO and CPCM-X implicit solvation:
   * M. Stahn, S. Ehlert, S. Grimme, J. Phys. Chem. A,
     2023, XX, XXXX-XXXX. DOI: 10.1021/acs.jpca.3c04382
   
   for DFT-D4:
   * E. Caldeweyher, C. Bannwarth and S. Grimme, J. Chem. Phys., 2017,
     147, 034112. DOI: 10.1063/1.4993215
   * E. Caldeweyher, S. Ehlert, A. Hansen, H. Neugebauer, S. Spicher,
     C. Bannwarth and S. Grimme, J. Chem. Phys., 2019, 150, 154122.
     DOI: 10.1063/1.5090222
   * E. Caldeweyher, J.-M. Mewes, S. Ehlert and S. Grimme, Phys. Chem. Chem. Phys.
     2020, 22, 8499-8512. DOI: 10.1039/D0CP00502A
   
   for sTDA-xTB:
   * S. Grimme and C. Bannwarth, J. Chem. Phys., 2016, 145, 054103.
     DOI: 10.1063/1.4959605
   
   in the mass-spec context:
   * V. Asgeirsson, C. Bauer and S. Grimme, Chem. Sci., 2017, 8, 4879.
     DOI: 10.1039/c7sc00601b
   * J. Koopman and S. Grimme, ACS Omega 2019, 4, 12, 15120-15133.
     DOI: 10.1021/acsomega.9b02011
   
   for metadynamics refer to:
   * S. Grimme, J. Chem. Theory Comput., 2019, 155, 2847-2862
     DOI: 10.1021/acs.jctc.9b00143
   
   for SPH calculations refer to:
   * S. Spicher and S. Grimme, J. Chem. Theory Comput., 2021, 17, 1701-1714
     DOI: 10.1021/acs.jctc.0c01306
   
   for ONIOM refer to:
   * C. Plett, A. Katbashev, S. Ehlert, S. Grimme, M. Bursch,
     Phys. Chem. Chem. Phys., 2023, 25, 17860-17868. DOI: 10.1039/D3CP02178E
   
   for DIPRO refer to:
   * J. Kohn, N. Gildemeister, S. Grimme, D. Fazzi, A. Hansen,
     J. Chem. Phys., 2023, just accepted.
   
   for PTB refer to:
   * S. Grimme, M. Mueller, A. Hansen, J. Chem. Phys., 2023, 158, 124111.
     DOI: 10.1063/5.0137838
   
   with help from (in alphabetical order)
   P. Atkinson, C. Bannwarth, F. Bohle, G. Brandenburg, E. Caldeweyher
   M. Checinski, S. Dohm, S. Ehlert, S. Ehrlich, I. Gerasimov, C. Hölzer
   A. Katbashev, J. Kohn, J. Koopman, C. Lavigne, S. Lehtola, F. März, M. Müller,
   F. Musil, H. Neugebauer, J. Pisarek, C. Plett, P. Pracht, F. Pultar,
   J. Seibert, P. Shushkov, S. Spicher, M. Stahn, M. Steiner, T. Strunk,
   J. Stückrath, T. Rose, and J. Unsleber
   
 * started run on 2026/08/31 at 22:22:20.929     
   ID    Z sym.   atoms
    1    6 C      1, 3, 4, 6-8, 10, 12, 14-24, 26, 27, 29
    2    8 O      2, 5, 25, 28
    3    7 N      9, 11, 13, 54, 56, 58, 60, 62, 64, 66, 68, 70, 72, 74, 76,
                  78, 80, 82, 84, 86, 88, 90, 92, 94, 96, 98, 100, 102, 104,
                  106, 108, 110, 112, 114, 116, 118, 120, 122, 124
    4    1 H      30-52
    5    5 B      53, 55, 57, 59, 61, 63, 65, 67, 69, 71, 73, 75, 77, 79, 81,
                  83, 85, 87, 89, 91, 93, 95, 97, 99, 101, 103, 105, 107,
                  109, 111, 113, 115, 117, 119, 121, 123

           -------------------------------------------------
          |                Calculation Setup                |
           -------------------------------------------------

          program call               : "c:\Users\Andre\Proyectos doctorado\kras-pancreatic-gC3N4-ai\tools\xtb\xtb-6.7.1\bin\xtb.exe" "c:\Users\Andre\Proyectos doctorado\nano-qsar-ai-therapeutics\calculations\tnbc\Erlotinib\Erlotinib_B36N36_clean_complex.xyz" --gfn 2 --sp --chrg 0 --uhf 0 --etemp 300 --iterations 500 --norestart
          coordinate file            : c:\Users\Andre\Proyectos doctorado\nano-qsar-ai-therapeutics\calculations\tnbc\Erlotinib\Erlotinib_B36N36_clean_complex.xyz
          omp threads                :                    16


molecular fragmentation (1/2 indicates fragments):
111111111111111111111111111111111111111111111111111122222222222222222222
2222222222222222222222222222222222222222222222222222
# atoms in fragment 1/2:    52    72
 fragment masses (1/2) :      393.44      893.44
CMA distance (Bohr)    :  18.025
constraining FC (au)   :  0.0500

           -------------------------------------------------
          |                 G F N 2 - x T B                 |
           -------------------------------------------------

        Reference                      10.1021/acs.jctc.8b01176
      * Hamiltonian:
        H0-scaling (s, p, d)           1.850000    2.230000    2.230000
        zeta-weighting                 0.500000
      * Dispersion:
        s8                             2.700000
        a1                             0.520000
        a2                             5.000000
        s9                             5.000000
      * Repulsion:
        kExp                           1.500000    1.000000
        rExp                           1.000000
      * Coulomb:
        alpha                          2.000000
        third order                    shell-resolved
        anisotropic                    true
        a3                             3.000000
        a5                             4.000000
        cn-shift                       1.200000
        cn-exp                         4.000000
        max-rad                        5.000000


          ...................................................
          :                      SETUP                      :
          :.................................................:
          :  # basis functions                 427          :
          :  # atomic orbitals                 427          :
          :  # shells                          225          :
          :  # electrons                       438          :
          :  max. iterations                   500          :
          :  Hamiltonian                  GFN2-xTB          :
          :  restarted?                      false          :
          :  GBSA solvation                  false          :
          :  PC potential                    false          :
          :  electronic temp.          300.0000000     K    :
          :  accuracy                    1.0000000          :
          :  -> integral cutoff          0.2500000E+02      :
          :  -> integral neglect         0.1000000E-07      :
          :  -> SCF convergence          0.1000000E-05 Eh   :
          :  -> wf. convergence          0.1000000E-03 e    :
          :  Broyden damping             0.4000000          :
          :  net charge                          0          :
          :  unpaired electrons                  0          :
          ...................................................

 iter      E             dE          RMSdq      gap      omega  full diag
   1   -235.6046349 -0.235605E+03  0.111E+01    0.63       0.0  T
   2   -236.0574187 -0.452784E+00  0.671E+00    0.42       1.0  T
   3   -232.9032798  0.315414E+01  0.433E+00    0.15       1.0  T
   4   -234.8193554 -0.191608E+01  0.247E+00    0.41       1.0  T
   5   -235.0429876 -0.223632E+00  0.208E+00    0.52       1.0  T
   6   -236.4965154 -0.145353E+01  0.877E-01    0.78       1.0  T
   7   -236.5311216 -0.346062E-01  0.585E-01    0.81       1.0  T
   8   -236.5292231  0.189855E-02  0.448E-01    0.81       1.0  T
   9   -236.5280873  0.113577E-02  0.243E-01    0.74       1.0  T
  10   -236.5314907 -0.340338E-02  0.133E-01    0.76       1.0  T
  11   -236.5345884 -0.309768E-02  0.557E-02    0.71       1.0  T
  12   -236.5347914 -0.203051E-03  0.444E-02    0.72       1.0  T
  13   -236.5348814 -0.900141E-04  0.349E-02    0.72       1.0  T
  14   -236.5349321 -0.506613E-04  0.247E-02    0.73       1.0  T
  15   -236.5349607 -0.285728E-04  0.166E-02    0.73       1.0  T
  16   -236.5349757 -0.150310E-04  0.909E-03    0.73       1.0  T
  17   -236.5349820 -0.628691E-05  0.303E-03    0.74       3.0  T
  18   -236.5349827 -0.714326E-06  0.140E-03    0.74       6.4  T
  19   -236.5349829 -0.199442E-06  0.672E-04    0.74      13.4  T
  20   -236.5349829 -0.504416E-07  0.261E-04    0.74      34.4  T

   *** convergence criteria satisfied after 20 iterations ***

         #    Occupation            Energy/Eh            Energy/eV
      -------------------------------------------------------------
         1        2.0000           -0.7151175             -19.4593
       ...           ...                  ...                  ...
       213        2.0000           -0.3294666              -8.9652
       214        2.0000           -0.3269255              -8.8961
       215        2.0000           -0.3257172              -8.8632
       216        2.0000           -0.3231194              -8.7925
       217        2.0000           -0.3176657              -8.6441
       218        2.0000           -0.3155530              -8.5866
       219        2.0000           -0.3123815              -8.5003 (HOMO)
       220        0.0000           -0.2853127              -7.7638 (LUMO)
       221                         -0.2770974              -7.5402
       222                         -0.2715101              -7.3882
       223                         -0.2665160              -7.2523
       224                         -0.2538238              -6.9069
       ...                                ...                  ...
       427                          1.4307364              38.9323
      -------------------------------------------------------------
                  HL-Gap            0.0270688 Eh            0.7366 eV
             Fermi-level           -0.2988289 Eh           -8.1315 eV

 SCC (total)                   0 d,  0 h,  0 min,  1.448 sec
 SCC setup                      ...        0 min,  0.001 sec (  0.069%)
 Dispersion                     ...        0 min,  0.004 sec (  0.276%)
 classical contributions        ...        0 min,  0.001 sec (  0.069%)
 integral evaluation            ...        0 min,  0.015 sec (  1.036%)
 iterations                     ...        0 min,  1.366 sec ( 94.337%)
 molecular gradient             ...        0 min,  0.057 sec (  3.936%)
 printout                       ...        0 min,  0.003 sec (  0.207%)

         :::::::::::::::::::::::::::::::::::::::::::::::::::::
         ::                     SUMMARY                     ::
         :::::::::::::::::::::::::::::::::::::::::::::::::::::
         :: total energy            -234.003670859865 Eh    ::
         :: gradient norm              0.101767952076 Eh/a0 ::
         :: HOMO-LUMO gap              0.736579050943 eV    ::
         ::.................................................::
         :: SCC energy              -236.519271339854 Eh    ::
         :: -> isotropic ES            0.721833344693 Eh    ::
         :: -> anisotropic ES         -0.022832050492 Eh    ::
         :: -> anisotropic XC          0.102185037772 Eh    ::
         :: -> dispersion             -0.198123858108 Eh    ::
         :: repulsion energy           2.515600479989 Eh    ::
         :: add. restraining           0.000000000000 Eh    ::
         :: total charge               0.000000000006 e     ::
         :::::::::::::::::::::::::::::::::::::::::::::::::::::

           -------------------------------------------------
          |                Property Printout                |
           -------------------------------------------------

    * Orbital Energies and Occupations

         #    Occupation            Energy/Eh            Energy/eV
      -------------------------------------------------------------
         1        2.0000           -0.7151175             -19.4593
       ...           ...                  ...                  ...
       207        2.0000           -0.3422989              -9.3144
       208        2.0000           -0.3409169              -9.2768
       209        2.0000           -0.3370987              -9.1729
       210        2.0000           -0.3346958              -9.1075
       211        2.0000           -0.3325765              -9.0499
       212        2.0000           -0.3313972              -9.0178
       213        2.0000           -0.3294666              -8.9652
       214        2.0000           -0.3269255              -8.8961
       215        2.0000           -0.3257172              -8.8632
       216        2.0000           -0.3231194              -8.7925
       217        2.0000           -0.3176657              -8.6441
       218        2.0000           -0.3155530              -8.5866
       219        2.0000           -0.3123815              -8.5003 (HOMO)
       220        0.0000           -0.2853127              -7.7638 (LUMO)
       221                         -0.2770974              -7.5402
       222                         -0.2715101              -7.3882
       223                         -0.2665160              -7.2523
       224                         -0.2538238              -6.9069
       225                         -0.2474845              -6.7344
       226                         -0.2368727              -6.4456
       227                         -0.2335316              -6.3547
       228                         -0.2319021              -6.3104
       229                         -0.2313637              -6.2957
       230                         -0.2312371              -6.2923
       ...                                ...                  ...
       427                          1.4307364              38.9323
      -------------------------------------------------------------
                  HL-Gap            0.0270688 Eh            0.7366 eV
             Fermi-level           -0.2988289 Eh           -8.1315 eV

     #   Z          covCN         q      C6AA      α(0)
     1   6 C        3.643     0.033    20.362     6.487
     2   8 O        1.697    -0.316    19.281     5.928
     3   6 C        3.693     0.067    19.633     6.340
     4   6 C        3.684     0.062    19.726     6.359
     5   8 O        1.703    -0.257    18.262     5.770
     6   6 C        2.852     0.133    25.089     8.209
     7   6 C        2.929    -0.087    30.182     9.010
     8   6 C        2.984     0.103    25.713     8.318
     9   7 N        1.844    -0.268    27.817     7.816
    10   6 C        2.881     0.140    24.937     8.187
    11   7 N        1.831    -0.274    27.953     7.835
    12   6 C        2.891     0.162    24.502     8.115
    13   7 N        2.689    -0.181    24.924     7.415
    14   6 C        2.890     0.077    26.283     8.405
    15   6 C        2.918    -0.057    29.407     8.893
    16   6 C        2.909    -0.032    28.805     8.801
    17   6 C        2.920    -0.039    28.963     8.825
    18   6 C        2.965     0.039    27.115     8.541
    19   6 C        1.977    -0.020    31.596     9.077
    20   6 C        1.908    -0.100    33.876     9.400
    21   6 C        2.924    -0.043    29.074     8.842
    22   6 C        2.979    -0.032    28.801     8.803
    23   6 C        2.913    -0.082    30.054     8.990
    24   6 C        2.849     0.130    25.142     8.218
    25   8 O        1.703    -0.257    18.256     5.769
    26   6 C        3.685     0.065    19.683     6.352
    27   6 C        3.700     0.074    19.491     6.314
    28   8 O        1.697    -0.323    19.399     5.946
    29   6 C        3.650     0.035    20.296     6.471
    30   1 H        0.924     0.033     2.540     2.492
    31   1 H        0.924     0.062     2.179     2.309
    32   1 H        0.924     0.037     2.495     2.470
    33   1 H        0.924     0.041     2.431     2.438
    34   1 H        0.924     0.061     2.182     2.310
    35   1 H        0.924     0.058     2.223     2.331
    36   1 H        0.924     0.055     2.258     2.350
    37   1 H        0.925     0.070     2.087     2.259
    38   1 H        0.925     0.044     2.395     2.420
    39   1 H        0.860     0.181     1.209     1.723
    40   1 H        0.925     0.028     2.619     2.531
    41   1 H        0.925     0.033     2.551     2.498
    42   1 H        0.925     0.031     2.568     2.506
    43   1 H        0.927     0.074     2.042     2.235
    44   1 H        0.925     0.052     2.294     2.369
    45   1 H        0.925     0.053     2.280     2.361
    46   1 H        0.924     0.057     2.232     2.337
    47   1 H        0.924     0.071     2.080     2.255
    48   1 H        0.924     0.039     2.464     2.455
    49   1 H        0.924     0.034     2.526     2.485
    50   1 H        0.924     0.036     2.507     2.476
    51   1 H        0.924     0.062     2.175     2.306
    52   1 H        0.924     0.036     2.506     2.475
    53   5 B        2.781     0.077    20.183     7.511
    54   7 N        2.774    -0.227    25.956     7.567
    55   5 B        2.788     0.092    19.927     7.462
    56   7 N        2.524    -0.314    28.116     7.875
    57   5 B        2.779     0.082    20.101     7.496
    58   7 N        2.655    -0.270    26.990     7.716
    59   5 B        2.849     0.242    17.658     7.017
    60   7 N        2.529    -0.272    27.072     7.727
    61   5 B        3.195     0.150    18.926     7.256
    62   7 N        2.979    -0.110    23.391     7.183
    63   5 B        2.644     0.373    16.321     6.813
    64   7 N        2.669    -0.212    25.622     7.518
    65   5 B        3.181     0.023    20.985     7.640
    66   7 N        2.888    -0.222    25.838     7.550
    67   5 B        3.009     0.209    18.071     7.091
    68   7 N        2.660    -0.163    24.522     7.355
    69   5 B        2.906     0.321    16.594     6.798
    70   7 N        3.156    -0.085    22.895     7.107
    71   5 B        2.779     0.094    19.909     7.461
    72   7 N        3.037    -0.129    23.791     7.244
    73   5 B        2.758     0.090    20.006     7.484
    74   7 N        2.634    -0.309    27.966     7.854
    75   5 B        3.040     0.227    17.815     7.040
    76   7 N        2.981    -0.008    21.401     6.871
    77   5 B        2.582     0.326    17.305     7.087
    78   7 N        2.596    -0.359    29.272     8.035
    79   5 B        3.287     0.340    16.336     6.740
    80   7 N        2.784    -0.252    26.549     7.653
    81   5 B        2.559     0.321    17.584     7.182
    82   7 N        2.579    -0.368    29.512     8.068
    83   5 B        2.530     0.301    18.225     7.377
    84   7 N        2.665    -0.205    25.455     7.493
    85   5 B        2.698     0.197    18.492     7.216
    86   7 N        2.844    -0.167    24.604     7.367
    87   5 B        2.758     0.082    20.129     7.507
    88   7 N        2.672    -0.174    24.760     7.390
    89   5 B        2.877     0.111    19.570     7.384
    90   7 N        2.663    -0.144    24.123     7.295
    91   5 B        2.594     0.312    17.390     7.086
    92   7 N        2.519    -0.354    29.165     8.020
    93   5 B        2.684     0.184    18.718     7.268
    94   7 N        3.008    -0.131    23.830     7.250
    95   5 B        2.677     0.210    18.356     7.201
    96   7 N        2.716    -0.248    26.463     7.640
    97   5 B        2.647     0.164    19.165     7.380
    98   7 N        2.825    -0.206    25.473     7.496
    99   5 B        3.321     0.230    17.773     7.030
   100   7 N        2.531    -0.285    27.397     7.773
   101   5 B        2.950     0.036    20.765     7.603
   102   7 N        2.783    -0.185    24.997     7.426
   103   5 B        2.796     0.085    20.036     7.481
   104   7 N        2.673    -0.155    24.362     7.331
   105   5 B        3.021     0.211    18.050     7.087
   106   7 N        3.272     0.016    20.974     6.802
   107   5 B        2.869     0.307    16.779     6.838
   108   7 N        3.154    -0.116    23.514     7.202
   109   5 B        3.263     0.320    16.583     6.791
   110   7 N        2.833    -0.061    22.412     7.031
   111   5 B        3.303     0.231    17.759     7.027
   112   7 N        2.656    -0.183    24.968     7.421
   113   5 B        2.838     0.112    19.565     7.387
   114   7 N        2.834    -0.224    25.894     7.558
   115   5 B        2.863     0.253    17.502     6.984
   116   7 N        2.654    -0.231    26.055     7.581
   117   5 B        3.011     0.114    19.484     7.363
   118   7 N        3.153    -0.086    22.906     7.108
   119   5 B        2.674     0.202    18.490     7.230
   120   7 N        2.696    -0.234    26.132     7.592
   121   5 B        2.585     0.369    16.718     6.961
   122   7 N        2.881    -0.181    24.901     7.411
   123   5 B        2.825     0.107    19.662     7.407
   124   7 N        2.827    -0.252    26.550     7.653

 Mol. C6AA /au·bohr⁶  :     263954.654252
 Mol. C8AA /au·bohr⁸  :    7248229.907260
 Mol. α(0) /au        :        806.676659


Wiberg/Mayer (AO) data.
largest (>0.10) Wiberg bond orders for each atom

 ---------------------------------------------------------------------------
     #   Z sym  total        # sym  WBO       # sym  WBO       # sym  WBO
 ---------------------------------------------------------------------------
     1   6 C    3.951 --     2 O    0.993    31 H    0.980    30 H    0.979
                            32 H    0.978
     2   8 O    2.064 --     1 C    0.993     3 C    0.987
     3   6 C    3.951 --     2 O    0.987     4 C    0.985    33 H    0.968
                            34 H    0.967
     4   6 C    3.939 --     3 C    0.985     5 O    0.969    35 H    0.965
                            36 H    0.964
     5   8 O    2.239 --     6 C    1.073     4 C    0.969
     6   6 C    3.936 --     7 C    1.453    24 C    1.219     5 O    1.073
     7   6 C    3.979 --     6 C    1.453     8 C    1.283    37 H    0.959
                            23 C    0.102
     8   6 C    3.983 --     9 N    1.294     7 C    1.283    22 C    1.230
     9   7 N    3.037 --    10 C    1.482     8 C    1.294
    10   6 C    3.959 --     9 N    1.482    11 N    1.371    38 H    0.958
    11   7 N    3.042 --    12 C    1.404    10 C    1.371
    12   6 C    3.963 --    11 N    1.404    22 C    1.244    13 N    1.102
    13   7 N    3.380 --    12 C    1.102    14 C    1.089    39 H    0.924
    14   6 C    3.964 --    21 C    1.376    15 C    1.358    13 N    1.089
    15   6 C    3.956 --    16 C    1.446    14 C    1.358    40 H    0.968
    16   6 C    3.990 --    15 C    1.446    17 C    1.441    41 H    0.971
                            21 C    0.102
    17   6 C    3.984 --    16 C    1.441    18 C    1.366    42 H    0.971
    18   6 C    3.989 --    21 C    1.381    17 C    1.366    19 C    1.096
    19   6 C    3.978 --    20 C    2.840    18 C    1.096
    20   6 C    3.946 --    19 C    2.840    43 H    0.971
    21   6 C    3.981 --    18 C    1.381    14 C    1.376    44 H    0.966
                            16 C    0.102
    22   6 C    3.986 --    23 C    1.277    12 C    1.244     8 C    1.230
    23   6 C    3.981 --    24 C    1.464    22 C    1.277    45 H    0.960
                             7 C    0.102
    24   6 C    3.935 --    23 C    1.464     6 C    1.219    25 O    1.066
    25   8 O    2.237 --    24 C    1.066    26 C    0.972
    26   6 C    3.940 --    27 C    0.991    25 O    0.972    47 H    0.967
                            46 H    0.963
    27   6 C    3.954 --    26 C    0.991    28 O    0.983    48 H    0.968
                            49 H    0.967
    28   8 O    2.053 --    29 C    0.991    27 C    0.983
    29   6 C    3.949 --    28 O    0.991    51 H    0.980    52 H    0.979
                            50 H    0.979
    30   1 H    0.999 --     1 C    0.979
    31   1 H    0.996 --     1 C    0.980
    32   1 H    0.999 --     1 C    0.978
    33   1 H    0.998 --     3 C    0.968
    34   1 H    0.996 --     3 C    0.967
    35   1 H    0.996 --     4 C    0.965
    36   1 H    0.997 --     4 C    0.964
    37   1 H    0.994 --     7 C    0.959
    38   1 H    0.997 --    10 C    0.958
    39   1 H    0.967 --    13 N    0.924
    40   1 H    0.999 --    15 C    0.968
    41   1 H    0.998 --    16 C    0.971
    42   1 H    0.998 --    17 C    0.971
    43   1 H    0.994 --    20 C    0.971
    44   1 H    0.997 --    21 C    0.966
    45   1 H    0.996 --    23 C    0.960
    46   1 H    0.996 --    26 C    0.963
    47   1 H    0.994 --    26 C    0.967
    48   1 H    0.998 --    27 C    0.968
    49   1 H    0.999 --    27 C    0.967
    50   1 H    0.999 --    29 C    0.979
    51   1 H    0.996 --    29 C    0.980
    52   1 H    0.999 --    29 C    0.979
    53   5 B    3.476 --   122 N    1.281   105 B    1.000    99 B    0.969
    54   7 N    3.399 --    99 B    1.143   112 N    1.007   111 B    1.001
    55   5 B    3.465 --   100 N    1.277   123 B    0.978   111 B    0.958
    56   7 N    3.530 --   115 B    1.152   113 B    1.150    83 B    1.018
    57   5 B    3.465 --    90 N    1.241   119 B    0.995    93 B    0.990
    58   7 N    3.263 --    79 B    1.200   121 B    0.968   116 N    0.888
    59   5 B    3.407 --    92 N    1.177    66 N    1.033    75 B    0.963
    60   7 N    3.569 --    73 B    1.277    61 B    1.158   117 B    0.973
    61   5 B    3.393 --    60 N    1.158   103 B    0.932   101 B    0.640
                            65 B    0.294
    62   7 N    3.323 --    67 B    1.113   106 N    1.043   118 N    0.945
    63   5 B    3.433 --    64 N    1.187    74 N    1.126   102 N    0.962
    64   7 N    3.446 --    63 B    1.187    91 B    1.086   104 N    0.967
    65   5 B    3.456 --   101 B    1.284   117 B    1.004   115 B    0.626
                            61 B    0.294
    66   7 N    3.429 --    69 B    1.234    59 B    1.033    80 N    0.929
    67   5 B    3.390 --    62 N    1.113    86 N    1.039   113 B    1.005
    68   7 N    3.510 --    71 B    1.206    91 B    1.124    88 N    0.999
    69   5 B    3.513 --    66 N    1.234    94 N    1.070   114 N    1.001
    70   7 N    3.346 --   119 B    1.142   122 N    0.989    72 N    0.982
    71   5 B    3.414 --    68 N    1.206    89 B    1.008   103 B    0.926
    72   7 N    3.323 --   107 B    1.133    70 N    0.982    76 N    0.973
    73   5 B    3.464 --    60 N    1.277    87 B    0.978    97 B    0.932
    74   7 N    3.218 --    63 B    1.126    77 B    1.067   102 N    0.792
    75   5 B    3.368 --    88 N    1.152    80 N    0.991    59 B    0.963
    76   7 N    3.094 --    94 N    1.013    72 N    0.973   120 N    0.937
    77   5 B    3.511 --   114 N    1.245    74 N    1.067    92 N    0.989
    78   7 N    3.434 --    83 B    1.202   111 B    1.062    99 B    0.926
    79   5 B    3.481 --    58 N    1.200    96 N    1.042    82 N    0.981
    80   7 N    3.283 --    85 B    1.170    75 B    0.991    66 N    0.929
    81   5 B    3.523 --   116 N    1.211   120 N    1.119   108 N    1.034
    82   7 N    3.431 --    95 B    1.220   109 B    0.993    79 B    0.981
    83   5 B    3.519 --    78 N    1.202   124 N    1.098    56 N    1.018
    84   7 N    3.442 --   121 B    1.262    95 B    0.997   110 N    0.990
    85   5 B    3.444 --    80 N    1.170   112 N    1.122   123 B    0.923
    86   7 N    3.470 --    87 B    1.260    67 B    1.039   118 N    0.984
    87   5 B    3.421 --    86 N    1.260    73 B    0.978    95 B    0.959
    88   7 N    3.511 --   123 B    1.172    75 B    1.152    68 N    0.999
    89   5 B    3.347 --   101 B    1.009    71 B    1.008   100 N    0.963
    90   7 N    3.509 --    57 B    1.241    93 B    1.092    96 N    1.036
    91   5 B    3.515 --    68 N    1.124    92 N    1.103    64 N    1.086
    92   7 N    3.477 --    59 B    1.177    91 B    1.103    77 B    0.989
    93   5 B    3.464 --    98 N    1.179    90 N    1.092    57 B    0.990
    94   7 N    3.260 --    69 B    1.070    76 N    1.013   108 N    0.975
    95   5 B    3.390 --    82 N    1.220    84 N    0.997    87 B    0.959
    96   7 N    3.372 --    79 B    1.042    90 N    1.036   109 B    0.985
    97   5 B    3.453 --   110 N    1.190   104 N    1.079    73 B    0.932
    98   7 N    3.407 --    93 B    1.179   105 B    1.072   106 N    0.959
    99   5 B    3.365 --    54 N    1.143    53 B    0.969    78 N    0.926
                           111 B    0.127
   100   7 N    3.561 --    55 B    1.277   115 B    1.105    89 B    0.963
   101   5 B    3.367 --    65 B    1.284    89 B    1.009    61 B    0.640
                           115 B    0.186
   102   7 N    2.986 --   110 N    1.045    63 B    0.962    74 N    0.792
   103   5 B    3.455 --   104 N    1.266    61 B    0.932    71 B    0.926
   104   7 N    3.481 --   103 B    1.266    97 B    1.079    64 N    0.967
   105   5 B    3.443 --   124 N    1.131    98 N    1.072    53 B    1.000
   106   7 N    3.187 --    62 N    1.043    98 N    0.959   124 N    0.951
   107   5 B    3.522 --   112 N    1.164    72 N    1.133   122 N    0.995
   108   7 N    3.217 --    81 B    1.034   114 N    0.984    94 N    0.975
   109   5 B    3.507 --   118 N    1.265    82 N    0.993    96 N    0.985
   110   7 N    3.439 --    97 B    1.190   102 N    1.045    84 N    0.990
   111   5 B    3.326 --    78 N    1.062    54 N    1.001    55 B    0.958
                            99 B    0.127
   112   7 N    3.491 --   107 B    1.164    85 B    1.122    54 N    1.007
   113   5 B    3.385 --    56 N    1.150    67 B    1.005   117 B    1.002
   114   7 N    3.445 --    77 B    1.245    69 B    1.001   108 N    0.984
   115   5 B    3.444 --    56 N    1.152   100 N    1.105    65 B    0.626
                           101 B    0.186   117 B    0.120
   116   7 N    3.332 --    81 B    1.211   121 B    1.035    58 N    0.888
   117   5 B    3.333 --    65 B    1.004   113 B    1.002    60 N    0.973
                           115 B    0.120
   118   7 N    3.440 --   109 B    1.265    86 N    0.984    62 N    0.945
   119   5 B    3.446 --    70 N    1.142   120 N    1.115    57 B    0.995
   120   7 N    3.390 --    81 B    1.119   119 B    1.115    76 N    0.937
   121   5 B    3.439 --    84 N    1.262   116 N    1.035    58 N    0.968
   122   7 N    3.474 --    53 B    1.281   107 B    0.995    70 N    0.989
   123   5 B    3.359 --    88 N    1.172    55 B    0.978    85 B    0.923
   124   7 N    3.418 --   105 B    1.131    83 B    1.098   106 N    0.951
 ---------------------------------------------------------------------------

Topologies differ in total number of bonds
Writing topology from bond orders to xtbtopo.mol

molecular dipole:
                 x           y           z       tot (Debye)
 q only:        0.742       1.135      -4.314
   full:       -1.176       0.033      -2.319       6.610
molecular quadrupole (traceless):
                xx          xy          yy          xz          yz          zz
 q only:       -9.540     -13.059       3.762     -24.646     -43.766       5.778
  q+dip:        5.904     -11.691      12.125     -31.196     -41.492     -18.030
   full:        8.090     -11.714      10.651     -29.396     -44.623     -18.742


           -------------------------------------------------
          | TOTAL ENERGY             -234.003670859865 Eh   |
          | GRADIENT NORM               0.101767952076 Eh/α |
          | HOMO-LUMO GAP               0.736579050943 eV   |
           -------------------------------------------------

------------------------------------------------------------------------
 * finished run on 2026/08/31 at 22:22:22.447     
------------------------------------------------------------------------
 total:
 * wall-time:     0 d,  0 h,  0 min,  1.517 sec
 *  cpu-time:     0 d,  0 h,  0 min, 11.344 sec
 * ratio c/w:     7.478 speedup
 SCF:
 * wall-time:     0 d,  0 h,  0 min,  1.450 sec
 *  cpu-time:     0 d,  0 h,  0 min, 10.891 sec
 * ratio c/w:     7.511 speedup

normal termination of xtb
