124
Drug@B36N36 non-overlapping complex
C     -5.922838      5.136174     11.124832
O     -4.534394      4.960546     11.373713
C     -4.140456      3.588441     11.405511
C     -3.954664      3.009183     10.002947
O     -3.487583      1.663000     10.062479
C     -2.138956      1.416764     10.015901
C     -1.145081      2.393859     10.136516
C      0.207487      2.079556     10.092830
N      1.092445      3.070757     10.223365
C      2.385286      2.732688     10.191338
N      2.872686      1.501062     10.028929
C      1.978666      0.507332      9.884709
N      2.440642     -0.820500      9.670274
C      3.741112     -1.340881      9.864091
C      4.120934     -2.496291      9.161761
C      5.369811     -3.089222      9.366369
C      6.251322     -2.548722     10.299422
C      5.877481     -1.424365     11.034772
C      6.770974     -0.880172     12.011464
C      7.520012     -0.422674     12.831019
C      4.625443     -0.834856     10.825432
C      0.588377      0.744146      9.921228
C     -0.412287     -0.256385      9.817008
C     -1.768044      0.071487      9.859583
O     -2.796680     -0.830629      9.776952
C     -2.510011     -2.192900      9.469828
C     -2.256998     -3.006441     10.736271
O     -1.897378     -4.339010     10.371782
C     -1.664486     -5.147766     11.518248
H     -6.190733      4.773887     10.128856
H     -6.145238      6.205741     11.172013
H     -6.518580      4.624583     11.886825
H     -4.851598      2.990163     11.988457
H     -3.193279      3.541016     11.952785
H     -4.928956      2.971965      9.502700
H     -3.340031      3.651154      9.360873
H     -1.396596      3.439910     10.283842
H      3.106391      3.534770     10.305506
H      2.026850     -1.173855      8.813516
H      3.445502     -2.947952      8.439469
H      5.650840     -3.974818      8.802622
H      7.221519     -3.012996     10.457429
H      8.182532     -0.014300     13.557887
H      4.342153      0.024624     11.427297
H     -0.096914     -1.290669      9.730247
H     -1.708709     -2.302367      8.729110
H     -3.398943     -2.600089      8.972241
H     -3.162442     -3.015809     11.355069
H     -1.454702     -2.558330     11.332747
H     -0.837504     -4.743725     12.110089
H     -1.395023     -6.152371     11.181561
H     -2.569363     -5.214718     12.129865
B      3.459180     -1.454569      1.628037
N      3.456400      1.129904      0.940040
B      2.539920      2.362499     -1.261047
N      2.293067     -0.641637     -2.730603
B      0.690534     -3.561069      2.702709
N     -2.939724     -2.654773      1.709476
B     -1.038202      4.085096      1.831238
N     -0.619347      0.017651     -3.941904
B     -0.473710      1.445324     -4.091730
N      1.209559     -3.786796     -1.739405
B     -3.844500      2.209440     -0.493722
N     -2.772864      2.763562     -1.211833
B      1.405725      0.818091     -4.889311
N     -0.235789      3.364215      2.833544
B      0.898320     -2.879798     -2.813849
N     -0.491833      3.766578     -1.010119
B     -0.805996      2.182269      3.281874
N      1.656110     -1.274433      3.503622
B     -0.248484      3.469937     -2.379863
N      1.308703      0.068898      3.816981
B     -1.597441     -0.559934     -3.084689
N     -3.832496      1.776842      0.831624
B      0.337602      4.495994      1.183894
N      0.043256     -0.013955      4.456653
B     -2.708837      2.226751      1.601242
N      3.772728     -0.132624     -0.765541
B     -2.253381     -3.639412      1.008482
N      1.055818      3.733398      2.235734
B     -1.825620     -0.777460      3.219840
N     -2.436768     -3.601880     -0.450773
B      3.018658     -1.073670     -1.502768
N     -3.157960     -1.252592     -0.384321
B      2.034656      2.922326      1.561722
N     -0.507447     -2.900148     -2.432795
B     -1.673548     -2.112882     -2.491621
N      0.590135      3.964583     -0.110225
B      1.090314      2.959649     -3.182489
N      0.077350     -4.359230      1.721289
B     -1.784034      3.452384     -0.408220
N     -2.013520      3.418515      1.031553
B      1.465878     -4.212148      1.499138
N     -0.797987      1.064153      4.194581
B     -2.666242     -2.402096     -1.175256
N     -1.074388     -4.484335      0.991235
B     -2.503710      0.491370     -2.109143
N      2.352728     -3.887335      0.453103
B      3.912327     -0.202357      0.725926
N      1.928548      1.957009     -2.465077
B      1.001184      2.254351     -4.622507
N     -4.186016      0.829005     -0.347538
B     -1.338881      2.453658     -3.114870
N     -2.359649      1.932605     -2.305841
B      3.073063     -2.645483      0.601111
N      2.335213     -3.673670     -0.970876
B      2.217863      0.545803      2.808407
N     -2.026423      0.611912      3.601492
B     -1.101749     -4.183787     -0.441007
N     -3.218144      0.041654     -0.958566
B      3.447752      1.258593     -0.514065
N      2.582085      1.632977      1.936454
B      1.472054     -1.555001     -3.515610
N     -2.102601      1.754194      2.760799
B      2.040765      0.711921     -3.211483
N     -2.720915     -1.341699      2.320567
B      0.658648     -0.538875     -4.486937
N     -0.168664     -3.759421     -1.356472
B      0.485560     -2.105634      3.433764
N     -0.587253     -1.205033      3.824488
B     -3.224373     -1.451411      1.000320
N      2.671324     -0.855529      2.621135
B      1.878557      3.339348     -0.106427
N      2.876911     -2.331783     -0.793563
