      -----------------------------------------------------------      
     |                   =====================                   |     
     |                           x T B                           |     
     |                   =====================                   |     
     |                         S. Grimme                         |     
     |          Mulliken Center for Theoretical Chemistry        |     
     |                    University of Bonn                     |     
      -----------------------------------------------------------      

   * xtb version 6.7.1pre (5071a88) compiled by 'Marcel@Raven' on 2024-07-23

   xtb is free software: you can redistribute it and/or modify it under
   the terms of the GNU Lesser General Public License as published by
   the Free Software Foundation, either version 3 of the License, or
   (at your option) any later version.
   
   xtb is distributed in the hope that it will be useful,
   but WITHOUT ANY WARRANTY; without even the implied warranty of
   MERCHANTABILITY or FITNESS FOR A PARTICULAR PURPOSE.  See the
   GNU Lesser General Public License for more details.
   
   Cite this work as:
   * C. Bannwarth, E. Caldeweyher, S. Ehlert, A. Hansen, P. Pracht,
     J. Seibert, S. Spicher, S. Grimme, WIREs Comput. Mol. Sci., 2020, 11,
     e01493. DOI: 10.1002/wcms.1493
   
   for GFN2-xTB:
   * C. Bannwarth, S. Ehlert and S. Grimme., J. Chem. Theory Comput., 2019,
     15, 1652-1671. DOI: 10.1021/acs.jctc.8b01176
   for GFN1-xTB:
   * S. Grimme, C. Bannwarth, P. Shushkov, J. Chem. Theory Comput., 2017,
     13, 1989-2009. DOI: 10.1021/acs.jctc.7b00118
   for GFN0-xTB:
   * P. Pracht, E. Caldeweyher, S. Ehlert, S. Grimme, ChemRxiv, 2019, preprint.
     DOI: 10.26434/chemrxiv.8326202.v1
   for GFN-FF:
   * S. Spicher and S. Grimme, Angew. Chem. Int. Ed., 2020, 59, 15665-15673.
     DOI: 10.1002/anie.202004239
   
   for ALPB and GBSA implicit solvation:
   * S. Ehlert, M. Stahn, S. Spicher, S. Grimme, J. Chem. Theory Comput.,
     2021, 17, 4250-4261. DOI: 10.1021/acs.jctc.1c00471
   
   for ddCOSMO and CPCM-X implicit solvation:
   * M. Stahn, S. Ehlert, S. Grimme, J. Phys. Chem. A,
     2023, XX, XXXX-XXXX. DOI: 10.1021/acs.jpca.3c04382
   
   for DFT-D4:
   * E. Caldeweyher, C. Bannwarth and S. Grimme, J. Chem. Phys., 2017,
     147, 034112. DOI: 10.1063/1.4993215
   * E. Caldeweyher, S. Ehlert, A. Hansen, H. Neugebauer, S. Spicher,
     C. Bannwarth and S. Grimme, J. Chem. Phys., 2019, 150, 154122.
     DOI: 10.1063/1.5090222
   * E. Caldeweyher, J.-M. Mewes, S. Ehlert and S. Grimme, Phys. Chem. Chem. Phys.
     2020, 22, 8499-8512. DOI: 10.1039/D0CP00502A
   
   for sTDA-xTB:
   * S. Grimme and C. Bannwarth, J. Chem. Phys., 2016, 145, 054103.
     DOI: 10.1063/1.4959605
   
   in the mass-spec context:
   * V. Asgeirsson, C. Bauer and S. Grimme, Chem. Sci., 2017, 8, 4879.
     DOI: 10.1039/c7sc00601b
   * J. Koopman and S. Grimme, ACS Omega 2019, 4, 12, 15120-15133.
     DOI: 10.1021/acsomega.9b02011
   
   for metadynamics refer to:
   * S. Grimme, J. Chem. Theory Comput., 2019, 155, 2847-2862
     DOI: 10.1021/acs.jctc.9b00143
   
   for SPH calculations refer to:
   * S. Spicher and S. Grimme, J. Chem. Theory Comput., 2021, 17, 1701-1714
     DOI: 10.1021/acs.jctc.0c01306
   
   for ONIOM refer to:
   * C. Plett, A. Katbashev, S. Ehlert, S. Grimme, M. Bursch,
     Phys. Chem. Chem. Phys., 2023, 25, 17860-17868. DOI: 10.1039/D3CP02178E
   
   for DIPRO refer to:
   * J. Kohn, N. Gildemeister, S. Grimme, D. Fazzi, A. Hansen,
     J. Chem. Phys., 2023, just accepted.
   
   for PTB refer to:
   * S. Grimme, M. Mueller, A. Hansen, J. Chem. Phys., 2023, 158, 124111.
     DOI: 10.1063/5.0137838
   
   with help from (in alphabetical order)
   P. Atkinson, C. Bannwarth, F. Bohle, G. Brandenburg, E. Caldeweyher
   M. Checinski, S. Dohm, S. Ehlert, S. Ehrlich, I. Gerasimov, C. Hölzer
   A. Katbashev, J. Kohn, J. Koopman, C. Lavigne, S. Lehtola, F. März, M. Müller,
   F. Musil, H. Neugebauer, J. Pisarek, C. Plett, P. Pracht, F. Pultar,
   J. Seibert, P. Shushkov, S. Spicher, M. Stahn, M. Steiner, T. Strunk,
   J. Stückrath, T. Rose, and J. Unsleber
   
 * started run on 2026/08/31 at 18:36:00.277     
   ID    Z sym.   atoms
    1    6 C      1-4, 7, 10-13, 15, 16, 18-23, 25, 27-31, 33-36
    2    8 O      5, 8, 26
    3    7 N      6, 9, 24, 93-128
    4   53 I      14
    5    9 F      17, 32
    6    1 H      37-56
    7    5 B      57-92

           -------------------------------------------------
          |                Calculation Setup                |
           -------------------------------------------------

          program call               : "c:\Users\Andre\Proyectos doctorado\kras-pancreatic-gC3N4-ai\tools\xtb\xtb-6.7.1\bin\xtb.exe" "c:\Users\Andre\Proyectos doctorado\nano-qsar-ai-therapeutics\calculations\tnbc\Trametinib\Trametinib_B36N36_complex.xyz" --gfn 2 --sp --chrg 0 --uhf 0 --iterations 500 --norestart
          coordinate file            : c:\Users\Andre\Proyectos doctorado\nano-qsar-ai-therapeutics\calculations\tnbc\Trametinib\Trametinib_B36N36_complex.xyz
          omp threads                :                    16


           -------------------------------------------------
          |                 G F N 2 - x T B                 |
           -------------------------------------------------

        Reference                      10.1021/acs.jctc.8b01176
      * Hamiltonian:
        H0-scaling (s, p, d)           1.850000    2.230000    2.230000
        zeta-weighting                 0.500000
      * Dispersion:
        s8                             2.700000
        a1                             0.520000
        a2                             5.000000
        s9                             5.000000
      * Repulsion:
        kExp                           1.500000    1.000000
        rExp                           1.000000
      * Coulomb:
        alpha                          2.000000
        third order                    shell-resolved
        anisotropic                    true
        a3                             3.000000
        a5                             4.000000
        cn-shift                       1.200000
        cn-exp                         4.000000
        max-rad                        5.000000


          ...................................................
          :                      SETUP                      :
          :.................................................:
          :  # basis functions                 458          :
          :  # atomic orbitals                 457          :
          :  # shells                          237          :
          :  # electrons                       470          :
          :  max. iterations                   500          :
          :  Hamiltonian                  GFN2-xTB          :
          :  restarted?                      false          :
          :  GBSA solvation                  false          :
          :  PC potential                    false          :
          :  electronic temp.          300.0000000     K    :
          :  accuracy                    1.0000000          :
          :  -> integral cutoff          0.2500000E+02      :
          :  -> integral neglect         0.1000000E-07      :
          :  -> SCF convergence          0.1000000E-05 Eh   :
          :  -> wf. convergence          0.1000000E-03 e    :
          :  Broyden damping             0.4000000          :
          :  net charge                          0          :
          :  unpaired electrons                  0          :
          ...................................................

 iter      E             dE          RMSdq      gap      omega  full diag
   1   -235.9984071 -0.235998E+03  0.142E+01    0.08       0.0  T
   2   -197.1395827  0.388588E+02  0.134E+01    0.04       1.0  T
   3   -122.2883293  0.748513E+02  0.162E+01    0.04       1.0  T
   4   -195.8761433 -0.735878E+02  0.882E+00    0.16       1.0  T
   5    -33.3203475  0.162556E+03  0.123E+01    0.14       1.0  T
   6   -219.2305399 -0.185910E+03  0.677E+00    0.25       1.0  T
   7   -233.8893514 -0.146588E+02  0.519E+00    0.22       1.0  T
   8   -238.7407442 -0.485139E+01  0.620E+00    0.14       1.0  T
   9   -245.5793837 -0.683864E+01  0.321E+00    0.09       1.0  T
  10   -247.8312412 -0.225186E+01  0.263E+00    0.22       1.0  T
  11   -247.7976722  0.335690E-01  0.259E+00    0.16       1.0  T
  12   -249.0996779 -0.130201E+01  0.216E+00    0.17       1.0  T
  13   -248.2457474  0.853931E+00  0.216E+00    0.14       1.0  T
  14   -249.6369941 -0.139125E+01  0.149E+00    0.15       1.0  T
  15   -249.6311579  0.583615E-02  0.123E+00    0.07       1.0  T
  16   -249.5992403  0.319177E-01  0.115E+00    0.07       1.0  T
  17   -249.5490783  0.501620E-01  0.113E+00    0.15       1.0  T
  18   -249.8024958 -0.253417E+00  0.808E-01    0.09       1.0  T
  19   -249.7603071  0.421887E-01  0.713E-01    0.10       1.0  T
  20   -249.8094022 -0.490951E-01  0.578E-01    0.08       1.0  T
  21   -249.8308849 -0.214827E-01  0.514E-01    0.10       1.0  T
  22   -249.8784327 -0.475478E-01  0.310E-01    0.05       1.0  T
  23   -249.8789078 -0.475116E-03  0.256E-01    0.05       1.0  T
  24   -249.8791534 -0.245582E-03  0.223E-01    0.05       1.0  T
  25   -249.8821465 -0.299313E-02  0.139E-01    0.03       1.0  T
  26   -249.8844887 -0.234223E-02  0.106E-01    0.03       1.0  T
  27   -249.8840988  0.389947E-03  0.111E-01    0.04       1.0  T
  28   -249.8837989  0.299845E-03  0.103E-01    0.04       1.0  T
  29   -249.8846873 -0.888396E-03  0.804E-02    0.04       1.0  T
  30   -249.8848250 -0.137681E-03  0.708E-02    0.04       1.0  T
  31   -249.8842924  0.532598E-03  0.779E-02    0.04       1.0  T
  32   -249.8844766 -0.184232E-03  0.718E-02    0.04       1.0  T
  33   -249.8851357 -0.659021E-03  0.476E-02    0.04       1.0  T
  34   -249.8851502 -0.145282E-04  0.449E-02    0.04       1.0  T
  35   -249.8852863 -0.136134E-03  0.341E-02    0.03       1.0  T
  36   -249.8853393 -0.530131E-04  0.255E-02    0.03       1.0  T
  37   -249.8853747 -0.353240E-04  0.179E-02    0.03       1.0  T
  38   -249.8854073 -0.326377E-04  0.103E-02    0.03       1.0  T
  39   -249.8854163 -0.904509E-05  0.595E-03    0.03       1.5  T
  40   -249.8854177 -0.135352E-05  0.445E-03    0.03       2.0  T
  41   -249.8854189 -0.119946E-05  0.314E-03    0.03       2.8  T
  42   -249.8854192 -0.281029E-06  0.240E-03    0.03       3.7  T
  43   -249.8854198 -0.639402E-06  0.809E-04    0.03      10.9  T
  44   -249.8854198 -0.195721E-07  0.628E-04    0.03      14.1  T

   *** convergence criteria satisfied after 44 iterations ***

         #    Occupation            Energy/Eh            Energy/eV
      -------------------------------------------------------------
         1        2.0000           -1.0121848             -27.5430
       ...           ...                  ...                  ...
       229        2.0000           -0.2375085              -6.4629
       230        2.0000           -0.2311440              -6.2897
       231        2.0000           -0.2220845              -6.0432
       232        1.9999           -0.2179725              -5.9313
       233        1.9996           -0.2164798              -5.8907
       234        1.9776           -0.2125688              -5.7843
       235        1.2981           -0.2088976              -5.6844 (HOMO)
       236        0.6738           -0.2076702              -5.6510 (LUMO)
       237        0.0510           -0.2048517              -5.5743
       238        0.0001           -0.1986643              -5.4059
       239        0.0000           -0.1955098              -5.3201
       240                         -0.1912857              -5.2051
       ...                                ...                  ...
       457                         76.5731035            2083.6602
      -------------------------------------------------------------
                  HL-Gap            0.0012274 Eh            0.0334 eV
             Fermi-level           -0.2083135 Eh           -5.6685 eV

 SCC (total)                   0 d,  0 h,  0 min,  1.502 sec
 SCC setup                      ...        0 min,  0.001 sec (  0.067%)
 Dispersion                     ...        0 min,  0.006 sec (  0.399%)
 classical contributions        ...        0 min,  0.000 sec (  0.000%)
 integral evaluation            ...        0 min,  0.025 sec (  1.664%)
 iterations                     ...        0 min,  1.415 sec ( 94.208%)
 molecular gradient             ...        0 min,  0.048 sec (  3.196%)
 printout                       ...        0 min,  0.007 sec (  0.466%)

         :::::::::::::::::::::::::::::::::::::::::::::::::::::
         ::                     SUMMARY                     ::
         :::::::::::::::::::::::::::::::::::::::::::::::::::::
         :: total energy             -13.052338787737 Eh    ::
         :: gradient norm            171.173945837754 Eh/a0 ::
         :: HOMO-LUMO gap              0.033399358492 eV    ::
         ::.................................................::
         :: SCC energy              -249.840934335941 Eh    ::
         :: -> isotropic ES            1.239304510028 Eh    ::
         :: -> anisotropic ES          0.150066742762 Eh    ::
         :: -> anisotropic XC          0.337046921749 Eh    ::
         :: -> dispersion             -0.371730214558 Eh    ::
         :: repulsion energy         236.788595548204 Eh    ::
         :: add. restraining           0.000000000000 Eh    ::
         :: total charge              -0.000000000004 e     ::
         :::::::::::::::::::::::::::::::::::::::::::::::::::::

           -------------------------------------------------
          |                Property Printout                |
           -------------------------------------------------

    * Orbital Energies and Occupations

         #    Occupation            Energy/Eh            Energy/eV
      -------------------------------------------------------------
         1        2.0000           -1.0121848             -27.5430
       ...           ...                  ...                  ...
       223        2.0000           -0.2661212              -7.2415
       224        2.0000           -0.2599455              -7.0735
       225        2.0000           -0.2573232              -7.0021
       226        2.0000           -0.2501684              -6.8074
       227        2.0000           -0.2456099              -6.6834
       228        2.0000           -0.2398557              -6.5268
       229        2.0000           -0.2375085              -6.4629
       230        2.0000           -0.2311440              -6.2897
       231        2.0000           -0.2220845              -6.0432
       232        1.9999           -0.2179725              -5.9313
       233        1.9996           -0.2164798              -5.8907
       234        1.9776           -0.2125688              -5.7843
       235        1.2981           -0.2088976              -5.6844 (HOMO)
       236        0.6738           -0.2076702              -5.6510 (LUMO)
       237        0.0510           -0.2048517              -5.5743
       238        0.0001           -0.1986643              -5.4059
       239        0.0000           -0.1955098              -5.3201
       240                         -0.1912857              -5.2051
       241                         -0.1805150              -4.9121
       242                         -0.1732833              -4.7153
       243                         -0.1681592              -4.5758
       244                         -0.1618794              -4.4050
       245                         -0.1592654              -4.3338
       246                         -0.1510557              -4.1104
       ...                                ...                  ...
       457                         76.5731035            2083.6602
      -------------------------------------------------------------
                  HL-Gap            0.0012274 Eh            0.0334 eV
             Fermi-level           -0.2083135 Eh           -5.6685 eV

     #   Z          covCN         q      C6AA      α(0)
     1   6 C        8.976    -0.428    29.841     7.758
     2   6 C        3.034    -0.142    31.617     9.223
     3   6 C        4.424    -0.237    25.131     7.120
     4   6 C        3.056     0.031    27.262     8.563
     5   8 O        2.547    -0.213    17.501     5.650
     6   7 N        2.735    -0.192    25.165     7.450
     7   6 C        2.709     0.196    23.819     7.989
     8   8 O        0.895    -0.604    26.206     6.864
     9   7 N        2.744    -0.179    24.868     7.406
    10   6 C        4.686    -0.051    21.395     6.569
    11   6 C        5.028    -0.331    27.340     7.426
    12   6 C        4.416    -0.104    22.383     6.719
    13   6 C        3.985    -0.135    23.013     6.816
    14  53 I        1.263    -0.240   390.010    34.091
    15   6 C        4.880    -0.108    22.473     6.732
    16   6 C        4.740     0.260    16.554     5.778
    17   9 F        3.081    -0.290    12.200     4.127
    18   6 C        4.784    -0.188    24.070     6.968
    19   6 C        6.263    -0.255    25.537     7.177
    20   6 C        4.204    -0.100    22.313     6.709
    21   6 C        3.961    -0.355    27.953     7.512
    22   6 C        6.910     0.199    17.392     5.923
    23   6 C        7.827     0.038    19.844     6.326
    24   7 N        7.154    -0.382    29.840     8.113
    25   6 C        8.050     0.163    17.906     6.009
    26   8 O        1.015    -0.753    30.086     7.359
    27   6 C        7.841     0.266    16.473     5.764
    28   6 C        6.596    -0.313    26.902     7.366
    29   6 C        7.828    -0.273    25.951     7.235
    30   6 C        7.210     0.187    17.562     5.952
    31   6 C        6.286     0.120    18.546     6.116
    32   9 F        1.264    -0.223    11.462     4.001
    33   6 C        3.357    -0.239    30.838     8.728
    34   6 C        2.928    -0.132    31.378     9.186
    35   6 C        3.005    -0.206    33.450     9.487
    36   6 C        7.624    -0.130    22.902     6.796
    37   1 H        2.514     0.313     0.668     1.276
    38   1 H        3.324     0.700     0.175     0.653
    39   1 H        4.360     0.497     0.332     0.900
    40   1 H        1.982     0.280     0.767     1.367
    41   1 H        0.925     0.017     2.784     2.609
    42   1 H        0.970    -0.051     4.115     3.170
    43   1 H        2.745     0.612     0.228     0.745
    44   1 H        0.925    -0.020     3.435     2.898
    45   1 H        0.925    -0.016     3.349     2.862
    46   1 H        1.850     0.158     1.331     1.801
    47   1 H        1.104     0.219     1.002     1.563
    48   1 H        2.335    -0.155     7.911     4.391
    49   1 H        0.925     0.051     2.305     2.374
    50   1 H        0.983     0.118     1.625     1.992
    51   1 H        0.980     0.052     2.285     2.362
    52   1 H        3.590     0.441     0.406     0.994
    53   1 H        0.925     0.015     2.805     2.619
    54   1 H        0.925     0.004     2.985     2.702
    55   1 H        0.925     0.006     2.956     2.688
    56   1 H        1.516     0.099     1.780     2.083
    57   5 B        6.169     0.011    22.533     7.648
    58   5 B        5.121     0.019    22.389     7.624
    59   5 B        5.473     0.133    20.429     7.283
    60   5 B        5.104     0.109    20.813     7.351
    61   5 B        8.451     0.233    18.879     7.001
    62   5 B        5.106     0.106    20.872     7.361
    63   5 B        7.380     0.061    21.642     7.496
    64   5 B        8.732     0.284    18.162     6.867
    65   5 B        6.755     0.106    20.874     7.361
    66   5 B        8.676     0.337    17.449     6.730
    67   5 B        7.029    -0.254    28.226     8.560
    68   5 B        5.102     0.102    20.942     7.374
    69   5 B        5.492     0.337    17.442     6.729
    70   5 B        1.850     0.097    41.151    13.511
    71   5 B        1.850     0.130    40.055    13.330
    72   5 B        3.726     0.035    21.982     7.576
    73   5 B        3.377     0.204    18.152     7.103
    74   5 B        2.592     0.339    17.044     7.018
    75   5 B        1.909     0.103    40.754    13.438
    76   5 B        2.916     0.331    16.469     6.772
    77   5 B        1.884     0.084    41.481    13.561
    78   5 B        5.409     0.226    18.989     7.021
    79   5 B        1.850     0.078    41.783    13.615
    80   5 B        5.278     0.328    17.559     6.752
    81   5 B        4.666     0.283    18.175     6.869
    82   5 B        6.182     0.317    17.710     6.781
    83   5 B        4.397     0.279    18.224     6.878
    84   5 B        4.755     0.369    17.028     6.649
    85   5 B        8.375     0.097    21.013     7.386
    86   5 B        4.397     0.304    17.883     6.814
    87   5 B        6.795     0.351    17.265     6.695
    88   5 B        6.569     0.376    16.936     6.631
    89   5 B        6.903     0.277    18.260     6.885
    90   5 B        6.966     0.331    17.528     6.746
    91   5 B        4.397     0.326    17.586     6.757
    92   5 B        6.297     0.376    16.934     6.630
    93   7 N        4.375    -0.049    22.172     6.994
    94   7 N        4.372    -0.020    21.623     6.906
    95   7 N        4.373    -0.039    21.998     6.966
    96   7 N        4.372     0.002    21.215     6.841
    97   7 N        7.573    -0.034    21.903     6.951
    98   7 N        4.372    -0.037    21.945     6.958
    99   7 N        6.801    -0.239    26.238     7.608
   100   7 N        7.842     0.528    13.710     5.499
   101   7 N        5.243    -0.172    24.705     7.382
   102   7 N        6.513    -0.035    21.909     6.952
   103   7 N        6.150     0.213    17.732     6.254
   104   7 N        4.372    -0.039    21.989     6.965
   105   7 N        2.649    -0.396    30.254     8.169
   106   7 N        0.932    -0.138    23.874     7.055
   107   7 N        0.932    -0.149    24.111     7.090
   108   7 N        2.610    -0.099    23.194     7.153
   109   7 N        1.820    -0.253    27.443     7.762
   110   7 N        1.624    -0.391    30.718     8.164
   111   7 N        0.932    -0.148    24.081     7.086
   112   7 N        1.826    -0.200    26.169     7.580
   113   7 N        0.932    -0.215    25.575     7.302
   114   7 N        4.057     0.471    14.354     5.627
   115   7 N        0.932    -0.119    23.494     6.999
   116   7 N        3.788    -0.014    21.521     6.890
   117   7 N        3.977    -0.361    29.278     8.036
   118   7 N        4.052    -0.385    29.941     8.127
   119   7 N        3.977    -0.322    28.275     7.898
   120   7 N        3.977    -0.397    30.269     8.171
   121   7 N        7.688     0.842    10.741     4.868
   122   7 N        3.977    -0.384    29.912     8.123
   123   7 N        5.856    -0.446    31.652     8.356
   124   7 N        5.627    -0.381    29.830     8.112
   125   7 N        5.543    -0.517    33.824     8.638
   126   7 N        5.299    -0.434    31.304     8.310
   127   7 N        3.977    -0.416    30.807     8.244
   128   7 N        4.486    -0.446    31.654     8.356

 Mol. C6AA /au·bohr⁶  :     313192.760418
 Mol. C8AA /au·bohr⁸  :    9262948.283042
 Mol. α(0) /au        :        872.252743


Wiberg/Mayer (AO) data.
largest (>0.10) Wiberg bond orders for each atom

 ---------------------------------------------------------------------------
     #   Z sym  total        # sym  WBO       # sym  WBO       # sym  WBO
 ---------------------------------------------------------------------------
     1   6 C    3.487 --     2 C    0.932    37 H    0.670    39 H    0.482
                           103 N    0.398    67 B    0.358    89 B    0.202
                            90 B    0.101
     2   6 C    3.666 --     3 C    1.117     9 N    0.992     1 C    0.932
     3   6 C    3.684 --     2 C    1.117     4 C    1.061    30 C    0.686
                           116 N    0.104
     4   6 C    3.743 --     5 O    1.152     3 C    1.061     6 N    0.993
                           112 N    0.272
     5   8 O    2.263 --     4 C    1.152    76 B    0.630   112 N    0.223
     6   7 N    3.421 --     7 C    1.074     4 C    0.993    18 C    0.966
     7   6 C    3.884 --     8 O    1.312     6 N    1.074     9 N    1.042
     8   8 O    1.852 --     7 C    1.312
     9   7 N    3.365 --     7 C    1.042     2 C    0.992    10 C    0.986
    10   6 C    3.663 --    11 C    1.035     9 N    0.986    16 C    0.636
                            78 B    0.398    65 B    0.105
    11   6 C    3.774 --    12 C    1.095    10 C    1.035    40 H    0.563
                            82 B    0.195   118 N    0.142    89 B    0.116
    12   6 C    3.804 --    13 C    1.429    11 C    1.095    41 H    0.970
    13   6 C    3.677 --    12 C    1.429    15 C    1.006    14 I    0.909
    14  53 I    1.016 --    13 C    0.909
    15   6 C    3.691 --   114 N    1.082    13 C    1.006    42 H    0.851
                            16 C    0.302    78 B    0.152
    16   6 C    3.384 --    78 B    0.814   114 N    0.792    17 F    0.660
                            10 C    0.636    15 C    0.302
    17   9 F    1.046 --    16 C    0.660    74 B    0.114
    18   6 C    3.640 --    19 C    1.076     6 N    0.966    23 C    0.704
                            69 B    0.203
    19   6 C    3.627 --    20 C    1.406    18 C    1.076    72 B    0.393
                            21 C    0.143    69 B    0.113    43 H    0.109
    20   6 C    3.865 --    19 C    1.406    21 C    1.260    44 H    0.968
    21   6 C    3.557 --    20 C    1.260    45 H    0.968    22 C    0.909
                            19 C    0.143
    22   6 C    3.829 --   100 N    1.452    21 C    0.909   124 N    0.431
                            46 H    0.340    64 B    0.316    23 C    0.105
    23   6 C    3.817 --    64 B    1.136    18 C    0.704    24 N    0.672
                            88 B    0.404   100 N    0.344    46 H    0.166
                            22 C    0.105
    24   7 N    3.228 --    25 C    0.823    47 H    0.717    23 C    0.672
                            87 B    0.306
    25   6 C    3.549 --    26 O    1.215    24 N    0.823    97 N    0.571
                            61 B    0.178
    26   8 O    1.523 --    25 C    1.215
    27   6 C    3.941 --   121 N    2.235    97 N    0.455    48 H    0.449
                            85 B    0.417
    28   6 C    3.659 --    49 H    0.932    50 H    0.918   121 N    0.524
                            29 C    0.513    61 B    0.154
    29   6 C    3.603 --    85 B    1.204    51 H    0.771    28 C    0.513
                            52 H    0.319   121 N    0.131
    30   6 C    3.893 --     3 C    0.686    36 C    0.629    66 B    0.620
                            31 C    0.583    80 B    0.576   102 N    0.321
                           116 N    0.311
    31   6 C    3.535 --    33 C    1.190    32 F    0.838    30 C    0.583
                            80 B    0.236   116 N    0.208    90 B    0.107
    32   9 F    1.135 --    31 C    0.838
    33   6 C    3.779 --    34 C    1.294    31 C    1.190    53 H    0.968
    34   6 C    3.821 --    35 C    1.336    33 C    1.294    54 H    0.973
    35   6 C    3.839 --    34 C    1.336    36 C    1.295    55 H    0.969
    36   6 C    3.733 --    35 C    1.295    56 H    0.859    30 C    0.629
                           102 N    0.155    66 B    0.142   116 N    0.111
    37   1 H    0.900 --     1 C    0.670
    38   1 H    0.510 --   103 N    0.290    67 B    0.144
    39   1 H    0.752 --     1 C    0.482
    40   1 H    0.921 --    11 C    0.563    82 B    0.295
    41   1 H    0.999 --    12 C    0.970
    42   1 H    0.984 --    15 C    0.851
    43   1 H    0.626 --   108 N    0.322    72 B    0.194    19 C    0.109
    44   1 H    0.998 --    20 C    0.968
    45   1 H    0.997 --    21 C    0.968
    46   1 H    0.961 --    22 C    0.340    23 C    0.166    64 B    0.136
    47   1 H    0.951 --    24 N    0.717
    48   1 H    0.956 --    27 C    0.449
    49   1 H    0.985 --    28 C    0.932
    50   1 H    0.980 --    28 C    0.918
    51   1 H    0.986 --    29 C    0.771
    52   1 H    0.802 --    29 C    0.319    63 B    0.229    57 B    0.116
    53   1 H    0.998 --    33 C    0.968
    54   1 H    0.999 --    34 C    0.973
    55   1 H    0.999 --    35 C    0.969
    56   1 H    0.989 --    36 C    0.859
    57   5 B    3.682 --    93 N    2.943    63 B    0.174    83 B    0.157
                            52 H    0.116    81 B    0.104
    58   5 B    3.671 --    94 N    3.064    67 B    0.271    84 B    0.123
    59   5 B    3.627 --    95 N    3.127    81 B    0.140    73 B    0.127
    60   5 B    3.621 --    96 N    3.144    75 B    0.153    83 B    0.134
                            84 B    0.121
    61   5 B    3.293 --    97 N    1.951    77 B    0.261    25 C    0.178
                            85 B    0.175    28 C    0.154    87 B    0.103
    62   5 B    3.661 --    98 N    3.096    88 B    0.161    79 B    0.160
                            86 B    0.130
    63   5 B    3.571 --    99 N    2.674    52 H    0.229    57 B    0.174
                            86 B    0.135
    64   5 B    3.447 --   100 N    1.488    23 C    1.136    22 C    0.316
                            46 H    0.136
    65   5 B    3.671 --   101 N    2.961    78 B    0.227    10 C    0.105
                            91 B    0.103
    66   5 B    3.467 --   102 N    2.416    30 C    0.620    36 C    0.142
    67   5 B    3.681 --   103 N    2.494     1 C    0.358    58 B    0.271
                            38 H    0.144    90 B    0.119
    68   5 B    3.663 --   104 N    3.182    70 B    0.158    91 B    0.134
                            92 B    0.128
    69   5 B    3.467 --   105 N    3.065    18 C    0.203    19 C    0.113
    70   5 B    3.671 --   106 N    3.476    68 B    0.158
    71   5 B    3.645 --   107 N    3.520    74 B    0.110
    72   5 B    3.596 --   108 N    2.824    19 C    0.393    43 H    0.194
                            76 B    0.117
    73   5 B    3.590 --   109 N    3.281    59 B    0.127
    74   5 B    3.472 --   110 N    3.215    17 F    0.114    71 B    0.110
    75   5 B    3.668 --   111 N    3.473    60 B    0.153
    76   5 B    3.493 --   112 N    2.685     5 O    0.630    72 B    0.117
    77   5 B    3.680 --   113 N    3.261    61 B    0.261
    78   5 B    3.424 --   114 N    1.600    16 C    0.814    10 C    0.398
                            65 B    0.227    15 C    0.152
    79   5 B    3.681 --   115 N    3.473    62 B    0.160
    80   5 B    3.450 --   116 N    2.388    30 C    0.576    31 C    0.236
    81   5 B    3.507 --   117 N    2.924    59 B    0.140    57 B    0.104
    82   5 B    3.483 --   118 N    2.710    40 H    0.295    11 C    0.195
    83   5 B    3.473 --   119 N    2.914    57 B    0.157    60 B    0.134
    84   5 B    3.442 --   120 N    2.923    58 B    0.123    60 B    0.121
    85   5 B    3.162 --    29 C    1.204   121 N    0.657    27 C    0.417
                            61 B    0.175
    86   5 B    3.448 --   122 N    2.954    63 B    0.135    62 B    0.130
    87   5 B    3.324 --   123 N    2.695    24 N    0.306    61 B    0.103
    88   5 B    3.366 --   124 N    2.366    23 C    0.404    62 B    0.161
    89   5 B    3.427 --   125 N    2.720     1 C    0.202    11 C    0.116
    90   5 B    3.415 --   126 N    2.783    67 B    0.119    31 C    0.107
                             1 C    0.101
    91   5 B    3.458 --   127 N    3.029    68 B    0.134    65 B    0.103
    92   5 B    3.440 --   128 N    2.897    68 B    0.128
    93   7 N    3.589 --    57 B    2.943   117 N    0.131   119 N    0.120
    94   7 N    3.614 --    58 B    3.064   120 N    0.122
    95   7 N    3.650 --    59 B    3.127   118 N    0.125
    96   7 N    3.670 --    60 B    3.144   119 N    0.137   120 N    0.120
    97   7 N    3.460 --    61 B    1.951    25 C    0.571    27 C    0.455
    98   7 N    3.690 --    62 B    3.096   122 N    0.152
    99   7 N    3.460 --    63 B    2.674
   100   7 N    3.775 --    64 B    1.488    22 C    1.452    23 C    0.344
   101   7 N    3.568 --    65 B    2.961
   102   7 N    3.599 --    66 B    2.416    30 C    0.321   116 N    0.158
                            36 C    0.155
   103   7 N    3.646 --    67 B    2.494     1 C    0.398    38 H    0.290
   104   7 N    3.681 --    68 B    3.182   128 N    0.131   127 N    0.120
                           106 N    0.104
   105   7 N    3.341 --    69 B    3.065
   106   7 N    3.630 --    70 B    3.476   104 N    0.104
   107   7 N    3.626 --    71 B    3.520   110 N    0.101
   108   7 N    3.377 --    72 B    2.824    43 H    0.322
   109   7 N    3.520 --    73 B    3.281
   110   7 N    3.399 --    74 B    3.215   107 N    0.101
   111   7 N    3.625 --    75 B    3.473
   112   7 N    3.456 --    76 B    2.685     4 C    0.272     5 O    0.223
   113   7 N    3.541 --    77 B    3.261
   114   7 N    3.760 --    78 B    1.600    15 C    1.082    16 C    0.792
   115   7 N    3.638 --    79 B    3.473
   116   7 N    3.573 --    80 B    2.388    30 C    0.311    31 C    0.208
                           102 N    0.158    36 C    0.111     3 C    0.104
   117   7 N    3.391 --    81 B    2.924    93 N    0.131
   118   7 N    3.270 --    82 B    2.710    11 C    0.142    95 N    0.125
   119   7 N    3.362 --    83 B    2.914    96 N    0.137    93 N    0.120
   120   7 N    3.323 --    84 B    2.923    94 N    0.122    96 N    0.120
   121   7 N    3.878 --    27 C    2.235    85 B    0.657    28 C    0.524
                            29 C    0.131
   122   7 N    3.398 --    86 B    2.954    98 N    0.152
   123   7 N    3.179 --    87 B    2.695
   124   7 N    3.210 --    88 B    2.366    22 C    0.431
   125   7 N    3.185 --    89 B    2.720
   126   7 N    3.282 --    90 B    2.783
   127   7 N    3.374 --    91 B    3.029   104 N    0.120
   128   7 N    3.375 --    92 B    2.897   104 N    0.131
 ---------------------------------------------------------------------------

Topologies differ in total number of bonds
Writing topology from bond orders to xtbtopo.mol

molecular dipole:
                 x           y           z       tot (Debye)
 q only:        0.860      -1.577       0.158
   full:        3.658      -1.217      -0.298       9.829
molecular quadrupole (traceless):
                xx          xy          yy          xz          yz          zz
 q only:       34.902       6.331     -52.133      22.160      -5.093      17.230
  q+dip:      105.763      29.390    -117.801      32.781     -17.988      12.038
   full:       89.832      28.970     -99.255      30.225     -13.344       9.423


           -------------------------------------------------
          | TOTAL ENERGY              -13.052338787737 Eh   |
          | GRADIENT NORM             171.173945837754 Eh/α |
          | HOMO-LUMO GAP               0.033399358492 eV   |
           -------------------------------------------------

------------------------------------------------------------------------
 * finished run on 2026/08/31 at 18:36:01.852     
------------------------------------------------------------------------
 total:
 * wall-time:     0 d,  0 h,  0 min,  1.574 sec
 *  cpu-time:     0 d,  0 h,  0 min, 18.594 sec
 * ratio c/w:    11.813 speedup
 SCF:
 * wall-time:     0 d,  0 h,  0 min,  1.504 sec
 *  cpu-time:     0 d,  0 h,  0 min, 17.828 sec
 * ratio c/w:    11.854 speedup

normal termination of xtb
