128
Drug@B36N36 non-overlapping complex
C     -3.387905      0.090121     14.163653
C     -2.023668     -0.196866     13.557890
C     -1.692055     -1.425496     13.119505
C     -0.379084     -1.635931     12.449608
O     -0.038698     -2.793610     12.195807
N      0.384019     -0.505023     12.169568
C      0.088793      0.748516     12.708220
O      0.876291      1.699600     12.645055
N     -1.136909      0.871753     13.399806
C     -1.401198      2.171010     13.958088
C     -1.568311      2.329101     15.340638
C     -1.796779      3.598749     15.880978
C     -1.858053      4.713311     15.041425
I     -2.198130      6.596181     15.851555
C     -1.694433      4.572080     13.665643
C     -1.465626      3.305631     13.135339
F     -1.363489      3.179018     11.803226
C      1.575575     -0.706650     11.353251
C      1.411106     -1.467667     10.171093
C      2.483322     -1.782028      9.337369
C      3.755222     -1.347328      9.668655
C      3.952333     -0.593786     10.826544
C      2.885133     -0.252510     11.676104
N      3.125512      0.514051     12.839111
C      4.322650      0.896962     13.393995
O      5.451695      0.560170     13.073299
C      4.147788      1.855823     14.522922
C      4.750374      1.542627     15.872813
C      3.260319      1.527079     15.702747
C     -2.572669     -2.596885     13.304107
C     -2.694253     -3.204405     14.559169
F     -2.024344     -2.711935     15.612674
C     -3.517813     -4.310652     14.747402
C     -4.232965     -4.828672     13.668811
C     -4.119504     -4.237912     12.409132
C     -3.291974     -3.126550     12.224255
H     -4.137614     -0.665573     13.910336
H     -3.326690      0.134023     15.255163
H     -3.800522      1.032357     13.786812
H     -1.490236      1.475720     16.010106
H     -1.915385      3.703707     16.957359
H     -1.743972      5.422005     12.992353
H      0.427239     -1.831785      9.880609
H      2.322514     -2.372590      8.439469
H      4.602135     -1.590253      9.031901
H      4.967857     -0.268696     11.033652
H      2.308459      0.962267     13.237931
H      4.198979      2.894140     14.210002
H      5.197804      2.360496     16.425240
H      5.264871      0.594892     15.991830
H      2.688699      2.336226     16.142301
H      2.766863      0.562364     15.737440
H     -3.593015     -4.763306     15.731099
H     -4.873219     -5.696766     13.806895
H     -4.670350     -4.649516     11.566111
H     -3.206690     -2.687589     11.232685
B      3.459180     -1.454569      1.628037
N      3.456400      1.129904      0.940040
B      2.539920      2.362499     -1.261047
N      2.293067     -0.641637     -2.730603
B      0.690534     -3.561069      2.702709
N     -2.939724     -2.654773      1.709476
B     -1.038202      4.085096      1.831238
N     -0.619347      0.017651     -3.941904
B     -0.473710      1.445324     -4.091730
N      1.209559     -3.786796     -1.739405
B     -3.844500      2.209440     -0.493722
N     -2.772864      2.763562     -1.211833
B      1.405725      0.818091     -4.889311
N     -0.235789      3.364215      2.833544
B      0.898320     -2.879798     -2.813849
N     -0.491833      3.766578     -1.010119
B     -0.805996      2.182269      3.281874
N      1.656110     -1.274433      3.503622
B     -0.248484      3.469937     -2.379863
N      1.308703      0.068898      3.816981
B     -1.597441     -0.559934     -3.084689
N     -3.832496      1.776842      0.831624
B      0.337602      4.495994      1.183894
N      0.043256     -0.013955      4.456653
B     -2.708837      2.226751      1.601242
N      3.772728     -0.132624     -0.765541
B     -2.253381     -3.639412      1.008482
N      1.055818      3.733398      2.235734
B     -1.825620     -0.777460      3.219840
N     -2.436768     -3.601880     -0.450773
B      3.018658     -1.073670     -1.502768
N     -3.157960     -1.252592     -0.384321
B      2.034656      2.922326      1.561722
N     -0.507447     -2.900148     -2.432795
B     -1.673548     -2.112882     -2.491621
N      0.590135      3.964583     -0.110225
B      1.090314      2.959649     -3.182489
N      0.077350     -4.359230      1.721289
B     -1.784034      3.452384     -0.408220
N     -2.013520      3.418515      1.031553
B      1.465878     -4.212148      1.499138
N     -0.797987      1.064153      4.194581
B     -2.666242     -2.402096     -1.175256
N     -1.074388     -4.484335      0.991235
B     -2.503710      0.491370     -2.109143
N      2.352728     -3.887335      0.453103
B      3.912327     -0.202357      0.725926
N      1.928548      1.957009     -2.465077
B      1.001184      2.254351     -4.622507
N     -4.186016      0.829005     -0.347538
B     -1.338881      2.453658     -3.114870
N     -2.359649      1.932605     -2.305841
B      3.073063     -2.645483      0.601111
N      2.335213     -3.673670     -0.970876
B      2.217863      0.545803      2.808407
N     -2.026423      0.611912      3.601492
B     -1.101749     -4.183787     -0.441007
N     -3.218144      0.041654     -0.958566
B      3.447752      1.258593     -0.514065
N      2.582085      1.632977      1.936454
B      1.472054     -1.555001     -3.515610
N     -2.102601      1.754194      2.760799
B      2.040765      0.711921     -3.211483
N     -2.720915     -1.341699      2.320567
B      0.658648     -0.538875     -4.486937
N     -0.168664     -3.759421     -1.356472
B      0.485560     -2.105634      3.433764
N     -0.587253     -1.205033      3.824488
B     -3.224373     -1.451411      1.000320
N      2.671324     -0.855529      2.621135
B      1.878557      3.339348     -0.106427
N      2.876911     -2.331783     -0.793563
