      -----------------------------------------------------------      
     |                   =====================                   |     
     |                           x T B                           |     
     |                   =====================                   |     
     |                         S. Grimme                         |     
     |          Mulliken Center for Theoretical Chemistry        |     
     |                    University of Bonn                     |     
      -----------------------------------------------------------      

   * xtb version 6.7.1pre (5071a88) compiled by 'Marcel@Raven' on 2024-07-23

   xtb is free software: you can redistribute it and/or modify it under
   the terms of the GNU Lesser General Public License as published by
   the Free Software Foundation, either version 3 of the License, or
   (at your option) any later version.
   
   xtb is distributed in the hope that it will be useful,
   but WITHOUT ANY WARRANTY; without even the implied warranty of
   MERCHANTABILITY or FITNESS FOR A PARTICULAR PURPOSE.  See the
   GNU Lesser General Public License for more details.
   
   Cite this work as:
   * C. Bannwarth, E. Caldeweyher, S. Ehlert, A. Hansen, P. Pracht,
     J. Seibert, S. Spicher, S. Grimme, WIREs Comput. Mol. Sci., 2020, 11,
     e01493. DOI: 10.1002/wcms.1493
   
   for GFN2-xTB:
   * C. Bannwarth, S. Ehlert and S. Grimme., J. Chem. Theory Comput., 2019,
     15, 1652-1671. DOI: 10.1021/acs.jctc.8b01176
   for GFN1-xTB:
   * S. Grimme, C. Bannwarth, P. Shushkov, J. Chem. Theory Comput., 2017,
     13, 1989-2009. DOI: 10.1021/acs.jctc.7b00118
   for GFN0-xTB:
   * P. Pracht, E. Caldeweyher, S. Ehlert, S. Grimme, ChemRxiv, 2019, preprint.
     DOI: 10.26434/chemrxiv.8326202.v1
   for GFN-FF:
   * S. Spicher and S. Grimme, Angew. Chem. Int. Ed., 2020, 59, 15665-15673.
     DOI: 10.1002/anie.202004239
   
   for ALPB and GBSA implicit solvation:
   * S. Ehlert, M. Stahn, S. Spicher, S. Grimme, J. Chem. Theory Comput.,
     2021, 17, 4250-4261. DOI: 10.1021/acs.jctc.1c00471
   
   for ddCOSMO and CPCM-X implicit solvation:
   * M. Stahn, S. Ehlert, S. Grimme, J. Phys. Chem. A,
     2023, XX, XXXX-XXXX. DOI: 10.1021/acs.jpca.3c04382
   
   for DFT-D4:
   * E. Caldeweyher, C. Bannwarth and S. Grimme, J. Chem. Phys., 2017,
     147, 034112. DOI: 10.1063/1.4993215
   * E. Caldeweyher, S. Ehlert, A. Hansen, H. Neugebauer, S. Spicher,
     C. Bannwarth and S. Grimme, J. Chem. Phys., 2019, 150, 154122.
     DOI: 10.1063/1.5090222
   * E. Caldeweyher, J.-M. Mewes, S. Ehlert and S. Grimme, Phys. Chem. Chem. Phys.
     2020, 22, 8499-8512. DOI: 10.1039/D0CP00502A
   
   for sTDA-xTB:
   * S. Grimme and C. Bannwarth, J. Chem. Phys., 2016, 145, 054103.
     DOI: 10.1063/1.4959605
   
   in the mass-spec context:
   * V. Asgeirsson, C. Bauer and S. Grimme, Chem. Sci., 2017, 8, 4879.
     DOI: 10.1039/c7sc00601b
   * J. Koopman and S. Grimme, ACS Omega 2019, 4, 12, 15120-15133.
     DOI: 10.1021/acsomega.9b02011
   
   for metadynamics refer to:
   * S. Grimme, J. Chem. Theory Comput., 2019, 155, 2847-2862
     DOI: 10.1021/acs.jctc.9b00143
   
   for SPH calculations refer to:
   * S. Spicher and S. Grimme, J. Chem. Theory Comput., 2021, 17, 1701-1714
     DOI: 10.1021/acs.jctc.0c01306
   
   for ONIOM refer to:
   * C. Plett, A. Katbashev, S. Ehlert, S. Grimme, M. Bursch,
     Phys. Chem. Chem. Phys., 2023, 25, 17860-17868. DOI: 10.1039/D3CP02178E
   
   for DIPRO refer to:
   * J. Kohn, N. Gildemeister, S. Grimme, D. Fazzi, A. Hansen,
     J. Chem. Phys., 2023, just accepted.
   
   for PTB refer to:
   * S. Grimme, M. Mueller, A. Hansen, J. Chem. Phys., 2023, 158, 124111.
     DOI: 10.1063/5.0137838
   
   with help from (in alphabetical order)
   P. Atkinson, C. Bannwarth, F. Bohle, G. Brandenburg, E. Caldeweyher
   M. Checinski, S. Dohm, S. Ehlert, S. Ehrlich, I. Gerasimov, C. Hölzer
   A. Katbashev, J. Kohn, J. Koopman, C. Lavigne, S. Lehtola, F. März, M. Müller,
   F. Musil, H. Neugebauer, J. Pisarek, C. Plett, P. Pracht, F. Pultar,
   J. Seibert, P. Shushkov, S. Spicher, M. Stahn, M. Steiner, T. Strunk,
   J. Stückrath, T. Rose, and J. Unsleber
   
 * started run on 2026/08/31 at 21:13:11.838     
   ID    Z sym.   atoms
    1    7 N      1, 8, 33, 35, 37, 39, 41, 43, 45, 47, 49, 51, 53, 55, 57,
                  59, 61, 63, 65, 67, 69, 71, 73, 75, 77, 79, 81, 83, 85, 87,
                  89, 91, 93, 95, 97, 99, 101, 103
    2    6 C      2-7, 10, 14, 16
    3    8 O      9, 11, 13, 15, 17
    4   78 Pt     12
    5    1 H      18-31
    6    5 B      32, 34, 36, 38, 40, 42, 44, 46, 48, 50, 52, 54, 56, 58, 60,
                  62, 64, 66, 68, 70, 72, 74, 76, 78, 80, 82, 84, 86, 88, 90,
                  92, 94, 96, 98, 100, 102

           -------------------------------------------------
          |                Calculation Setup                |
           -------------------------------------------------

          program call               : "c:\Users\Andre\Proyectos doctorado\kras-pancreatic-gC3N4-ai\tools\xtb\xtb-6.7.1\bin\xtb.exe" "c:\Users\Andre\Proyectos doctorado\nano-qsar-ai-therapeutics\calculations\tnbc\Oxaliplatin\Oxaliplatin_B36N36_phys_complex.xyz" --gfn 2 --sp --chrg 0 --uhf 0 --etemp 300 --iterations 500 --norestart
          coordinate file            : c:\Users\Andre\Proyectos doctorado\nano-qsar-ai-therapeutics\calculations\tnbc\Oxaliplatin\Oxaliplatin_B36N36_phys_complex.xyz
          omp threads                :                    16


molecular fragmentation (1/2 indicates fragments):
111111111111111111111111111111122222222222222222222222222222222222222222
2222222222222222222222222222222
# atoms in fragment 1/2:    31    72
 fragment masses (1/2) :      425.30      893.44
CMA distance (Bohr)    :  18.197
constraining FC (au)   :  0.0500

           -------------------------------------------------
          |                 G F N 2 - x T B                 |
           -------------------------------------------------

        Reference                      10.1021/acs.jctc.8b01176
      * Hamiltonian:
        H0-scaling (s, p, d)           1.850000    2.230000    2.230000
        zeta-weighting                 0.500000
      * Dispersion:
        s8                             2.700000
        a1                             0.520000
        a2                             5.000000
        s9                             5.000000
      * Repulsion:
        kExp                           1.500000    1.000000
        rExp                           1.000000
      * Coulomb:
        alpha                          2.000000
        third order                    shell-resolved
        anisotropic                    true
        a3                             3.000000
        a5                             4.000000
        cn-shift                       1.200000
        cn-exp                         4.000000
        max-rad                        5.000000


          ...................................................
          :                      SETUP                      :
          :.................................................:
          :  # basis functions                 376          :
          :  # atomic orbitals                 375          :
          :  # shells                          193          :
          :  # electrons                       388          :
          :  max. iterations                   500          :
          :  Hamiltonian                  GFN2-xTB          :
          :  restarted?                      false          :
          :  GBSA solvation                  false          :
          :  PC potential                    false          :
          :  electronic temp.          300.0000000     K    :
          :  accuracy                    1.0000000          :
          :  -> integral cutoff          0.2500000E+02      :
          :  -> integral neglect         0.1000000E-07      :
          :  -> SCF convergence          0.1000000E-05 Eh   :
          :  -> wf. convergence          0.1000000E-03 e    :
          :  Broyden damping             0.4000000          :
          :  net charge                          0          :
          :  unpaired electrons                  0          :
          ...................................................

 iter      E             dE          RMSdq      gap      omega  full diag
   1   -175.8861394 -0.175886E+03  0.132E+01    0.13       0.0  T
   2    325.3420498  0.501228E+03  0.211E+01    0.27       1.0  T
   3     88.3090243 -0.237033E+03  0.194E+01    0.08       1.0  T
   4   -164.5043051 -0.252813E+03  0.969E+00    0.02       1.0  T
   5   -187.7399864 -0.232357E+02  0.823E+00    0.10       1.0  T
   6   -189.5859028 -0.184592E+01  0.734E+00    0.14       1.0  T
   7   -197.3159999 -0.773010E+01  0.554E+00    0.04       1.0  T
   8   -200.9311094 -0.361511E+01  0.632E+00    0.33       1.0  T
   9   -202.2548581 -0.132375E+01  0.562E+00    0.09       1.0  T
  10   -202.3642523 -0.109394E+00  0.556E+00    0.06       1.0  T
  11   -202.3652682 -0.101593E-02  0.554E+00    0.05       1.0  T
  12   -202.1889433  0.176325E+00  0.550E+00    0.07       1.0  T
  13   -202.1079727  0.809706E-01  0.497E+00    0.04       1.0  T
  14   -190.5988477  0.115091E+02  0.575E+00    0.10       1.0  T
  15   -194.5153453 -0.391650E+01  0.509E+00    0.05       1.0  T
  16   -193.4674890  0.104786E+01  0.492E+00    0.02       1.0  T
  17   -199.9061793 -0.643869E+01  0.360E+00    0.04       1.0  T
  18   -201.8010865 -0.189491E+01  0.330E+00    0.05       1.0  T
  19   -202.7741975 -0.973111E+00  0.284E+00    0.02       1.0  T
  20   -202.8461701 -0.719725E-01  0.297E+00    0.06       1.0  T
  21   -202.8991759 -0.530058E-01  0.294E+00    0.04       1.0  T
  22   -202.6654827  0.233693E+00  0.303E+00    0.14       1.0  T
  23   -202.9334516 -0.267969E+00  0.280E+00    0.06       1.0  T
  24   -203.6714524 -0.738001E+00  0.225E+00    0.11       1.0  T
  25   -203.3807108  0.290742E+00  0.228E+00    0.03       1.0  T
  26   -203.8753183 -0.494607E+00  0.184E+00    0.28       1.0  T
  27   -204.0221203 -0.146802E+00  0.160E+00    0.09       1.0  T
  28   -203.7236043  0.298516E+00  0.162E+00    0.16       1.0  T
  29   -204.0741343 -0.350530E+00  0.149E+00    0.04       1.0  T
  30   -204.0761294 -0.199510E-02  0.143E+00    0.01       1.0  T
  31   -204.0864956 -0.103662E-01  0.140E+00    0.01       1.0  T
  32   -203.9368130  0.149683E+00  0.113E+00    0.10       1.0  T
  33   -204.1608446 -0.224032E+00  0.106E+00    0.00       1.0  T
  34   -204.2269738 -0.661293E-01  0.105E+00    0.13       1.0  T
  35   -204.2080778  0.188960E-01  0.110E+00    0.22       1.0  T
  36   -204.2038082  0.426956E-02  0.108E+00    0.31       1.0  T
  37   -204.2051965 -0.138828E-02  0.982E-01    0.47       1.0  T
  38   -204.2081397 -0.294321E-02  0.880E-01    0.60       1.0  T
  39   -204.2137848 -0.564507E-02  0.799E-01    0.59       1.0  T
  40   -204.2194802 -0.569536E-02  0.722E-01    0.56       1.0  T
  41   -204.2240847 -0.460450E-02  0.653E-01    0.55       1.0  T
  42   -204.2266597 -0.257503E-02  0.608E-01    0.54       1.0  T
  43   -204.2323775 -0.571779E-02  0.517E-01    0.53       1.0  T
  44   -204.2343177 -0.194027E-02  0.487E-01    0.52       1.0  T
  45   -204.2375632 -0.324548E-02  0.435E-01    0.44       1.0  T
  46   -204.2420530 -0.448982E-02  0.374E-01    0.30       1.0  T
  47   -204.2549590 -0.129060E-01  0.295E-01    0.17       1.0  T
  48   -204.2772805 -0.223215E-01  0.229E-01    0.08       1.0  T
  49   -204.2773118 -0.312859E-04  0.228E-01    0.08       1.0  T
  50   -204.2672374  0.100744E-01  0.237E-01    0.12       1.0  T
  51   -204.2766985 -0.946114E-02  0.191E-01    0.09       1.0  T
  52   -204.2817342 -0.503564E-02  0.178E-01    0.06       1.0  T
  53   -204.2811748  0.559353E-03  0.159E-01    0.08       1.0  T
  54   -204.2802062  0.968626E-03  0.180E-01    0.05       1.0  T
  55   -204.2835331 -0.332692E-02  0.109E-01    0.07       1.0  T
  56   -204.2846464 -0.111330E-02  0.795E-02    0.06       1.0  T
  57   -204.2814471  0.319932E-02  0.129E-01    0.04       1.0  T
  58   -204.2819209 -0.473858E-03  0.123E-01    0.05       1.0  T
  59   -204.2811879  0.733077E-03  0.117E-01    0.08       1.0  T
  60   -204.2821626 -0.974743E-03  0.105E-01    0.08       1.0  T
  61   -204.2851802 -0.301757E-02  0.342E-02    0.06       1.0  T
  62   -204.2842400  0.940138E-03  0.512E-02    0.05       1.0  T
  63   -204.2852293 -0.989217E-03  0.214E-02    0.06       1.0  T
  64   -204.2851654  0.638139E-04  0.215E-02    0.06       1.0  T
  65   -204.2852156 -0.501836E-04  0.204E-02    0.06       1.0  T
  66   -204.2849346  0.281058E-03  0.307E-02    0.05       1.0  T
  67   -204.2851907 -0.256153E-03  0.192E-02    0.06       1.0  T
  68   -204.2850635  0.127218E-03  0.247E-02    0.06       1.0  T
  69   -204.2852498 -0.186255E-03  0.126E-02    0.06       1.0  T
  70   -204.2852680 -0.182616E-04  0.990E-03    0.06       1.0  T
  71   -204.2852663  0.174652E-05  0.931E-03    0.06       1.1  T
  72   -204.2852596  0.671896E-05  0.962E-03    0.06       1.0  T
  73   -204.2852583  0.121809E-05  0.942E-03    0.06       1.0  T
  74   -204.2852656 -0.726455E-05  0.804E-03    0.06       1.2  T
  75   -204.2852657 -0.615551E-07  0.738E-03    0.06       1.3  T
  76   -204.2852684 -0.270760E-05  0.642E-03    0.06       1.5  T
  77   -204.2852720 -0.361140E-05  0.516E-03    0.06       1.9  T
  78   -204.2852730 -0.104074E-05  0.443E-03    0.06       2.2  T
  79   -204.2852727  0.319449E-06  0.388E-03    0.06       2.5  T
  80   -204.2852732 -0.458996E-06  0.309E-03    0.06       3.2  T
  81   -204.2852741 -0.909295E-06  0.197E-03    0.06       5.0  T
  82   -204.2852739  0.153303E-06  0.161E-03    0.06       6.1  T
  83   -204.2852744 -0.450383E-06  0.869E-04    0.06      11.3  T
  84   -204.2852743  0.871875E-07  0.813E-04    0.06      12.1  T

   *** convergence criteria satisfied after 84 iterations ***

         #    Occupation            Energy/Eh            Energy/eV
      -------------------------------------------------------------
         1        2.0000           -1.0833912             -29.4806
       ...           ...                  ...                  ...
       188        2.0000           -0.2796795              -7.6105
       189        2.0000           -0.2783505              -7.5743
       190        2.0000           -0.2764465              -7.5225
       191        2.0000           -0.2751117              -7.4862
       192        2.0000           -0.2694588              -7.3323
       193        2.0000           -0.2653432              -7.2204
       194        1.5204           -0.2396309              -6.5207 (HOMO)
       195        0.4688           -0.2374100              -6.4603 (LUMO)
       196        0.0108           -0.2335805              -6.3560
       197        0.0000           -0.2238531              -6.0914
       198        0.0000           -0.2233611              -6.0780
       199                         -0.2182866              -5.9399
       ...                                ...                  ...
       375                         23.5214018             640.0499
      -------------------------------------------------------------
                  HL-Gap            0.0022209 Eh            0.0604 eV
             Fermi-level           -0.2385346 Eh           -6.4909 eV

 SCC (total)                   0 d,  0 h,  0 min,  2.339 sec
 SCC setup                      ...        0 min,  0.002 sec (  0.086%)
 Dispersion                     ...        0 min,  0.002 sec (  0.086%)
 classical contributions        ...        0 min,  0.000 sec (  0.000%)
 integral evaluation            ...        0 min,  0.012 sec (  0.513%)
 iterations                     ...        0 min,  2.292 sec ( 97.991%)
 molecular gradient             ...        0 min,  0.029 sec (  1.240%)
 printout                       ...        0 min,  0.002 sec (  0.086%)

         :::::::::::::::::::::::::::::::::::::::::::::::::::::
         ::                     SUMMARY                     ::
         :::::::::::::::::::::::::::::::::::::::::::::::::::::
         :: total energy            -192.611998796872 Eh    ::
         :: gradient norm             14.991144676403 Eh/a0 ::
         :: HOMO-LUMO gap              0.060432577901 eV    ::
         ::.................................................::
         :: SCC energy              -204.269799949444 Eh    ::
         :: -> isotropic ES            0.958170956057 Eh    ::
         :: -> anisotropic ES          0.063971244305 Eh    ::
         :: -> anisotropic XC         -0.042840657657 Eh    ::
         :: -> dispersion             -0.203559281712 Eh    ::
         :: repulsion energy          11.657801152572 Eh    ::
         :: add. restraining           0.000000000000 Eh    ::
         :: total charge               0.000000000002 e     ::
         :::::::::::::::::::::::::::::::::::::::::::::::::::::

           -------------------------------------------------
          |                Property Printout                |
           -------------------------------------------------

    * Orbital Energies and Occupations

         #    Occupation            Energy/Eh            Energy/eV
      -------------------------------------------------------------
         1        2.0000           -1.0833912             -29.4806
       ...           ...                  ...                  ...
       182        2.0000           -0.2958417              -8.0503
       183        2.0000           -0.2919142              -7.9434
       184        2.0000           -0.2911560              -7.9228
       185        2.0000           -0.2880317              -7.8377
       186        2.0000           -0.2867103              -7.8018
       187        2.0000           -0.2828521              -7.6968
       188        2.0000           -0.2796795              -7.6105
       189        2.0000           -0.2783505              -7.5743
       190        2.0000           -0.2764465              -7.5225
       191        2.0000           -0.2751117              -7.4862
       192        2.0000           -0.2694588              -7.3323
       193        2.0000           -0.2653432              -7.2204
       194        1.5204           -0.2396309              -6.5207 (HOMO)
       195        0.4688           -0.2374100              -6.4603 (LUMO)
       196        0.0108           -0.2335805              -6.3560
       197        0.0000           -0.2238531              -6.0914
       198        0.0000           -0.2233611              -6.0780
       199                         -0.2182866              -5.9399
       200                         -0.2042470              -5.5578
       201                         -0.2009259              -5.4675
       202                         -0.2000272              -5.4430
       203                         -0.1932906              -5.2597
       204                         -0.1883195              -5.1244
       205                         -0.1843565              -5.0166
       ...                                ...                  ...
       375                         23.5214018             640.0499
      -------------------------------------------------------------
                  HL-Gap            0.0022209 Eh            0.0604 eV
             Fermi-level           -0.2385346 Eh           -6.4909 eV

     #   Z          covCN         q      C6AA      α(0)
     1   7 N        5.303    -0.543    34.649     8.743
     2   6 C        7.694     0.441    14.353     5.380
     3   6 C        7.358     0.072    19.298     6.239
     4   6 C        6.746     0.149    18.117     6.045
     5   6 C        6.951     0.184    17.608     5.959
     6   6 C        6.968     0.315    15.844     5.653
     7   6 C        7.461    -0.014    20.737     6.467
     8   7 N        3.239    -0.571    35.562     8.857
     9   8 O        2.983    -0.609    25.303     6.794
    10   6 C        7.319     0.108    18.727     6.146
    11   8 O        4.818     0.187    12.259     4.729
    12  78 Pt       7.511    -0.638   436.188    36.616
    13   8 O        3.590    -0.325    19.392     5.948
    14   6 C        7.473     0.090    19.011     6.192
    15   8 O        3.410    -0.185    17.067     5.580
    16   6 C        7.388     0.060    19.487     6.269
    17   8 O        3.437    -0.136    16.325     5.457
    18   1 H        0.859     0.134     1.518     1.930
    19   1 H        1.826     0.248     0.881     1.465
    20   1 H        2.028     0.404     0.465     1.065
    21   1 H        1.403    -0.013     3.272     2.824
    22   1 H        1.890     0.143     1.433     1.869
    23   1 H        0.976    -0.004     3.121     2.761
    24   1 H        1.877     0.089     1.874     2.137
    25   1 H        1.719     0.102     1.759     2.071
    26   1 H        2.662     0.285     0.750     1.352
    27   1 H        1.780     0.408     0.459     1.058
    28   1 H        1.284    -0.441    71.034    13.158
    29   1 H        2.386     0.379     0.513     1.118
    30   1 H        0.857     0.124     1.595     1.978
    31   1 H        0.858     0.037     2.505     2.479
    32   5 B        2.781     0.069    20.320     7.537
    33   7 N        2.774    -0.235    26.149     7.595
    34   5 B        2.788     0.080    20.133     7.501
    35   7 N        2.524    -0.323    28.348     7.907
    36   5 B        2.779     0.073    20.251     7.524
    37   7 N        2.655    -0.283    27.308     7.761
    38   5 B        2.849     0.235    17.756     7.036
    39   7 N        2.529    -0.277    27.184     7.743
    40   5 B        3.195     0.133    19.185     7.305
    41   7 N        2.979    -0.122    23.636     7.221
    42   5 B        2.644     0.369    16.374     6.824
    43   7 N        2.669    -0.219    25.788     7.542
    44   5 B        3.181     0.008    21.248     7.688
    45   7 N        2.888    -0.223    25.859     7.553
    46   5 B        3.009     0.208    18.090     7.095
    47   7 N        2.660    -0.171    24.711     7.383
    48   5 B        2.906     0.316    16.651     6.810
    49   7 N        3.156    -0.098    23.150     7.146
    50   5 B        2.779     0.086    20.037     7.485
    51   7 N        3.037    -0.138    23.978     7.273
    52   5 B        2.758     0.079    20.181     7.517
    53   7 N        2.634    -0.322    28.290     7.899
    54   5 B        3.040     0.216    17.975     7.072
    55   7 N        2.981    -0.013    21.503     6.887
    56   5 B        2.582     0.325    17.311     7.088
    57   7 N        2.596    -0.371    29.591     8.079
    58   5 B        3.287     0.340    16.334     6.740
    59   7 N        2.784    -0.260    26.724     7.678
    60   5 B        2.559     0.320    17.599     7.186
    61   7 N        2.579    -0.380    29.849     8.114
    62   5 B        2.530     0.303    18.202     7.372
    63   7 N        2.665    -0.209    25.555     7.508
    64   5 B        2.698     0.192    18.564     7.231
    65   7 N        2.844    -0.176    24.804     7.397
    66   5 B        2.758     0.077    20.211     7.522
    67   7 N        2.672    -0.178    24.850     7.404
    68   5 B        2.877     0.101    19.719     7.412
    69   7 N        2.663    -0.153    24.308     7.322
    70   5 B        2.594     0.311    17.403     7.089
    71   7 N        2.519    -0.359    29.306     8.040
    72   5 B        2.684     0.180    18.779     7.280
    73   7 N        3.008    -0.129    23.786     7.244
    74   5 B        2.677     0.210    18.368     7.203
    75   7 N        2.716    -0.261    26.765     7.684
    76   5 B        2.647     0.161    19.216     7.390
    77   7 N        2.825    -0.217    25.729     7.534
    78   5 B        3.321     0.223    17.872     7.050
    79   7 N        2.531    -0.289    27.488     7.786
    80   5 B        2.950     0.027    20.920     7.631
    81   7 N        2.783    -0.197    25.272     7.466
    82   5 B        2.796     0.072    20.239     7.519
    83   7 N        2.673    -0.165    24.576     7.363
    84   5 B        3.021     0.208    18.085     7.094
    85   7 N        3.272     0.009    21.094     6.821
    86   5 B        2.869     0.305    16.807     6.844
    87   7 N        3.154    -0.118    23.565     7.210
    88   5 B        3.263     0.320    16.583     6.791
    89   7 N        2.833    -0.071    22.621     7.064
    90   5 B        3.303     0.227    17.813     7.038
    91   7 N        2.656    -0.190    25.126     7.445
    92   5 B        2.838     0.107    19.649     7.403
    93   7 N        2.834    -0.226    25.941     7.565
    94   5 B        2.863     0.250    17.543     6.992
    95   7 N        2.654    -0.237    26.205     7.603
    96   5 B        3.011     0.105    19.639     7.392
    97   7 N        3.153    -0.091    23.015     7.125
    98   5 B        2.674     0.197    18.562     7.244
    99   7 N        2.696    -0.239    26.246     7.609
   100   5 B        2.585     0.371    16.692     6.956
   101   7 N        2.881    -0.190    25.112     7.443
   102   5 B        2.825     0.099    19.790     7.431
   103   7 N        2.827    -0.258    26.682     7.672

 Mol. C6AA /au·bohr⁶  :     203838.734057
 Mol. C8AA /au·bohr⁸  :    6137607.697607
 Mol. α(0) /au        :        704.709680


Wiberg/Mayer (AO) data.
largest (>0.10) Wiberg bond orders for each atom

 ---------------------------------------------------------------------------
     #   Z sym  total        # sym  WBO       # sym  WBO       # sym  WBO
 ---------------------------------------------------------------------------
     1   7 N    2.745 --    18 H    0.909    19 H    0.580    12 Pt   0.403
                             2 C    0.246    10 C    0.106
     2   6 C    3.845 --    11 O    1.756    10 C    1.452     1 N    0.246
     3   6 C    3.712 --    21 H    0.764    13 O    0.608    22 H    0.517
                            12 Pt   0.399     4 C    0.391    11 O    0.387
     4   6 C    3.683 --    23 H    0.782    24 H    0.578    13 O    0.528
                            12 Pt   0.410    14 C    0.396     3 C    0.391
                             5 C    0.282    15 O    0.112
     5   6 C    3.815 --    14 C    1.369    15 O    1.149     6 C    0.362
                            25 H    0.356     4 C    0.282
     6   6 C    3.891 --    16 C    1.452    17 O    1.143    28 H    0.495
                             5 C    0.362
     7   6 C    3.771 --    16 C    1.256    10 C    1.016     8 N    0.659
                            29 H    0.274
     8   7 N    2.856 --    30 H    0.962    31 H    0.939     7 C    0.659
     9   8 O    1.701 --    10 C    0.788    29 H    0.473
    10   6 C    3.870 --     2 C    1.452     7 C    1.016     9 O    0.788
                            16 C    0.144     1 N    0.106
    11   8 O    2.883 --     2 C    1.756     3 C    0.387    20 H    0.350
    12  78 Pt   2.885 --     4 C    0.410     1 N    0.403     3 C    0.399
                            22 H    0.368    19 H    0.311    24 H    0.311
                            13 O    0.113
    13   8 O    2.199 --     3 C    0.608     4 C    0.528    14 C    0.510
                            12 Pt   0.113
    14   6 C    3.710 --     5 C    1.369    13 O    0.510     4 C    0.396
                            16 C    0.343    26 H    0.274    15 O    0.234
                            25 H    0.168
    15   8 O    2.389 --     5 C    1.149    26 H    0.380    14 C    0.234
                            25 H    0.181     4 C    0.112
    16   6 C    3.818 --     6 C    1.452     7 C    1.256    14 C    0.343
                            17 O    0.169    10 C    0.144
    17   8 O    2.398 --     6 C    1.143    27 H    0.740    16 C    0.169
    18   1 H    0.982 --     1 N    0.909
    19   1 H    0.936 --     1 N    0.580    12 Pt   0.311
    20   1 H    0.836 --    11 O    0.350
    21   1 H    0.990 --     3 C    0.764
    22   1 H    0.974 --     3 C    0.517    12 Pt   0.368
    23   1 H    0.996 --     4 C    0.782
    24   1 H    0.991 --     4 C    0.578    12 Pt   0.311
    25   1 H    0.975 --     5 C    0.356    15 O    0.181    14 C    0.168
                            26 H    0.160
    26   1 H    0.918 --    15 O    0.380    14 C    0.274    25 H    0.160
    27   1 H    0.834 --    17 O    0.740
    28   1 H    0.780 --     6 C    0.495
    29   1 H    0.845 --     9 O    0.473     7 C    0.274
    30   1 H    0.982 --     8 N    0.962
    31   1 H    0.998 --     8 N    0.939
    32   5 B    3.480 --   101 N    1.279    84 B    1.001    78 B    0.969
    33   7 N    3.393 --    78 B    1.151    91 N    1.007    90 B    0.987
    34   5 B    3.458 --    79 N    1.274   102 B    0.987    90 B    0.966
    35   7 N    3.522 --    92 B    1.153    94 B    1.134    62 B    1.029
    36   5 B    3.470 --    69 N    1.239    98 B    0.996    72 B    0.992
    37   7 N    3.252 --    58 B    1.199   100 B    0.960    95 N    0.887
    38   5 B    3.399 --    71 N    1.178    45 N    1.024    54 B    0.965
    39   7 N    3.565 --    52 B    1.283    40 B    1.141    96 B    0.981
    40   5 B    3.324 --    39 N    1.141    82 B    0.935    80 B    0.636
                            44 B    0.283
    41   7 N    3.300 --    46 B    1.092    85 N    1.043    97 N    0.945
    42   5 B    3.429 --    43 N    1.197    53 N    1.115    81 N    0.958
    43   7 N    3.439 --    42 B    1.197    70 B    1.083    83 N    0.962
    44   5 B    3.451 --    80 B    1.288    96 B    1.011    94 B    0.637
                            40 B    0.283
    45   7 N    3.426 --    48 B    1.241    38 B    1.024    59 N    0.930
    46   5 B    3.370 --    41 N    1.092    65 N    1.049    92 B    1.003
    47   7 N    3.484 --    50 B    1.179    70 B    1.135    67 N    0.996
    48   5 B    3.515 --    45 N    1.241    73 N    1.062    93 N    1.005
    49   7 N    3.338 --    98 B    1.140   101 N    0.985    51 N    0.981
    50   5 B    3.384 --    47 N    1.179    68 B    1.009    82 B    0.936
    51   7 N    3.309 --    86 B    1.125    49 N    0.981    55 N    0.971
    52   5 B    3.448 --    39 N    1.283    66 B    0.981    76 B    0.935
    53   7 N    3.207 --    42 B    1.115    56 B    1.072    81 N    0.788
    54   5 B    3.357 --    67 N    1.168    59 N    0.978    38 B    0.965
    55   7 N    3.089 --    73 N    1.014    51 N    0.971    99 N    0.937
    56   5 B    3.508 --    93 N    1.236    53 N    1.072    71 N    0.993
    57   7 N    3.424 --    62 B    1.202    90 B    1.047    78 B    0.933
    58   5 B    3.479 --    37 N    1.199    75 N    1.036    61 N    0.987
    59   7 N    3.277 --    64 B    1.178    54 B    0.978    45 N    0.930
    60   5 B    3.524 --    95 N    1.211    99 N    1.112    87 N    1.040
    61   7 N    3.417 --    74 B    1.201    88 B    0.994    58 B    0.987
    62   5 B    3.516 --    57 N    1.202   103 N    1.085    35 N    1.029
    63   7 N    3.448 --   100 B    1.272    74 B    1.000    89 N    0.988
    64   5 B    3.426 --    59 N    1.178    91 N    1.103   102 B    0.922
    65   7 N    3.449 --    66 B    1.239    46 B    1.049    97 N    0.980
    66   5 B    3.395 --    65 N    1.239    52 B    0.981    74 B    0.958
    67   7 N    3.506 --    54 B    1.168   102 B    1.158    47 N    0.996
    68   5 B    3.330 --    50 B    1.009    80 B    1.005    79 N    0.960
    69   7 N    3.504 --    36 B    1.239    72 B    1.089    75 N    1.036
    70   5 B    3.511 --    47 N    1.135    71 N    1.094    43 N    1.083
    71   7 N    3.473 --    38 B    1.178    70 B    1.094    56 B    0.993
    72   5 B    3.467 --    77 N    1.183    69 N    1.089    36 B    0.992
    73   7 N    3.255 --    48 B    1.062    55 N    1.014    87 N    0.976
    74   5 B    3.373 --    61 N    1.201    63 N    1.000    66 B    0.958
    75   7 N    3.359 --    58 B    1.036    69 N    1.036    88 B    0.976
    76   5 B    3.427 --    89 N    1.159    83 N    1.097    52 B    0.935
    77   7 N    3.400 --    72 B    1.183    84 B    1.063    85 N    0.959
    78   5 B    3.373 --    33 N    1.151    32 B    0.969    57 N    0.933
                            90 B    0.122
    79   7 N    3.553 --    34 B    1.274    94 B    1.108    68 B    0.960
    80   5 B    3.354 --    44 B    1.288    68 B    1.005    40 B    0.636
                            94 B    0.182
    81   7 N    2.971 --    89 N    1.047    42 B    0.958    53 N    0.788
    82   5 B    3.401 --    83 N    1.228    50 B    0.936    40 B    0.935
    83   7 N    3.451 --    82 B    1.228    76 B    1.097    43 N    0.962
    84   5 B    3.443 --   103 N    1.140    77 N    1.063    32 B    1.001
    85   7 N    3.181 --    41 N    1.043    77 N    0.959   103 N    0.950
    86   5 B    3.522 --    91 N    1.175    51 N    1.125   101 N    0.992
    87   7 N    3.220 --    60 B    1.040    93 N    0.982    73 N    0.976
    88   5 B    3.507 --    97 N    1.273    61 N    0.994    75 N    0.976
    89   7 N    3.401 --    76 B    1.159    81 N    1.047    63 N    0.988
    90   5 B    3.301 --    57 N    1.047    33 N    0.987    34 B    0.966
                            78 B    0.122
    91   7 N    3.482 --    86 B    1.175    64 B    1.103    33 N    1.007
    92   5 B    3.386 --    35 N    1.153    46 B    1.003    96 B    1.002
    93   7 N    3.437 --    56 B    1.236    48 B    1.005    87 N    0.982
    94   5 B    3.428 --    35 N    1.134    79 N    1.108    44 B    0.637
                            80 B    0.182    96 B    0.125
    95   7 N    3.327 --    60 B    1.211   100 B    1.029    37 N    0.887
    96   5 B    3.335 --    44 B    1.011    92 B    1.002    39 N    0.981
                            94 B    0.125
    97   7 N    3.440 --    88 B    1.273    65 N    0.980    41 N    0.945
    98   5 B    3.452 --    49 N    1.140    99 N    1.119    36 B    0.996
    99   7 N    3.388 --    98 B    1.119    60 B    1.112    55 N    0.937
   100   5 B    3.439 --    63 N    1.272    95 N    1.029    37 N    0.960
   101   7 N    3.462 --    32 B    1.279    86 B    0.992    49 N    0.985
   102   5 B    3.346 --    67 N    1.158    34 B    0.987    64 B    0.922
   103   7 N    3.414 --    84 B    1.140    62 B    1.085    85 N    0.950
 ---------------------------------------------------------------------------

Topologies differ in total number of bonds
Writing topology from bond orders to xtbtopo.mol

molecular dipole:
                 x           y           z       tot (Debye)
 q only:        3.464       0.865       6.887
   full:        3.192      -2.477      11.200      30.263
molecular quadrupole (traceless):
                xx          xy          yy          xz          yz          zz
 q only:     -125.536     -13.752    -111.086      46.824     -37.571     236.622
  q+dip:     -141.797     -11.371    -145.808      85.418     -77.626     287.605
   full:     -135.850     -11.827    -146.706      89.736     -78.606     282.556


           -------------------------------------------------
          | TOTAL ENERGY             -192.611998796872 Eh   |
          | GRADIENT NORM              14.991144676403 Eh/α |
          | HOMO-LUMO GAP               0.060432577901 eV   |
           -------------------------------------------------

------------------------------------------------------------------------
 * finished run on 2026/08/31 at 21:13:14.266     
------------------------------------------------------------------------
 total:
 * wall-time:     0 d,  0 h,  0 min,  2.427 sec
 *  cpu-time:     0 d,  0 h,  0 min, 23.266 sec
 * ratio c/w:     9.586 speedup
 SCF:
 * wall-time:     0 d,  0 h,  0 min,  2.340 sec
 *  cpu-time:     0 d,  0 h,  0 min, 22.703 sec
 * ratio c/w:     9.702 speedup

normal termination of xtb
