      -----------------------------------------------------------      
     |                   =====================                   |     
     |                           x T B                           |     
     |                   =====================                   |     
     |                         S. Grimme                         |     
     |          Mulliken Center for Theoretical Chemistry        |     
     |                    University of Bonn                     |     
      -----------------------------------------------------------      

   * xtb version 6.7.1pre (5071a88) compiled by 'Marcel@Raven' on 2024-07-23

   xtb is free software: you can redistribute it and/or modify it under
   the terms of the GNU Lesser General Public License as published by
   the Free Software Foundation, either version 3 of the License, or
   (at your option) any later version.
   
   xtb is distributed in the hope that it will be useful,
   but WITHOUT ANY WARRANTY; without even the implied warranty of
   MERCHANTABILITY or FITNESS FOR A PARTICULAR PURPOSE.  See the
   GNU Lesser General Public License for more details.
   
   Cite this work as:
   * C. Bannwarth, E. Caldeweyher, S. Ehlert, A. Hansen, P. Pracht,
     J. Seibert, S. Spicher, S. Grimme, WIREs Comput. Mol. Sci., 2020, 11,
     e01493. DOI: 10.1002/wcms.1493
   
   for GFN2-xTB:
   * C. Bannwarth, S. Ehlert and S. Grimme., J. Chem. Theory Comput., 2019,
     15, 1652-1671. DOI: 10.1021/acs.jctc.8b01176
   for GFN1-xTB:
   * S. Grimme, C. Bannwarth, P. Shushkov, J. Chem. Theory Comput., 2017,
     13, 1989-2009. DOI: 10.1021/acs.jctc.7b00118
   for GFN0-xTB:
   * P. Pracht, E. Caldeweyher, S. Ehlert, S. Grimme, ChemRxiv, 2019, preprint.
     DOI: 10.26434/chemrxiv.8326202.v1
   for GFN-FF:
   * S. Spicher and S. Grimme, Angew. Chem. Int. Ed., 2020, 59, 15665-15673.
     DOI: 10.1002/anie.202004239
   
   for ALPB and GBSA implicit solvation:
   * S. Ehlert, M. Stahn, S. Spicher, S. Grimme, J. Chem. Theory Comput.,
     2021, 17, 4250-4261. DOI: 10.1021/acs.jctc.1c00471
   
   for ddCOSMO and CPCM-X implicit solvation:
   * M. Stahn, S. Ehlert, S. Grimme, J. Phys. Chem. A,
     2023, XX, XXXX-XXXX. DOI: 10.1021/acs.jpca.3c04382
   
   for DFT-D4:
   * E. Caldeweyher, C. Bannwarth and S. Grimme, J. Chem. Phys., 2017,
     147, 034112. DOI: 10.1063/1.4993215
   * E. Caldeweyher, S. Ehlert, A. Hansen, H. Neugebauer, S. Spicher,
     C. Bannwarth and S. Grimme, J. Chem. Phys., 2019, 150, 154122.
     DOI: 10.1063/1.5090222
   * E. Caldeweyher, J.-M. Mewes, S. Ehlert and S. Grimme, Phys. Chem. Chem. Phys.
     2020, 22, 8499-8512. DOI: 10.1039/D0CP00502A
   
   for sTDA-xTB:
   * S. Grimme and C. Bannwarth, J. Chem. Phys., 2016, 145, 054103.
     DOI: 10.1063/1.4959605
   
   in the mass-spec context:
   * V. Asgeirsson, C. Bauer and S. Grimme, Chem. Sci., 2017, 8, 4879.
     DOI: 10.1039/c7sc00601b
   * J. Koopman and S. Grimme, ACS Omega 2019, 4, 12, 15120-15133.
     DOI: 10.1021/acsomega.9b02011
   
   for metadynamics refer to:
   * S. Grimme, J. Chem. Theory Comput., 2019, 155, 2847-2862
     DOI: 10.1021/acs.jctc.9b00143
   
   for SPH calculations refer to:
   * S. Spicher and S. Grimme, J. Chem. Theory Comput., 2021, 17, 1701-1714
     DOI: 10.1021/acs.jctc.0c01306
   
   for ONIOM refer to:
   * C. Plett, A. Katbashev, S. Ehlert, S. Grimme, M. Bursch,
     Phys. Chem. Chem. Phys., 2023, 25, 17860-17868. DOI: 10.1039/D3CP02178E
   
   for DIPRO refer to:
   * J. Kohn, N. Gildemeister, S. Grimme, D. Fazzi, A. Hansen,
     J. Chem. Phys., 2023, just accepted.
   
   for PTB refer to:
   * S. Grimme, M. Mueller, A. Hansen, J. Chem. Phys., 2023, 158, 124111.
     DOI: 10.1063/5.0137838
   
   with help from (in alphabetical order)
   P. Atkinson, C. Bannwarth, F. Bohle, G. Brandenburg, E. Caldeweyher
   M. Checinski, S. Dohm, S. Ehlert, S. Ehrlich, I. Gerasimov, C. Hölzer
   A. Katbashev, J. Kohn, J. Koopman, C. Lavigne, S. Lehtola, F. März, M. Müller,
   F. Musil, H. Neugebauer, J. Pisarek, C. Plett, P. Pracht, F. Pultar,
   J. Seibert, P. Shushkov, S. Spicher, M. Stahn, M. Steiner, T. Strunk,
   J. Stückrath, T. Rose, and J. Unsleber
   
 * started run on 2026/08/31 at 22:21:35.468     
   ID    Z sym.   atoms
    1    7 N      1, 8, 33, 35, 37, 39, 41, 43, 45, 47, 49, 51, 53, 55, 57,
                  59, 61, 63, 65, 67, 69, 71, 73, 75, 77, 79, 81, 83, 85, 87,
                  89, 91, 93, 95, 97, 99, 101, 103
    2    6 C      2-7, 10, 14, 16
    3    8 O      9, 11, 13, 15, 17
    4   78 Pt     12
    5    1 H      18-31
    6    5 B      32, 34, 36, 38, 40, 42, 44, 46, 48, 50, 52, 54, 56, 58, 60,
                  62, 64, 66, 68, 70, 72, 74, 76, 78, 80, 82, 84, 86, 88, 90,
                  92, 94, 96, 98, 100, 102

           -------------------------------------------------
          |                Calculation Setup                |
           -------------------------------------------------

          program call               : "c:\Users\Andre\Proyectos doctorado\kras-pancreatic-gC3N4-ai\tools\xtb\xtb-6.7.1\bin\xtb.exe" "c:\Users\Andre\Proyectos doctorado\nano-qsar-ai-therapeutics\calculations\tnbc\Oxaliplatin\Oxaliplatin_B36N36_clean_complex.xyz" --gfn 2 --sp --chrg 0 --uhf 0 --etemp 300 --iterations 500 --norestart
          coordinate file            : c:\Users\Andre\Proyectos doctorado\nano-qsar-ai-therapeutics\calculations\tnbc\Oxaliplatin\Oxaliplatin_B36N36_clean_complex.xyz
          omp threads                :                    16


molecular fragmentation (1/2 indicates fragments):
111111111111111111111111111111122222222222222222222222222222222222222222
2222222222222222222222222222222
# atoms in fragment 1/2:    31    72
 fragment masses (1/2) :      425.30      893.44
CMA distance (Bohr)    :  16.725
constraining FC (au)   :  0.0500

           -------------------------------------------------
          |                 G F N 2 - x T B                 |
           -------------------------------------------------

        Reference                      10.1021/acs.jctc.8b01176
      * Hamiltonian:
        H0-scaling (s, p, d)           1.850000    2.230000    2.230000
        zeta-weighting                 0.500000
      * Dispersion:
        s8                             2.700000
        a1                             0.520000
        a2                             5.000000
        s9                             5.000000
      * Repulsion:
        kExp                           1.500000    1.000000
        rExp                           1.000000
      * Coulomb:
        alpha                          2.000000
        third order                    shell-resolved
        anisotropic                    true
        a3                             3.000000
        a5                             4.000000
        cn-shift                       1.200000
        cn-exp                         4.000000
        max-rad                        5.000000


          ...................................................
          :                      SETUP                      :
          :.................................................:
          :  # basis functions                 376          :
          :  # atomic orbitals                 375          :
          :  # shells                          193          :
          :  # electrons                       388          :
          :  max. iterations                   500          :
          :  Hamiltonian                  GFN2-xTB          :
          :  restarted?                      false          :
          :  GBSA solvation                  false          :
          :  PC potential                    false          :
          :  electronic temp.          300.0000000     K    :
          :  accuracy                    1.0000000          :
          :  -> integral cutoff          0.2500000E+02      :
          :  -> integral neglect         0.1000000E-07      :
          :  -> SCF convergence          0.1000000E-05 Eh   :
          :  -> wf. convergence          0.1000000E-03 e    :
          :  Broyden damping             0.4000000          :
          :  net charge                          0          :
          :  unpaired electrons                  0          :
          ...................................................

 iter      E             dE          RMSdq      gap      omega  full diag
   1   -176.3095635 -0.176310E+03  0.132E+01    0.16       0.0  T
   2    352.6892582  0.528999E+03  0.214E+01    0.14       1.0  T
   3    139.5744713 -0.213115E+03  0.205E+01    0.02       1.0  T
   4   -159.9055558 -0.299480E+03  0.987E+00    0.10       1.0  T
   5   -190.8148044 -0.309092E+02  0.833E+00    0.14       1.0  T
   6   -186.5917090  0.422310E+01  0.780E+00    0.07       1.0  T
   7   -195.5754561 -0.898375E+01  0.678E+00    0.12       1.0  T
   8   -201.1235567 -0.554810E+01  0.603E+00    0.07       1.0  T
   9   -192.9687024  0.815485E+01  0.624E+00    0.04       1.0  T
  10   -199.5525318 -0.658383E+01  0.556E+00    0.11       1.0  T
  11   -196.5460455  0.300649E+01  0.569E+00    0.01       1.0  T
  12   -196.6797382 -0.133693E+00  0.510E+00    0.13       1.0  T
  13   -197.3769583 -0.697220E+00  0.492E+00    0.07       1.0  T
  14   -202.0901896 -0.471323E+01  0.386E+00    0.27       1.0  T
  15   -201.8478313  0.242358E+00  0.367E+00    0.19       1.0  T
  16   -203.3996450 -0.155181E+01  0.334E+00    0.13       1.0  T
  17   -203.3216915  0.779535E-01  0.324E+00    0.06       1.0  T
  18   -202.9361647  0.385527E+00  0.296E+00    0.26       1.0  T
  19   -203.5302913 -0.594127E+00  0.284E+00    0.02       1.0  T
  20   -203.7196843 -0.189393E+00  0.275E+00    0.01       1.0  T
  21   -203.4929217  0.226763E+00  0.258E+00    0.27       1.0  T
  22   -203.5136194 -0.206977E-01  0.254E+00    0.25       1.0  T
  23   -203.5432479 -0.296285E-01  0.239E+00    0.31       1.0  T
  24   -203.6897144 -0.146467E+00  0.207E+00    0.20       1.0  T
  25   -204.1461210 -0.456407E+00  0.187E+00    0.09       1.0  T
  26   -203.8575695  0.288551E+00  0.162E+00    0.10       1.0  T
  27   -204.2185751 -0.361006E+00  0.151E+00    0.06       1.0  T
  28   -204.2075438  0.110313E-01  0.138E+00    0.28       1.0  T
  29   -204.2123801 -0.483631E-02  0.126E+00    0.35       1.0  T
  30   -204.2176387 -0.525853E-02  0.115E+00    0.42       1.0  T
  31   -204.2233176 -0.567893E-02  0.941E-01    0.43       1.0  T
  32   -204.2314735 -0.815584E-02  0.783E-01    0.39       1.0  T
  33   -204.2353969 -0.392348E-02  0.705E-01    0.33       1.0  T
  34   -204.2386499 -0.325296E-02  0.668E-01    0.27       1.0  T
  35   -204.2580922 -0.194423E-01  0.528E-01    0.15       1.0  T
  36   -204.2602389 -0.214666E-02  0.494E-01    0.14       1.0  T
  37   -204.2696810 -0.944216E-02  0.422E-01    0.12       1.0  T
  38   -204.2813725 -0.116914E-01  0.333E-01    0.08       1.0  T
  39   -204.2815062 -0.133710E-03  0.331E-01    0.08       1.0  T
  40   -204.2870512 -0.554507E-02  0.234E-01    0.06       1.0  T
  41   -204.2888032 -0.175200E-02  0.138E-01    0.06       1.0  T
  42   -204.2888915 -0.882920E-04  0.105E-01    0.05       1.0  T
  43   -204.2891189 -0.227348E-03  0.984E-02    0.07       1.0  T
  44   -204.2897736 -0.654714E-03  0.859E-02    0.06       1.0  T
  45   -204.2895222  0.251423E-03  0.700E-02    0.05       1.0  T
  46   -204.2899721 -0.449919E-03  0.495E-02    0.05       1.0  T
  47   -204.2900287 -0.566205E-04  0.396E-02    0.05       1.0  T
  48   -204.2903349 -0.306166E-03  0.281E-02    0.05       1.0  T
  49   -204.2901149  0.219945E-03  0.411E-02    0.06       1.0  T
  50   -204.2901377 -0.227634E-04  0.397E-02    0.06       1.0  T
  51   -204.2901306  0.713377E-05  0.390E-02    0.06       1.0  T
  52   -204.2903886 -0.257993E-03  0.250E-02    0.06       1.0  T
  53   -204.2903306  0.579358E-04  0.257E-02    0.06       1.0  T
  54   -204.2904901 -0.159505E-03  0.841E-03    0.06       1.2  T
  55   -204.2904878  0.232556E-05  0.533E-03    0.05       1.8  T
  56   -204.2904830  0.476029E-05  0.588E-03    0.05       1.7  T
  57   -204.2904959 -0.128625E-04  0.285E-03    0.05       3.5  T
  58   -204.2904939  0.199585E-05  0.281E-03    0.05       3.5  T
  59   -204.2904954 -0.146625E-05  0.201E-03    0.05       4.9  T
  60   -204.2904963 -0.942448E-06  0.160E-03    0.05       6.2  T
  61   -204.2904957  0.586030E-06  0.203E-03    0.06       4.9  T
  62   -204.2904962 -0.481008E-06  0.136E-03    0.06       7.2  T
  63   -204.2904964 -0.204734E-06  0.879E-04    0.05      11.2  T
  64   -204.2904964 -0.161998E-08  0.640E-04    0.05      15.4  T

   *** convergence criteria satisfied after 64 iterations ***

         #    Occupation            Energy/Eh            Energy/eV
      -------------------------------------------------------------
         1        2.0000           -1.0824377             -29.4546
       ...           ...                  ...                  ...
       188        2.0000           -0.2798744              -7.6158
       189        2.0000           -0.2771309              -7.5411
       190        2.0000           -0.2758658              -7.5067
       191        2.0000           -0.2735772              -7.4444
       192        2.0000           -0.2681558              -7.2969
       193        2.0000           -0.2634054              -7.1676
       194        1.4782           -0.2381130              -6.4794 (HOMO)
       195        0.5072           -0.2360983              -6.4246 (LUMO)
       196        0.0146           -0.2324580              -6.3255
       197        0.0000           -0.2226168              -6.0577
       198                         -0.2207399              -6.0066
       199                         -0.2182858              -5.9399
       ...                                ...                  ...
       375                         23.5229227             640.0913
      -------------------------------------------------------------
                  HL-Gap            0.0020147 Eh            0.0548 eV
             Fermi-level           -0.2371238 Eh           -6.4525 eV

 SCC (total)                   0 d,  0 h,  0 min,  2.061 sec
 SCC setup                      ...        0 min,  0.001 sec (  0.049%)
 Dispersion                     ...        0 min,  0.002 sec (  0.097%)
 classical contributions        ...        0 min,  0.000 sec (  0.000%)
 integral evaluation            ...        0 min,  0.012 sec (  0.582%)
 iterations                     ...        0 min,  2.016 sec ( 97.817%)
 molecular gradient             ...        0 min,  0.028 sec (  1.359%)
 printout                       ...        0 min,  0.002 sec (  0.097%)

         :::::::::::::::::::::::::::::::::::::::::::::::::::::
         ::                     SUMMARY                     ::
         :::::::::::::::::::::::::::::::::::::::::::::::::::::
         :: total energy            -192.616763060783 Eh    ::
         :: gradient norm             14.995742595870 Eh/a0 ::
         :: HOMO-LUMO gap              0.054823844321 eV    ::
         ::.................................................::
         :: SCC energy              -204.274564213356 Eh    ::
         :: -> isotropic ES            0.959829462403 Eh    ::
         :: -> anisotropic ES          0.064527981999 Eh    ::
         :: -> anisotropic XC         -0.041280641132 Eh    ::
         :: -> dispersion             -0.207206772391 Eh    ::
         :: repulsion energy          11.657801152573 Eh    ::
         :: add. restraining           0.000000000000 Eh    ::
         :: total charge               0.000000000002 e     ::
         :::::::::::::::::::::::::::::::::::::::::::::::::::::

           -------------------------------------------------
          |                Property Printout                |
           -------------------------------------------------

    * Orbital Energies and Occupations

         #    Occupation            Energy/Eh            Energy/eV
      -------------------------------------------------------------
         1        2.0000           -1.0824377             -29.4546
       ...           ...                  ...                  ...
       182        2.0000           -0.2961610              -8.0589
       183        2.0000           -0.2916874              -7.9372
       184        2.0000           -0.2906147              -7.9080
       185        2.0000           -0.2872179              -7.8156
       186        2.0000           -0.2858818              -7.7792
       187        2.0000           -0.2820825              -7.6759
       188        2.0000           -0.2798744              -7.6158
       189        2.0000           -0.2771309              -7.5411
       190        2.0000           -0.2758658              -7.5067
       191        2.0000           -0.2735772              -7.4444
       192        2.0000           -0.2681558              -7.2969
       193        2.0000           -0.2634054              -7.1676
       194        1.4782           -0.2381130              -6.4794 (HOMO)
       195        0.5072           -0.2360983              -6.4246 (LUMO)
       196        0.0146           -0.2324580              -6.3255
       197        0.0000           -0.2226168              -6.0577
       198                         -0.2207399              -6.0066
       199                         -0.2182858              -5.9399
       200                         -0.2042304              -5.5574
       201                         -0.1999051              -5.4397
       202                         -0.1991185              -5.4183
       203                         -0.1922730              -5.2320
       204                         -0.1874426              -5.1006
       205                         -0.1834332              -4.9915
       ...                                ...                  ...
       375                         23.5229227             640.0913
      -------------------------------------------------------------
                  HL-Gap            0.0020147 Eh            0.0548 eV
             Fermi-level           -0.2371238 Eh           -6.4525 eV

     #   Z          covCN         q      C6AA      α(0)
     1   7 N        5.303    -0.547    34.797     8.761
     2   6 C        7.694     0.442    14.350     5.380
     3   6 C        7.358     0.069    19.345     6.246
     4   6 C        6.746     0.147    18.138     6.048
     5   6 C        6.951     0.183    17.614     5.960
     6   6 C        6.968     0.315    15.851     5.654
     7   6 C        7.461    -0.014    20.740     6.468
     8   7 N        3.239    -0.572    35.621     8.864
     9   8 O        2.983    -0.608    25.288     6.792
    10   6 C        7.319     0.108    18.728     6.146
    11   8 O        4.818     0.187    12.263     4.730
    12  78 Pt       7.511    -0.613   432.827    36.475
    13   8 O        3.590    -0.325    19.401     5.949
    14   6 C        7.473     0.089    19.023     6.194
    15   8 O        3.410    -0.185    17.073     5.581
    16   6 C        7.388     0.062    19.465     6.266
    17   8 O        3.437    -0.135    16.314     5.455
    18   1 H        0.859     0.137     1.491     1.913
    19   1 H        1.826     0.247     0.882     1.466
    20   1 H        2.028     0.405     0.464     1.063
    21   1 H        1.403    -0.010     3.225     2.803
    22   1 H        1.890     0.142     1.439     1.873
    23   1 H        0.976    -0.003     3.097     2.750
    24   1 H        1.877     0.090     1.863     2.131
    25   1 H        1.719     0.105     1.730     2.054
    26   1 H        2.662     0.285     0.750     1.352
    27   1 H        1.780     0.409     0.457     1.056
    28   1 H        1.284    -0.438    69.293    12.996
    29   1 H        2.386     0.380     0.511     1.116
    30   1 H        0.857     0.124     1.593     1.977
    31   1 H        0.858     0.037     2.509     2.481
    32   5 B        2.781     0.068    20.330     7.539
    33   7 N        2.774    -0.236    26.154     7.596
    34   5 B        2.788     0.078    20.154     7.505
    35   7 N        2.524    -0.323    28.358     7.908
    36   5 B        2.779     0.071    20.287     7.531
    37   7 N        2.655    -0.284    27.322     7.763
    38   5 B        2.849     0.233    17.778     7.040
    39   7 N        2.529    -0.277    27.185     7.743
    40   5 B        3.195     0.132    19.198     7.307
    41   7 N        2.979    -0.122    23.651     7.223
    42   5 B        2.644     0.368    16.380     6.825
    43   7 N        2.669    -0.219    25.785     7.542
    44   5 B        3.181     0.007    21.259     7.690
    45   7 N        2.888    -0.220    25.783     7.541
    46   5 B        3.009     0.208    18.089     7.095
    47   7 N        2.660    -0.171    24.709     7.383
    48   5 B        2.906     0.314    16.686     6.817
    49   7 N        3.156    -0.102    23.233     7.159
    50   5 B        2.779     0.086    20.044     7.486
    51   7 N        3.037    -0.142    24.063     7.286
    52   5 B        2.758     0.078    20.194     7.519
    53   7 N        2.634    -0.322    28.289     7.899
    54   5 B        3.040     0.215    17.995     7.076
    55   7 N        2.981    -0.017    21.569     6.898
    56   5 B        2.582     0.324    17.325     7.091
    57   7 N        2.596    -0.372    29.603     8.081
    58   5 B        3.287     0.340    16.334     6.740
    59   7 N        2.784    -0.259    26.699     7.674
    60   5 B        2.559     0.319    17.604     7.187
    61   7 N        2.579    -0.381    29.863     8.116
    62   5 B        2.530     0.303    18.200     7.372
    63   7 N        2.665    -0.209    25.555     7.508
    64   5 B        2.698     0.191    18.581     7.234
    65   7 N        2.844    -0.177    24.814     7.398
    66   5 B        2.758     0.077    20.216     7.523
    67   7 N        2.672    -0.177    24.837     7.402
    68   5 B        2.877     0.101    19.726     7.414
    69   7 N        2.663    -0.153    24.315     7.323
    70   5 B        2.594     0.310    17.411     7.090
    71   7 N        2.519    -0.358    29.272     8.035
    72   5 B        2.684     0.180    18.782     7.280
    73   7 N        3.008    -0.125    23.698     7.230
    74   5 B        2.677     0.210    18.368     7.203
    75   7 N        2.716    -0.262    26.780     7.686
    76   5 B        2.647     0.160    19.221     7.391
    77   7 N        2.825    -0.218    25.746     7.536
    78   5 B        3.321     0.223    17.882     7.052
    79   7 N        2.531    -0.289    27.487     7.786
    80   5 B        2.950     0.027    20.926     7.632
    81   7 N        2.783    -0.198    25.282     7.468
    82   5 B        2.796     0.072    20.249     7.521
    83   7 N        2.673    -0.165    24.582     7.364
    84   5 B        3.021     0.208    18.090     7.095
    85   7 N        3.272     0.009    21.095     6.822
    86   5 B        2.869     0.305    16.814     6.845
    87   7 N        3.154    -0.117    23.548     7.207
    88   5 B        3.263     0.320    16.582     6.791
    89   7 N        2.833    -0.072    22.629     7.065
    90   5 B        3.303     0.227    17.819     7.039
    91   7 N        2.656    -0.190    25.126     7.445
    92   5 B        2.838     0.107    19.654     7.403
    93   7 N        2.834    -0.224    25.894     7.558
    94   5 B        2.863     0.249    17.546     6.993
    95   7 N        2.654    -0.237    26.206     7.603
    96   5 B        3.011     0.104    19.645     7.393
    97   7 N        3.153    -0.092    23.020     7.126
    98   5 B        2.674     0.196    18.579     7.247
    99   7 N        2.696    -0.240    26.263     7.611
   100   5 B        2.585     0.372    16.691     6.956
   101   7 N        2.881    -0.192    25.146     7.448
   102   5 B        2.825     0.098    19.806     7.434
   103   7 N        2.827    -0.258    26.684     7.672

 Mol. C6AA /au·bohr⁶  :     203702.833785
 Mol. C8AA /au·bohr⁸  :    6133159.252406
 Mol. α(0) /au        :        704.459747


Wiberg/Mayer (AO) data.
largest (>0.10) Wiberg bond orders for each atom

 ---------------------------------------------------------------------------
     #   Z sym  total        # sym  WBO       # sym  WBO       # sym  WBO
 ---------------------------------------------------------------------------
     1   7 N    2.746 --    18 H    0.909    19 H    0.582    12 Pt   0.403
                             2 C    0.246    10 C    0.105
     2   6 C    3.844 --    11 O    1.756    10 C    1.450     1 N    0.246
     3   6 C    3.711 --    21 H    0.764    13 O    0.607    22 H    0.514
                            12 Pt   0.403     4 C    0.390    11 O    0.386
     4   6 C    3.679 --    23 H    0.782    24 H    0.584    13 O    0.527
                            12 Pt   0.406    14 C    0.397     3 C    0.390
                             5 C    0.282    15 O    0.111
     5   6 C    3.812 --    14 C    1.366    15 O    1.149     6 C    0.363
                            25 H    0.355     4 C    0.282
     6   6 C    3.891 --    16 C    1.450    17 O    1.143    28 H    0.497
                             5 C    0.363
     7   6 C    3.766 --    16 C    1.256    10 C    1.016     8 N    0.658
                            29 H    0.273
     8   7 N    2.855 --    30 H    0.962    31 H    0.938     7 C    0.658
     9   8 O    1.699 --    10 C    0.789    29 H    0.474
    10   6 C    3.869 --     2 C    1.450     7 C    1.016     9 O    0.789
                            16 C    0.145     1 N    0.105
    11   8 O    2.882 --     2 C    1.756     3 C    0.386    20 H    0.349
    12  78 Pt   2.875 --     4 C    0.406     3 C    0.403     1 N    0.403
                            22 H    0.370    19 H    0.309    24 H    0.303
                            13 O    0.112
    13   8 O    2.195 --     3 C    0.607     4 C    0.527    14 C    0.510
                            12 Pt   0.112
    14   6 C    3.705 --     5 C    1.366    13 O    0.510     4 C    0.397
                            16 C    0.343    26 H    0.274    15 O    0.233
                            25 H    0.168
    15   8 O    2.385 --     5 C    1.149    26 H    0.380    14 C    0.233
                            25 H    0.181     4 C    0.111
    16   6 C    3.815 --     6 C    1.450     7 C    1.256    14 C    0.343
                            17 O    0.169    10 C    0.145
    17   8 O    2.398 --     6 C    1.143    27 H    0.739    16 C    0.169
    18   1 H    0.981 --     1 N    0.909
    19   1 H    0.935 --     1 N    0.582    12 Pt   0.309
    20   1 H    0.835 --    11 O    0.349
    21   1 H    0.990 --     3 C    0.764
    22   1 H    0.974 --     3 C    0.514    12 Pt   0.370
    23   1 H    0.996 --     4 C    0.782
    24   1 H    0.991 --     4 C    0.584    12 Pt   0.303
    25   1 H    0.973 --     5 C    0.355    15 O    0.181    14 C    0.168
                            26 H    0.160
    26   1 H    0.918 --    15 O    0.380    14 C    0.274    25 H    0.160
    27   1 H    0.833 --    17 O    0.739
    28   1 H    0.782 --     6 C    0.497
    29   1 H    0.844 --     9 O    0.474     7 C    0.273
    30   1 H    0.982 --     8 N    0.962
    31   1 H    0.997 --     8 N    0.938
    32   5 B    3.480 --   101 N    1.277    84 B    1.002    78 B    0.969
    33   7 N    3.392 --    78 B    1.153    91 N    1.007    90 B    0.985
    34   5 B    3.456 --    79 N    1.271   102 B    0.988    90 B    0.967
    35   7 N    3.521 --    92 B    1.153    94 B    1.133    62 B    1.030
    36   5 B    3.471 --    69 N    1.240    98 B    0.996    72 B    0.992
    37   7 N    3.251 --    58 B    1.199   100 B    0.959    95 N    0.887
    38   5 B    3.398 --    71 N    1.179    45 N    1.023    54 B    0.965
    39   7 N    3.565 --    52 B    1.283    40 B    1.141    96 B    0.981
    40   5 B    3.323 --    39 N    1.141    82 B    0.935    80 B    0.636
                            44 B    0.283
    41   7 N    3.298 --    46 B    1.090    85 N    1.043    97 N    0.945
    42   5 B    3.429 --    43 N    1.198    53 N    1.114    81 N    0.957
    43   7 N    3.439 --    42 B    1.198    70 B    1.083    83 N    0.962
    44   5 B    3.451 --    80 B    1.289    96 B    1.012    94 B    0.637
                            40 B    0.283
    45   7 N    3.429 --    48 B    1.245    38 B    1.023    59 N    0.931
    46   5 B    3.368 --    41 N    1.090    65 N    1.050    92 B    1.003
    47   7 N    3.484 --    50 B    1.178    70 B    1.136    67 N    0.996
    48   5 B    3.516 --    45 N    1.245    73 N    1.056    93 N    1.007
    49   7 N    3.334 --    98 B    1.139   101 N    0.984    51 N    0.980
    50   5 B    3.383 --    47 N    1.178    68 B    1.009    82 B    0.936
    51   7 N    3.303 --    86 B    1.121    49 N    0.980    55 N    0.970
    52   5 B    3.448 --    39 N    1.283    66 B    0.981    76 B    0.935
    53   7 N    3.207 --    42 B    1.114    56 B    1.074    81 N    0.787
    54   5 B    3.356 --    67 N    1.170    59 N    0.976    38 B    0.965
    55   7 N    3.089 --    73 N    1.013    51 N    0.970    99 N    0.936
    56   5 B    3.508 --    93 N    1.235    53 N    1.074    71 N    0.994
    57   7 N    3.423 --    62 B    1.202    90 B    1.045    78 B    0.934
    58   5 B    3.479 --    37 N    1.199    75 N    1.035    61 N    0.988
    59   7 N    3.278 --    64 B    1.180    54 B    0.976    45 N    0.931
    60   5 B    3.524 --    95 N    1.213    99 N    1.111    87 N    1.041
    61   7 N    3.417 --    74 B    1.199    88 B    0.994    58 B    0.988
    62   5 B    3.516 --    57 N    1.202   103 N    1.084    35 N    1.030
    63   7 N    3.449 --   100 B    1.273    74 B    1.000    89 N    0.988
    64   5 B    3.423 --    59 N    1.180    91 N    1.100   102 B    0.922
    65   7 N    3.447 --    66 B    1.237    46 B    1.050    97 N    0.979
    66   5 B    3.393 --    65 N    1.237    52 B    0.981    74 B    0.958
    67   7 N    3.505 --    54 B    1.170   102 B    1.155    47 N    0.996
    68   5 B    3.330 --    50 B    1.009    80 B    1.004    79 N    0.960
    69   7 N    3.505 --    36 B    1.240    72 B    1.088    75 N    1.036
    70   5 B    3.511 --    47 N    1.136    71 N    1.094    43 N    1.083
    71   7 N    3.474 --    38 B    1.179    70 B    1.094    56 B    0.994
    72   5 B    3.467 --    77 N    1.183    69 N    1.088    36 B    0.992
    73   7 N    3.261 --    48 B    1.056    55 N    1.013    87 N    0.975
    74   5 B    3.372 --    61 N    1.199    63 N    1.000    66 B    0.958
    75   7 N    3.358 --    69 N    1.036    58 B    1.035    88 B    0.974
    76   5 B    3.425 --    89 N    1.157    83 N    1.098    52 B    0.935
    77   7 N    3.400 --    72 B    1.183    84 B    1.062    85 N    0.959
    78   5 B    3.374 --    33 N    1.153    32 B    0.969    57 N    0.934
                            90 B    0.121
    79   7 N    3.553 --    34 B    1.271    94 B    1.109    68 B    0.960
    80   5 B    3.353 --    44 B    1.289    68 B    1.004    40 B    0.636
                            94 B    0.182
    81   7 N    2.971 --    89 N    1.047    42 B    0.957    53 N    0.787
    82   5 B    3.400 --    83 N    1.226    50 B    0.936    40 B    0.935
    83   7 N    3.451 --    82 B    1.226    76 B    1.098    43 N    0.962
    84   5 B    3.444 --   103 N    1.142    77 N    1.062    32 B    1.002
    85   7 N    3.181 --    41 N    1.043    77 N    0.959   103 N    0.950
    86   5 B    3.522 --    91 N    1.178    51 N    1.121   101 N    0.993
    87   7 N    3.220 --    60 B    1.041    93 N    0.982    73 N    0.975
    88   5 B    3.507 --    97 N    1.274    61 N    0.994    75 N    0.974
    89   7 N    3.399 --    76 B    1.157    81 N    1.047    63 N    0.988
    90   5 B    3.298 --    57 N    1.045    33 N    0.985    34 B    0.967
                            78 B    0.121
    91   7 N    3.482 --    86 B    1.178    64 B    1.100    33 N    1.007
    92   5 B    3.386 --    35 N    1.153    46 B    1.003    96 B    1.002
    93   7 N    3.437 --    56 B    1.235    48 B    1.007    87 N    0.982
    94   5 B    3.428 --    35 N    1.133    79 N    1.109    44 B    0.637
                            80 B    0.182    96 B    0.126
    95   7 N    3.327 --    60 B    1.213   100 B    1.027    37 N    0.887
    96   5 B    3.336 --    44 B    1.012    92 B    1.002    39 N    0.981
                            94 B    0.126
    97   7 N    3.441 --    88 B    1.274    65 N    0.979    41 N    0.945
    98   5 B    3.453 --    49 N    1.139    99 N    1.119    36 B    0.996
    99   7 N    3.386 --    98 B    1.119    60 B    1.111    55 N    0.936
   100   5 B    3.439 --    63 N    1.273    95 N    1.027    37 N    0.959
   101   7 N    3.460 --    32 B    1.277    86 B    0.993    49 N    0.984
   102   5 B    3.344 --    67 N    1.155    34 B    0.988    64 B    0.922
   103   7 N    3.414 --    84 B    1.142    62 B    1.084    85 N    0.950
 ---------------------------------------------------------------------------

Topologies differ in total number of bonds
Writing topology from bond orders to xtbtopo.mol

molecular dipole:
                 x           y           z       tot (Debye)
 q only:        3.398       0.985       6.597
   full:        3.128      -2.344      10.835      29.276
molecular quadrupole (traceless):
                xx          xy          yy          xz          yz          zz
 q only:     -113.541     -13.777     -98.730      42.450     -32.689     212.271
  q+dip:     -125.890     -11.441    -129.131      78.007     -66.994     255.022
   full:     -119.918     -11.925    -130.008      82.314     -68.029     249.926


           -------------------------------------------------
          | TOTAL ENERGY             -192.616763060783 Eh   |
          | GRADIENT NORM              14.995742595870 Eh/α |
          | HOMO-LUMO GAP               0.054823844321 eV   |
           -------------------------------------------------

------------------------------------------------------------------------
 * finished run on 2026/08/31 at 22:21:37.587     
------------------------------------------------------------------------
 total:
 * wall-time:     0 d,  0 h,  0 min,  2.118 sec
 *  cpu-time:     0 d,  0 h,  0 min, 18.656 sec
 * ratio c/w:     8.808 speedup
 SCF:
 * wall-time:     0 d,  0 h,  0 min,  2.064 sec
 *  cpu-time:     0 d,  0 h,  0 min, 18.172 sec
 * ratio c/w:     8.804 speedup

normal termination of xtb
