31
Oxaliplatin - ETKDG+MMFF conformer
N     -1.846671      0.679497     -0.940375
C     -1.146669      0.469226      0.308886
C     -0.049564      1.487818      0.398223
C      1.059462      1.126202     -0.557773
C      1.613902     -0.247308     -0.280490
C      0.503799     -1.235343     -0.506576
C     -0.669161     -0.952067      0.400038
N     -0.401961     -1.300101      1.773993
O     -2.291724     -0.938881     -0.055530
C     -1.248576     -0.283006      0.137600
O     -1.247670      1.070501      0.576064
Pt     -0.416943      2.054080     -1.065106
O      1.259022      1.340299      0.674420
C      1.215888      0.059288      0.228846
O      2.378634     -0.482191      0.019655
C      0.103856     -0.808470     -0.053865
O      0.247512     -2.011619     -0.462084
H     -1.597462     -0.040789     -1.655970
H     -1.700310      1.649771     -1.288851
H     -1.856655      0.649507      1.127582
H      0.320935      1.668177      1.414309
H     -0.478867      2.455779      0.044681
H      1.888166      1.846270     -0.535875
H      0.667630      1.114567     -1.589856
H      2.423591     -0.440410     -1.000421
H      1.942028     -0.290387      0.771640
H      0.880468     -2.242984     -0.281330
H      0.125593     -1.180966     -1.540906
H     -1.504623     -1.600825      0.034223
H     -0.800149     -2.238037      2.016119
H      0.626519     -1.377595      1.888729
