136
Drug@B36N36 non-overlapping complex
C      8.911366      3.699086     11.512532
S      9.526530      2.974039     10.010447
O      9.637378      4.044374      9.037304
O     10.679693      2.163128     10.349837
C      8.206253      1.897995      9.476112
C      8.092226      0.656587     10.347941
N      6.956050     -0.162106      9.914334
C      6.889400     -1.415562     10.671352
C      5.669130     -2.173226     10.286558
C      5.417341     -3.153899      9.358742
C      4.038741     -3.453285      9.472026
C      3.493989     -2.643348     10.466452
C      2.163031     -2.538086     10.967592
C      1.191753     -3.412331     10.646220
C     -0.143620     -3.407623     11.219640
C     -1.030719     -2.383599     11.168056
N     -2.247329     -2.552586     11.816425
C     -3.421777     -1.781643     11.773163
C     -3.680626     -0.801336     10.811984
C     -4.857127     -0.036650     10.836520
C     -5.807482     -0.230205     11.838725
O     -6.982161      0.463744     11.948203
C     -7.261642      1.462036     10.972715
C     -8.606386      2.061837     11.304838
C     -8.657632      3.193107     12.143176
C     -9.878224      3.770755     12.500629
C    -11.067745      3.220876     12.033021
C    -11.030052      2.094097     11.217290
F    -12.193530      1.583096     10.785474
C     -9.814957      1.506083     10.853075
Cl     -9.848840      0.100251      9.847232
C     -5.553450     -1.203736     12.813571
Cl     -6.673353     -1.503464     14.099409
C     -4.378050     -1.964402     12.781445
N     -0.714298     -1.268567     10.429482
C      0.195852     -0.452116     10.856685
N      0.956373     -0.573362     11.988157
C      1.871490     -1.489397     11.991360
O      4.524156     -1.859643     10.950963
H      8.791285      2.921573     12.267680
H      7.959414      4.190274     11.303402
H      9.641677      4.435441     11.855253
H      7.285212      2.490473      9.479045
H      8.429825      1.622009      8.439469
H      9.018287      0.074362     10.272856
H      7.963410      0.937516     11.398728
H      6.077626      0.338363     10.058112
H      6.863165     -1.215395     11.749412
H      7.775372     -2.027323     10.465240
H      6.136062     -3.588720      8.677880
H      3.497353     -4.177697      8.878948
H      1.379004     -4.238821      9.966334
H     -0.414555     -4.333165     11.721239
H     -2.306462     -3.374589     12.403029
H     -2.979379     -0.626646     10.000694
H     -4.988258      0.696986     10.048184
H     -7.266741      1.043448      9.959895
H     -6.496920      2.248959     11.007698
H     -7.736988      3.625581     12.533242
H     -9.898759      4.643313     13.149447
H    -12.025290      3.655025     12.303204
H     -4.207960     -2.701750     13.561649
H      0.387455      0.450604     10.251155
H      2.544412     -1.520717     12.866636
B      3.459180     -1.454569      1.628037
N      3.456400      1.129904      0.940040
B      2.539920      2.362499     -1.261047
N      2.293067     -0.641637     -2.730603
B      0.690534     -3.561069      2.702709
N     -2.939724     -2.654773      1.709476
B     -1.038202      4.085096      1.831238
N     -0.619347      0.017651     -3.941904
B     -0.473710      1.445324     -4.091730
N      1.209559     -3.786796     -1.739405
B     -3.844500      2.209440     -0.493722
N     -2.772864      2.763562     -1.211833
B      1.405725      0.818091     -4.889311
N     -0.235789      3.364215      2.833544
B      0.898320     -2.879798     -2.813849
N     -0.491833      3.766578     -1.010119
B     -0.805996      2.182269      3.281874
N      1.656110     -1.274433      3.503622
B     -0.248484      3.469937     -2.379863
N      1.308703      0.068898      3.816981
B     -1.597441     -0.559934     -3.084689
N     -3.832496      1.776842      0.831624
B      0.337602      4.495994      1.183894
N      0.043256     -0.013955      4.456653
B     -2.708837      2.226751      1.601242
N      3.772728     -0.132624     -0.765541
B     -2.253381     -3.639412      1.008482
N      1.055818      3.733398      2.235734
B     -1.825620     -0.777460      3.219840
N     -2.436768     -3.601880     -0.450773
B      3.018658     -1.073670     -1.502768
N     -3.157960     -1.252592     -0.384321
B      2.034656      2.922326      1.561722
N     -0.507447     -2.900148     -2.432795
B     -1.673548     -2.112882     -2.491621
N      0.590135      3.964583     -0.110225
B      1.090314      2.959649     -3.182489
N      0.077350     -4.359230      1.721289
B     -1.784034      3.452384     -0.408220
N     -2.013520      3.418515      1.031553
B      1.465878     -4.212148      1.499138
N     -0.797987      1.064153      4.194581
B     -2.666242     -2.402096     -1.175256
N     -1.074388     -4.484335      0.991235
B     -2.503710      0.491370     -2.109143
N      2.352728     -3.887335      0.453103
B      3.912327     -0.202357      0.725926
N      1.928548      1.957009     -2.465077
B      1.001184      2.254351     -4.622507
N     -4.186016      0.829005     -0.347538
B     -1.338881      2.453658     -3.114870
N     -2.359649      1.932605     -2.305841
B      3.073063     -2.645483      0.601111
N      2.335213     -3.673670     -0.970876
B      2.217863      0.545803      2.808407
N     -2.026423      0.611912      3.601492
B     -1.101749     -4.183787     -0.441007
N     -3.218144      0.041654     -0.958566
B      3.447752      1.258593     -0.514065
N      2.582085      1.632977      1.936454
B      1.472054     -1.555001     -3.515610
N     -2.102601      1.754194      2.760799
B      2.040765      0.711921     -3.211483
N     -2.720915     -1.341699      2.320567
B      0.658648     -0.538875     -4.486937
N     -0.168664     -3.759421     -1.356472
B      0.485560     -2.105634      3.433764
N     -0.587253     -1.205033      3.824488
B     -3.224373     -1.451411      1.000320
N      2.671324     -0.855529      2.621135
B      1.878557      3.339348     -0.106427
N      2.876911     -2.331783     -0.793563
