127
Olaparib/B36N36 GFN2 opt
C       0.61778314      7.72963376     13.02228925
C       0.40307291      6.72905554     14.11057719
C       0.92495933      6.28444234     12.76949594
C       0.00073699      5.52798950     11.86011107
O      -0.76808931      6.08341093     11.09837150
N       0.05509588      4.17357388     11.94730573
C      -0.69634335      3.35908943     11.01733566
C       0.26272347      2.50983741     10.17153731
N       1.12123383      1.74183420     11.04328886
C       1.86135792      2.55217045     11.98664113
C       0.88985266      3.38972008     12.82538866
C       1.12240093      0.39747442     11.18262558
O       1.70954536     -0.16908272     12.08624125
C       0.39213955     -0.39282365     10.13966996
C       0.73902804     -0.33535310      8.79396480
C       0.14556535     -1.15125486      7.85136056
C      -0.82075049     -2.05209082      8.26340664
C      -1.18062096     -2.15165994      9.60250439
C      -0.56376761     -1.32110060     10.52869562
C      -2.21402251     -3.14962499     10.05496900
C      -1.83009219     -3.82529864     11.34057199
N      -2.63613396     -3.65926117     12.33303111
N      -2.36646700     -4.23092632     13.50777224
C      -1.27824435     -5.01123462     13.82753891
O      -1.15832464     -5.47813042     14.94272193
C      -0.34645356     -5.19449121     12.70954001
C       0.80930420     -5.95281256     12.89426938
C       1.68903977     -6.13262879     11.85092996
C       1.42018168     -5.56061120     10.60961085
C       0.28277702     -4.81078402     10.41050167
C      -0.62164493     -4.60803526     11.45958544
F       1.68847637      0.54020009      8.39270485
H      -0.25141675      8.13051084     12.52446565
H       1.44185761      8.42097656     13.10622232
H      -0.61165877      6.46368656     14.36589363
H       1.08286134      6.71601983     14.95003954
H       1.96618462      5.99418826     12.70251952
H      -1.27922027      4.02798914     10.38252953
H      -1.37336739      2.70214829     11.57614303
H       0.88278043      3.16601250      9.55087211
H      -0.31249192      1.85096833      9.52267684
H       2.53732177      3.21111751     11.43105341
H       2.44015521      1.87945500     12.62156084
H       0.24901843      2.71351726     13.40510584
H       1.43109238      4.02865516     13.51909815
H       0.44098023     -1.08038607      6.81735432
H      -1.28785054     -2.68834724      7.52621317
H      -0.81883801     -1.39234586     11.57528612
H      -2.36711899     -3.90094745      9.27719426
H      -3.16541222     -2.64090319     10.22886048
H      -3.05389031     -4.05663905     14.23319903
H       0.98452767     -6.38265768     13.86858115
H       2.58680356     -6.71526620     11.99147069
H       2.11259855     -5.70512729      9.79355031
H       0.09306146     -4.37118632      9.44466486
B       0.60233334     -4.16667191     -0.41920419
N       0.66630654     -4.38913862      1.01788306
B      -0.76406026     -4.18853914      0.84252759
N      -0.83157574     -4.33304393     -0.60292914
N      -4.29536195     -0.80571579     -0.64698820
B      -4.16800810     -0.72237515      0.79945208
N      -4.34354243      0.71340832      0.95415505
B      -4.10498049      0.62726936     -0.47897054
B      -1.45477171     -3.23305345     -1.25837398
N      -2.57296294     -2.57837253     -0.59399580
B      -3.19887945     -1.45685684     -1.28045430
N      -2.48732301     -0.74472615     -2.33149125
B      -1.37048431     -1.42717639     -2.96922122
N      -0.71647331     -2.54813915     -2.30900139
N       0.90839698      0.79890086     -3.89814020
B       0.76654942     -0.64231156     -3.75834500
N      -0.66432757     -0.74677224     -4.00111660
B      -0.53688158      0.68504384     -3.77500584
B      -2.61864915     -0.82942593      2.67024173
N      -3.28139605     -1.50880136      1.57299141
B      -2.56287484     -2.54993773      0.85957589
N      -1.54374824     -3.27828603      1.59513642
B      -0.86677962     -2.61289713      2.69198149
N      -1.59924612     -1.57182207      3.39231490
N       0.55712580     -0.98670349      4.60156221
B       0.45358626      0.46024713      4.44979010
N      -0.98983932      0.58924394      4.58417478
B      -0.87203538     -0.84135687      4.35805874
N      -1.32382362      1.42475564     -2.86113319
B      -2.41077778      0.70429214     -2.22353190
N      -3.14490063      1.39507534     -1.17842253
B      -2.46585821      2.42411298     -0.41163022
N      -1.37849304      3.13136799     -1.06298320
B      -0.63065456      2.45383651     -2.10700853
B       2.42779679     -2.55939522     -0.34955482
N       1.39636669     -3.22965885     -1.12061238
B       0.73212675     -2.49635857     -2.18359165
N       1.48039643     -1.43094450     -2.82542863
B       2.51228156     -0.74675288     -2.06700778
N       3.16304357     -1.49352271     -1.00513885
N      -2.58946759      2.45291710      1.03804008
B      -3.28863548      1.34513478      1.67150060
N      -2.67552806      0.61987135      2.77638525
B      -1.60032726      1.28380704      3.49896687
N      -0.87494474      2.38965616      2.89389111
B      -1.51538471      3.08821956      1.78778646
B       0.61857734      3.98220481      1.11333638
N       0.79935279      4.20133721     -0.31346956
B      -0.64406878      4.02872277     -0.25242768
N      -0.82191973      4.17451264      1.18432319
N       2.59390574      0.70537980     -2.09231584
B       1.52958497      1.42303908     -2.77933303
N       0.82303195      2.50873426     -2.11487920
B       1.47471374      3.13632255     -0.97428003
N       2.53807888      2.44488749     -0.25938399
B       3.21878372      1.36029414     -0.95208925
B       1.25339039     -1.62197449      3.53122313
N       0.58036881     -2.69713992      2.81808778
B       1.30784043     -3.33609664      1.72926931
N       2.43633649     -2.66535047      1.10198423
B       3.08146953     -1.59272675      1.84548789
N       2.38095001     -0.92584233      2.93433832
N       1.33725859      3.03053281      1.87484017
B       0.57821803      2.31254332      2.88128395
N       1.25281341      1.23137660      3.57787532
B       2.33005177      0.52872677      2.90358285
N       3.07475345      1.26099576      1.89691880
B       2.41364271      2.34100197      1.18605994
N       4.18838878     -0.92731113      1.24806798
B       4.06335757     -0.76492704     -0.19256610
N       4.26297070      0.67411544     -0.26929716
B       4.02253819      0.51557147      1.15669240
