55
drug @complex
C       0.61778314      7.72963376     13.02228925
C       0.40307291      6.72905554     14.11057719
C       0.92495933      6.28444234     12.76949594
C       0.00073699      5.52798950     11.86011107
O      -0.76808931      6.08341093     11.09837150
N       0.05509588      4.17357388     11.94730573
C      -0.69634335      3.35908943     11.01733566
C       0.26272347      2.50983741     10.17153731
N       1.12123383      1.74183420     11.04328886
C       1.86135792      2.55217045     11.98664113
C       0.88985266      3.38972008     12.82538866
C       1.12240093      0.39747442     11.18262558
O       1.70954536     -0.16908272     12.08624125
C       0.39213955     -0.39282365     10.13966996
C       0.73902804     -0.33535310      8.79396480
C       0.14556535     -1.15125486      7.85136056
C      -0.82075049     -2.05209082      8.26340664
C      -1.18062096     -2.15165994      9.60250439
C      -0.56376761     -1.32110060     10.52869562
C      -2.21402251     -3.14962499     10.05496900
C      -1.83009219     -3.82529864     11.34057199
N      -2.63613396     -3.65926117     12.33303111
N      -2.36646700     -4.23092632     13.50777224
C      -1.27824435     -5.01123462     13.82753891
O      -1.15832464     -5.47813042     14.94272193
C      -0.34645356     -5.19449121     12.70954001
C       0.80930420     -5.95281256     12.89426938
C       1.68903977     -6.13262879     11.85092996
C       1.42018168     -5.56061120     10.60961085
C       0.28277702     -4.81078402     10.41050167
C      -0.62164493     -4.60803526     11.45958544
F       1.68847637      0.54020009      8.39270485
H      -0.25141675      8.13051084     12.52446565
H       1.44185761      8.42097656     13.10622232
H      -0.61165877      6.46368656     14.36589363
H       1.08286134      6.71601983     14.95003954
H       1.96618462      5.99418826     12.70251952
H      -1.27922027      4.02798914     10.38252953
H      -1.37336739      2.70214829     11.57614303
H       0.88278043      3.16601250      9.55087211
H      -0.31249192      1.85096833      9.52267684
H       2.53732177      3.21111751     11.43105341
H       2.44015521      1.87945500     12.62156084
H       0.24901843      2.71351726     13.40510584
H       1.43109238      4.02865516     13.51909815
H       0.44098023     -1.08038607      6.81735432
H      -1.28785054     -2.68834724      7.52621317
H      -0.81883801     -1.39234586     11.57528612
H      -2.36711899     -3.90094745      9.27719426
H      -3.16541222     -2.64090319     10.22886048
H      -3.05389031     -4.05663905     14.23319903
H       0.98452767     -6.38265768     13.86858115
H       2.58680356     -6.71526620     11.99147069
H       2.11259855     -5.70512729      9.79355031
H       0.09306146     -4.37118632      9.44466486
