72
carrier @complex
B       0.60233334     -4.16667191     -0.41920419
N       0.66630654     -4.38913862      1.01788306
B      -0.76406026     -4.18853914      0.84252759
N      -0.83157574     -4.33304393     -0.60292914
N      -4.29536195     -0.80571579     -0.64698820
B      -4.16800810     -0.72237515      0.79945208
N      -4.34354243      0.71340832      0.95415505
B      -4.10498049      0.62726936     -0.47897054
B      -1.45477171     -3.23305345     -1.25837398
N      -2.57296294     -2.57837253     -0.59399580
B      -3.19887945     -1.45685684     -1.28045430
N      -2.48732301     -0.74472615     -2.33149125
B      -1.37048431     -1.42717639     -2.96922122
N      -0.71647331     -2.54813915     -2.30900139
N       0.90839698      0.79890086     -3.89814020
B       0.76654942     -0.64231156     -3.75834500
N      -0.66432757     -0.74677224     -4.00111660
B      -0.53688158      0.68504384     -3.77500584
B      -2.61864915     -0.82942593      2.67024173
N      -3.28139605     -1.50880136      1.57299141
B      -2.56287484     -2.54993773      0.85957589
N      -1.54374824     -3.27828603      1.59513642
B      -0.86677962     -2.61289713      2.69198149
N      -1.59924612     -1.57182207      3.39231490
N       0.55712580     -0.98670349      4.60156221
B       0.45358626      0.46024713      4.44979010
N      -0.98983932      0.58924394      4.58417478
B      -0.87203538     -0.84135687      4.35805874
N      -1.32382362      1.42475564     -2.86113319
B      -2.41077778      0.70429214     -2.22353190
N      -3.14490063      1.39507534     -1.17842253
B      -2.46585821      2.42411298     -0.41163022
N      -1.37849304      3.13136799     -1.06298320
B      -0.63065456      2.45383651     -2.10700853
B       2.42779679     -2.55939522     -0.34955482
N       1.39636669     -3.22965885     -1.12061238
B       0.73212675     -2.49635857     -2.18359165
N       1.48039643     -1.43094450     -2.82542863
B       2.51228156     -0.74675288     -2.06700778
N       3.16304357     -1.49352271     -1.00513885
N      -2.58946759      2.45291710      1.03804008
B      -3.28863548      1.34513478      1.67150060
N      -2.67552806      0.61987135      2.77638525
B      -1.60032726      1.28380704      3.49896687
N      -0.87494474      2.38965616      2.89389111
B      -1.51538471      3.08821956      1.78778646
B       0.61857734      3.98220481      1.11333638
N       0.79935279      4.20133721     -0.31346956
B      -0.64406878      4.02872277     -0.25242768
N      -0.82191973      4.17451264      1.18432319
N       2.59390574      0.70537980     -2.09231584
B       1.52958497      1.42303908     -2.77933303
N       0.82303195      2.50873426     -2.11487920
B       1.47471374      3.13632255     -0.97428003
N       2.53807888      2.44488749     -0.25938399
B       3.21878372      1.36029414     -0.95208925
B       1.25339039     -1.62197449      3.53122313
N       0.58036881     -2.69713992      2.81808778
B       1.30784043     -3.33609664      1.72926931
N       2.43633649     -2.66535047      1.10198423
B       3.08146953     -1.59272675      1.84548789
N       2.38095001     -0.92584233      2.93433832
N       1.33725859      3.03053281      1.87484017
B       0.57821803      2.31254332      2.88128395
N       1.25281341      1.23137660      3.57787532
B       2.33005177      0.52872677      2.90358285
N       3.07475345      1.26099576      1.89691880
B       2.41364271      2.34100197      1.18605994
N       4.18838878     -0.92731113      1.24806798
B       4.06335757     -0.76492704     -0.19256610
N       4.26297070      0.67411544     -0.26929716
B       4.02253819      0.51557147      1.15669240
