      -----------------------------------------------------------      
     |                   =====================                   |     
     |                           x T B                           |     
     |                   =====================                   |     
     |                         S. Grimme                         |     
     |          Mulliken Center for Theoretical Chemistry        |     
     |                    University of Bonn                     |     
      -----------------------------------------------------------      

   * xtb version 6.7.1pre (5071a88) compiled by 'Marcel@Raven' on 2024-07-23

   xtb is free software: you can redistribute it and/or modify it under
   the terms of the GNU Lesser General Public License as published by
   the Free Software Foundation, either version 3 of the License, or
   (at your option) any later version.
   
   xtb is distributed in the hope that it will be useful,
   but WITHOUT ANY WARRANTY; without even the implied warranty of
   MERCHANTABILITY or FITNESS FOR A PARTICULAR PURPOSE.  See the
   GNU Lesser General Public License for more details.
   
   Cite this work as:
   * C. Bannwarth, E. Caldeweyher, S. Ehlert, A. Hansen, P. Pracht,
     J. Seibert, S. Spicher, S. Grimme, WIREs Comput. Mol. Sci., 2020, 11,
     e01493. DOI: 10.1002/wcms.1493
   
   for GFN2-xTB:
   * C. Bannwarth, S. Ehlert and S. Grimme., J. Chem. Theory Comput., 2019,
     15, 1652-1671. DOI: 10.1021/acs.jctc.8b01176
   for GFN1-xTB:
   * S. Grimme, C. Bannwarth, P. Shushkov, J. Chem. Theory Comput., 2017,
     13, 1989-2009. DOI: 10.1021/acs.jctc.7b00118
   for GFN0-xTB:
   * P. Pracht, E. Caldeweyher, S. Ehlert, S. Grimme, ChemRxiv, 2019, preprint.
     DOI: 10.26434/chemrxiv.8326202.v1
   for GFN-FF:
   * S. Spicher and S. Grimme, Angew. Chem. Int. Ed., 2020, 59, 15665-15673.
     DOI: 10.1002/anie.202004239
   
   for ALPB and GBSA implicit solvation:
   * S. Ehlert, M. Stahn, S. Spicher, S. Grimme, J. Chem. Theory Comput.,
     2021, 17, 4250-4261. DOI: 10.1021/acs.jctc.1c00471
   
   for ddCOSMO and CPCM-X implicit solvation:
   * M. Stahn, S. Ehlert, S. Grimme, J. Phys. Chem. A,
     2023, XX, XXXX-XXXX. DOI: 10.1021/acs.jpca.3c04382
   
   for DFT-D4:
   * E. Caldeweyher, C. Bannwarth and S. Grimme, J. Chem. Phys., 2017,
     147, 034112. DOI: 10.1063/1.4993215
   * E. Caldeweyher, S. Ehlert, A. Hansen, H. Neugebauer, S. Spicher,
     C. Bannwarth and S. Grimme, J. Chem. Phys., 2019, 150, 154122.
     DOI: 10.1063/1.5090222
   * E. Caldeweyher, J.-M. Mewes, S. Ehlert and S. Grimme, Phys. Chem. Chem. Phys.
     2020, 22, 8499-8512. DOI: 10.1039/D0CP00502A
   
   for sTDA-xTB:
   * S. Grimme and C. Bannwarth, J. Chem. Phys., 2016, 145, 054103.
     DOI: 10.1063/1.4959605
   
   in the mass-spec context:
   * V. Asgeirsson, C. Bauer and S. Grimme, Chem. Sci., 2017, 8, 4879.
     DOI: 10.1039/c7sc00601b
   * J. Koopman and S. Grimme, ACS Omega 2019, 4, 12, 15120-15133.
     DOI: 10.1021/acsomega.9b02011
   
   for metadynamics refer to:
   * S. Grimme, J. Chem. Theory Comput., 2019, 155, 2847-2862
     DOI: 10.1021/acs.jctc.9b00143
   
   for SPH calculations refer to:
   * S. Spicher and S. Grimme, J. Chem. Theory Comput., 2021, 17, 1701-1714
     DOI: 10.1021/acs.jctc.0c01306
   
   for ONIOM refer to:
   * C. Plett, A. Katbashev, S. Ehlert, S. Grimme, M. Bursch,
     Phys. Chem. Chem. Phys., 2023, 25, 17860-17868. DOI: 10.1039/D3CP02178E
   
   for DIPRO refer to:
   * J. Kohn, N. Gildemeister, S. Grimme, D. Fazzi, A. Hansen,
     J. Chem. Phys., 2023, just accepted.
   
   for PTB refer to:
   * S. Grimme, M. Mueller, A. Hansen, J. Chem. Phys., 2023, 158, 124111.
     DOI: 10.1063/5.0137838
   
   with help from (in alphabetical order)
   P. Atkinson, C. Bannwarth, F. Bohle, G. Brandenburg, E. Caldeweyher
   M. Checinski, S. Dohm, S. Ehlert, S. Ehrlich, I. Gerasimov, C. Hölzer
   A. Katbashev, J. Kohn, J. Koopman, C. Lavigne, S. Lehtola, F. März, M. Müller,
   F. Musil, H. Neugebauer, J. Pisarek, C. Plett, P. Pracht, F. Pultar,
   J. Seibert, P. Shushkov, S. Spicher, M. Stahn, M. Steiner, T. Strunk,
   J. Stückrath, T. Rose, and J. Unsleber
   
 * started run on 2026/08/31 at 18:25:02.268     
   ID    Z sym.   atoms
    1    8 O      1, 11, 27
    2    6 C      2-7, 10, 12-20, 23, 24, 26, 28-32
    3    7 N      8, 9, 22, 25, 92-127
    4    9 F      21
    5    1 H      33-55
    6    5 B      56-91

           -------------------------------------------------
          |                Calculation Setup                |
           -------------------------------------------------

          program call               : "c:\Users\Andre\Proyectos doctorado\kras-pancreatic-gC3N4-ai\tools\xtb\xtb-6.7.1\bin\xtb.exe" "c:\Users\Andre\Proyectos doctorado\nano-qsar-ai-therapeutics\calculations\tnbc\Olaparib\Olaparib_B36N36_complex.xyz" --gfn 2 --sp --chrg 0 --uhf 0 --iterations 500 --norestart
          coordinate file            : c:\Users\Andre\Proyectos doctorado\nano-qsar-ai-therapeutics\calculations\tnbc\Olaparib\Olaparib_B36N36_complex.xyz
          omp threads                :                    16


molecular fragmentation (1/2 indicates fragments):
111111111111111111111111111111111111111111111111111111111111111111111221
2121111111111111111111111111111112212121111111111111111
# atoms in fragment 1/2:   119     8
 fragment masses (1/2) :     1228.63       99.27
CMA distance (Bohr)    :   6.532
constraining FC (au)   :  0.0500

           -------------------------------------------------
          |                 G F N 2 - x T B                 |
           -------------------------------------------------

        Reference                      10.1021/acs.jctc.8b01176
      * Hamiltonian:
        H0-scaling (s, p, d)           1.850000    2.230000    2.230000
        zeta-weighting                 0.500000
      * Dispersion:
        s8                             2.700000
        a1                             0.520000
        a2                             5.000000
        s9                             5.000000
      * Repulsion:
        kExp                           1.500000    1.000000
        rExp                           1.000000
      * Coulomb:
        alpha                          2.000000
        third order                    shell-resolved
        anisotropic                    true
        a3                             3.000000
        a5                             4.000000
        cn-shift                       1.200000
        cn-exp                         4.000000
        max-rad                        5.000000


          ...................................................
          :                      SETUP                      :
          :.................................................:
          :  # basis functions                 439          :
          :  # atomic orbitals                 439          :
          :  # shells                          231          :
          :  # electrons                       452          :
          :  max. iterations                   500          :
          :  Hamiltonian                  GFN2-xTB          :
          :  restarted?                      false          :
          :  GBSA solvation                  false          :
          :  PC potential                    false          :
          :  electronic temp.          300.0000000     K    :
          :  accuracy                    1.0000000          :
          :  -> integral cutoff          0.2500000E+02      :
          :  -> integral neglect         0.1000000E-07      :
          :  -> SCF convergence          0.1000000E-05 Eh   :
          :  -> wf. convergence          0.1000000E-03 e    :
          :  Broyden damping             0.4000000          :
          :  net charge                          0          :
          :  unpaired electrons                  0          :
          ...................................................

 iter      E             dE          RMSdq      gap      omega  full diag
   1   -225.5733073 -0.225573E+03  0.137E+01    0.12       0.0  T
   2   -162.2471878  0.633261E+02  0.133E+01    0.17       1.0  T
   3     35.9828082  0.198230E+03  0.140E+01    0.07       1.0  T
   4    259.6727481  0.223690E+03  0.168E+01    0.18       1.0  T
   5   -208.9189108 -0.468592E+03  0.846E+00    0.08       1.0  T
   6   -231.1588883 -0.222400E+02  0.597E+00    0.12       1.0  T
   7   -228.0953280  0.306356E+01  0.501E+00    0.16       1.0  T
   8   -235.7495174 -0.765419E+01  0.394E+00    0.13       1.0  T
   9   -238.8232475 -0.307373E+01  0.312E+00    0.06       1.0  T
  10   -237.4407327  0.138251E+01  0.265E+00    0.03       1.0  T
  11   -239.8210102 -0.238028E+01  0.227E+00    0.12       1.0  T
  12   -239.8102551  0.107552E-01  0.192E+00    0.05       1.0  T
  13   -239.7969494  0.133056E-01  0.194E+00    0.16       1.0  T
  14   -240.0058409 -0.208891E+00  0.162E+00    0.08       1.0  T
  15   -239.5426979  0.463143E+00  0.162E+00    0.11       1.0  T
  16   -239.5472101 -0.451215E-02  0.159E+00    0.11       1.0  T
  17   -239.7441317 -0.196922E+00  0.141E+00    0.12       1.0  T
  18   -240.2022433 -0.458112E+00  0.902E-01    0.07       1.0  T
  19   -240.1483242  0.539191E-01  0.118E+00    0.07       1.0  T
  20   -240.3257262 -0.177402E+00  0.753E-01    0.09       1.0  T
  21   -240.3222363  0.348997E-02  0.729E-01    0.01       1.0  T
  22   -240.3434622 -0.212259E-01  0.585E-01    0.04       1.0  T
  23   -240.3659381 -0.224759E-01  0.412E-01    0.06       1.0  T
  24   -240.3708208 -0.488278E-02  0.300E-01    0.04       1.0  T
  25   -240.3859487 -0.151279E-01  0.197E-01    0.03       1.0  T
  26   -240.3915231 -0.557435E-02  0.984E-02    0.03       1.0  T
  27   -240.3912720  0.251004E-03  0.922E-02    0.03       1.0  T
  28   -240.3926869 -0.141484E-02  0.540E-02    0.03       1.0  T
  29   -240.3929654 -0.278512E-03  0.417E-02    0.03       1.0  T
  30   -240.3932025 -0.237104E-03  0.273E-02    0.03       1.0  T
  31   -240.3933228 -0.120328E-03  0.119E-02    0.03       1.0  T
  32   -240.3933540 -0.311233E-04  0.916E-03    0.03       1.0  T
  33   -240.3933409  0.130557E-04  0.108E-02    0.03       1.0  T
  34   -240.3933627 -0.217899E-04  0.669E-03    0.03       1.3  T
  35   -240.3933614  0.130635E-05  0.569E-03    0.03       1.6  T
  36   -240.3933689 -0.753376E-05  0.278E-03    0.03       3.2  T
  37   -240.3933685  0.406714E-06  0.310E-03    0.03       2.9  T
  38   -240.3933688 -0.242657E-06  0.250E-03    0.03       3.5  T
  39   -240.3933699 -0.117649E-05  0.125E-03    0.03       7.1  T
  40   -240.3933700 -0.313099E-07  0.106E-03    0.03       8.4  T
  41   -240.3933701 -0.170842E-06  0.500E-04    0.03      17.7  T
  42   -240.3933702 -0.377282E-07  0.244E-04    0.03      36.3  T

   *** convergence criteria satisfied after 42 iterations ***

         #    Occupation            Energy/Eh            Energy/eV
      -------------------------------------------------------------
         1        2.0000           -1.1352849             -30.8927
       ...           ...                  ...                  ...
       220        2.0000           -0.2197489              -5.9797
       221        2.0000           -0.2143329              -5.8323
       222        2.0000           -0.2073174              -5.6414
       223        2.0000           -0.1904511              -5.1824
       224        1.9999           -0.1872776              -5.0961
       225        1.9782           -0.1820625              -4.9542
       226        1.2271           -0.1782181              -4.8496 (HOMO)
       227        0.6726           -0.1771330              -4.8200 (LUMO)
       228        0.1127           -0.1751013              -4.7647
       229        0.0095           -0.1726997              -4.6994
       230        0.0000           -0.1665457              -4.5319
       231        0.0000           -0.1649650              -4.4889
       ...           ...                  ...                  ...
       439                         75.8692445            2064.5072
      -------------------------------------------------------------
                  HL-Gap            0.0010851 Eh            0.0295 eV
             Fermi-level           -0.1777789 Eh           -4.8376 eV

 SCC (total)                   0 d,  0 h,  0 min,  1.202 sec
 SCC setup                      ...        0 min,  0.000 sec (  0.000%)
 Dispersion                     ...        0 min,  0.005 sec (  0.416%)
 classical contributions        ...        0 min,  0.000 sec (  0.000%)
 integral evaluation            ...        0 min,  0.019 sec (  1.581%)
 iterations                     ...        0 min,  1.137 sec ( 94.592%)
 molecular gradient             ...        0 min,  0.038 sec (  3.161%)
 printout                       ...        0 min,  0.003 sec (  0.250%)

         :::::::::::::::::::::::::::::::::::::::::::::::::::::
         ::                     SUMMARY                     ::
         :::::::::::::::::::::::::::::::::::::::::::::::::::::
         :: total energy               7.789469337472 Eh    ::
         :: gradient norm            200.826915127135 Eh/a0 ::
         :: HOMO-LUMO gap              0.029527402437 eV    ::
         ::.................................................::
         :: SCC energy              -240.356585451587 Eh    ::
         :: -> isotropic ES            1.318839826585 Eh    ::
         :: -> anisotropic ES          0.211516302733 Eh    ::
         :: -> anisotropic XC          0.404350682799 Eh    ::
         :: -> dispersion             -0.378459382032 Eh    ::
         :: repulsion energy         248.146054789059 Eh    ::
         :: add. restraining           0.000000000000 Eh    ::
         :: total charge               0.000000000001 e     ::
         :::::::::::::::::::::::::::::::::::::::::::::::::::::

           -------------------------------------------------
          |                Property Printout                |
           -------------------------------------------------

    * Orbital Energies and Occupations

         #    Occupation            Energy/Eh            Energy/eV
      -------------------------------------------------------------
         1        2.0000           -1.1352849             -30.8927
       ...           ...                  ...                  ...
       214        2.0000           -0.2632384              -7.1631
       215        2.0000           -0.2519043              -6.8547
       216        2.0000           -0.2443013              -6.6478
       217        2.0000           -0.2417751              -6.5790
       218        2.0000           -0.2331072              -6.3432
       219        2.0000           -0.2253734              -6.1327
       220        2.0000           -0.2197489              -5.9797
       221        2.0000           -0.2143329              -5.8323
       222        2.0000           -0.2073174              -5.6414
       223        2.0000           -0.1904511              -5.1824
       224        1.9999           -0.1872776              -5.0961
       225        1.9782           -0.1820625              -4.9542
       226        1.2271           -0.1782181              -4.8496 (HOMO)
       227        0.6726           -0.1771330              -4.8200 (LUMO)
       228        0.1127           -0.1751013              -4.7647
       229        0.0095           -0.1726997              -4.6994
       230        0.0000           -0.1665457              -4.5319
       231        0.0000           -0.1649650              -4.4889
       232                         -0.1563364              -4.2541
       233                         -0.1517331              -4.1289
       234                         -0.1478912              -4.0243
       235                         -0.1379968              -3.7551
       236                         -0.1207852              -3.2867
       237                         -0.1141635              -3.1065
       ...                                ...                  ...
       439                         75.8692445            2064.5072
      -------------------------------------------------------------
                  HL-Gap            0.0010851 Eh            0.0295 eV
             Fermi-level           -0.1777789 Eh           -4.8376 eV

     #   Z          covCN         q      C6AA      α(0)
     1   8 O        0.859    -0.540    24.698     6.663
     2   6 C        2.764     0.161    24.499     8.106
     3   6 C        2.969    -0.112    30.841     9.109
     4   6 C        3.079    -0.305    36.431     9.895
     5   6 C        6.999    -0.235    25.083     7.113
     6   6 C        9.466     0.608    12.642     5.050
     7   6 C        7.733    -0.235    25.083     7.113
     8   7 N        5.546     0.283    16.729     6.075
     9   7 N        4.682    -0.190    25.107     7.442
    10   6 C        3.522     0.173    18.979     6.419
    11   8 O        0.858    -0.597    26.047     6.843
    12   6 C        3.251    -0.085    29.001     8.716
    13   6 C        2.915    -0.067    29.675     8.933
    14   6 C        2.911    -0.077    29.929     8.971
    15   6 C        2.947    -0.085    30.122     9.002
    16   6 C        4.973    -0.223    24.825     7.076
    17   6 C        3.121    -0.228    33.885     9.533
    18   6 C        5.524    -0.182    23.952     6.950
    19   6 C        5.974    -0.277    26.052     7.249
    20   6 C        3.626     0.026    20.554     6.532
    21   9 F        2.224    -0.189    11.111     3.939
    22   7 N        2.755    -0.254    26.598     7.660
    23   6 C        7.746    -0.293    26.420     7.300
    24   6 C        8.817     0.090    19.015     6.193
    25   7 N        7.403    -0.320    28.216     7.889
    26   6 C        3.014     0.044    27.001     8.524
    27   8 O        0.908    -0.693    28.477     7.156
    28   6 C        3.859    -0.066    21.724     6.629
    29   6 C        3.804    -0.050    21.460     6.595
    30   6 C        3.804    -0.097    22.351     6.731
    31   6 C        9.174     0.358    15.312     5.557
    32   6 C        6.060    -0.282    26.156     7.263
    33   1 H        0.925     0.011     2.881     2.654
    34   1 H        2.642    -0.151     7.691     4.329
    35   1 H        2.516    -0.533   158.900    19.679
    36   1 H        0.860     0.126     1.573     1.964
    37   1 H        0.925     0.005     2.976     2.698
    38   1 H        0.925    -0.025     3.522     2.935
    39   1 H        0.925    -0.032     3.672     2.997
    40   1 H        2.454     0.364     0.543     1.151
    41   1 H        1.206    -0.014     3.286     2.830
    42   1 H        2.747     0.537     0.291     0.842
    43   1 H        1.839     0.216     1.016     1.574
    44   1 H        3.016     0.431     0.422     1.014
    45   1 H        4.292     0.509     0.319     0.882
    46   1 H        3.533     0.395     0.482     1.084
    47   1 H        0.925    -0.041     3.870     3.076
    48   1 H        0.925     0.053     2.282     2.362
    49   1 H        0.925     0.019     2.743     2.590
    50   1 H        0.925     0.001     3.033     2.723
    51   1 H        0.925     0.035     2.512     2.478
    52   1 H        4.279     0.538     0.290     0.840
    53   1 H        4.550     0.662     0.195     0.690
    54   1 H        0.935     0.134     1.503     1.917
    55   1 H        2.171     0.268     0.807     1.402
    56   5 B        5.122     0.029    22.203     7.592
    57   5 B        7.152     0.256    18.558     6.941
    58   5 B        5.995     0.165    19.909     7.189
    59   5 B        5.102     0.089    21.154     7.411
    60   5 B        5.131     0.113    20.757     7.341
    61   5 B        7.915    -0.062    23.950     7.885
    62   5 B        8.118     0.165    19.921     7.192
    63   5 B        8.835     0.179    19.691     7.150
    64   5 B        5.233     0.091    21.120     7.405
    65   5 B        7.095    -0.079    24.292     7.941
    66   5 B        9.788     0.195    19.449     7.106
    67   5 B        5.102     0.145    20.239     7.249
    68   5 B        3.336     0.027    20.924     7.627
    69   5 B        1.850     0.131    40.026    13.325
    70   5 B        1.850     0.127    40.162    13.348
    71   5 B        1.850     0.108    40.774    13.449
    72   5 B        4.756     0.240    18.776     6.982
    73   5 B        1.850     0.119    40.405    13.388
    74   5 B        1.850     0.036    43.208    13.845
    75   5 B        1.850     0.090    41.381    13.549
    76   5 B        2.568     0.268    18.224     7.296
    77   5 B        1.883     0.131    39.935    13.306
    78   5 B        1.850     0.006    44.303    14.019
    79   5 B        1.850     0.080    41.717    13.604
    80   5 B        4.397     0.276    18.269     6.887
    81   5 B        6.139     0.448    16.055     6.456
    82   5 B        4.397     0.221    19.061     7.035
    83   5 B        4.397     0.303    17.902     6.817
    84   5 B        5.709     0.288    18.103     6.855
    85   5 B        8.396    -0.104    24.803     8.024
    86   5 B        6.051     0.197    19.425     7.101
    87   5 B        8.360     0.306    17.854     6.808
    88   5 B        7.569     0.335    17.474     6.735
    89   5 B        7.200    -0.123    25.205     8.089
    90   5 B        4.399     0.300    17.943     6.825
    91   5 B        4.412     0.206    19.284     7.076
    92   7 N        4.372    -0.040    22.012     6.968
    93   7 N        4.442    -0.220    25.796     7.543
    94   7 N        4.411    -0.092    23.024     7.127
    95   7 N        4.372    -0.032    21.853     6.943
    96   7 N        4.372    -0.125    23.712     7.232
    97   7 N        7.212     0.087    19.738     6.599
    98   7 N        6.541    -0.277    27.130     7.736
    99   7 N        7.871    -0.019    21.607     6.904
   100   7 N        5.421    -0.021    21.654     6.911
   101   7 N        7.254     0.322    16.200     5.978
   102   7 N        8.333     0.851    10.661     4.849
   103   7 N        4.372    -0.011    21.465     6.881
   104   7 N        1.135    -0.108    22.363     6.737
   105   7 N        0.932    -0.145    24.018     7.077
   106   7 N        0.932    -0.138    23.871     7.055
   107   7 N        0.932    -0.120    23.511     7.002
   108   7 N        2.666    -0.295    27.599     7.802
   109   7 N        0.932    -0.117    23.443     6.991
   110   7 N        0.932    -0.119    23.477     6.997
   111   7 N        0.932    -0.099    23.072     6.936
   112   7 N        1.401    -0.406    29.448     7.786
   113   7 N        0.932    -0.221    25.698     7.320
   114   7 N        0.932    -0.161    24.364     7.127
   115   7 N        0.932    -0.206    25.374     7.274
   116   7 N        3.977    -0.332    28.531     7.933
   117   7 N        4.308    -0.551    34.900     8.774
   118   7 N        3.977    -0.341    28.761     7.965
   119   7 N        3.977    -0.374    29.645     8.087
   120   7 N        3.987    -0.390    30.083     8.146
   121   7 N        7.516    -0.027    21.764     6.929
   122   7 N        5.461    -0.513    33.699     8.622
   123   7 N        7.284    -0.231    26.043     7.579
   124   7 N        6.660    -0.518    33.862     8.643
   125   7 N        6.971     0.611    12.840     5.322
   126   7 N        4.119    -0.279    27.199     7.746
   127   7 N        4.888    -0.216    25.685     7.527

 Mol. C6AA /au·bohr⁶  :     304852.718031
 Mol. C8AA /au·bohr⁸  :    8437493.267724
 Mol. α(0) /au        :        876.832929


Wiberg/Mayer (AO) data.
largest (>0.10) Wiberg bond orders for each atom

 ---------------------------------------------------------------------------
     #   Z sym  total        # sym  WBO       # sym  WBO       # sym  WBO
 ---------------------------------------------------------------------------
     1   8 O    1.838 --     2 C    1.455    22 N    0.104
     2   6 C    3.774 --     1 O    1.455     3 C    1.060    22 N    1.013
     3   6 C    3.929 --     4 C    1.273    20 C    1.239     2 C    1.060
     4   6 C    3.661 --     3 C    1.273     5 C    0.964    33 H    0.911
                            20 C    0.103
     5   6 C    3.830 --    66 B    1.025     4 C    0.964    18 C    0.840
                            88 B    0.336    57 B    0.141   102 N    0.107
     6   6 C    3.901 --   102 N    2.624    66 B    1.084    35 H    0.145
     7   6 C    3.613 --   125 N    1.294    17 C    0.897     8 N    0.426
                            89 B    0.393   102 N    0.160
     8   7 N    3.518 --   125 N    1.254   101 N    0.638     9 N    0.447
                             7 C    0.426    89 B    0.338
     9   7 N    3.351 --    36 H    0.927    10 C    0.872   101 N    0.538
                             8 N    0.447    65 B    0.111
    10   6 C    3.877 --    11 O    1.428    12 C    1.042     9 N    0.872
                           127 N    0.252
    11   8 O    1.773 --    10 C    1.428
    12   6 C    3.904 --    13 C    1.324    17 C    1.107    10 C    1.042
    13   6 C    3.921 --    14 C    1.410    12 C    1.324    37 H    0.970
    14   6 C    3.926 --    13 C    1.410    15 C    1.349    38 H    0.970
    15   6 C    3.901 --    14 C    1.349    16 C    1.302    39 H    0.969
    16   6 C    3.742 --    15 C    1.302    17 C    1.182    40 H    0.411
                           100 N    0.278
    17   6 C    3.651 --    16 C    1.182    12 C    1.107     7 C    0.897
    18   6 C    3.832 --    19 C    1.043    41 H    0.869     5 C    0.840
                            81 B    0.496    88 B    0.177
    19   6 C    3.726 --    20 C    1.084    18 C    1.043    72 B    0.496
                            58 B    0.241    42 H    0.181
    20   6 C    3.640 --     3 C    1.239    19 C    1.084    21 F    0.803
                             4 C    0.103
    21   9 F    1.250 --    20 C    0.803    76 B    0.247
    22   7 N    3.256 --     2 C    1.013    32 C    0.918    23 C    0.888
                             1 O    0.104
    23   6 C    3.805 --    22 N    0.888    63 B    0.704    43 H    0.491
                            87 B    0.465    44 H    0.326    24 C    0.225
                           104 N    0.121    46 H    0.101
    24   6 C    3.649 --    99 N    1.066   123 N    0.679    25 N    0.578
                            87 B    0.275    63 B    0.230    23 C    0.225
                            45 H    0.110
    25   7 N    3.382 --    26 C    0.971    24 C    0.578    31 C    0.509
                            97 N    0.343    85 B    0.159    27 O    0.102
    26   6 C    3.522 --    27 O    1.291    25 N    0.971    28 C    0.963
    27   8 O    1.579 --    26 C    1.291    25 N    0.102
    28   6 C    3.914 --    29 C    0.971    26 C    0.963    47 H    0.958
                            30 C    0.939
    29   6 C    3.950 --    30 C    0.995    49 H    0.983    48 H    0.979
                            28 C    0.971
    30   6 C    3.928 --    29 C    0.995    50 H    0.981    51 H    0.978
                            28 C    0.939
    31   6 C    3.730 --    85 B    1.079   121 N    0.806    32 C    0.594
                            25 N    0.509    98 N    0.167    97 N    0.157
    32   6 C    3.812 --    22 N    0.918    54 H    0.805    55 H    0.619
                            31 C    0.594    62 B    0.195   120 N    0.103
                           121 N    0.101
    33   1 H    0.999 --     4 C    0.911
    34   1 H    0.917 --   102 N    0.187    66 B    0.170    89 B    0.127
    35   1 H    0.705 --     6 C    0.145   102 N    0.137    66 B    0.116
    36   1 H    0.980 --     9 N    0.927
    37   1 H    0.998 --    13 C    0.970
    38   1 H    0.995 --    14 C    0.970
    39   1 H    0.997 --    15 C    0.969
    40   1 H    0.866 --    16 C    0.411   124 N    0.362
    41   1 H    0.997 --    18 C    0.869
    42   1 H    0.709 --   108 N    0.311    72 B    0.209    19 C    0.181
    43   1 H    0.951 --    23 C    0.491    87 B    0.301
    44   1 H    0.801 --    23 C    0.326    68 B    0.202    63 B    0.150
    45   1 H    0.729 --   122 N    0.463    24 C    0.110    86 B    0.103
    46   1 H    0.841 --   123 N    0.370    99 N    0.149    23 C    0.101
    47   1 H    0.988 --    28 C    0.958
    48   1 H    0.997 --    29 C    0.979
    49   1 H    0.999 --    29 C    0.983
    50   1 H    0.999 --    30 C    0.981
    51   1 H    0.999 --    30 C    0.978
    52   1 H    0.709 --    85 B    0.244    61 B    0.189
    53   1 H    0.560 --   121 N    0.220    98 N    0.126    85 B    0.105
    54   1 H    0.978 --    32 C    0.805
    55   1 H    0.918 --    32 C    0.619    84 B    0.187
    56   5 B    3.674 --    92 N    2.984    62 B    0.194    82 B    0.158
                            80 B    0.145
    57   5 B    3.533 --    93 N    3.071     5 C    0.141
    58   5 B    3.611 --    94 N    3.014    19 C    0.241    80 B    0.138
                            72 B    0.100
    59   5 B    3.627 --    95 N    3.070    74 B    0.173    82 B    0.152
                            83 B    0.147
    60   5 B    3.666 --    96 N    3.142    86 B    0.199    76 B    0.128
    61   5 B    3.570 --    97 N    2.605    78 B    0.226    52 H    0.189
                            87 B    0.105
    62   5 B    3.565 --    98 N    2.714    32 C    0.195    56 B    0.194
    63   5 B    3.394 --    99 N    1.833    23 C    0.704    24 C    0.230
                            86 B    0.153    44 H    0.150
    64   5 B    3.637 --   100 N    3.007    77 B    0.180    90 B    0.140
                            88 B    0.109
    65   5 B    3.401 --   101 N    2.160    79 B    0.255    91 B    0.253
                            89 B    0.187     9 N    0.111
    66   5 B    3.303 --     6 C    1.084     5 C    1.025   102 N    0.525
                            34 H    0.170    35 H    0.116    89 B    0.115
    67   5 B    3.650 --   103 N    3.121    91 B    0.161    69 B    0.139
                            90 B    0.123
    68   5 B    3.661 --   104 N    3.254    44 H    0.202
    69   5 B    3.647 --   105 N    3.476    67 B    0.139
    70   5 B    3.648 --   106 N    3.514    73 B    0.119
    71   5 B    3.659 --   107 N    3.513    75 B    0.123
    72   5 B    3.527 --   108 N    2.595    19 C    0.496    42 H    0.209
                            58 B    0.100
    73   5 B    3.654 --   109 N    3.532    70 B    0.119
    74   5 B    3.696 --   110 N    3.474    59 B    0.173
    75   5 B    3.670 --   111 N    3.539    71 B    0.123
    76   5 B    3.526 --   112 N    3.141    21 F    0.247    60 B    0.128
    77   5 B    3.646 --   113 N    3.388    64 B    0.180
    78   5 B    3.706 --   114 N    3.386    61 B    0.226
    79   5 B    3.676 --   115 N    3.366    65 B    0.255
    80   5 B    3.461 --   116 N    2.895    56 B    0.145    58 B    0.138
    81   5 B    3.407 --   117 N    2.586    18 C    0.496
    82   5 B    3.463 --   118 N    2.845    56 B    0.158    59 B    0.152
    83   5 B    3.448 --   119 N    2.983    59 B    0.147
    84   5 B    3.475 --   120 N    2.960    55 H    0.187
    85   5 B    3.491 --   121 N    1.580    31 C    1.079    52 H    0.244
                            25 N    0.159    53 H    0.105
    86   5 B    3.288 --   122 N    2.376    60 B    0.199    63 B    0.153
                            45 H    0.103
    87   5 B    3.380 --   123 N    1.898    23 C    0.465    43 H    0.301
                            24 C    0.275    61 B    0.105
    88   5 B    3.492 --   124 N    2.524     5 C    0.336    18 C    0.177
                            64 B    0.109
    89   5 B    2.528 --   125 N    0.956     7 C    0.393     8 N    0.338
                            65 B    0.187    34 H    0.127    66 B    0.115
    90   5 B    3.479 --   126 N    2.999    64 B    0.140    67 B    0.123
    91   5 B    3.518 --   127 N    2.772    65 B    0.253    67 B    0.161
    92   7 N    3.577 --    56 B    2.984   118 N    0.142   116 N    0.126
    93   7 N    3.490 --    57 B    3.071
    94   7 N    3.576 --    58 B    3.014   116 N    0.135
    95   7 N    3.622 --    59 B    3.070   118 N    0.148   119 N    0.119
    96   7 N    3.638 --    60 B    3.142
    97   7 N    3.689 --    61 B    2.605    25 N    0.343    31 C    0.157
    98   7 N    3.444 --    62 B    2.714    31 C    0.167    53 H    0.126
    99   7 N    3.498 --    63 B    1.833    24 C    1.066    46 H    0.149
   100   7 N    3.714 --    64 B    3.007    16 C    0.278   126 N    0.102
   101   7 N    3.644 --    65 B    2.160     8 N    0.638     9 N    0.538
   102   7 N    3.901 --     6 C    2.624    66 B    0.525    34 H    0.187
                             7 C    0.160    35 H    0.137     5 C    0.107
   103   7 N    3.702 --    67 B    3.121   126 N    0.151
   104   7 N    3.552 --    68 B    3.254    23 C    0.121
   105   7 N    3.620 --    69 B    3.476
   106   7 N    3.634 --    70 B    3.514   109 N    0.112
   107   7 N    3.644 --    71 B    3.513   111 N    0.113
   108   7 N    3.169 --    72 B    2.595    42 H    0.311
   109   7 N    3.649 --    73 B    3.532   106 N    0.112
   110   7 N    3.623 --    74 B    3.474
   111   7 N    3.656 --    75 B    3.539   107 N    0.113
   112   7 N    3.348 --    76 B    3.141
   113   7 N    3.546 --    77 B    3.388
   114   7 N    3.560 --    78 B    3.386
   115   7 N    3.548 --    79 B    3.366
   116   7 N    3.354 --    80 B    2.895    94 N    0.135    92 N    0.126
   117   7 N    3.098 --    81 B    2.586
   118   7 N    3.381 --    82 B    2.845    95 N    0.148    92 N    0.142
   119   7 N    3.343 --    83 B    2.983    95 N    0.119
   120   7 N    3.358 --    84 B    2.960    32 C    0.103
   121   7 N    3.228 --    85 B    1.580    31 C    0.806    53 H    0.220
                            32 C    0.101
   122   7 N    3.198 --    86 B    2.376    45 H    0.463
   123   7 N    3.306 --    87 B    1.898    24 C    0.679    46 H    0.370
   124   7 N    3.324 --    88 B    2.524    40 H    0.362
   125   7 N    3.806 --     7 C    1.294     8 N    1.254    89 B    0.956
   126   7 N    3.489 --    90 B    2.999   103 N    0.151   100 N    0.102
   127   7 N    3.572 --    91 B    2.772    10 C    0.252
 ---------------------------------------------------------------------------

Topologies differ in total number of bonds
Writing topology from bond orders to xtbtopo.mol

molecular dipole:
                 x           y           z       tot (Debye)
 q only:        4.233      -1.944       1.537
   full:        1.890      -2.484       2.617      10.354
molecular quadrupole (traceless):
                xx          xy          yy          xz          yz          zz
 q only:      -82.667     -20.377      38.754    -113.011      -1.882      43.913
  q+dip:       13.306     -16.050     -24.375    -147.637      -0.830      11.069
   full:        4.923     -11.536     -13.063    -144.699      -1.227       8.141


           -------------------------------------------------
          | TOTAL ENERGY                7.789469337472 Eh   |
          | GRADIENT NORM             200.826915127135 Eh/α |
          | HOMO-LUMO GAP               0.029527402437 eV   |
           -------------------------------------------------

------------------------------------------------------------------------
 * finished run on 2026/08/31 at 18:25:03.539     
------------------------------------------------------------------------
 total:
 * wall-time:     0 d,  0 h,  0 min,  1.271 sec
 *  cpu-time:     0 d,  0 h,  0 min, 15.375 sec
 * ratio c/w:    12.097 speedup
 SCF:
 * wall-time:     0 d,  0 h,  0 min,  1.205 sec
 *  cpu-time:     0 d,  0 h,  0 min, 15.000 sec
 * ratio c/w:    12.448 speedup

normal termination of xtb
