      -----------------------------------------------------------      
     |                   =====================                   |     
     |                           x T B                           |     
     |                   =====================                   |     
     |                         S. Grimme                         |     
     |          Mulliken Center for Theoretical Chemistry        |     
     |                    University of Bonn                     |     
      -----------------------------------------------------------      

   * xtb version 6.7.1pre (5071a88) compiled by 'Marcel@Raven' on 2024-07-23

   xtb is free software: you can redistribute it and/or modify it under
   the terms of the GNU Lesser General Public License as published by
   the Free Software Foundation, either version 3 of the License, or
   (at your option) any later version.
   
   xtb is distributed in the hope that it will be useful,
   but WITHOUT ANY WARRANTY; without even the implied warranty of
   MERCHANTABILITY or FITNESS FOR A PARTICULAR PURPOSE.  See the
   GNU Lesser General Public License for more details.
   
   Cite this work as:
   * C. Bannwarth, E. Caldeweyher, S. Ehlert, A. Hansen, P. Pracht,
     J. Seibert, S. Spicher, S. Grimme, WIREs Comput. Mol. Sci., 2020, 11,
     e01493. DOI: 10.1002/wcms.1493
   
   for GFN2-xTB:
   * C. Bannwarth, S. Ehlert and S. Grimme., J. Chem. Theory Comput., 2019,
     15, 1652-1671. DOI: 10.1021/acs.jctc.8b01176
   for GFN1-xTB:
   * S. Grimme, C. Bannwarth, P. Shushkov, J. Chem. Theory Comput., 2017,
     13, 1989-2009. DOI: 10.1021/acs.jctc.7b00118
   for GFN0-xTB:
   * P. Pracht, E. Caldeweyher, S. Ehlert, S. Grimme, ChemRxiv, 2019, preprint.
     DOI: 10.26434/chemrxiv.8326202.v1
   for GFN-FF:
   * S. Spicher and S. Grimme, Angew. Chem. Int. Ed., 2020, 59, 15665-15673.
     DOI: 10.1002/anie.202004239
   
   for ALPB and GBSA implicit solvation:
   * S. Ehlert, M. Stahn, S. Spicher, S. Grimme, J. Chem. Theory Comput.,
     2021, 17, 4250-4261. DOI: 10.1021/acs.jctc.1c00471
   
   for ddCOSMO and CPCM-X implicit solvation:
   * M. Stahn, S. Ehlert, S. Grimme, J. Phys. Chem. A,
     2023, XX, XXXX-XXXX. DOI: 10.1021/acs.jpca.3c04382
   
   for DFT-D4:
   * E. Caldeweyher, C. Bannwarth and S. Grimme, J. Chem. Phys., 2017,
     147, 034112. DOI: 10.1063/1.4993215
   * E. Caldeweyher, S. Ehlert, A. Hansen, H. Neugebauer, S. Spicher,
     C. Bannwarth and S. Grimme, J. Chem. Phys., 2019, 150, 154122.
     DOI: 10.1063/1.5090222
   * E. Caldeweyher, J.-M. Mewes, S. Ehlert and S. Grimme, Phys. Chem. Chem. Phys.
     2020, 22, 8499-8512. DOI: 10.1039/D0CP00502A
   
   for sTDA-xTB:
   * S. Grimme and C. Bannwarth, J. Chem. Phys., 2016, 145, 054103.
     DOI: 10.1063/1.4959605
   
   in the mass-spec context:
   * V. Asgeirsson, C. Bauer and S. Grimme, Chem. Sci., 2017, 8, 4879.
     DOI: 10.1039/c7sc00601b
   * J. Koopman and S. Grimme, ACS Omega 2019, 4, 12, 15120-15133.
     DOI: 10.1021/acsomega.9b02011
   
   for metadynamics refer to:
   * S. Grimme, J. Chem. Theory Comput., 2019, 155, 2847-2862
     DOI: 10.1021/acs.jctc.9b00143
   
   for SPH calculations refer to:
   * S. Spicher and S. Grimme, J. Chem. Theory Comput., 2021, 17, 1701-1714
     DOI: 10.1021/acs.jctc.0c01306
   
   for ONIOM refer to:
   * C. Plett, A. Katbashev, S. Ehlert, S. Grimme, M. Bursch,
     Phys. Chem. Chem. Phys., 2023, 25, 17860-17868. DOI: 10.1039/D3CP02178E
   
   for DIPRO refer to:
   * J. Kohn, N. Gildemeister, S. Grimme, D. Fazzi, A. Hansen,
     J. Chem. Phys., 2023, just accepted.
   
   for PTB refer to:
   * S. Grimme, M. Mueller, A. Hansen, J. Chem. Phys., 2023, 158, 124111.
     DOI: 10.1063/5.0137838
   
   with help from (in alphabetical order)
   P. Atkinson, C. Bannwarth, F. Bohle, G. Brandenburg, E. Caldeweyher
   M. Checinski, S. Dohm, S. Ehlert, S. Ehrlich, I. Gerasimov, C. Hölzer
   A. Katbashev, J. Kohn, J. Koopman, C. Lavigne, S. Lehtola, F. März, M. Müller,
   F. Musil, H. Neugebauer, J. Pisarek, C. Plett, P. Pracht, F. Pultar,
   J. Seibert, P. Shushkov, S. Spicher, M. Stahn, M. Steiner, T. Strunk,
   J. Stückrath, T. Rose, and J. Unsleber
   
 * started run on 2026/08/31 at 21:13:04.763     
   ID    Z sym.   atoms
    1    8 O      1, 11, 27
    2    6 C      2-7, 10, 12-20, 23, 24, 26, 28-32
    3    7 N      8, 9, 22, 25, 57, 59, 61, 63, 65, 67, 69, 71, 73, 75, 77,
                  79, 81, 83, 85, 87, 89, 91, 93, 95, 97, 99, 101, 103, 105,
                  107, 109, 111, 113, 115, 117, 119, 121, 123, 125, 127
    4    9 F      21
    5    1 H      33-55
    6    5 B      56, 58, 60, 62, 64, 66, 68, 70, 72, 74, 76, 78, 80, 82, 84,
                  86, 88, 90, 92, 94, 96, 98, 100, 102, 104, 106, 108, 110,
                  112, 114, 116, 118, 120, 122, 124, 126

           -------------------------------------------------
          |                Calculation Setup                |
           -------------------------------------------------

          program call               : "c:\Users\Andre\Proyectos doctorado\kras-pancreatic-gC3N4-ai\tools\xtb\xtb-6.7.1\bin\xtb.exe" "c:\Users\Andre\Proyectos doctorado\nano-qsar-ai-therapeutics\calculations\tnbc\Olaparib\Olaparib_B36N36_phys_complex.xyz" --gfn 2 --sp --chrg 0 --uhf 0 --etemp 300 --iterations 500 --norestart
          coordinate file            : c:\Users\Andre\Proyectos doctorado\nano-qsar-ai-therapeutics\calculations\tnbc\Olaparib\Olaparib_B36N36_phys_complex.xyz
          omp threads                :                    16


molecular fragmentation (1/2 indicates fragments):
111111111111111111111111111111111111111111111111111111122222222222222222
2222222222222222222222222222222222222222222222222222222
# atoms in fragment 1/2:    55    72
 fragment masses (1/2) :      434.46      893.44
CMA distance (Bohr)    :  20.575
constraining FC (au)   :  0.0500

           -------------------------------------------------
          |                 G F N 2 - x T B                 |
           -------------------------------------------------

        Reference                      10.1021/acs.jctc.8b01176
      * Hamiltonian:
        H0-scaling (s, p, d)           1.850000    2.230000    2.230000
        zeta-weighting                 0.500000
      * Dispersion:
        s8                             2.700000
        a1                             0.520000
        a2                             5.000000
        s9                             5.000000
      * Repulsion:
        kExp                           1.500000    1.000000
        rExp                           1.000000
      * Coulomb:
        alpha                          2.000000
        third order                    shell-resolved
        anisotropic                    true
        a3                             3.000000
        a5                             4.000000
        cn-shift                       1.200000
        cn-exp                         4.000000
        max-rad                        5.000000


          ...................................................
          :                      SETUP                      :
          :.................................................:
          :  # basis functions                 439          :
          :  # atomic orbitals                 439          :
          :  # shells                          231          :
          :  # electrons                       452          :
          :  max. iterations                   500          :
          :  Hamiltonian                  GFN2-xTB          :
          :  restarted?                      false          :
          :  GBSA solvation                  false          :
          :  PC potential                    false          :
          :  electronic temp.          300.0000000     K    :
          :  accuracy                    1.0000000          :
          :  -> integral cutoff          0.2500000E+02      :
          :  -> integral neglect         0.1000000E-07      :
          :  -> SCF convergence          0.1000000E-05 Eh   :
          :  -> wf. convergence          0.1000000E-03 e    :
          :  Broyden damping             0.4000000          :
          :  net charge                          0          :
          :  unpaired electrons                  0          :
          ...................................................

 iter      E             dE          RMSdq      gap      omega  full diag
   1   -243.5166865 -0.243517E+03  0.108E+01    0.58       0.0  T
   2   -244.0397529 -0.523066E+00  0.658E+00    0.43       1.0  T
   3   -241.3631381  0.267661E+01  0.413E+00    0.15       1.0  T
   4   -243.1160638 -0.175293E+01  0.223E+00    0.11       1.0  T
   5   -243.1949813 -0.789175E-01  0.189E+00    0.06       1.0  T
   6   -244.5123939 -0.131741E+01  0.786E-01    0.67       1.0  T
   7   -244.5382195 -0.258256E-01  0.530E-01    0.75       1.0  T
   8   -244.5346508  0.356870E-02  0.436E-01    0.67       1.0  T
   9   -244.5325893  0.206148E-02  0.242E-01    0.69       1.0  T
  10   -244.5387894 -0.620009E-02  0.105E-01    0.68       1.0  T
  11   -244.5405558 -0.176641E-02  0.519E-02    0.63       1.0  T
  12   -244.5408338 -0.277938E-03  0.390E-02    0.66       1.0  T
  13   -244.5409142 -0.803998E-04  0.287E-02    0.65       1.0  T
  14   -244.5409552 -0.410126E-04  0.196E-02    0.65       1.0  T
  15   -244.5409669 -0.117339E-04  0.102E-02    0.66       1.0  T
  16   -244.5409742 -0.727547E-05  0.415E-03    0.65       2.1  T
  17   -244.5409753 -0.114745E-05  0.130E-03    0.66       6.8  T
  18   -244.5409755 -0.126322E-06  0.492E-04    0.66      18.0  T
  19   -244.5409755 -0.193369E-07  0.228E-04    0.66      38.9  T

   *** convergence criteria satisfied after 19 iterations ***

         #    Occupation            Energy/Eh            Energy/eV
      -------------------------------------------------------------
         1        2.0000           -0.8282404             -22.5376
       ...           ...                  ...                  ...
       220        2.0000           -0.3257859              -8.8651
       221        2.0000           -0.3230163              -8.7897
       222        2.0000           -0.3215864              -8.7508
       223        2.0000           -0.3191368              -8.6842
       224        2.0000           -0.3140048              -8.5445
       225        2.0000           -0.3120095              -8.4902
       226        2.0000           -0.3058929              -8.3238 (HOMO)
       227        0.0000           -0.2818015              -7.6682 (LUMO)
       228                         -0.2758146              -7.5053
       229                         -0.2737305              -7.4486
       230                         -0.2647290              -7.2036
       231                         -0.2628635              -7.1529
       ...                                ...                  ...
       439                          0.9850294              26.8040
      -------------------------------------------------------------
                  HL-Gap            0.0240914 Eh            0.6556 eV
             Fermi-level           -0.2938474 Eh           -7.9960 eV

 SCC (total)                   0 d,  0 h,  0 min,  0.718 sec
 SCC setup                      ...        0 min,  0.001 sec (  0.139%)
 Dispersion                     ...        0 min,  0.003 sec (  0.418%)
 classical contributions        ...        0 min,  0.001 sec (  0.139%)
 integral evaluation            ...        0 min,  0.014 sec (  1.950%)
 iterations                     ...        0 min,  0.660 sec ( 91.922%)
 molecular gradient             ...        0 min,  0.036 sec (  5.014%)
 printout                       ...        0 min,  0.003 sec (  0.418%)

         :::::::::::::::::::::::::::::::::::::::::::::::::::::
         ::                     SUMMARY                     ::
         :::::::::::::::::::::::::::::::::::::::::::::::::::::
         :: total energy            -241.965969756827 Eh    ::
         :: gradient norm              0.088237603048 Eh/a0 ::
         :: HOMO-LUMO gap              0.655560550492 eV    ::
         ::.................................................::
         :: SCC energy              -244.525720470010 Eh    ::
         :: -> isotropic ES            0.759550023695 Eh    ::
         :: -> anisotropic ES         -0.026632845035 Eh    ::
         :: -> anisotropic XC          0.099867152833 Eh    ::
         :: -> dispersion             -0.205446926602 Eh    ::
         :: repulsion energy           2.559750713183 Eh    ::
         :: add. restraining           0.000000000000 Eh    ::
         :: total charge              -0.000000001200 e     ::
         :::::::::::::::::::::::::::::::::::::::::::::::::::::

           -------------------------------------------------
          |                Property Printout                |
           -------------------------------------------------

    * Orbital Energies and Occupations

         #    Occupation            Energy/Eh            Energy/eV
      -------------------------------------------------------------
         1        2.0000           -0.8282404             -22.5376
       ...           ...                  ...                  ...
       214        2.0000           -0.3380603              -9.1991
       215        2.0000           -0.3370650              -9.1720
       216        2.0000           -0.3331722              -9.0661
       217        2.0000           -0.3308354              -9.0025
       218        2.0000           -0.3284105              -8.9365
       219        2.0000           -0.3272699              -8.9055
       220        2.0000           -0.3257859              -8.8651
       221        2.0000           -0.3230163              -8.7897
       222        2.0000           -0.3215864              -8.7508
       223        2.0000           -0.3191368              -8.6842
       224        2.0000           -0.3140048              -8.5445
       225        2.0000           -0.3120095              -8.4902
       226        2.0000           -0.3058929              -8.3238 (HOMO)
       227        0.0000           -0.2818015              -7.6682 (LUMO)
       228                         -0.2758146              -7.5053
       229                         -0.2737305              -7.4486
       230                         -0.2647290              -7.2036
       231                         -0.2628635              -7.1529
       232                         -0.2602815              -7.0826
       233                         -0.2502242              -6.8089
       234                         -0.2471970              -6.7266
       235                         -0.2439496              -6.6382
       236                         -0.2330867              -6.3426
       237                         -0.2288765              -6.2280
       ...                                ...                  ...
       439                          0.9850294              26.8040
      -------------------------------------------------------------
                  HL-Gap            0.0240914 Eh            0.6556 eV
             Fermi-level           -0.2938474 Eh           -7.9960 eV

     #   Z          covCN         q      C6AA      α(0)
     1   8 O        0.859    -0.424    22.175     6.314
     2   6 C        2.764     0.264    22.542     7.775
     3   6 C        2.969    -0.024    28.591     8.771
     4   6 C        2.918    -0.031    28.767     8.795
     5   6 C        2.959     0.018    27.613     8.619
     6   6 C        3.809    -0.073    21.880     6.658
     7   6 C        2.904     0.081    26.193     8.392
     8   7 N        1.901    -0.173    25.557     7.495
     9   7 N        2.785    -0.060    22.400     7.029
    10   6 C        2.758     0.258    22.664     7.796
    11   8 O        0.858    -0.439    22.475     6.356
    12   6 C        2.980    -0.006    28.168     8.706
    13   6 C        2.915    -0.017    28.444     8.746
    14   6 C        2.911    -0.023    28.588     8.767
    15   6 C        2.911    -0.023    28.578     8.766
    16   6 C        2.914    -0.032    28.800     8.800
    17   6 C        2.971     0.002    27.970     8.675
    18   6 C        2.915    -0.040    28.990     8.829
    19   6 C        2.912    -0.052    29.284     8.874
    20   6 C        2.776     0.164    24.442     8.097
    21   9 F        0.787    -0.220    11.447     3.997
    22   7 N        2.727    -0.109    23.389     7.183
    23   6 C        3.742    -0.001    20.666     6.486
    24   6 C        3.737    -0.007    20.780     6.505
    25   7 N        2.729    -0.115    23.511     7.201
    26   6 C        2.755     0.260    22.628     7.790
    27   8 O        0.858    -0.437    22.425     6.349
    28   6 C        3.859    -0.047    21.371     6.574
    29   6 C        3.804    -0.057    21.596     6.616
    30   6 C        3.804    -0.066    21.761     6.641
    31   6 C        3.742     0.002    20.619     6.478
    32   6 C        3.736    -0.002    20.698     6.493
    33   1 H        0.925     0.065     2.142     2.289
    34   1 H        0.924     0.059     2.208     2.324
    35   1 H        0.924     0.074     2.042     2.234
    36   1 H        0.860     0.194     1.137     1.671
    37   1 H        0.925     0.070     2.086     2.259
    38   1 H        0.925     0.046     2.373     2.409
    39   1 H        0.925     0.042     2.429     2.437
    40   1 H        0.925     0.041     2.435     2.440
    41   1 H        0.925     0.048     2.346     2.395
    42   1 H        0.925     0.062     2.174     2.306
    43   1 H        0.924     0.056     2.242     2.341
    44   1 H        0.924     0.088     1.897     2.154
    45   1 H        0.924     0.059     2.214     2.327
    46   1 H        0.924     0.063     2.159     2.298
    47   1 H        0.925     0.044     2.395     2.420
    48   1 H        0.925     0.053     2.278     2.360
    49   1 H        0.925     0.040     2.446     2.446
    50   1 H        0.925     0.038     2.477     2.461
    51   1 H        0.925     0.038     2.479     2.462
    52   1 H        0.924     0.053     2.287     2.365
    53   1 H        0.924     0.081     1.967     2.193
    54   1 H        0.924     0.052     2.298     2.371
    55   1 H        0.924     0.062     2.170     2.304
    56   5 B        2.781     0.075    20.215     7.517
    57   7 N        2.774    -0.228    25.990     7.572
    58   5 B        2.788     0.092    19.939     7.464
    59   7 N        2.524    -0.315    28.136     7.877
    60   5 B        2.779     0.083    20.081     7.493
    61   7 N        2.655    -0.268    26.950     7.710
    62   5 B        2.849     0.241    17.673     7.020
    63   7 N        2.529    -0.273    27.088     7.729
    64   5 B        3.195     0.150    18.930     7.256
    65   7 N        2.979    -0.110    23.401     7.185
    66   5 B        2.644     0.372    16.327     6.814
    67   7 N        2.669    -0.213    25.637     7.520
    68   5 B        3.181     0.022    21.003     7.643
    69   7 N        2.888    -0.222    25.837     7.549
    70   5 B        3.009     0.209    18.077     7.092
    71   7 N        2.660    -0.163    24.535     7.357
    72   5 B        2.906     0.319    16.619     6.803
    73   7 N        3.156    -0.083    22.854     7.100
    74   5 B        2.779     0.094    19.916     7.462
    75   7 N        3.037    -0.127    23.742     7.237
    76   5 B        2.758     0.090    20.004     7.484
    77   7 N        2.634    -0.309    27.957     7.853
    78   5 B        3.040     0.226    17.836     7.044
    79   7 N        2.981     0.003    21.205     6.839
    80   5 B        2.582     0.325    17.311     7.088
    81   7 N        2.596    -0.360    29.301     8.039
    82   5 B        3.287     0.340    16.335     6.740
    83   7 N        2.784    -0.254    26.595     7.659
    84   5 B        2.559     0.321    17.590     7.184
    85   7 N        2.579    -0.368    29.512     8.068
    86   5 B        2.530     0.301    18.225     7.377
    87   7 N        2.665    -0.205    25.455     7.493
    88   5 B        2.698     0.195    18.516     7.221
    89   7 N        2.844    -0.167    24.611     7.368
    90   5 B        2.758     0.082    20.130     7.507
    91   7 N        2.672    -0.174    24.775     7.392
    92   5 B        2.877     0.110    19.578     7.386
    93   7 N        2.663    -0.144    24.120     7.294
    94   5 B        2.594     0.312    17.391     7.086
    95   7 N        2.519    -0.354    29.175     8.022
    96   5 B        2.684     0.183    18.732     7.271
    97   7 N        3.008    -0.125    23.701     7.231
    98   5 B        2.677     0.210    18.362     7.202
    99   7 N        2.716    -0.248    26.462     7.640
   100   5 B        2.647     0.164    19.168     7.381
   101   7 N        2.825    -0.207    25.487     7.498
   102   5 B        3.321     0.229    17.792     7.034
   103   7 N        2.531    -0.286    27.413     7.776
   104   5 B        2.950     0.035    20.783     7.606
   105   7 N        2.783    -0.185    24.999     7.426
   106   5 B        2.796     0.084    20.045     7.483
   107   7 N        2.673    -0.156    24.370     7.332
   108   5 B        3.021     0.210    18.058     7.088
   109   7 N        3.272     0.015    20.989     6.804
   110   5 B        2.869     0.304    16.821     6.847
   111   7 N        3.154    -0.113    23.456     7.193
   112   5 B        3.263     0.320    16.586     6.792
   113   7 N        2.833    -0.061    22.409     7.031
   114   5 B        3.303     0.231    17.767     7.029
   115   7 N        2.656    -0.183    24.975     7.422
   116   5 B        2.838     0.112    19.569     7.388
   117   7 N        2.834    -0.224    25.879     7.556
   118   5 B        2.863     0.252    17.505     6.985
   119   7 N        2.654    -0.229    26.002     7.573
   120   5 B        3.011     0.114    19.489     7.364
   121   7 N        3.153    -0.086    22.909     7.109
   122   5 B        2.674     0.202    18.486     7.229
   123   7 N        2.696    -0.228    25.975     7.569
   124   5 B        2.585     0.369    16.725     6.963
   125   7 N        2.881    -0.181    24.909     7.413
   126   5 B        2.825     0.106    19.679     7.410
   127   7 N        2.827    -0.253    26.562     7.655

 Mol. C6AA /au·bohr⁶  :     276133.655274
 Mol. C8AA /au·bohr⁸  :    7577279.793407
 Mol. α(0) /au        :        822.683636


Wiberg/Mayer (AO) data.
largest (>0.10) Wiberg bond orders for each atom

 ---------------------------------------------------------------------------
     #   Z sym  total        # sym  WBO       # sym  WBO       # sym  WBO
 ---------------------------------------------------------------------------
     1   8 O    2.015 --     2 C    1.672    22 N    0.204
     2   6 C    3.956 --     1 O    1.672    22 N    1.216     3 C    0.985
     3   6 C    3.987 --     4 C    1.401    20 C    1.358     2 C    0.985
                            18 C    0.104
     4   6 C    3.986 --     5 C    1.414     3 C    1.401    33 H    0.965
                            19 C    0.110
     5   6 C    3.985 --     4 C    1.414    18 C    1.405     6 C    0.998
     6   6 C    3.992 --     5 C    0.998     7 C    0.998    34 H    0.960
                            35 H    0.952
     7   6 C    3.973 --     8 N    1.668    17 C    1.098     6 C    0.998
     8   7 N    3.029 --     7 C    1.668     9 N    1.141
     9   7 N    3.556 --    10 C    1.158     8 N    1.141    36 H    0.929
                            11 O    0.162
    10   6 C    3.954 --    11 O    1.657     9 N    1.158    12 C    1.043
    11   8 O    1.993 --    10 C    1.657     9 N    0.162
    12   6 C    3.990 --    13 C    1.370    17 C    1.329    10 C    1.043
    13   6 C    3.986 --    14 C    1.465    12 C    1.370    37 H    0.965
                            16 C    0.116
    14   6 C    3.990 --    13 C    1.465    15 C    1.409    38 H    0.970
    15   6 C    3.991 --    16 C    1.469    14 C    1.409    39 H    0.971
    16   6 C    3.991 --    15 C    1.469    17 C    1.358    40 H    0.967
                            13 C    0.116
    17   6 C    3.988 --    16 C    1.358    12 C    1.329     7 C    1.098
    18   6 C    3.987 --    19 C    1.442     5 C    1.405    41 H    0.968
                             3 C    0.104
    19   6 C    3.987 --    18 C    1.442    20 C    1.395    42 H    0.966
                             4 C    0.110
    20   6 C    3.885 --    19 C    1.395     3 C    1.358    21 F    0.963
    21   9 F    1.097 --    20 C    0.963
    22   7 N    3.466 --     2 C    1.216    23 C    0.985    32 C    0.983
                             1 O    0.204
    23   6 C    3.970 --    24 C    1.004    22 N    0.985    43 H    0.965
                            44 H    0.963
    24   6 C    3.974 --    23 C    1.004    25 N    0.985    46 H    0.966
                            45 H    0.965
    25   7 N    3.461 --    26 C    1.215    31 C    0.987    24 C    0.985
                            27 O    0.198
    26   6 C    3.952 --    27 O    1.680    25 N    1.215    28 C    0.978
    27   8 O    2.002 --    26 C    1.680    25 N    0.198
    28   6 C    3.945 --    26 C    0.978    29 C    0.974    30 C    0.960
                            47 H    0.954
    29   6 C    3.946 --    30 C    0.987    49 H    0.982    48 H    0.979
                            28 C    0.974
    30   6 C    3.946 --    29 C    0.987    50 H    0.981    51 H    0.981
                            28 C    0.960
    31   6 C    3.974 --    32 C    1.003    25 N    0.987    52 H    0.966
                            53 H    0.964
    32   6 C    3.975 --    31 C    1.003    22 N    0.983    54 H    0.969
                            55 H    0.966
    33   1 H    0.996 --     4 C    0.965
    34   1 H    0.995 --     6 C    0.960
    35   1 H    0.993 --     6 C    0.952
    36   1 H    0.962 --     9 N    0.929
    37   1 H    0.995 --    13 C    0.965
    38   1 H    0.997 --    14 C    0.970
    39   1 H    0.997 --    15 C    0.971
    40   1 H    0.998 --    16 C    0.967
    41   1 H    0.997 --    18 C    0.968
    42   1 H    0.995 --    19 C    0.966
    43   1 H    0.997 --    23 C    0.965
    44   1 H    0.992 --    23 C    0.963
    45   1 H    0.997 --    24 C    0.965
    46   1 H    0.995 --    24 C    0.966
    47   1 H    0.998 --    28 C    0.954
    48   1 H    0.997 --    29 C    0.979
    49   1 H    0.998 --    29 C    0.982
    50   1 H    0.998 --    30 C    0.981
    51   1 H    0.999 --    30 C    0.981
    52   1 H    0.997 --    31 C    0.966
    53   1 H    0.993 --    31 C    0.964
    54   1 H    0.997 --    32 C    0.969
    55   1 H    0.996 --    32 C    0.966
    56   5 B    3.479 --   125 N    1.283   108 B    1.000   102 B    0.970
    57   7 N    3.397 --   102 B    1.142   115 N    1.007   114 B    1.001
    58   5 B    3.464 --   103 N    1.276   126 B    0.978   114 B    0.959
    59   7 N    3.530 --   118 B    1.152   116 B    1.150    86 B    1.018
    60   5 B    3.464 --    93 N    1.241   122 B    0.996    96 B    0.990
    61   7 N    3.266 --    82 B    1.202   124 B    0.968   119 N    0.888
    62   5 B    3.408 --    95 N    1.176    69 N    1.035    78 B    0.963
    63   7 N    3.568 --    76 B    1.277    64 B    1.158   120 B    0.973
    64   5 B    3.393 --    63 N    1.158   106 B    0.932   104 B    0.640
                            68 B    0.294
    65   7 N    3.323 --    70 B    1.113   109 N    1.043   121 N    0.945
    66   5 B    3.433 --    67 N    1.186    77 N    1.127   105 N    0.962
    67   7 N    3.445 --    66 B    1.186    94 B    1.086   107 N    0.967
    68   5 B    3.456 --   104 B    1.285   120 B    1.004   118 B    0.627
                            64 B    0.294
    69   7 N    3.428 --    72 B    1.231    62 B    1.035    83 N    0.929
    70   5 B    3.390 --    65 N    1.113    89 N    1.039   116 B    1.005
    71   7 N    3.510 --    74 B    1.206    94 B    1.123    91 N    0.999
    72   5 B    3.515 --    69 N    1.231    97 N    1.076   117 N    1.000
    73   7 N    3.347 --   122 B    1.138   125 N    0.991    75 N    0.982
    74   5 B    3.414 --    71 N    1.206    92 B    1.008   106 B    0.926
    75   7 N    3.329 --   110 B    1.138    73 N    0.982    79 N    0.973
    76   5 B    3.464 --    63 N    1.277    90 B    0.978   100 B    0.932
    77   7 N    3.218 --    66 B    1.127    80 B    1.066   105 N    0.792
    78   5 B    3.368 --    91 N    1.152    83 N    0.991    62 B    0.963
    79   7 N    3.099 --    97 N    1.014    75 N    0.973   123 N    0.938
    80   5 B    3.511 --   117 N    1.248    77 N    1.066    95 N    0.988
    81   7 N    3.433 --    86 B    1.201   114 B    1.062   102 B    0.925
    82   5 B    3.481 --    61 N    1.202    99 N    1.041    85 N    0.980
    83   7 N    3.282 --    88 B    1.169    78 B    0.991    69 N    0.929
    84   5 B    3.523 --   119 N    1.210   123 N    1.121   111 N    1.034
    85   7 N    3.431 --    98 B    1.220   112 B    0.993    82 B    0.980
    86   5 B    3.519 --    81 N    1.201   127 N    1.099    59 N    1.018
    87   7 N    3.441 --   124 B    1.260    98 B    0.998   113 N    0.990
    88   5 B    3.446 --    83 N    1.169   115 N    1.123   126 B    0.923
    89   7 N    3.470 --    90 B    1.260    70 B    1.039   121 N    0.984
    90   5 B    3.420 --    89 N    1.260    76 B    0.978    98 B    0.959
    91   7 N    3.511 --   126 B    1.171    78 B    1.152    71 N    0.999
    92   5 B    3.347 --   104 B    1.009    74 B    1.008   103 N    0.963
    93   7 N    3.509 --    60 B    1.241    96 B    1.093    99 N    1.036
    94   5 B    3.515 --    71 N    1.123    95 N    1.105    67 N    1.086
    95   7 N    3.477 --    62 B    1.176    94 B    1.105    80 B    0.988
    96   5 B    3.464 --   101 N    1.178    93 N    1.093    60 B    0.990
    97   7 N    3.268 --    72 B    1.076    79 N    1.014   111 N    0.976
    98   5 B    3.391 --    85 N    1.220    87 N    0.998    90 B    0.959
    99   7 N    3.372 --    82 B    1.041    93 N    1.036   112 B    0.986
   100   5 B    3.454 --   113 N    1.191   107 N    1.079    76 B    0.932
   101   7 N    3.406 --    96 B    1.178   108 B    1.073   109 N    0.959
   102   5 B    3.365 --    57 N    1.142    56 B    0.970    81 N    0.925
                           114 B    0.127
   103   7 N    3.561 --    58 B    1.276   118 B    1.105    92 B    0.963
   104   5 B    3.367 --    68 B    1.285    92 B    1.009    64 B    0.640
                           118 B    0.186
   105   7 N    2.987 --   113 N    1.045    66 B    0.962    77 N    0.792
   106   5 B    3.455 --   107 N    1.266    64 B    0.932    74 B    0.926
   107   7 N    3.481 --   106 B    1.266   100 B    1.079    67 N    0.967
   108   5 B    3.443 --   127 N    1.131   101 N    1.073    56 B    1.000
   109   7 N    3.186 --    65 N    1.043   101 N    0.959   127 N    0.950
   110   5 B    3.524 --   115 N    1.163    75 N    1.138   125 N    0.993
   111   7 N    3.220 --    84 B    1.034   117 N    0.985    97 N    0.976
   112   5 B    3.507 --   121 N    1.264    85 N    0.993    99 N    0.986
   113   7 N    3.441 --   100 B    1.191   105 N    1.045    87 N    0.990
   114   5 B    3.327 --    81 N    1.062    57 N    1.001    58 B    0.959
                           102 B    0.127
   115   7 N    3.490 --   110 B    1.163    88 B    1.123    57 N    1.007
   116   5 B    3.385 --    59 N    1.150    70 B    1.005   120 B    1.002
   117   7 N    3.447 --    80 B    1.248    72 B    1.000   111 N    0.985
   118   5 B    3.443 --    59 N    1.152   103 N    1.105    68 B    0.627
                           104 B    0.186   120 B    0.120
   119   7 N    3.333 --    84 B    1.210   124 B    1.037    61 N    0.888
   120   5 B    3.333 --    68 B    1.004   116 B    1.002    63 N    0.973
                           118 B    0.120
   121   7 N    3.439 --   112 B    1.264    89 N    0.984    65 N    0.945
   122   5 B    3.446 --    73 N    1.138   123 N    1.120    60 B    0.996
   123   7 N    3.397 --    84 B    1.121   122 B    1.120    79 N    0.938
   124   5 B    3.439 --    87 N    1.260   119 N    1.037    61 N    0.968
   125   7 N    3.475 --    56 B    1.283   110 B    0.993    73 N    0.991
   126   5 B    3.360 --    91 N    1.171    58 B    0.978    88 B    0.923
   127   7 N    3.418 --   108 B    1.131    86 B    1.099   109 N    0.950
 ---------------------------------------------------------------------------

Topologies differ in total number of bonds
Writing topology from bond orders to xtbtopo.mol

molecular dipole:
                 x           y           z       tot (Debye)
 q only:        1.668       3.154      -2.916
   full:       -0.120       2.585      -0.867       6.937
molecular quadrupole (traceless):
                xx          xy          yy          xz          yz          zz
 q only:      -49.642     -15.512     -14.711     -33.265      20.847      64.353
  q+dip:      -41.391     -18.686       6.050     -41.821      41.581      35.341
   full:      -34.416     -17.326       1.699     -39.377      39.797      32.717


           -------------------------------------------------
          | TOTAL ENERGY             -241.965969756827 Eh   |
          | GRADIENT NORM               0.088237603048 Eh/α |
          | HOMO-LUMO GAP               0.655560550492 eV   |
           -------------------------------------------------

------------------------------------------------------------------------
 * finished run on 2026/08/31 at 21:13:05.541     
------------------------------------------------------------------------
 total:
 * wall-time:     0 d,  0 h,  0 min,  0.777 sec
 *  cpu-time:     0 d,  0 h,  0 min,  7.719 sec
 * ratio c/w:     9.934 speedup
 SCF:
 * wall-time:     0 d,  0 h,  0 min,  0.719 sec
 *  cpu-time:     0 d,  0 h,  0 min,  7.250 sec
 * ratio c/w:    10.083 speedup

normal termination of xtb
