      -----------------------------------------------------------      
     |                   =====================                   |     
     |                           x T B                           |     
     |                   =====================                   |     
     |                         S. Grimme                         |     
     |          Mulliken Center for Theoretical Chemistry        |     
     |                    University of Bonn                     |     
      -----------------------------------------------------------      

   * xtb version 6.7.1pre (5071a88) compiled by 'Marcel@Raven' on 2024-07-23

   xtb is free software: you can redistribute it and/or modify it under
   the terms of the GNU Lesser General Public License as published by
   the Free Software Foundation, either version 3 of the License, or
   (at your option) any later version.
   
   xtb is distributed in the hope that it will be useful,
   but WITHOUT ANY WARRANTY; without even the implied warranty of
   MERCHANTABILITY or FITNESS FOR A PARTICULAR PURPOSE.  See the
   GNU Lesser General Public License for more details.
   
   Cite this work as:
   * C. Bannwarth, E. Caldeweyher, S. Ehlert, A. Hansen, P. Pracht,
     J. Seibert, S. Spicher, S. Grimme, WIREs Comput. Mol. Sci., 2020, 11,
     e01493. DOI: 10.1002/wcms.1493
   
   for GFN2-xTB:
   * C. Bannwarth, S. Ehlert and S. Grimme., J. Chem. Theory Comput., 2019,
     15, 1652-1671. DOI: 10.1021/acs.jctc.8b01176
   for GFN1-xTB:
   * S. Grimme, C. Bannwarth, P. Shushkov, J. Chem. Theory Comput., 2017,
     13, 1989-2009. DOI: 10.1021/acs.jctc.7b00118
   for GFN0-xTB:
   * P. Pracht, E. Caldeweyher, S. Ehlert, S. Grimme, ChemRxiv, 2019, preprint.
     DOI: 10.26434/chemrxiv.8326202.v1
   for GFN-FF:
   * S. Spicher and S. Grimme, Angew. Chem. Int. Ed., 2020, 59, 15665-15673.
     DOI: 10.1002/anie.202004239
   
   for ALPB and GBSA implicit solvation:
   * S. Ehlert, M. Stahn, S. Spicher, S. Grimme, J. Chem. Theory Comput.,
     2021, 17, 4250-4261. DOI: 10.1021/acs.jctc.1c00471
   
   for ddCOSMO and CPCM-X implicit solvation:
   * M. Stahn, S. Ehlert, S. Grimme, J. Phys. Chem. A,
     2023, XX, XXXX-XXXX. DOI: 10.1021/acs.jpca.3c04382
   
   for DFT-D4:
   * E. Caldeweyher, C. Bannwarth and S. Grimme, J. Chem. Phys., 2017,
     147, 034112. DOI: 10.1063/1.4993215
   * E. Caldeweyher, S. Ehlert, A. Hansen, H. Neugebauer, S. Spicher,
     C. Bannwarth and S. Grimme, J. Chem. Phys., 2019, 150, 154122.
     DOI: 10.1063/1.5090222
   * E. Caldeweyher, J.-M. Mewes, S. Ehlert and S. Grimme, Phys. Chem. Chem. Phys.
     2020, 22, 8499-8512. DOI: 10.1039/D0CP00502A
   
   for sTDA-xTB:
   * S. Grimme and C. Bannwarth, J. Chem. Phys., 2016, 145, 054103.
     DOI: 10.1063/1.4959605
   
   in the mass-spec context:
   * V. Asgeirsson, C. Bauer and S. Grimme, Chem. Sci., 2017, 8, 4879.
     DOI: 10.1039/c7sc00601b
   * J. Koopman and S. Grimme, ACS Omega 2019, 4, 12, 15120-15133.
     DOI: 10.1021/acsomega.9b02011
   
   for metadynamics refer to:
   * S. Grimme, J. Chem. Theory Comput., 2019, 155, 2847-2862
     DOI: 10.1021/acs.jctc.9b00143
   
   for SPH calculations refer to:
   * S. Spicher and S. Grimme, J. Chem. Theory Comput., 2021, 17, 1701-1714
     DOI: 10.1021/acs.jctc.0c01306
   
   for ONIOM refer to:
   * C. Plett, A. Katbashev, S. Ehlert, S. Grimme, M. Bursch,
     Phys. Chem. Chem. Phys., 2023, 25, 17860-17868. DOI: 10.1039/D3CP02178E
   
   for DIPRO refer to:
   * J. Kohn, N. Gildemeister, S. Grimme, D. Fazzi, A. Hansen,
     J. Chem. Phys., 2023, just accepted.
   
   for PTB refer to:
   * S. Grimme, M. Mueller, A. Hansen, J. Chem. Phys., 2023, 158, 124111.
     DOI: 10.1063/5.0137838
   
   with help from (in alphabetical order)
   P. Atkinson, C. Bannwarth, F. Bohle, G. Brandenburg, E. Caldeweyher
   M. Checinski, S. Dohm, S. Ehlert, S. Ehrlich, I. Gerasimov, C. Hölzer
   A. Katbashev, J. Kohn, J. Koopman, C. Lavigne, S. Lehtola, F. März, M. Müller,
   F. Musil, H. Neugebauer, J. Pisarek, C. Plett, P. Pracht, F. Pultar,
   J. Seibert, P. Shushkov, S. Spicher, M. Stahn, M. Steiner, T. Strunk,
   J. Stückrath, T. Rose, and J. Unsleber
   
 * started run on 2026/08/31 at 22:22:51.549     
   ID    Z sym.   atoms
    1    8 O      1, 11, 27
    2    6 C      2-7, 10, 12-20, 23, 24, 26, 28-32
    3    7 N      8, 9, 22, 25, 57, 59, 61, 63, 65, 67, 69, 71, 73, 75, 77,
                  79, 81, 83, 85, 87, 89, 91, 93, 95, 97, 99, 101, 103, 105,
                  107, 109, 111, 113, 115, 117, 119, 121, 123, 125, 127
    4    9 F      21
    5    1 H      33-55
    6    5 B      56, 58, 60, 62, 64, 66, 68, 70, 72, 74, 76, 78, 80, 82, 84,
                  86, 88, 90, 92, 94, 96, 98, 100, 102, 104, 106, 108, 110,
                  112, 114, 116, 118, 120, 122, 124, 126

           -------------------------------------------------
          |                Calculation Setup                |
           -------------------------------------------------

          program call               : "c:\Users\Andre\Proyectos doctorado\kras-pancreatic-gC3N4-ai\tools\xtb\xtb-6.7.1\bin\xtb.exe" "c:\Users\Andre\Proyectos doctorado\nano-qsar-ai-therapeutics\calculations\tnbc\Olaparib\Olaparib_opt_270deg.xyz" --opt vloose --gfn 2 --chrg 0 --uhf 0 --etemp 300 --iterations 500 --cycles 15 --norestart
          coordinate file            : c:\Users\Andre\Proyectos doctorado\nano-qsar-ai-therapeutics\calculations\tnbc\Olaparib\Olaparib_opt_270deg.xyz
          omp threads                :                    16


molecular fragmentation (1/2 indicates fragments):
111111111111111111111111111111111111111111111111111111122222222222222222
2222222222222222222222222222222222222222222222222222222
# atoms in fragment 1/2:    55    72
 fragment masses (1/2) :      434.46      893.44
CMA distance (Bohr)    :  19.103
constraining FC (au)   :  0.0500

           -------------------------------------------------
          |                 G F N 2 - x T B                 |
           -------------------------------------------------

        Reference                      10.1021/acs.jctc.8b01176
      * Hamiltonian:
        H0-scaling (s, p, d)           1.850000    2.230000    2.230000
        zeta-weighting                 0.500000
      * Dispersion:
        s8                             2.700000
        a1                             0.520000
        a2                             5.000000
        s9                             5.000000
      * Repulsion:
        kExp                           1.500000    1.000000
        rExp                           1.000000
      * Coulomb:
        alpha                          2.000000
        third order                    shell-resolved
        anisotropic                    true
        a3                             3.000000
        a5                             4.000000
        cn-shift                       1.200000
        cn-exp                         4.000000
        max-rad                        5.000000


          ...................................................
          :                      SETUP                      :
          :.................................................:
          :  # basis functions                 439          :
          :  # atomic orbitals                 439          :
          :  # shells                          231          :
          :  # electrons                       452          :
          :  max. iterations                   500          :
          :  Hamiltonian                  GFN2-xTB          :
          :  restarted?                      false          :
          :  GBSA solvation                  false          :
          :  PC potential                    false          :
          :  electronic temp.          300.0000000     K    :
          :  accuracy                    1.0000000          :
          :  -> integral cutoff          0.2500000E+02      :
          :  -> integral neglect         0.1000000E-07      :
          :  -> SCF convergence          0.1000000E-05 Eh   :
          :  -> wf. convergence          0.1000000E-03 e    :
          :  Broyden damping             0.4000000          :
          :  net charge                          0          :
          :  unpaired electrons                  0          :
          ...................................................

 iter      E             dE          RMSdq      gap      omega  full diag
   1   -243.5212109 -0.243521E+03  0.108E+01    0.57       0.0  T
   2   -244.0488730 -0.527662E+00  0.658E+00    0.44       1.0  T
   3   -241.2833144  0.276556E+01  0.415E+00    0.16       1.0  T
   4   -242.7631364 -0.147982E+01  0.248E+00    0.22       1.0  T
   5   -243.7964569 -0.103332E+01  0.162E+00    0.08       1.0  T
   6   -244.1788864 -0.382429E+00  0.115E+00    0.18       1.0  T
   7   -244.5066560 -0.327770E+00  0.692E-01    0.79       1.0  T
   8   -244.5361557 -0.294997E-01  0.543E-01    0.70       1.0  T
   9   -244.5348257  0.132999E-02  0.478E-01    0.73       1.0  T
  10   -244.5367863 -0.196054E-02  0.312E-01    0.66       1.0  T
  11   -244.5401767 -0.339041E-02  0.149E-01    0.57       1.0  T
  12   -244.5417175 -0.154082E-02  0.130E-01    0.57       1.0  T
  13   -244.5419552 -0.237714E-03  0.106E-01    0.58       1.0  T
  14   -244.5420585 -0.103327E-03  0.749E-02    0.60       1.0  T
  15   -244.5421694 -0.110899E-03  0.141E-02    0.64       1.0  T
  16   -244.5421799 -0.104631E-04  0.104E-02    0.64       1.0  T
  17   -244.5421884 -0.854596E-05  0.475E-03    0.64       1.9  T
  18   -244.5421904 -0.192880E-05  0.234E-03    0.63       3.8  T
  19   -244.5421906 -0.234929E-06  0.137E-03    0.63       6.5  T
  20   -244.5421907 -0.809600E-07  0.682E-04    0.63      13.0  T
  21   -244.5421907 -0.286750E-07  0.275E-04    0.63      32.3  T

   *** convergence criteria satisfied after 21 iterations ***

         #    Occupation            Energy/Eh            Energy/eV
      -------------------------------------------------------------
         1        2.0000           -0.8274422             -22.5158
       ...           ...                  ...                  ...
       220        2.0000           -0.3254267              -8.8553
       221        2.0000           -0.3225753              -8.7777
       222        2.0000           -0.3210053              -8.7350
       223        2.0000           -0.3190879              -8.6828
       224        2.0000           -0.3137125              -8.5366
       225        2.0000           -0.3117599              -8.4834
       226        2.0000           -0.3044934              -8.2857 (HOMO)
       227        0.0000           -0.2812973              -7.6545 (LUMO)
       228                         -0.2765929              -7.5265
       229                         -0.2728567              -7.4248
       230                         -0.2657720              -7.2320
       231                         -0.2627714              -7.1504
       ...                                ...                  ...
       439                          0.9854948              26.8167
      -------------------------------------------------------------
                  HL-Gap            0.0231962 Eh            0.6312 eV
             Fermi-level           -0.2928985 Eh           -7.9702 eV

 SCC (total)                   0 d,  0 h,  0 min,  1.243 sec
 SCC setup                      ...        0 min,  0.002 sec (  0.161%)
 Dispersion                     ...        0 min,  0.004 sec (  0.322%)
 classical contributions        ...        0 min,  0.000 sec (  0.000%)
 integral evaluation            ...        0 min,  0.015 sec (  1.207%)
 iterations                     ...        0 min,  1.177 sec ( 94.690%)
 molecular gradient             ...        0 min,  0.042 sec (  3.379%)
 printout                       ...        0 min,  0.003 sec (  0.241%)

         :::::::::::::::::::::::::::::::::::::::::::::::::::::
         ::                     SUMMARY                     ::
         :::::::::::::::::::::::::::::::::::::::::::::::::::::
         :: total energy            -241.967001940274 Eh    ::
         :: gradient norm              0.088378953174 Eh/a0 ::
         :: HOMO-LUMO gap              0.631199684202 eV    ::
         ::.................................................::
         :: SCC energy              -244.526752653458 Eh    ::
         :: -> isotropic ES            0.759164615850 Eh    ::
         :: -> anisotropic ES         -0.026046347150 Eh    ::
         :: -> anisotropic XC          0.099878078101 Eh    ::
         :: -> dispersion             -0.206722175668 Eh    ::
         :: repulsion energy           2.559750713183 Eh    ::
         :: add. restraining           0.000000000000 Eh    ::
         :: total charge               0.000000000001 e     ::
         :::::::::::::::::::::::::::::::::::::::::::::::::::::

      ----------------------------------------------------------- 
     |                   =====================                   |
     |                        A N C O P T                        |
     |                   =====================                   |
     |               Approximate Normal Coordinate               |
     |                Rational Function Optimizer                |
      ----------------------------------------------------------- 
      ----------------------------------------------------------- 
     |                   =====================                   |
     |                        A N C O P T                        |
     |                   =====================                   |
     |               Approximate Normal Coordinate               |
     |                Rational Function Optimizer                |
      ----------------------------------------------------------- 

          ...................................................
          :                      SETUP                      :
          :.................................................:
          :   optimization level            normal          :
          :   max. optcycles                    15          :
          :   ANC micro-cycles                  15          :
          :   degrees of freedom               375          :
          :.................................................:
          :   RF solver                   davidson          :
          :   write xtbopt.log                true          :
          :   linear?                        false          :
          :   energy convergence         0.5000000E-05 Eh   :
          :   grad. convergence          0.1000000E-02 Eh/α :
          :   maxmium RF displ.          1.0000000          :
          :   Hlow (freq-cutoff)         0.1000000E-01      :
          :   Hmax (freq-cutoff)         5.0000000          :
          :   S6 in model hess.         20.0000000          :
          ...................................................

generating ANC from exact Hessian ...
Using Lindh-Hessian (1995)
 Shifting diagonal of input Hessian by   1.008557239872104E-002
 Lowest  eigenvalues of input Hessian
    0.010000    0.010005    0.010017    0.000000    0.000000    0.000000
    0.000000    0.000000    0.000000    0.010098    0.010111    0.010189
    0.010221    0.010256    0.010447    0.010586    0.010697    0.011303
 Highest eigenvalues
    2.154603    2.223774    2.228660    2.260729    2.314982    2.383688
 

........................................................................
.............................. CYCLE    1 ..............................
........................................................................

 iter      E             dE          RMSdq      gap      omega  full diag
   1   -244.5421907 -0.244542E+03  0.153E-04    0.63       0.0  T
   2   -244.5421907 -0.240163E-09  0.134E-04    0.63      66.3  T
   3   -244.5421907 -0.150970E-08  0.767E-05    0.63     115.7  T
     SCC iter.                  ...        0 min,  0.135 sec
     gradient                   ...        0 min,  0.039 sec
 * total energy  :  -241.9670019 Eh     change       -0.5955712E-08 Eh
   gradient norm :     0.0883790 Eh/α   predicted     0.0000000E+00 (-100.00%)
   displ. norm   :     0.3688616 α      lambda       -0.1796282E-01
   maximum displ.:     0.1017619 α      in ANC's #21, #96, #33, ...

........................................................................
.............................. CYCLE    2 ..............................
........................................................................

 iter      E             dE          RMSdq      gap      omega  full diag
   1   -244.5997437 -0.244600E+03  0.124E-01    0.62       0.0  T
   2   -244.5998880 -0.144299E-03  0.755E-02    0.63       1.0  T
   3   -244.5998579  0.301004E-04  0.296E-02    0.63       1.0  T
   4   -244.5999065 -0.485564E-04  0.817E-03    0.63       1.1  T
   5   -244.5999151 -0.865518E-05  0.371E-03    0.63       2.4  T
   6   -244.5999158 -0.637180E-06  0.294E-03    0.63       3.0  T
   7   -244.5999173 -0.148299E-05  0.131E-03    0.63       6.8  T
   8   -244.5999175 -0.231478E-06  0.593E-04    0.63      15.0  T
   9   -244.5999175 -0.433130E-07  0.237E-04    0.63      37.5  T
     SCC iter.                  ...        0 min,  0.465 sec
     gradient                   ...        0 min,  0.037 sec
 * total energy  :  -241.9794130 Eh     change       -0.1241102E-01 Eh
   gradient norm :     0.0367423 Eh/α   predicted    -0.1020935E-01 ( -17.74%)
   displ. norm   :     0.3412027 α      lambda       -0.5537331E-02
   maximum displ.:     0.1375920 α      in ANC's #21, #23, #33, ...

........................................................................
.............................. CYCLE    3 ..............................
........................................................................

 iter      E             dE          RMSdq      gap      omega  full diag
   1   -244.6285682 -0.244629E+03  0.865E-02    0.63       0.0  T
   2   -244.6286923 -0.124173E-03  0.527E-02    0.63       1.0  T
   3   -244.6286941 -0.177344E-05  0.250E-02    0.63       1.0  T
   4   -244.6287045 -0.104116E-04  0.721E-03    0.63       1.2  T
   5   -244.6287101 -0.559708E-05  0.399E-03    0.63       2.2  T
   6   -244.6287129 -0.277332E-05  0.206E-03    0.63       4.3  T
   7   -244.6287135 -0.638168E-06  0.926E-04    0.63       9.6  T
   8   -244.6287136 -0.102138E-06  0.475E-04    0.63      18.7  T
     SCC iter.                  ...        0 min,  0.361 sec
     gradient                   ...        0 min,  0.035 sec
 * total energy  :  -241.9827887 Eh     change       -0.3375763E-02 Eh
   gradient norm :     0.0127242 Eh/α   predicted    -0.3092944E-02 (  -8.38%)
   displ. norm   :     0.2574930 α      lambda       -0.1155775E-02
   maximum displ.:     0.1154364 α      in ANC's #21, #23, #19, ...

........................................................................
.............................. CYCLE    4 ..............................
........................................................................

 iter      E             dE          RMSdq      gap      omega  full diag
   1   -244.6317144 -0.244632E+03  0.445E-02    0.63       0.0  T
   2   -244.6317275 -0.131728E-04  0.262E-02    0.63       1.0  T
   3   -244.6317214  0.613118E-05  0.119E-02    0.63       1.0  T
   4   -244.6317297 -0.827785E-05  0.318E-03    0.63       2.8  T
   5   -244.6317304 -0.742268E-06  0.217E-03    0.63       4.1  T
   6   -244.6317313 -0.889975E-06  0.805E-04    0.63      11.0  T
   7   -244.6317314 -0.588933E-07  0.410E-04    0.63      21.6  T
     SCC iter.                  ...        0 min,  0.281 sec
     gradient                   ...        0 min,  0.037 sec
 * total energy  :  -241.9836511 Eh     change       -0.8624153E-03 Eh
   gradient norm :     0.0081106 Eh/α   predicted    -0.6162095E-03 ( -28.55%)
   displ. norm   :     0.3355766 α      lambda       -0.9331361E-03
   maximum displ.:     0.1511527 α      in ANC's #23, #21, #15, ...

........................................................................
.............................. CYCLE    5 ..............................
........................................................................

 iter      E             dE          RMSdq      gap      omega  full diag
   1   -244.6310623 -0.244631E+03  0.525E-02    0.63       0.0  T
   2   -244.6310679 -0.555126E-05  0.307E-02    0.63       1.0  T
   3   -244.6310584  0.952987E-05  0.105E-02    0.64       1.0  T
   4   -244.6310694 -0.110027E-04  0.246E-03    0.63       3.6  T
   5   -244.6310696 -0.187881E-06  0.198E-03    0.64       4.5  T
   6   -244.6310702 -0.660802E-06  0.843E-04    0.63      10.5  T
   7   -244.6310703 -0.673607E-07  0.424E-04    0.64      20.9  T
     SCC iter.                  ...        0 min,  0.389 sec
     gradient                   ...        0 min,  0.042 sec
 * total energy  :  -241.9842844 Eh     change       -0.6332600E-03 Eh
   gradient norm :     0.0067865 Eh/α   predicted    -0.5191102E-03 ( -18.03%)
   displ. norm   :     0.2532411 α      lambda       -0.4004151E-03
   maximum displ.:     0.1026403 α      in ANC's #23, #15, #10, ...

........................................................................
.............................. CYCLE    6 ..............................
........................................................................

 iter      E             dE          RMSdq      gap      omega  full diag
   1   -244.6307258 -0.244631E+03  0.352E-02    0.64       0.0  T
   2   -244.6307284 -0.262830E-05  0.206E-02    0.64       1.0  T
   3   -244.6307269  0.149150E-05  0.404E-03    0.64       2.2  T
   4   -244.6307282 -0.132130E-05  0.202E-03    0.64       4.4  T
   5   -244.6307289 -0.613034E-06  0.939E-04    0.64       9.5  T
   6   -244.6307289 -0.488365E-07  0.683E-04    0.64      13.0  T
     SCC iter.                  ...        0 min,  0.316 sec
     gradient                   ...        0 min,  0.039 sec
 * total energy  :  -241.9845755 Eh     change       -0.2911162E-03 Eh
   gradient norm :     0.0066919 Eh/α   predicted    -0.2130584E-03 ( -26.81%)
   displ. norm   :     0.2704881 α      lambda       -0.3242690E-03
   maximum displ.:     0.1040998 α      in ANC's #10, #15, #11, ...

........................................................................
.............................. CYCLE    7 ..............................
........................................................................

 iter      E             dE          RMSdq      gap      omega  full diag
   1   -244.6313633 -0.244631E+03  0.346E-02    0.64       0.0  T
   2   -244.6313671 -0.381718E-05  0.203E-02    0.64       1.0  T
   3   -244.6313627  0.441522E-05  0.695E-03    0.64       1.3  T
   4   -244.6313668 -0.407314E-05  0.270E-03    0.64       3.3  T
   5   -244.6313676 -0.879584E-06  0.171E-03    0.64       5.2  T
   6   -244.6313682 -0.577093E-06  0.618E-04    0.64      14.4  T
   7   -244.6313683 -0.257607E-07  0.339E-04    0.64      26.2  T
     SCC iter.                  ...        0 min,  0.354 sec
     gradient                   ...        0 min,  0.049 sec
 * total energy  :  -241.9848149 Eh     change       -0.2393984E-03 Eh
   gradient norm :     0.0054355 Eh/α   predicted    -0.1741544E-03 ( -27.25%)
   displ. norm   :     0.2914924 α      lambda       -0.2751790E-03
   maximum displ.:     0.1164264 α      in ANC's #10, #11, #13, ...

........................................................................
.............................. CYCLE    8 ..............................
........................................................................

 iter      E             dE          RMSdq      gap      omega  full diag
   1   -244.6325050 -0.244633E+03  0.354E-02    0.64       0.0  T
   2   -244.6325089 -0.390187E-05  0.207E-02    0.64       1.0  T
   3   -244.6325034  0.552822E-05  0.810E-03    0.64       1.1  T
   4   -244.6325100 -0.661840E-05  0.179E-03    0.64       5.0  T
   5   -244.6325103 -0.314892E-06  0.961E-04    0.64       9.2  T
   6   -244.6325104 -0.600064E-07  0.649E-04    0.64      13.7  T
     SCC iter.                  ...        0 min,  0.341 sec
     gradient                   ...        0 min,  0.035 sec
 * total energy  :  -241.9850212 Eh     change       -0.2062753E-03 Eh
   gradient norm :     0.0043746 Eh/α   predicted    -0.1492942E-03 ( -27.62%)
   displ. norm   :     0.3211649 α      lambda       -0.2472310E-03
   maximum displ.:     0.1274944 α      in ANC's #10, #11, #13, ...

........................................................................
.............................. CYCLE    9 ..............................
........................................................................

 iter      E             dE          RMSdq      gap      omega  full diag
   1   -244.6334743 -0.244633E+03  0.375E-02    0.64       0.0  T
   2   -244.6334770 -0.276716E-05  0.220E-02    0.64       1.0  T
   3   -244.6334703  0.676279E-05  0.771E-03    0.64       1.2  T
   4   -244.6334758 -0.556648E-05  0.336E-03    0.64       2.6  T
   5   -244.6334778 -0.197783E-05  0.156E-03    0.64       5.7  T
   6   -244.6334782 -0.420462E-06  0.539E-04    0.64      16.5  T
   7   -244.6334783 -0.113147E-07  0.270E-04    0.64      32.8  T
     SCC iter.                  ...        0 min,  0.273 sec
     gradient                   ...        0 min,  0.036 sec
 * total energy  :  -241.9852117 Eh     change       -0.1905369E-03 Eh
   gradient norm :     0.0047578 Eh/α   predicted    -0.1363684E-03 ( -28.43%)
   displ. norm   :     0.3678382 α      lambda       -0.2483061E-03
   maximum displ.:     0.1506099 α      in ANC's #11, #13, #10, ...

........................................................................
.............................. CYCLE   10 ..............................
........................................................................

 iter      E             dE          RMSdq      gap      omega  full diag
   1   -244.6339113 -0.244634E+03  0.414E-02    0.64       0.0  T
   2   -244.6339134 -0.210448E-05  0.243E-02    0.64       1.0  T
   3   -244.6339099  0.350258E-05  0.543E-03    0.64       1.6  T
   4   -244.6339130 -0.310075E-05  0.242E-03    0.64       3.7  T
   5   -244.6339138 -0.821728E-06  0.136E-03    0.64       6.5  T
   6   -244.6339141 -0.287106E-06  0.602E-04    0.64      14.7  T
   7   -244.6339141 -0.325757E-07  0.270E-04    0.64      32.9  T
     SCC iter.                  ...        0 min,  0.319 sec
     gradient                   ...        0 min,  0.047 sec
 * total energy  :  -241.9854078 Eh     change       -0.1960677E-03 Eh
   gradient norm :     0.0053479 Eh/α   predicted    -0.1409574E-03 ( -28.11%)
   displ. norm   :     0.4249532 α      lambda       -0.2674246E-03
   maximum displ.:     0.1767818 α      in ANC's #11, #13, #10, ...

........................................................................
.............................. CYCLE   11 ..............................
........................................................................

 iter      E             dE          RMSdq      gap      omega  full diag
   1   -244.6337809 -0.244634E+03  0.467E-02    0.64       0.0  T
   2   -244.6337830 -0.202392E-05  0.274E-02    0.64       1.0  T
   3   -244.6337798  0.315711E-05  0.470E-03    0.64       1.9  T
   4   -244.6337810 -0.121338E-05  0.338E-03    0.64       2.6  T
   5   -244.6337834 -0.239018E-05  0.110E-03    0.64       8.1  T
   6   -244.6337835 -0.124557E-06  0.600E-04    0.64      14.8  T
   7   -244.6337836 -0.408972E-07  0.237E-04    0.64      37.4  T
     SCC iter.                  ...        0 min,  0.320 sec
     gradient                   ...        0 min,  0.037 sec
 * total energy  :  -241.9856221 Eh     change       -0.2142572E-03 Eh
   gradient norm :     0.0052424 Eh/α   predicted    -0.1578622E-03 ( -26.32%)
   displ. norm   :     0.4764050 α      lambda       -0.2833139E-03
   maximum displ.:     0.1968467 α      in ANC's #11, #13, #10, ...

........................................................................
.............................. CYCLE   12 ..............................
........................................................................

 iter      E             dE          RMSdq      gap      omega  full diag
   1   -244.6333006 -0.244633E+03  0.523E-02    0.64       0.0  T
   2   -244.6333031 -0.255904E-05  0.307E-02    0.64       1.0  T
   3   -244.6332974  0.574023E-05  0.604E-03    0.64       1.5  T
   4   -244.6333002 -0.284365E-05  0.402E-03    0.64       2.2  T
   5   -244.6333037 -0.348382E-05  0.129E-03    0.64       6.9  T
   6   -244.6333039 -0.204029E-06  0.636E-04    0.64      14.0  T
   7   -244.6333039 -0.264198E-07  0.353E-04    0.64      25.1  T
     SCC iter.                  ...        0 min,  0.274 sec
     gradient                   ...        0 min,  0.036 sec
 * total energy  :  -241.9858478 Eh     change       -0.2257650E-03 Eh
   gradient norm :     0.0048087 Eh/α   predicted    -0.1738123E-03 ( -23.01%)
   displ. norm   :     0.5046521 α      lambda       -0.2705090E-03
   maximum displ.:     0.2030126 α      in ANC's #11, #10, #13, ...

........................................................................
.............................. CYCLE   13 ..............................
........................................................................

 iter      E             dE          RMSdq      gap      omega  full diag
   1   -244.6326536 -0.244633E+03  0.562E-02    0.64       0.0  T
   2   -244.6326571 -0.349968E-05  0.328E-02    0.64       1.0  T
   3   -244.6326501  0.705143E-05  0.668E-03    0.64       1.3  T
   4   -244.6326536 -0.356711E-05  0.442E-03    0.64       2.0  T
   5   -244.6326578 -0.419039E-05  0.147E-03    0.64       6.1  T
   6   -244.6326581 -0.298770E-06  0.683E-04    0.64      13.0  T
   7   -244.6326581 -0.211246E-07  0.416E-04    0.64      21.3  T
     SCC iter.                  ...        0 min,  0.271 sec
     gradient                   ...        0 min,  0.036 sec
 * total energy  :  -241.9860609 Eh     change       -0.2130772E-03 Eh
   gradient norm :     0.0049515 Eh/α   predicted    -0.1697035E-03 ( -20.36%)
   displ. norm   :     0.4863598 α      lambda       -0.2387819E-03
   maximum displ.:     0.1856340 α      in ANC's #11, #5, #10, ...

........................................................................
.............................. CYCLE   14 ..............................
........................................................................

 iter      E             dE          RMSdq      gap      omega  full diag
   1   -244.6328291 -0.244633E+03  0.553E-02    0.64       0.0  T
   2   -244.6328325 -0.347697E-05  0.323E-02    0.64       1.0  T
   3   -244.6328268  0.576933E-05  0.608E-03    0.64       1.5  T
   4   -244.6328294 -0.259997E-05  0.424E-03    0.64       2.1  T
   5   -244.6328332 -0.388033E-05  0.136E-03    0.64       6.5  T
   6   -244.6328335 -0.226876E-06  0.701E-04    0.64      12.7  T
   7   -244.6328335 -0.350647E-07  0.384E-04    0.64      23.1  T
     SCC iter.                  ...        0 min,  0.306 sec
     gradient                   ...        0 min,  0.060 sec
 * total energy  :  -241.9862478 Eh     change       -0.1868503E-03 Eh
   gradient norm :     0.0052105 Eh/α   predicted    -0.1476341E-03 ( -20.99%)
   displ. norm   :     0.4929940 α      lambda       -0.2104782E-03
   maximum displ.:     0.1784933 α      in ANC's #11, #5, #9, ...

........................................................................
.............................. CYCLE   15 ..............................
........................................................................

 iter      E             dE          RMSdq      gap      omega  full diag
   1   -244.6322657 -0.244632E+03  0.553E-02    0.64       0.0  T
   2   -244.6322700 -0.431932E-05  0.323E-02    0.64       1.0  T
   3   -244.6322654  0.459015E-05  0.598E-03    0.64       1.5  T
   4   -244.6322674 -0.201133E-05  0.398E-03    0.64       2.2  T
   5   -244.6322706 -0.317738E-05  0.157E-03    0.64       5.7  T
   6   -244.6322710 -0.354152E-06  0.742E-04    0.64      12.0  T
   7   -244.6322710 -0.550750E-07  0.383E-04    0.64      23.2  T
     SCC iter.                  ...        0 min,  0.288 sec
     gradient                   ...        0 min,  0.036 sec
 * total energy  :  -241.9864108 Eh     change       -0.1630502E-03 Eh
   gradient norm :     0.0055454 Eh/α   predicted    -0.1308221E-03 ( -19.77%)
   displ. norm   :     0.4394318 α      lambda       -0.2205545E-03
   maximum displ.:     0.1794357 α      in ANC's #5, #9, #6, ...

   *** FAILED TO CONVERGE GEOMETRY OPTIMIZATION IN 15 ITERATIONS ***


 ANCopt (total)                0 d,  0 h,  0 min,  5.738 sec
 optimizer setup                ...        0 min,  0.001 sec (  0.017%)
 model hessian                  ...        0 min,  0.062 sec (  1.081%)
 ANC generation                 ...        0 min,  0.023 sec (  0.401%)
 coordinate transformation      ...        0 min,  0.004 sec (  0.070%)
 single point calculation       ...        0 min,  5.605 sec ( 97.682%)
 optimization log               ...        0 min,  0.031 sec (  0.540%)
 hessian update                 ...        0 min,  0.006 sec (  0.105%)
 rational function              ...        0 min,  0.005 sec (  0.087%)

================
 final structure:
================
127
 xtb: 6.7.1pre (5071a88)
O           -0.21100831914734        0.29114097311902        8.28610356573625
C            0.04642938981279       -0.26937742940284        9.33232871582316
C            0.65439046937473        0.49053928040760       10.47439743179904
C           -0.02537935388494        1.58889731660758       10.97957490791955
C            0.52819047511614        2.38870721081076       11.97041829827001
C           -0.24906633395070        3.57323490476608       12.48374993079002
C           -0.83728903653481        4.36201548890893       11.34735616907950
N           -2.12231505351109        4.32718482449830       11.23861108051576
N           -2.71964207756692        4.98278841331865       10.24350367664012
C           -2.11702377823916        5.74064288986469        9.25993644550615
O           -2.78875590390133        6.31025618552080        8.42385380160988
C           -0.65532199707962        5.76674486350693        9.36214639695560
C            0.08879994975898        6.47582156384380        8.41746963486242
C            1.46118598050995        6.50969181873689        8.50619488358231
C            2.10754689122740        5.83196158704443        9.53921518576658
C            1.38814871505605        5.12634032618978       10.47633334540622
C           -0.00999030689240        5.08004918031890       10.40689366900206
C            1.79119470288425        2.08018477332871       12.45806818632581
C            2.49286758862873        0.99367473553689       11.96597639161759
C            1.91901169733508        0.21617515511176       10.97856556516453
F            2.61557750947723       -0.83748750563413       10.49994832399147
N           -0.20880842268777       -1.57768615107234        9.54986892268378
C           -0.84352698692120       -2.34310900400653        8.49204985418315
C           -0.51482543749504       -3.82519948592948        8.60762477151552
N           -0.90760939605432       -4.33687640202973        9.91100863563133
C           -0.86761071949388       -5.64872597788463       10.26597557721866
O           -1.04680540294320       -5.99820559499910       11.41586817541890
C           -0.58868678695702       -6.62005559808541        9.16394093163440
C           -0.30113965566887       -8.03859110159841        9.55285956638118
C            0.81034870548881       -7.17156165703403        9.06681204456867
C           -1.09313524577028       -3.34319451710601       10.94893389438841
C           -0.03715130679449       -2.25428790859506       10.81858284313309
H           -1.00291269742282        1.81916180806405       10.58498471249902
H            0.39093583055575        4.21024712370370       13.09711280150449
H           -1.08060159957059        3.22364884878910       13.10006158283546
H           -3.73141820579625        4.90304224160323       10.22936863445646
H           -0.44456737619267        6.98424526119698        7.62851374543284
H            2.04037842515380        7.05773445032429        7.77837416739583
H            3.18534105774985        5.86011367784525        9.60308810810764
H            1.90289111010806        4.59887724780591       11.26344401620595
H            2.23597960533010        2.69323760375601       13.22812959680192
H            3.47658139852252        0.74664956390235       12.33225982923095
H           -1.93044809197743       -2.20005284348101        8.53251403707929
H           -0.49247552756879       -1.94600225745453        7.53647502037716
H            0.55950010685255       -3.98417138806778        8.45145545306091
H           -1.05362116320124       -4.35256840001160        7.81709581412892
H           -1.11982533328686       -6.44196378789349        8.24114906896961
H           -0.34026422526781       -8.25736035509052       10.60741612470301
H           -0.66352182516424       -8.82892825011813        8.91559980587172
H            1.21741878534058       -7.34549872667324        8.08320307324953
H            1.53307230652408       -6.82462502440619        9.78732012929775
H           -2.09438335944480       -2.90296343837821       10.88015080255017
H           -1.00539494632566       -3.85879361543028       11.90781064803373
H           -0.13951823623394       -1.53704721962158       11.63698390486487
H            0.96107274015024       -2.70706823022439       10.87721447974526
B            3.45661427975050       -1.48009236064487        1.65641777695669
N            3.45203539861558        1.11074790132848        0.99527981422736
B            2.53655858875008        2.36591354855669       -1.19329895969846
N            2.29233747731195       -0.62293681061098       -2.69433058545876
B            0.68762538390410       -3.60019912097179        2.70907550352299
N           -2.94359982815931       -2.68759737251222        1.72369803272523
B           -1.04467670100829        4.05698148578764        1.91815829548024
N           -0.61998446940586        0.04689432528020       -3.90072697228745
B           -0.47398744065712        1.47628479345842       -4.03458943830696
N            1.21061783803012       -3.78056143205722       -1.73627994539745
B           -3.84637563492614        2.20252905035801       -0.43005453306320
N           -2.77486733750696        2.76440677562597       -1.14228399622211
B            1.40494244533150        0.85856653020872       -4.83820998277280
N           -0.24187013967213        3.32616411483946        2.91157653972089
B            0.89924553015287       -2.86079611986438       -2.80059799399184
N           -0.49471355526038        3.76666525094066       -0.92960724733952
B           -0.81163894232207        2.14042059997553        3.35318441870512
N            1.64906617626936       -1.32109416766024        3.52835096112255
B           -0.25049278274156        3.48416837774556       -2.30186765235743
N            1.29988930797107        0.01729007808538        3.85440501831416
B           -1.59732847614510       -0.53950923226511       -3.04871939211729
N           -3.83487090154076        1.75570669263261        0.89023102290671
B            0.33115624618671        4.47202932230846        1.27296915519397
N            0.03799754474602       -0.07128495159816        4.49830625517253
B           -2.71288001738030        2.20009169372001        1.66701879561995
N            3.77092525200684       -0.13361701269340       -0.72330412781374
B           -2.25464812535701       -3.66189239269415        1.01097417534305
N            1.04953486998706        3.69936820318387        2.31627288597618
B           -1.82928784639662       -0.82348192052304        3.25299812909790
N           -2.43652085590157       -3.60954444484094       -0.44726529707174
B            3.01740006084198       -1.06679199885936       -1.47053883582168
N           -3.15705140053522       -1.26109135460420       -0.35545919666948
B            2.02943345737168        2.89649300273740        1.63559455948743
N           -0.50634212401279       -2.88558146929589       -2.42009648396924
B           -1.67292444706256       -2.09835794984509       -2.47179808315939
N            0.58660576297079        3.95603472557941       -0.02722261705951
B            1.08858779122725        2.98296027590545       -3.11001535251942
N            0.07549462817453       -4.38915717306623        1.71940287163422
B           -1.78714036084591        3.44577620166205       -0.33002074240552
N           -2.01767451996132        3.39744176717240        1.10834779819308
B            1.46403289175944       -4.23599947289170        1.49805062035482
N           -0.80064368204281        1.00630457151398        4.24042109536570
B           -2.66573377706000       -2.40136512236468       -1.15874919445065
N           -1.07595797255543       -4.50832688470984        0.98681216596281
B           -2.50311058288516        0.50137645354790       -2.06169920076705
N            2.35125879103204       -3.90101132300712        0.45620388272235
B            3.90957000360435       -0.21848231160813        0.76783707417368
N            1.92697806580078        1.97305430580120       -2.40258343994280
B            1.00003616138915        2.29198650593331       -4.55722453150663
N           -4.18637733019234        0.82002802072010       -0.29669451918905
B           -1.33965653370101        2.47431275360185       -3.04747884179826
N           -2.36032091776186        1.94471548585449       -2.24397729981352
B            3.07139021073645       -2.66000679790681        0.61689947177840
N            2.33566702354983       -3.67347146947847       -0.96564987317324
B            2.21338615604840        0.50797005310632        2.85906033911635
N           -2.02600502471234        0.56064559283244        3.64207419745358
B           -1.10114108347959       -4.19034543682312       -0.44234336996761
N           -3.21683104365355        0.03946882446127       -0.91569137201352
B            3.44436569475241        1.25485146659851       -0.45710708269264
N            2.57802865947580        1.60337426701677        1.99703500586261
B            1.47220504849471       -1.52837246696073       -3.48886373565243
N           -2.10697656487237        1.71467883637158        2.82042766607468
B            2.03955947185302        0.73590976685405       -3.16154766386671
N           -2.72560191937159       -1.38084594022801        2.34915498757525
B            0.65862674893252       -0.50306764522490       -4.45059843371645
N           -0.16776832921115       -3.75625615140957       -1.35269768526052
B            0.48052130413427       -2.15322353068273        3.45525044080894
N           -0.59309921596489       -1.25879245075125        3.85887447131636
B           -3.22516578769882       -1.47491563179136        1.02690168587820
N            2.66781613788275       -0.89287765545137        2.65506013711647
B            1.87461722225368        3.33058535936944       -0.02857273700509
N            2.87631770867257       -2.33285885301374       -0.77439621414645
 
 Bond Distances (Angstroems)
 ---------------------------
O1-C2=1.2145         C2-O1=1.2145         C2-C3=1.5005         C2-N22=1.3506        C3-C2=1.5005         C3-C4=1.3870         
C3-C20=1.3888        C4-C3=1.3870         C4-C5=1.3885         C4-H33=1.0790        C5-C4=1.3885         C5-C6=1.5069         
C5-C18=1.3886        C6-C5=1.5069         C6-C7=1.5032         C6-H34=1.0916        C6-H35=1.0925        C7-C6=1.5032         
C7-N8=1.2901         C7-C17=1.4438        N8-C7=1.2901         N8-N9=1.3330         N9-N8=1.3330         N9-C10=1.3802        
N9-H36=1.0150        C10-N9=1.3802        C10-O11=1.2144       C10-C12=1.4655       O11-C10=1.2144       C12-C10=1.4655       
C12-C13=1.3960       C12-C17=1.4069       C13-C12=1.3960       C13-C14=1.3757       C13-H37=1.0795       C14-C13=1.3757       
C14-C15=1.3944       C14-H38=1.0796       C15-C14=1.3944       C15-C16=1.3761       C15-H39=1.0801       C16-C15=1.3761       
C16-C17=1.4006       C16-H40=1.0783       C17-C7=1.4438        C17-C12=1.4069       C17-C16=1.4006       C18-C5=1.3886        
C18-C19=1.3838       C18-H41=1.0801       C19-C18=1.3838       C19-C20=1.3816       C19-H42=1.0784       C20-C3=1.3888        
C20-C19=1.3816       C20-F21=1.3507       F21-C20=1.3507       N22-C2=1.3506        N22-C23=1.4518       N22-C32=1.4481       
C23-N22=1.4518       C23-C24=1.5225       C23-H43=1.0970       C23-H44=1.0927       C24-C23=1.5225       C24-N25=1.4543       
C24-H45=1.0972       C24-H46=1.0924       N25-C24=1.4543       N25-C26=1.3596       N25-C31=1.4488       C26-N25=1.3596       
C26-O27=1.2151       C26-C28=1.4952       O27-C26=1.2151       C28-C26=1.4952       C28-C29=1.4987       C28-C30=1.5069       
C28-H47=1.0795       C29-C28=1.4987       C29-C30=1.4911       C29-H48=1.0777       C29-H49=1.0780       C30-C28=1.5069       
C30-C29=1.4911       C30-H50=1.0786       C30-H51=1.0779       C31-N25=1.4488       C31-C32=1.5224       C31-H52=1.0959       
C31-H53=1.0922       C32-N22=1.4481       C32-C31=1.5224       C32-H54=1.0930       C32-H55=1.0977       H33-C4=1.0790        
H34-C6=1.0916        H35-C6=1.0925        H36-N9=1.0150        H37-C13=1.0795       H38-C14=1.0796       H39-C15=1.0801       
H40-C16=1.0783       H41-C18=1.0801       H42-C19=1.0784       H43-C23=1.0970       H44-C23=1.0927       H45-C24=1.0972       
H46-C24=1.0924       H47-C28=1.0795       H48-C29=1.0777       H49-C29=1.0780       H50-C30=1.0786       H51-C30=1.0779       
H52-C31=1.0959       H53-C31=1.0922       H54-C32=1.0930       H55-C32=1.0977       B56-B102=1.6082      B56-B108=1.6190      
B56-N125=1.4015      N57-B102=1.4241      N57-B114=1.4595      N57-N115=1.4178      B58-N103=1.4101      B58-B114=1.6126      
B58-B126=1.6509      N59-B86=1.4901       N59-B116=1.4573      N59-B118=1.4590      B60-N93=1.4059       B60-B96=1.5728       
B60-B122=1.6412      N61-B82=1.3899       N61-N119=1.4650      N61-B124=1.4267      B62-N69=1.4716       B62-B78=1.5753       
B62-N95=1.4274       N63-B64=1.4430       N63-B76=1.4230       N63-B120=1.4966      B64-N63=1.4430       B64-B68=2.1349       
B64-B104=1.7639      B64-B106=1.6492      N65-B70=1.4407       N65-N109=1.3679      N65-N121=1.4310      B66-N67=1.4040       
B66-N77=1.3939       B66-N105=1.4299      N67-B66=1.4040       N67-B94=1.4490       N67-N107=1.4344      B68-B64=2.1349       
B68-B104=1.5158      B68-B118=1.7969      B68-B120=1.6004      N69-B62=1.4716       N69-B72=1.3877       N69-N83=1.4702       
B70-N65=1.4407       B70-N89=1.4564       B70-B116=1.6054      B70-N121=2.0092      N71-B74=1.4222       N71-N91=1.4211       
N71-B94=1.4604       B72-N69=1.3877       B72-N97=1.4400       B72-N111=2.0134      B72-N117=1.4639      N73-N75=1.4211       
N73-B122=1.4364      N73-N125=1.4085      B74-N71=1.4222       B74-B92=1.6424       B74-B106=1.6619      N75-N73=1.4211       
N75-N79=1.4194       N75-B110=1.4373      B76-N63=1.4230       B76-B90=1.6639       B76-B100=1.6965      N77-B66=1.3939       
N77-B80=1.4352       N77-N105=1.5517      B78-B62=1.5753       B78-N83=1.4838       B78-N91=1.4220       N79-N75=1.4194       
N79-N97=1.3896       N79-N123=1.4891      B80-N77=1.4352       B80-N95=1.4930       B80-N117=1.3904      N81-B86=1.4131       
N81-B102=1.5000      N81-B114=1.4510      B82-N61=1.3899       B82-N85=1.4705       B82-N99=1.4513       B82-B112=1.9292      
N83-N69=1.4702       N83-B78=1.4838       N83-B88=1.4381       B84-N111=1.4512      B84-N119=1.3896      B84-N123=1.4439      
N85-B82=1.4705       N85-B98=1.4207       N85-B112=1.4562      B86-N59=1.4901       B86-N81=1.4131       B86-N127=1.4517      
N87-B98=1.4788       N87-N113=1.4174      N87-B124=1.4005      B88-N83=1.4381       B88-N115=1.4504      B88-B126=1.7268      
N89-B70=1.4564       N89-B90=1.4083       N89-N121=1.4185      B90-B76=1.6639       B90-N89=1.4083       B90-B98=1.6738       
N91-N71=1.4211       N91-B78=1.4220       N91-B126=1.4318      B92-B74=1.6424       B92-N103=1.4911      B92-B104=1.6061      
N93-B60=1.4059       N93-B96=1.4144       N93-N99=1.3699       B94-N67=1.4490       B94-N71=1.4604       B94-N95=1.4575       
N95-B62=1.4274       N95-B80=1.4930       N95-B94=1.4575       B96-B60=1.5728       B96-N93=1.4144       B96-N101=1.4088      
N97-B72=1.4400       N97-N79=1.3896       N97-N111=1.4346      B98-N85=1.4207       B98-N87=1.4788       B98-B90=1.6738       
N99-B82=1.4513       N99-N93=1.3699       N99-B112=1.4643      B100-B76=1.6965      B100-N107=1.4618     B100-N113=1.4269     
N101-B96=1.4088      N101-B108=1.4438     N101-N109=1.4400     B102-B56=1.6082      B102-N57=1.4241      B102-N81=1.5000      
B102-B114=1.9717     N103-B58=1.4101      N103-B92=1.4911      N103-B118=1.4558     B104-B64=1.7639      B104-B68=1.5158      
B104-B92=1.6061      N105-B66=1.4299      N105-N77=1.5517      N105-N113=1.3901     B106-B64=1.6492      B106-B74=1.6619      
B106-N107=1.4028     N107-N67=1.4344      N107-B100=1.4618     N107-B106=1.4028     B108-B56=1.6190      B108-N101=1.4438     
B108-N127=1.4425     N109-N65=1.3679      N109-N101=1.4400     N109-N127=1.4581     B110-N75=1.4373      B110-N115=1.4408     
B110-N125=1.4868     N111-B72=2.0134      N111-B84=1.4512      N111-N97=1.4346      N111-N117=1.4190     B112-B82=1.9292      
B112-N85=1.4562      B112-N99=1.4643      B112-N121=1.3742     N113-N87=1.4174      N113-B100=1.4269     N113-N105=1.3901     
B114-N57=1.4595      B114-B58=1.6126      B114-N81=1.4510      B114-B102=1.9717     N115-N57=1.4178      N115-B88=1.4504      
N115-B110=1.4408     B116-N59=1.4573      B116-B70=1.6054      B116-B120=1.6242     N117-B72=1.4639      N117-B80=1.3904      
N117-N111=1.4190     B118-N59=1.4590      B118-B68=1.7969      B118-N103=1.4558     N119-N61=1.4650      N119-B84=1.3896      
N119-B124=1.4166     B120-N63=1.4966      B120-B68=1.6004      B120-B116=1.6242     N121-N65=1.4310      N121-B70=2.0092      
N121-N89=1.4185      N121-B112=1.3742     B122-B60=1.6412      B122-N73=1.4364      B122-N123=1.4545     N123-N79=1.4891      
N123-B84=1.4439      N123-B122=1.4545     B124-N61=1.4267      B124-N87=1.4005      B124-N119=1.4166     N125-B56=1.4015      
N125-N73=1.4085      N125-B110=1.4868     B126-B58=1.6509      B126-B88=1.7268      B126-N91=1.4318      N127-B86=1.4517      
N127-B108=1.4425     N127-N109=1.4581     
 B  B  Rav=1.6893 sigma=0.1390  Rmin=1.5158  Rmax=2.1349    24
 C  H  Rav=1.0859 sigma=0.0078  Rmin=1.0777  Rmax=1.0977    22
 C  C  Rav=1.4402 sigma=0.0560  Rmin=1.3757  Rmax=1.5225    23
 N  H  Rav=1.0150 sigma=0.0000  Rmin=1.0150  Rmax=1.0150     1
 N  B  Rav=1.4559 sigma=0.1010  Rmin=1.3742  Rmax=2.0134    68
 N  C  Rav=1.3979 sigma=0.0579  Rmin=1.2901  Rmax=1.4543     8
 N  N  Rav=1.4258 sigma=0.0443  Rmin=1.3330  Rmax=1.5517    22
 O  C  Rav=1.2147 sigma=0.0003  Rmin=1.2144  Rmax=1.2151     3
 F  C  Rav=1.3507 sigma=0.0000  Rmin=1.3507  Rmax=1.3507     1
 
 selected bond angles (degree)
 --------------------
C3-C2-O1=120.52                N22-C2-O1=123.08               N22-C2-C3=116.40               C4-C3-C2=118.67                
C20-C3-C2=123.04               C20-C3-C4=118.07               C5-C4-C3=121.38                H33-C4-C3=118.67               
H33-C4-C5=119.95               C6-C5-C4=119.36                C18-C5-C4=119.03               C18-C5-C6=121.61               
C7-C6-C5=110.90                H34-C6-C5=110.35               H34-C6-C7=110.36               H35-C6-C5=109.47               
H35-C6-C7=107.25               H35-C6-H34=108.42              N8-C7-C6=116.06                C17-C7-C6=121.95               
C17-C7-N8=121.96               N9-N8-C7=119.74                C10-N9-N8=127.33               H36-N9-N8=114.74               
H36-N9-C10=117.93              O11-C10-N9=120.44              C12-C10-N9=113.30              C12-C10-O11=126.25             
 
 selected dihedral angles (degree)
 ---------------------------------
C4-C3-C2-O1= 58.12            C4-C3-C2-N22=239.19           C20-C3-C2-O1=243.69           C20-C3-C2-N22= 64.76          
C5-C4-C3-C2=184.64            C5-C4-C3-C20=359.34           H33-C4-C3-C2=  4.45           H33-C4-C3-C20=179.16          
C6-C5-C4-C3=179.84            C6-C5-C4-H33=  0.03           C18-C5-C4-C3=  0.24           C18-C5-C4-H33=180.43          
C7-C6-C5-C4=314.25            C7-C6-C5-C18=133.83           H34-C6-C5-C4=191.64           H34-C6-C5-C18= 11.22          
H35-C6-C5-C4= 72.39           H35-C6-C5-C18=251.98          N8-C7-C6-C5=111.46            N8-C7-C6-H34=234.07           
N8-C7-C6-H35=351.99           C17-C7-C6-C5=293.44           C17-C7-C6-H34= 56.04          C17-C7-C6-H35=173.96          
N9-N8-C7-C6=181.10            N9-N8-C7-C17=359.12           C10-N9-N8-C7=359.76           H36-N9-N8-C7=179.93           
O11-C10-N9-N8=181.53          O11-C10-N9-H36=  1.36         C12-C10-N9-N8=  1.23          C12-C10-N9-H36=181.05         
 
 CMA Distance (Angstroems)
 ---------------------------
R(CMA): 10.0185
           -------------------------------------------------
          |                Final Singlepoint                |
           -------------------------------------------------

          ...................................................
          :                      SETUP                      :
          :.................................................:
          :  # basis functions                 439          :
          :  # atomic orbitals                 439          :
          :  # shells                          231          :
          :  # electrons                       452          :
          :  max. iterations                   500          :
          :  Hamiltonian                  GFN2-xTB          :
          :  restarted?                      false          :
          :  GBSA solvation                  false          :
          :  PC potential                    false          :
          :  electronic temp.          300.0000000     K    :
          :  accuracy                    1.0000000          :
          :  -> integral cutoff          0.2500000E+02      :
          :  -> integral neglect         0.1000000E-07      :
          :  -> SCF convergence          0.1000000E-05 Eh   :
          :  -> wf. convergence          0.1000000E-03 e    :
          :  Broyden damping             0.4000000          :
          :  net charge                          0          :
          :  unpaired electrons                  0          :
          ...................................................

 iter      E             dE          RMSdq      gap      omega  full diag
   1   -244.6368939 -0.244637E+03  0.574E-02    0.64       0.0  T
   2   -244.6368982 -0.429709E-05  0.335E-02    0.64       1.0  T
   3   -244.6368939  0.434805E-05  0.625E-03    0.64       1.4  T
   4   -244.6368966 -0.274690E-05  0.355E-03    0.64       2.5  T
   5   -244.6368991 -0.252089E-05  0.139E-03    0.64       6.4  T
   6   -244.6368993 -0.188328E-06  0.802E-04    0.64      11.1  T
   7   -244.6368994 -0.712180E-07  0.369E-04    0.64      24.0  T

   *** convergence criteria satisfied after 7 iterations ***

         #    Occupation            Energy/Eh            Energy/eV
      -------------------------------------------------------------
         1        2.0000           -0.8230808             -22.3972
       ...           ...                  ...                  ...
       220        2.0000           -0.3255425              -8.8585
       221        2.0000           -0.3227231              -8.7817
       222        2.0000           -0.3211615              -8.7393
       223        2.0000           -0.3192566              -8.6874
       224        2.0000           -0.3138823              -8.5412
       225        2.0000           -0.3118483              -8.4858
       226        2.0000           -0.3049048              -8.2969 (HOMO)
       227        0.0000           -0.2813485              -7.6559 (LUMO)
       228                         -0.2739678              -7.4550
       229                         -0.2729857              -7.4283
       230                         -0.2631764              -7.1614
       231                         -0.2629011              -7.1539
       ...                                ...                  ...
       439                          0.9854419              26.8152
      -------------------------------------------------------------
                  HL-Gap            0.0235563 Eh            0.6410 eV
             Fermi-level           -0.2931266 Eh           -7.9764 eV

 SCC (total)                   0 d,  0 h,  0 min,  0.392 sec
 SCC setup                      ...        0 min,  0.001 sec (  0.255%)
 Dispersion                     ...        0 min,  0.001 sec (  0.255%)
 classical contributions        ...        0 min,  0.000 sec (  0.000%)
 integral evaluation            ...        0 min,  0.013 sec (  3.316%)
 iterations                     ...        0 min,  0.336 sec ( 85.714%)
 molecular gradient             ...        0 min,  0.038 sec (  9.694%)
 printout                       ...        0 min,  0.003 sec (  0.765%)

         :::::::::::::::::::::::::::::::::::::::::::::::::::::
         ::                     SUMMARY                     ::
         :::::::::::::::::::::::::::::::::::::::::::::::::::::
         :: total energy            -241.986518305051 Eh    ::
         :: gradient norm              0.007617964449 Eh/a0 ::
         :: HOMO-LUMO gap              0.640999834365 eV    ::
         ::.................................................::
         :: SCC energy              -244.621257746422 Eh    ::
         :: -> isotropic ES            0.758152397349 Eh    ::
         :: -> anisotropic ES         -0.027264246580 Eh    ::
         :: -> anisotropic XC          0.098006749872 Eh    ::
         :: -> dispersion             -0.208635336451 Eh    ::
         :: repulsion energy           2.634739441372 Eh    ::
         :: add. restraining           0.000000000000 Eh    ::
         :: total charge               0.000000001437 e     ::
         :::::::::::::::::::::::::::::::::::::::::::::::::::::

           -------------------------------------------------
          |                Property Printout                |
           -------------------------------------------------

    * Orbital Energies and Occupations

         #    Occupation            Energy/Eh            Energy/eV
      -------------------------------------------------------------
         1        2.0000           -0.8230808             -22.3972
       ...           ...                  ...                  ...
       214        2.0000           -0.3380441              -9.1986
       215        2.0000           -0.3366725              -9.1613
       216        2.0000           -0.3333517              -9.0710
       217        2.0000           -0.3306539              -8.9975
       218        2.0000           -0.3282458              -8.9320
       219        2.0000           -0.3273803              -8.9085
       220        2.0000           -0.3255425              -8.8585
       221        2.0000           -0.3227231              -8.7817
       222        2.0000           -0.3211615              -8.7393
       223        2.0000           -0.3192566              -8.6874
       224        2.0000           -0.3138823              -8.5412
       225        2.0000           -0.3118483              -8.4858
       226        2.0000           -0.3049048              -8.2969 (HOMO)
       227        0.0000           -0.2813485              -7.6559 (LUMO)
       228                         -0.2739678              -7.4550
       229                         -0.2729857              -7.4283
       230                         -0.2631764              -7.1614
       231                         -0.2629011              -7.1539
       232                         -0.2546882              -6.9304
       233                         -0.2494674              -6.7884
       234                         -0.2436129              -6.6290
       235                         -0.2435615              -6.6276
       236                         -0.2323207              -6.3218
       237                         -0.2293766              -6.2417
       ...                                ...                  ...
       439                          0.9854419              26.8152
      -------------------------------------------------------------
                  HL-Gap            0.0235563 Eh            0.6410 eV
             Fermi-level           -0.2931266 Eh           -7.9764 eV

     #   Z          covCN         q      C6AA      α(0)
     1   8 O        0.859    -0.425    22.193     6.316
     2   6 C        2.770     0.268    22.483     7.766
     3   6 C        2.969    -0.030    28.753     8.796
     4   6 C        2.935    -0.033    28.832     8.806
     5   6 C        2.970     0.017    27.636     8.623
     6   6 C        3.819    -0.076    21.937     6.666
     7   6 C        2.921     0.082    26.167     8.389
     8   7 N        1.910    -0.175    25.587     7.500
     9   7 N        2.797    -0.055    22.305     7.014
    10   6 C        2.758     0.259    22.640     7.792
    11   8 O        0.859    -0.434    22.376     6.342
    12   6 C        2.988    -0.012    28.300     8.726
    13   6 C        2.920    -0.019    28.488     8.753
    14   6 C        2.918    -0.024    28.594     8.769
    15   6 C        2.918    -0.022    28.558     8.763
    16   6 C        2.918    -0.033    28.832     8.805
    17   6 C        2.978     0.002    27.971     8.675
    18   6 C        2.928    -0.039    28.971     8.827
    19   6 C        2.916    -0.051    29.259     8.870
    20   6 C        2.788     0.164    24.452     8.100
    21   9 F        0.787    -0.228    11.525     4.010
    22   7 N        2.738    -0.092    23.046     7.130
    23   6 C        3.755    -0.006    20.740     6.494
    24   6 C        3.745    -0.007    20.774     6.502
    25   7 N        2.738    -0.109    23.381     7.182
    26   6 C        2.764     0.262    22.576     7.781
    27   8 O        0.859    -0.446    22.612     6.376
    28   6 C        3.861    -0.051    21.440     6.585
    29   6 C        3.808    -0.059    21.637     6.622
    30   6 C        3.807    -0.060    21.654     6.624
    31   6 C        3.756    -0.005    20.717     6.490
    32   6 C        3.746    -0.004    20.714     6.492
    33   1 H        0.926     0.061     2.188     2.313
    34   1 H        0.924     0.059     2.214     2.327
    35   1 H        0.924     0.077     2.015     2.220
    36   1 H        0.860     0.193     1.145     1.676
    37   1 H        0.926     0.068     2.113     2.273
    38   1 H        0.926     0.046     2.367     2.406
    39   1 H        0.926     0.042     2.422     2.434
    40   1 H        0.926     0.042     2.418     2.432
    41   1 H        0.926     0.047     2.359     2.402
    42   1 H        0.926     0.064     2.153     2.295
    43   1 H        0.924     0.057     2.232     2.336
    44   1 H        0.924     0.093     1.847     2.125
    45   1 H        0.924     0.057     2.233     2.337
    46   1 H        0.924     0.059     2.213     2.326
    47   1 H        0.926     0.036     2.501     2.473
    48   1 H        0.926     0.065     2.141     2.288
    49   1 H        0.926     0.040     2.454     2.450
    50   1 H        0.926     0.039     2.459     2.452
    51   1 H        0.926     0.042     2.421     2.433
    52   1 H        0.924     0.051     2.306     2.375
    53   1 H        0.924     0.090     1.881     2.145
    54   1 H        0.924     0.051     2.306     2.375
    55   1 H        0.924     0.064     2.157     2.297
    56   5 B        2.781     0.075    20.211     7.517
    57   7 N        2.773    -0.227    25.967     7.568
    58   5 B        2.788     0.092    19.934     7.464
    59   7 N        2.524    -0.315    28.137     7.878
    60   5 B        2.779     0.081    20.124     7.501
    61   7 N        2.655    -0.273    27.051     7.725
    62   5 B        2.848     0.242    17.654     7.016
    63   7 N        2.529    -0.273    27.088     7.729
    64   5 B        3.197     0.150    18.929     7.256
    65   7 N        2.979    -0.111    23.419     7.188
    66   5 B        2.644     0.373    16.326     6.814
    67   7 N        2.669    -0.212    25.630     7.519
    68   5 B        3.183     0.021    21.006     7.644
    69   7 N        2.890    -0.220    25.780     7.541
    70   5 B        3.009     0.210    18.068     7.091
    71   7 N        2.660    -0.163    24.524     7.355
    72   5 B        2.906     0.319    16.622     6.804
    73   7 N        3.156    -0.082    22.823     7.096
    74   5 B        2.778     0.093    19.918     7.462
    75   7 N        3.040    -0.122    23.650     7.223
    76   5 B        2.758     0.090    20.008     7.484
    77   7 N        2.634    -0.308    27.936     7.850
    78   5 B        3.042     0.226    17.828     7.043
    79   7 N        2.981     0.005    21.165     6.833
    80   5 B        2.581     0.325    17.316     7.090
    81   7 N        2.596    -0.360    29.304     8.040
    82   5 B        3.288     0.339    16.342     6.741
    83   7 N        2.784    -0.253    26.565     7.655
    84   5 B        2.560     0.318    17.610     7.185
    85   7 N        2.578    -0.369    29.543     8.072
    86   5 B        2.530     0.301    18.225     7.377
    87   7 N        2.665    -0.205    25.459     7.494
    88   5 B        2.698     0.195    18.520     7.222
    89   7 N        2.843    -0.168    24.618     7.369
    90   5 B        2.758     0.082    20.130     7.507
    91   7 N        2.672    -0.174    24.771     7.392
    92   5 B        2.877     0.110    19.576     7.385
    93   7 N        2.663    -0.146    24.167     7.301
    94   5 B        2.594     0.312    17.395     7.088
    95   7 N        2.519    -0.353    29.145     8.017
    96   5 B        2.684     0.183    18.731     7.270
    97   7 N        3.013    -0.117    23.544     7.207
    98   5 B        2.678     0.210    18.356     7.201
    99   7 N        2.715    -0.251    26.523     7.649
   100   5 B        2.647     0.164    19.168     7.381
   101   7 N        2.825    -0.207    25.499     7.500
   102   5 B        3.322     0.229    17.789     7.033
   103   7 N        2.531    -0.286    27.413     7.776
   104   5 B        2.950     0.036    20.780     7.605
   105   7 N        2.783    -0.186    25.016     7.428
   106   5 B        2.796     0.085    20.042     7.482
   107   7 N        2.673    -0.156    24.369     7.332
   108   5 B        3.021     0.211    18.052     7.087
   109   7 N        3.272     0.015    20.993     6.805
   110   5 B        2.868     0.305    16.815     6.845
   111   7 N        3.157    -0.111    23.422     7.188
   112   5 B        3.264     0.320    16.583     6.791
   113   7 N        2.832    -0.062    22.428     7.034
   114   5 B        3.304     0.231    17.767     7.029
   115   7 N        2.656    -0.183    24.964     7.421
   116   5 B        2.838     0.112    19.572     7.388
   117   7 N        2.837    -0.223    25.857     7.552
   118   5 B        2.863     0.252    17.505     6.985
   119   7 N        2.654    -0.230    26.044     7.579
   120   5 B        3.011     0.114    19.492     7.365
   121   7 N        3.153    -0.086    22.918     7.110
   122   5 B        2.674     0.199    18.536     7.238
   123   7 N        2.697    -0.234    26.120     7.590
   124   5 B        2.585     0.369    16.717     6.960
   125   7 N        2.882    -0.180    24.897     7.411
   126   5 B        2.824     0.106    19.681     7.410
   127   7 N        2.827    -0.253    26.566     7.655

 Mol. C6AA /au·bohr⁶  :     276095.669937
 Mol. C8AA /au·bohr⁸  :    7576866.369707
 Mol. α(0) /au        :        822.614832


Wiberg/Mayer (AO) data.
largest (>0.10) Wiberg bond orders for each atom

 ---------------------------------------------------------------------------
     #   Z sym  total        # sym  WBO       # sym  WBO       # sym  WBO
 ---------------------------------------------------------------------------
     1   8 O    2.019 --     2 C    1.673    22 N    0.205
     2   6 C    3.957 --     1 O    1.673    22 N    1.245     3 C    0.957
     3   6 C    3.986 --     4 C    1.414    20 C    1.359     2 C    0.957
                            18 C    0.105
     4   6 C    3.988 --     3 C    1.414     5 C    1.409    33 H    0.965
                            19 C    0.108
     5   6 C    3.987 --    18 C    1.411     4 C    1.409     6 C    0.997
     6   6 C    3.993 --     7 C    0.997     5 C    0.997    34 H    0.961
                            35 H    0.954
     7   6 C    3.977 --     8 N    1.633    17 C    1.132     6 C    0.997
     8   7 N    3.035 --     7 C    1.633     9 N    1.168
     9   7 N    3.568 --     8 N    1.168    10 C    1.135    36 H    0.928
                            11 O    0.161
    10   6 C    3.953 --    11 O    1.666     9 N    1.135    12 C    1.051
    11   8 O    2.006 --    10 C    1.666     9 N    0.161
    12   6 C    3.989 --    13 C    1.362    17 C    1.317    10 C    1.051
    13   6 C    3.988 --    14 C    1.484    12 C    1.362    37 H    0.965
                            16 C    0.110
    14   6 C    3.991 --    13 C    1.484    15 C    1.384    38 H    0.970
    15   6 C    3.992 --    16 C    1.495    14 C    1.384    39 H    0.970
    16   6 C    3.992 --    15 C    1.495    17 C    1.337    40 H    0.965
                            13 C    0.110
    17   6 C    3.990 --    16 C    1.337    12 C    1.317     7 C    1.132
    18   6 C    3.989 --    19 C    1.438     5 C    1.411    41 H    0.968
                             3 C    0.105
    19   6 C    3.987 --    18 C    1.438    20 C    1.403    42 H    0.966
                             4 C    0.108
    20   6 C    3.885 --    19 C    1.403     3 C    1.359    21 F    0.955
    21   9 F    1.086 --    20 C    0.955
    22   7 N    3.495 --     2 C    1.245    32 C    0.988    23 C    0.983
                             1 O    0.205
    23   6 C    3.969 --    24 C    1.007    22 N    0.983    43 H    0.963
                            44 H    0.961
    24   6 C    3.977 --    23 C    1.007    25 N    0.987    45 H    0.965
                            46 H    0.963
    25   7 N    3.470 --    26 C    1.223    31 C    0.988    24 C    0.987
                            27 O    0.190
    26   6 C    3.953 --    27 O    1.666    25 N    1.223    28 C    0.984
    27   8 O    1.998 --    26 C    1.666    25 N    0.190
    28   6 C    3.944 --    26 C    0.984    29 C    0.971    47 H    0.962
                            30 C    0.940
    29   6 C    3.945 --    30 C    0.992    49 H    0.981    48 H    0.976
                            28 C    0.971
    30   6 C    3.945 --    29 C    0.992    51 H    0.981    50 H    0.980
                            28 C    0.940
    31   6 C    3.971 --    32 C    1.000    25 N    0.988    52 H    0.965
                            53 H    0.959
    32   6 C    3.975 --    31 C    1.000    22 N    0.988    54 H    0.966
                            55 H    0.963
    33   1 H    0.996 --     4 C    0.965
    34   1 H    0.995 --     6 C    0.961
    35   1 H    0.993 --     6 C    0.954
    36   1 H    0.962 --     9 N    0.928
    37   1 H    0.995 --    13 C    0.965
    38   1 H    0.997 --    14 C    0.970
    39   1 H    0.997 --    15 C    0.970
    40   1 H    0.998 --    16 C    0.965
    41   1 H    0.997 --    18 C    0.968
    42   1 H    0.995 --    19 C    0.966
    43   1 H    0.997 --    23 C    0.963
    44   1 H    0.991 --    23 C    0.961
    45   1 H    0.997 --    24 C    0.965
    46   1 H    0.996 --    24 C    0.963
    47   1 H    0.999 --    28 C    0.962
    48   1 H    0.996 --    29 C    0.976
    49   1 H    0.998 --    29 C    0.981
    50   1 H    0.998 --    30 C    0.980
    51   1 H    0.998 --    30 C    0.981
    52   1 H    0.997 --    31 C    0.965
    53   1 H    0.991 --    31 C    0.959
    54   1 H    0.997 --    32 C    0.966
    55   1 H    0.996 --    32 C    0.963
    56   5 B    3.479 --   125 N    1.285   108 B    1.000   102 B    0.970
    57   7 N    3.399 --   102 B    1.143   115 N    1.007   114 B    1.002
    58   5 B    3.464 --   103 N    1.276   126 B    0.978   114 B    0.958
    59   7 N    3.530 --   116 B    1.151   118 B    1.150    86 B    1.018
    60   5 B    3.466 --    93 N    1.241   122 B    0.996    96 B    0.990
    61   7 N    3.260 --    82 B    1.201   124 B    0.965   119 N    0.888
    62   5 B    3.407 --    95 N    1.174    69 N    1.037    78 B    0.963
    63   7 N    3.568 --    76 B    1.277    64 B    1.157   120 B    0.973
    64   5 B    3.393 --    63 N    1.157   106 B    0.932   104 B    0.640
                            68 B    0.294
    65   7 N    3.320 --    70 B    1.111   109 N    1.043   121 N    0.945
    66   5 B    3.433 --    67 N    1.187    77 N    1.128   105 N    0.961
    67   7 N    3.445 --    66 B    1.187    94 B    1.085   107 N    0.967
    68   5 B    3.457 --   104 B    1.285   120 B    1.004   118 B    0.627
                            64 B    0.294
    69   7 N    3.430 --    72 B    1.230    62 B    1.037    83 N    0.929
    70   5 B    3.389 --    65 N    1.111    89 N    1.040   116 B    1.005
    71   7 N    3.511 --    74 B    1.208    94 B    1.122    91 N    0.999
    72   5 B    3.515 --    69 N    1.230    97 N    1.082   117 N    0.995
    73   7 N    3.353 --   122 B    1.143   125 N    0.991    75 N    0.983
    74   5 B    3.415 --    71 N    1.208    92 B    1.008   106 B    0.926
    75   7 N    3.335 --   110 B    1.141    73 N    0.983    79 N    0.974
    76   5 B    3.464 --    63 N    1.277    90 B    0.978   100 B    0.932
    77   7 N    3.218 --    66 B    1.128    80 B    1.064   105 N    0.794
    78   5 B    3.367 --    91 N    1.150    83 N    0.992    62 B    0.963
    79   7 N    3.100 --    97 N    1.016    75 N    0.974   123 N    0.937
    80   5 B    3.511 --   117 N    1.250    77 N    1.064    95 N    0.988
    81   7 N    3.433 --    86 B    1.203   114 B    1.060   102 B    0.925
    82   5 B    3.481 --    61 N    1.201    99 N    1.040    85 N    0.982
    83   7 N    3.285 --    88 B    1.171    78 B    0.992    69 N    0.929
    84   5 B    3.525 --   119 N    1.207   123 N    1.118   111 N    1.041
    85   7 N    3.430 --    98 B    1.218   112 B    0.993    82 B    0.982
    86   5 B    3.519 --    81 N    1.203   127 N    1.097    59 N    1.018
    87   7 N    3.443 --   124 B    1.261    98 B    0.999   113 N    0.990
    88   5 B    3.446 --    83 N    1.171   115 N    1.122   126 B    0.923
    89   7 N    3.469 --    90 B    1.259    70 B    1.040   121 N    0.983
    90   5 B    3.420 --    89 N    1.259    76 B    0.978    98 B    0.959
    91   7 N    3.510 --   126 B    1.173    78 B    1.150    71 N    0.999
    92   5 B    3.346 --   104 B    1.009    74 B    1.008   103 N    0.963
    93   7 N    3.507 --    60 B    1.241    96 B    1.092    99 N    1.035
    94   5 B    3.515 --    71 N    1.122    95 N    1.107    67 N    1.085
    95   7 N    3.478 --    62 B    1.174    94 B    1.107    80 B    0.988
    96   5 B    3.465 --   101 N    1.181    93 N    1.092    60 B    0.990
    97   7 N    3.277 --    72 B    1.082    79 N    1.016   111 N    0.976
    98   5 B    3.390 --    85 N    1.218    87 N    0.999    90 B    0.959
    99   7 N    3.368 --    82 B    1.040    93 N    1.035   112 B    0.984
   100   5 B    3.454 --   113 N    1.192   107 N    1.079    76 B    0.932
   101   7 N    3.406 --    96 B    1.181   108 B    1.070   109 N    0.959
   102   5 B    3.365 --    57 N    1.143    56 B    0.970    81 N    0.925
                           114 B    0.127
   103   7 N    3.561 --    58 B    1.276   118 B    1.106    92 B    0.963
   104   5 B    3.367 --    68 B    1.285    92 B    1.009    64 B    0.640
                           118 B    0.186
   105   7 N    2.986 --   113 N    1.043    66 B    0.961    77 N    0.794
   106   5 B    3.455 --   107 N    1.266    64 B    0.932    74 B    0.926
   107   7 N    3.481 --   106 B    1.266   100 B    1.079    67 N    0.967
   108   5 B    3.442 --   127 N    1.132   101 N    1.070    56 B    1.000
   109   7 N    3.186 --    65 N    1.043   101 N    0.959   127 N    0.950
   110   5 B    3.524 --   115 N    1.163    75 N    1.141   125 N    0.989
   111   7 N    3.228 --    84 B    1.041   117 N    0.985    97 N    0.976
   112   5 B    3.507 --   121 N    1.265    85 N    0.993    99 N    0.984
   113   7 N    3.439 --   100 B    1.192   105 N    1.043    87 N    0.990
   114   5 B    3.327 --    81 N    1.060    57 N    1.002    58 B    0.958
                           102 B    0.127
   115   7 N    3.490 --   110 B    1.163    88 B    1.122    57 N    1.007
   116   5 B    3.386 --    59 N    1.151    70 B    1.005   120 B    1.002
   117   7 N    3.446 --    80 B    1.250    72 B    0.995   111 N    0.985
   118   5 B    3.443 --    59 N    1.150   103 N    1.106    68 B    0.627
                           104 B    0.186   120 B    0.120
   119   7 N    3.331 --    84 B    1.207   124 B    1.039    61 N    0.888
   120   5 B    3.334 --    68 B    1.004   116 B    1.002    63 N    0.973
                           118 B    0.120
   121   7 N    3.440 --   112 B    1.265    89 N    0.983    65 N    0.945
   122   5 B    3.450 --    73 N    1.143   123 N    1.117    60 B    0.996
   123   7 N    3.391 --    84 B    1.118   122 B    1.117    79 N    0.937
   124   5 B    3.439 --    87 N    1.261   119 N    1.039    61 N    0.965
   125   7 N    3.474 --    56 B    1.285    73 N    0.991   110 B    0.989
   126   5 B    3.361 --    91 N    1.173    58 B    0.978    88 B    0.923
   127   7 N    3.417 --   108 B    1.132    86 B    1.097   109 N    0.950
 ---------------------------------------------------------------------------

Topologies differ in total number of bonds
Writing topology from bond orders to xtbtopo.mol

molecular dipole:
                 x           y           z       tot (Debye)
 q only:        2.643       2.037      -2.912
   full:        1.269       1.314      -0.928       5.208
molecular quadrupole (traceless):
                xx          xy          yy          xz          yz          zz
 q only:      -28.778      15.728     -27.805      28.942      19.563      56.583
  q+dip:       -9.645      18.354     -17.425      39.534      36.362      27.069
   full:       -7.009      19.277     -16.749      41.895      37.749      23.758

           -------------------------------------------------
          |                Geometry Summary                 |
           -------------------------------------------------

      molecular mass/u    :     1327.9020550
   center of mass at/Å    :       -0.0466780       0.1398200       3.3926710
  moments of inertia/u·Å² :        0.1953625E+05   0.4030308E+05   0.4961395E+05
rotational constants/cm⁻¹ :        0.8628897E-03   0.4182716E-03   0.3397761E-03

 * 146 selected distances

     #   Z          #   Z                                           value/Å
     1   8 O        2   6 C                                       1.2145132
     3   6 C        4   6 C                                       1.3869686
     4   6 C        5   6 C                                       1.3884907
     7   6 C        8   7 N                                       1.2900895
     8   7 N        9   7 N                                       1.3329871
     9   7 N       10   6 C                                       1.3801801
    10   6 C       11   8 O                                       1.2143796
    12   6 C       13   6 C                                       1.3960379
    13   6 C       14   6 C                                       1.3756682
    14   6 C       15   6 C                                       1.3943572
    15   6 C       16   6 C                                       1.3760908
    12   6 C       17   6 C                                       1.4069475
    16   6 C       17   6 C                                       1.4006277
     5   6 C       18   6 C                                       1.3885851
    18   6 C       19   6 C                                       1.3838365
     3   6 C       20   6 C                                       1.3887867
    19   6 C       20   6 C                                       1.3815921
     2   6 C       22   7 N                                       1.3506081
    22   7 N       23   6 C                                       1.4517994
    23   6 C       24   6 C                                       1.5224963
    24   6 C       25   7 N                                       1.4542704
    25   7 N       26   6 C                                       1.3596143
    26   6 C       27   8 O                                       1.2151132
    28   6 C       29   6 C                                       1.4987276
    28   6 C       30   6 C                                       1.5069485
    29   6 C       30   6 C                                       1.4911033
    25   7 N       31   6 C                                       1.4488315
    22   7 N       32   6 C                                       1.4480647
    31   6 C       32   6 C                                       1.5224360
     4   6 C       33   1 H                                       1.0790249
     6   6 C       34   1 H                                       1.0916050
     6   6 C       35   1 H                                       1.0924750
     9   7 N       36   1 H                                       1.0150125 (min)
    13   6 C       37   1 H                                       1.0795494
    14   6 C       38   1 H                                       1.0796008
    15   6 C       39   1 H                                       1.0800522
    16   6 C       40   1 H                                       1.0782952
    18   6 C       41   1 H                                       1.0801214
    19   6 C       42   1 H                                       1.0783682
    23   6 C       43   1 H                                       1.0970415
    23   6 C       44   1 H                                       1.0927280
    24   6 C       45   1 H                                       1.0971948
    24   6 C       46   1 H                                       1.0924079
    28   6 C       47   1 H                                       1.0795230
    29   6 C       48   1 H                                       1.0777200
    29   6 C       49   1 H                                       1.0779860
    30   6 C       50   1 H                                       1.0786320
    30   6 C       51   1 H                                       1.0778806
    31   6 C       52   1 H                                       1.0959163
    31   6 C       53   1 H                                       1.0922388
    32   6 C       54   1 H                                       1.0930205
    32   6 C       55   1 H                                       1.0976790
    63   7 N       64   5 B                                       1.4430495
    66   5 B       67   7 N                                       1.4039615
    62   5 B       69   7 N                                       1.4715545
    65   7 N       70   5 B                                       1.4407270
    69   7 N       72   5 B                                       1.3876751
    71   7 N       74   5 B                                       1.4221629
    73   7 N       75   7 N                                       1.4210941
    63   7 N       76   5 B                                       1.4230206
    66   5 B       77   7 N                                       1.3938927
    62   5 B       78   5 B                                       1.5752620
    75   7 N       79   7 N                                       1.4194455
    77   7 N       80   5 B                                       1.4351798
    61   7 N       82   5 B                                       1.3899212
    78   5 B       83   7 N                                       1.4837642
    82   5 B       85   7 N                                       1.4704696
    59   7 N       86   5 B                                       1.4900973
    81   7 N       86   5 B                                       1.4131440
    83   7 N       88   5 B                                       1.4381006
    70   5 B       89   7 N                                       1.4563903
    76   5 B       90   5 B                                       1.6638999
    89   7 N       90   5 B                                       1.4082999
    78   5 B       91   7 N                                       1.4219718
    74   5 B       92   5 B                                       1.6423914
    60   5 B       93   7 N                                       1.4059200
    67   7 N       94   5 B                                       1.4490138
    71   7 N       94   5 B                                       1.4604250
    62   5 B       95   7 N                                       1.4274140
    80   5 B       95   7 N                                       1.4930076
    94   5 B       95   7 N                                       1.4575276
    60   5 B       96   5 B                                       1.5727786
    93   7 N       96   5 B                                       1.4143878
    72   5 B       97   7 N                                       1.4399755
    79   7 N       97   7 N                                       1.3896127
    85   7 N       98   5 B                                       1.4207201
    87   7 N       98   5 B                                       1.4788146
    90   5 B       98   5 B                                       1.6737926 (max)
    82   5 B       99   7 N                                       1.4513256
    93   7 N       99   7 N                                       1.3699394
    96   5 B      101   7 N                                       1.4088406
    56   5 B      102   5 B                                       1.6082304
    57   7 N      102   5 B                                       1.4240511
    81   7 N      102   5 B                                       1.4999757
    58   5 B      103   7 N                                       1.4100695
    92   5 B      103   7 N                                       1.4910629
    68   5 B      104   5 B                                       1.5157820
    92   5 B      104   5 B                                       1.6061448
    66   5 B      105   7 N                                       1.4299285
    64   5 B      106   5 B                                       1.6491909
    74   5 B      106   5 B                                       1.6619334
   100   5 B      107   7 N                                       1.4617942
   106   5 B      107   7 N                                       1.4027987
    56   5 B      108   5 B                                       1.6190103
   101   7 N      108   5 B                                       1.4437815
    65   7 N      109   7 N                                       1.3678724
    75   7 N      110   5 B                                       1.4373429
    84   5 B      111   7 N                                       1.4511675
    97   7 N      111   7 N                                       1.4346225
    85   7 N      112   5 B                                       1.4562258
    99   7 N      112   5 B                                       1.4643198
   100   5 B      113   7 N                                       1.4269162
   105   7 N      113   7 N                                       1.3901259
    57   7 N      114   5 B                                       1.4595385
    58   5 B      114   5 B                                       1.6126226
    81   7 N      114   5 B                                       1.4509814
    88   5 B      115   7 N                                       1.4504318
   110   5 B      115   7 N                                       1.4408201
    59   7 N      116   5 B                                       1.4572969
    70   5 B      116   5 B                                       1.6054114
    72   5 B      117   7 N                                       1.4638940
    80   5 B      117   7 N                                       1.3903586
   111   7 N      117   7 N                                       1.4189618
    59   7 N      118   5 B                                       1.4589904
   103   7 N      118   5 B                                       1.4557569
    84   5 B      119   7 N                                       1.3895922
    63   7 N      120   5 B                                       1.4965507
    68   5 B      120   5 B                                       1.6003993
   116   5 B      120   5 B                                       1.6242210
    65   7 N      121   7 N                                       1.4309699
    89   7 N      121   7 N                                       1.4184665
   112   5 B      121   7 N                                       1.3741774
    60   5 B      122   5 B                                       1.6411606
    73   7 N      122   5 B                                       1.4364124
    84   5 B      123   7 N                                       1.4438643
   122   5 B      123   7 N                                       1.4545036
    61   7 N      124   5 B                                       1.4266751
    87   7 N      124   5 B                                       1.4004579
   119   7 N      124   5 B                                       1.4166042
    56   5 B      125   7 N                                       1.4015386
    73   7 N      125   7 N                                       1.4084950
   110   5 B      125   7 N                                       1.4867742
    58   5 B      126   5 B                                       1.6508621
    91   7 N      126   5 B                                       1.4318389
    86   5 B      127   7 N                                       1.4517040
   108   5 B      127   7 N                                       1.4424920

 * 8 distinct bonds (by element types)

   Z      Z             #   av. dist./Å        max./Å        min./Å
   5 B    5 B          17     1.6190055     1.6737926     1.5157820
   1 H    6 C          22     1.0858664     1.0976790     1.0777200
   6 C    6 C          17     1.4241000     1.5224963     1.3756682
   1 H    7 N           1     1.0150125     1.0150125     1.0150125
   5 B    7 N          66     1.4391128     1.4999757     1.3741774
   6 C    7 N           8     1.3979322     1.4542704     1.2900895
   7 N    7 N          12     1.4002161     1.4346225     1.3329871
   6 C    8 O           3     1.2146687     1.2151132     1.2143796


optimized geometry written to: xtbopt.xyz


           -------------------------------------------------
          | TOTAL ENERGY             -241.986518305051 Eh   |
          | GRADIENT NORM               0.007617964449 Eh/α |
          | HOMO-LUMO GAP               0.640999834365 eV   |
           -------------------------------------------------

------------------------------------------------------------------------
 * finished run on 2026/08/31 at 22:22:59.004     
------------------------------------------------------------------------
 total:
 * wall-time:     0 d,  0 h,  0 min,  7.453 sec
 *  cpu-time:     0 d,  0 h,  1 min,  0.219 sec
 * ratio c/w:     8.080 speedup
 SCF:
 * wall-time:     0 d,  0 h,  0 min,  1.245 sec
 *  cpu-time:     0 d,  0 h,  0 min,  9.391 sec
 * ratio c/w:     7.543 speedup
 ANC optimizer:
 * wall-time:     0 d,  0 h,  0 min,  6.140 sec
 *  cpu-time:     0 d,  0 h,  0 min, 50.203 sec
 * ratio c/w:     8.176 speedup

normal termination of xtb
