      -----------------------------------------------------------      
     |                   =====================                   |     
     |                           x T B                           |     
     |                   =====================                   |     
     |                         S. Grimme                         |     
     |          Mulliken Center for Theoretical Chemistry        |     
     |                    University of Bonn                     |     
      -----------------------------------------------------------      

   * xtb version 6.7.1pre (5071a88) compiled by 'Marcel@Raven' on 2024-07-23

   xtb is free software: you can redistribute it and/or modify it under
   the terms of the GNU Lesser General Public License as published by
   the Free Software Foundation, either version 3 of the License, or
   (at your option) any later version.
   
   xtb is distributed in the hope that it will be useful,
   but WITHOUT ANY WARRANTY; without even the implied warranty of
   MERCHANTABILITY or FITNESS FOR A PARTICULAR PURPOSE.  See the
   GNU Lesser General Public License for more details.
   
   Cite this work as:
   * C. Bannwarth, E. Caldeweyher, S. Ehlert, A. Hansen, P. Pracht,
     J. Seibert, S. Spicher, S. Grimme, WIREs Comput. Mol. Sci., 2020, 11,
     e01493. DOI: 10.1002/wcms.1493
   
   for GFN2-xTB:
   * C. Bannwarth, S. Ehlert and S. Grimme., J. Chem. Theory Comput., 2019,
     15, 1652-1671. DOI: 10.1021/acs.jctc.8b01176
   for GFN1-xTB:
   * S. Grimme, C. Bannwarth, P. Shushkov, J. Chem. Theory Comput., 2017,
     13, 1989-2009. DOI: 10.1021/acs.jctc.7b00118
   for GFN0-xTB:
   * P. Pracht, E. Caldeweyher, S. Ehlert, S. Grimme, ChemRxiv, 2019, preprint.
     DOI: 10.26434/chemrxiv.8326202.v1
   for GFN-FF:
   * S. Spicher and S. Grimme, Angew. Chem. Int. Ed., 2020, 59, 15665-15673.
     DOI: 10.1002/anie.202004239
   
   for ALPB and GBSA implicit solvation:
   * S. Ehlert, M. Stahn, S. Spicher, S. Grimme, J. Chem. Theory Comput.,
     2021, 17, 4250-4261. DOI: 10.1021/acs.jctc.1c00471
   
   for ddCOSMO and CPCM-X implicit solvation:
   * M. Stahn, S. Ehlert, S. Grimme, J. Phys. Chem. A,
     2023, XX, XXXX-XXXX. DOI: 10.1021/acs.jpca.3c04382
   
   for DFT-D4:
   * E. Caldeweyher, C. Bannwarth and S. Grimme, J. Chem. Phys., 2017,
     147, 034112. DOI: 10.1063/1.4993215
   * E. Caldeweyher, S. Ehlert, A. Hansen, H. Neugebauer, S. Spicher,
     C. Bannwarth and S. Grimme, J. Chem. Phys., 2019, 150, 154122.
     DOI: 10.1063/1.5090222
   * E. Caldeweyher, J.-M. Mewes, S. Ehlert and S. Grimme, Phys. Chem. Chem. Phys.
     2020, 22, 8499-8512. DOI: 10.1039/D0CP00502A
   
   for sTDA-xTB:
   * S. Grimme and C. Bannwarth, J. Chem. Phys., 2016, 145, 054103.
     DOI: 10.1063/1.4959605
   
   in the mass-spec context:
   * V. Asgeirsson, C. Bauer and S. Grimme, Chem. Sci., 2017, 8, 4879.
     DOI: 10.1039/c7sc00601b
   * J. Koopman and S. Grimme, ACS Omega 2019, 4, 12, 15120-15133.
     DOI: 10.1021/acsomega.9b02011
   
   for metadynamics refer to:
   * S. Grimme, J. Chem. Theory Comput., 2019, 155, 2847-2862
     DOI: 10.1021/acs.jctc.9b00143
   
   for SPH calculations refer to:
   * S. Spicher and S. Grimme, J. Chem. Theory Comput., 2021, 17, 1701-1714
     DOI: 10.1021/acs.jctc.0c01306
   
   for ONIOM refer to:
   * C. Plett, A. Katbashev, S. Ehlert, S. Grimme, M. Bursch,
     Phys. Chem. Chem. Phys., 2023, 25, 17860-17868. DOI: 10.1039/D3CP02178E
   
   for DIPRO refer to:
   * J. Kohn, N. Gildemeister, S. Grimme, D. Fazzi, A. Hansen,
     J. Chem. Phys., 2023, just accepted.
   
   for PTB refer to:
   * S. Grimme, M. Mueller, A. Hansen, J. Chem. Phys., 2023, 158, 124111.
     DOI: 10.1063/5.0137838
   
   with help from (in alphabetical order)
   P. Atkinson, C. Bannwarth, F. Bohle, G. Brandenburg, E. Caldeweyher
   M. Checinski, S. Dohm, S. Ehlert, S. Ehrlich, I. Gerasimov, C. Hölzer
   A. Katbashev, J. Kohn, J. Koopman, C. Lavigne, S. Lehtola, F. März, M. Müller,
   F. Musil, H. Neugebauer, J. Pisarek, C. Plett, P. Pracht, F. Pultar,
   J. Seibert, P. Shushkov, S. Spicher, M. Stahn, M. Steiner, T. Strunk,
   J. Stückrath, T. Rose, and J. Unsleber
   
 * started run on 2026/08/31 at 21:06:30.665     
   ID    Z sym.   atoms
    1    8 O      1, 11, 27
    2    6 C      2-7, 10, 12-20, 23, 24, 26, 28-32
    3    7 N      8, 9, 22, 25, 57, 59, 61, 63, 65, 67, 69, 71, 73, 75, 77,
                  79, 81, 83, 85, 87, 89, 91, 93, 95, 97, 99, 101, 103, 105,
                  107, 109, 111, 113, 115, 117, 119, 121, 123, 125, 127
    4    9 F      21
    5    1 H      33-55
    6    5 B      56, 58, 60, 62, 64, 66, 68, 70, 72, 74, 76, 78, 80, 82, 84,
                  86, 88, 90, 92, 94, 96, 98, 100, 102, 104, 106, 108, 110,
                  112, 114, 116, 118, 120, 122, 124, 126

           -------------------------------------------------
          |                Calculation Setup                |
           -------------------------------------------------

          program call               : "c:\Users\Andre\Proyectos doctorado\kras-pancreatic-gC3N4-ai\tools\xtb\xtb-6.7.1\bin\xtb.exe" "c:\Users\Andre\Proyectos doctorado\nano-qsar-ai-therapeutics\calculations\tnbc\Olaparib\Olaparib_B36N36_relaxed_complex.xyz" --gfn 2 --opt normal --chrg 0 --uhf 0 --iterations 50 --norestart
          coordinate file            : c:\Users\Andre\Proyectos doctorado\nano-qsar-ai-therapeutics\calculations\tnbc\Olaparib\Olaparib_B36N36_relaxed_complex.xyz
          omp threads                :                    16


molecular fragmentation (1/2 indicates fragments):
111111111111111111111111111111111111111111111111111111122222222222222222
2222222222222222222222222222222222222222222222222222222
# atoms in fragment 1/2:    55    72
 fragment masses (1/2) :      434.46      893.44
CMA distance (Bohr)    :  16.200
constraining FC (au)   :  0.0500

           -------------------------------------------------
          |                 G F N 2 - x T B                 |
           -------------------------------------------------

        Reference                      10.1021/acs.jctc.8b01176
      * Hamiltonian:
        H0-scaling (s, p, d)           1.850000    2.230000    2.230000
        zeta-weighting                 0.500000
      * Dispersion:
        s8                             2.700000
        a1                             0.520000
        a2                             5.000000
        s9                             5.000000
      * Repulsion:
        kExp                           1.500000    1.000000
        rExp                           1.000000
      * Coulomb:
        alpha                          2.000000
        third order                    shell-resolved
        anisotropic                    true
        a3                             3.000000
        a5                             4.000000
        cn-shift                       1.200000
        cn-exp                         4.000000
        max-rad                        5.000000


          ...................................................
          :                      SETUP                      :
          :.................................................:
          :  # basis functions                 439          :
          :  # atomic orbitals                 439          :
          :  # shells                          231          :
          :  # electrons                       452          :
          :  max. iterations                    50          :
          :  Hamiltonian                  GFN2-xTB          :
          :  restarted?                      false          :
          :  GBSA solvation                  false          :
          :  PC potential                    false          :
          :  electronic temp.          300.0000000     K    :
          :  accuracy                    1.0000000          :
          :  -> integral cutoff          0.2500000E+02      :
          :  -> integral neglect         0.1000000E-07      :
          :  -> SCF convergence          0.1000000E-05 Eh   :
          :  -> wf. convergence          0.1000000E-03 e    :
          :  Broyden damping             0.4000000          :
          :  net charge                          0          :
          :  unpaired electrons                  0          :
          ...................................................

 iter      E             dE          RMSdq      gap      omega  full diag
   1   -243.5134352 -0.243513E+03  0.108E+01    0.51       0.0  T
   2   -244.0425571 -0.529122E+00  0.658E+00    0.44       1.0  T
   3   -241.3989964  0.264356E+01  0.411E+00    0.15       1.0  T
   4   -242.9585101 -0.155951E+01  0.236E+00    0.16       1.0  T
   5   -243.5994243 -0.640914E+00  0.169E+00    0.04       1.0  T
   6   -244.4805995 -0.881175E+00  0.845E-01    0.60       1.0  T
   7   -244.5357160 -0.551165E-01  0.557E-01    0.80       1.0  T
   8   -244.5342393  0.147667E-02  0.459E-01    0.64       1.0  T
   9   -244.5363828 -0.214346E-02  0.269E-01    0.66       1.0  T
  10   -244.5380808 -0.169809E-02  0.131E-01    0.52       1.0  T
  11   -244.5408602 -0.277931E-02  0.549E-02    0.48       1.0  T
  12   -244.5411207 -0.260578E-03  0.434E-02    0.51       1.0  T
  13   -244.5412545 -0.133773E-03  0.306E-02    0.51       1.0  T
  14   -244.5413189 -0.643628E-04  0.191E-02    0.53       1.0  T
  15   -244.5413440 -0.251773E-04  0.631E-03    0.54       1.4  T
  16   -244.5413470 -0.290672E-05  0.243E-03    0.54       3.6  T
  17   -244.5413473 -0.314266E-06  0.110E-03    0.54       8.0  T
  18   -244.5413474 -0.120809E-06  0.447E-04    0.54      19.9  T
  19   -244.5413474 -0.215771E-07  0.185E-04    0.54      47.9  T

   *** convergence criteria satisfied after 19 iterations ***

         #    Occupation            Energy/Eh            Energy/eV
      -------------------------------------------------------------
         1        2.0000           -0.8241359             -22.4259
       ...           ...                  ...                  ...
       220        2.0000           -0.3248564              -8.8398
       221        2.0000           -0.3219084              -8.7596
       222        2.0000           -0.3204440              -8.7197
       223        2.0000           -0.3183234              -8.6620
       224        2.0000           -0.3133312              -8.5262
       225        2.0000           -0.3112049              -8.4683
       226        1.9999           -0.3008003              -8.1852 (HOMO)
       227        0.0001           -0.2809144              -7.6441 (LUMO)
       228                         -0.2737824              -7.4500
       229                         -0.2728881              -7.4257
       230                         -0.2628133              -7.1515
       231                         -0.2620235              -7.1300
       ...                                ...                  ...
       439                          0.9858135              26.8254
      -------------------------------------------------------------
                  HL-Gap            0.0198859 Eh            0.5411 eV
             Fermi-level           -0.2908577 Eh           -7.9146 eV

 SCC (total)                   0 d,  0 h,  0 min,  1.152 sec
 SCC setup                      ...        0 min,  0.001 sec (  0.087%)
 Dispersion                     ...        0 min,  0.004 sec (  0.347%)
 classical contributions        ...        0 min,  0.000 sec (  0.000%)
 integral evaluation            ...        0 min,  0.018 sec (  1.562%)
 iterations                     ...        0 min,  1.092 sec ( 94.792%)
 molecular gradient             ...        0 min,  0.034 sec (  2.951%)
 printout                       ...        0 min,  0.003 sec (  0.260%)

         :::::::::::::::::::::::::::::::::::::::::::::::::::::
         ::                     SUMMARY                     ::
         :::::::::::::::::::::::::::::::::::::::::::::::::::::
         :: total energy            -241.965045108959 Eh    ::
         :: gradient norm              0.092190902076 Eh/a0 ::
         :: HOMO-LUMO gap              0.541121920369 eV    ::
         ::.................................................::
         :: SCC energy              -244.524795922741 Eh    ::
         :: -> isotropic ES            0.757824301804 Eh    ::
         :: -> anisotropic ES         -0.025216981675 Eh    ::
         :: -> anisotropic XC          0.099085777544 Eh    ::
         :: -> dispersion             -0.212194812570 Eh    ::
         :: repulsion energy           2.559750813782 Eh    ::
         :: add. restraining           0.000000000000 Eh    ::
         :: total charge               0.000000000000 e     ::
         :::::::::::::::::::::::::::::::::::::::::::::::::::::

      ----------------------------------------------------------- 
     |                   =====================                   |
     |                        A N C O P T                        |
     |                   =====================                   |
     |               Approximate Normal Coordinate               |
     |                Rational Function Optimizer                |
      ----------------------------------------------------------- 
      ----------------------------------------------------------- 
     |                   =====================                   |
     |                        A N C O P T                        |
     |                   =====================                   |
     |               Approximate Normal Coordinate               |
     |                Rational Function Optimizer                |
      ----------------------------------------------------------- 

          ...................................................
          :                      SETUP                      :
          :.................................................:
          :   optimization level            normal          :
          :   max. optcycles                   381          :
          :   ANC micro-cycles                  20          :
          :   degrees of freedom               375          :
          :.................................................:
          :   RF solver                   davidson          :
          :   write xtbopt.log                true          :
          :   linear?                        false          :
          :   energy convergence         0.5000000E-05 Eh   :
          :   grad. convergence          0.1000000E-02 Eh/α :
          :   maxmium RF displ.          1.0000000          :
          :   Hlow (freq-cutoff)         0.1000000E-01      :
          :   Hmax (freq-cutoff)         5.0000000          :
          :   S6 in model hess.         20.0000000          :
          ...................................................

generating ANC from exact Hessian ...
Using Lindh-Hessian (1995)
 Shifting diagonal of input Hessian by   1.008407344090325E-002
 Lowest  eigenvalues of input Hessian
    0.010000    0.010037    0.010048    0.000000    0.000000    0.000000
    0.000000    0.000000    0.000000    0.010158    0.010201    0.010243
    0.010292    0.010388    0.010580    0.010624    0.011046    0.011436
 Highest eigenvalues
    2.154602    2.226638    2.229438    2.260735    2.314998    2.383685
 

........................................................................
.............................. CYCLE    1 ..............................
........................................................................

 iter      E             dE          RMSdq      gap      omega  full diag
   1   -244.5413474 -0.244541E+03  0.103E-04    0.54       0.0  T
   2   -244.5413474  0.389122E-09  0.935E-05    0.54      94.9  T
   3   -244.5413474 -0.141588E-08  0.448E-05    0.54     197.9  T
     SCC iter.                  ...        0 min,  0.145 sec
     gradient                   ...        0 min,  0.037 sec
 * total energy  :  -241.9650451 Eh     change       -0.3211483E-08 Eh
   gradient norm :     0.0921905 Eh/α   predicted     0.0000000E+00 (-100.00%)
   displ. norm   :     0.3933612 α      lambda       -0.1931109E-01
   maximum displ.:     0.1133805 α      in ANC's #21, #33, #23, ...

........................................................................
.............................. CYCLE    2 ..............................
........................................................................

 iter      E             dE          RMSdq      gap      omega  full diag
   1   -244.6044262 -0.244604E+03  0.130E-01    0.51       0.0  T
   2   -244.6045844 -0.158167E-03  0.787E-02    0.52       1.0  T
   3   -244.6045470  0.373705E-04  0.311E-02    0.52       1.0  T
   4   -244.6045843 -0.373223E-04  0.118E-02    0.52       1.0  T
   5   -244.6046101 -0.258167E-04  0.499E-03    0.52       1.8  T
   6   -244.6046140 -0.387703E-05  0.267E-03    0.52       3.3  T
   7   -244.6046148 -0.778240E-06  0.159E-03    0.52       5.6  T
   8   -244.6046151 -0.329521E-06  0.858E-04    0.52      10.3  T
   9   -244.6046152 -0.911028E-07  0.438E-04    0.52      20.2  T
     SCC iter.                  ...        0 min,  0.461 sec
     gradient                   ...        0 min,  0.056 sec
 * total energy  :  -241.9785154 Eh     change       -0.1347027E-01 Eh
   gradient norm :     0.0377272 Eh/α   predicted    -0.1115889E-01 ( -17.16%)
   displ. norm   :     0.3911564 α      lambda       -0.6573852E-02
   maximum displ.:     0.1519388 α      in ANC's #21, #33, #23, ...

........................................................................
.............................. CYCLE    3 ..............................
........................................................................

 iter      E             dE          RMSdq      gap      omega  full diag
   1   -244.6351083 -0.244635E+03  0.978E-02    0.51       0.0  T
   2   -244.6352552 -0.146854E-03  0.593E-02    0.52       1.0  T
   3   -244.6352511  0.409417E-05  0.280E-02    0.52       1.0  T
   4   -244.6352566 -0.548950E-05  0.105E-02    0.51       1.0  T
   5   -244.6352756 -0.190169E-04  0.475E-03    0.52       1.9  T
   6   -244.6352802 -0.465069E-05  0.201E-03    0.52       4.4  T
   7   -244.6352805 -0.286991E-06  0.139E-03    0.52       6.4  T
   8   -244.6352808 -0.291007E-06  0.623E-04    0.52      14.3  T
   9   -244.6352809 -0.487453E-07  0.297E-04    0.52      29.8  T
     SCC iter.                  ...        0 min,  0.445 sec
     gradient                   ...        0 min,  0.033 sec
 * total energy  :  -241.9827369 Eh     change       -0.4221544E-02 Eh
   gradient norm :     0.0136941 Eh/α   predicted    -0.3792645E-02 ( -10.16%)
   displ. norm   :     0.3549665 α      lambda       -0.2012785E-02
   maximum displ.:     0.1389417 α      in ANC's #21, #23, #16, ...

........................................................................
.............................. CYCLE    4 ..............................
........................................................................

 iter      E             dE          RMSdq      gap      omega  full diag
   1   -244.6386410 -0.244639E+03  0.668E-02    0.54       0.0  T
   2   -244.6386773 -0.362984E-04  0.392E-02    0.52       1.0  T
   3   -244.6386615  0.157528E-04  0.187E-02    0.53       1.0  T
   4   -244.6386799 -0.183683E-04  0.626E-03    0.52       1.4  T
   5   -244.6386859 -0.597488E-05  0.319E-03    0.53       2.8  T
   6   -244.6386879 -0.206498E-05  0.130E-03    0.53       6.8  T
   7   -244.6386881 -0.130614E-06  0.855E-04    0.53      10.4  T
   8   -244.6386882 -0.976891E-07  0.388E-04    0.53      22.8  T
     SCC iter.                  ...        0 min,  1.295 sec
     gradient                   ...        0 min,  0.055 sec
 * total energy  :  -241.9842745 Eh     change       -0.1537595E-02 Eh
   gradient norm :     0.0102361 Eh/α   predicted    -0.1133214E-02 ( -26.30%)
   displ. norm   :     0.4675050 α      lambda       -0.1745797E-02
   maximum displ.:     0.1684125 α      in ANC's #23, #16, #21, ...

........................................................................
.............................. CYCLE    5 ..............................
........................................................................

 iter      E             dE          RMSdq      gap      omega  full diag
   1   -244.6355937 -0.244636E+03  0.818E-02    0.57       0.0  T
   2   -244.6356305 -0.367413E-04  0.477E-02    0.54       1.0  T
   3   -244.6355893  0.412175E-04  0.223E-02    0.56       1.0  T
   4   -244.6356350 -0.457342E-04  0.696E-03    0.55       1.3  T
   5   -244.6356423 -0.727430E-05  0.371E-03    0.55       2.4  T
   6   -244.6356449 -0.260815E-05  0.160E-03    0.55       5.5  T
   7   -244.6356451 -0.256676E-06  0.908E-04    0.55       9.8  T
   8   -244.6356452 -0.885352E-07  0.443E-04    0.55      20.0  T
     SCC iter.                  ...        0 min,  0.705 sec
     gradient                   ...        0 min,  0.068 sec
 * total energy  :  -241.9855378 Eh     change       -0.1263260E-02 Eh
   gradient norm :     0.0119306 Eh/α   predicted    -0.1063681E-02 ( -15.80%)
   displ. norm   :     0.4127168 α      lambda       -0.1013219E-02
   maximum displ.:     0.1449424 α      in ANC's #13, #9, #23, ...

........................................................................
.............................. CYCLE    6 ..............................
........................................................................

 iter      E             dE          RMSdq      gap      omega  full diag
   1   -244.6330288 -0.244633E+03  0.655E-02    0.59       0.0  T
   2   -244.6330561 -0.272774E-04  0.385E-02    0.56       1.0  T
   3   -244.6330275  0.285957E-04  0.179E-02    0.58       1.0  T
   4   -244.6330584 -0.308409E-04  0.605E-03    0.57       1.5  T
   5   -244.6330641 -0.569104E-05  0.314E-03    0.57       2.8  T
   6   -244.6330659 -0.180646E-05  0.138E-03    0.57       6.4  T
   7   -244.6330661 -0.225348E-06  0.725E-04    0.57      12.2  T
   8   -244.6330661 -0.538815E-07  0.319E-04    0.57      27.8  T
     SCC iter.                  ...        0 min,  0.671 sec
     gradient                   ...        0 min,  0.041 sec
 * total energy  :  -241.9862888 Eh     change       -0.7510474E-03 Eh
   gradient norm :     0.0120851 Eh/α   predicted    -0.5929043E-03 ( -21.06%)
   displ. norm   :     0.3990940 α      lambda       -0.7911288E-03
   maximum displ.:     0.1671319 α      in ANC's #13, #9, #16, ...

........................................................................
.............................. CYCLE    7 ..............................
........................................................................

 iter      E             dE          RMSdq      gap      omega  full diag
   1   -244.6329063 -0.244633E+03  0.595E-02    0.61       0.0  T
   2   -244.6329341 -0.278271E-04  0.351E-02    0.58       1.0  T
   3   -244.6329125  0.216747E-04  0.172E-02    0.60       1.0  T
   4   -244.6329374 -0.248786E-04  0.558E-03    0.59       1.6  T
   5   -244.6329423 -0.491107E-05  0.278E-03    0.59       3.2  T
   6   -244.6329435 -0.122832E-05  0.143E-03    0.59       6.2  T
   7   -244.6329438 -0.265930E-06  0.741E-04    0.59      12.0  T
   8   -244.6329438 -0.671657E-07  0.302E-04    0.59      29.4  T
     SCC iter.                  ...        0 min,  0.488 sec
     gradient                   ...        0 min,  0.034 sec
 * total energy  :  -241.9868949 Eh     change       -0.6061208E-03 Eh
   gradient norm :     0.0096558 Eh/α   predicted    -0.4585727E-03 ( -24.34%)
   displ. norm   :     0.4283364 α      lambda       -0.7049019E-03
   maximum displ.:     0.2002608 α      in ANC's #13, #9, #7, ...

........................................................................
.............................. CYCLE    8 ..............................
........................................................................

 iter      E             dE          RMSdq      gap      omega  full diag
   1   -244.6342801 -0.244634E+03  0.623E-02    0.63       0.0  T
   2   -244.6343063 -0.261700E-04  0.366E-02    0.60       1.0  T
   3   -244.6342809  0.253309E-04  0.178E-02    0.61       1.0  T
   4   -244.6343105 -0.295795E-04  0.520E-03    0.61       1.7  T
   5   -244.6343151 -0.461304E-05  0.223E-03    0.60       4.0  T
   6   -244.6343157 -0.570973E-06  0.136E-03    0.60       6.5  T
   7   -244.6343159 -0.146168E-06  0.903E-04    0.60       9.8  T
   8   -244.6343160 -0.128057E-06  0.332E-04    0.60      26.7  T
     SCC iter.                  ...        0 min,  0.393 sec
     gradient                   ...        0 min,  0.040 sec
 * total energy  :  -241.9874418 Eh     change       -0.5468206E-03 Eh
   gradient norm :     0.0071943 Eh/α   predicted    -0.4171410E-03 ( -23.72%)
   displ. norm   :     0.4692746 α      lambda       -0.6171451E-03
   maximum displ.:     0.2299412 α      in ANC's #13, #9, #7, ...

........................................................................
.............................. CYCLE    9 ..............................
........................................................................

 iter      E             dE          RMSdq      gap      omega  full diag
   1   -244.6352886 -0.244635E+03  0.669E-02    0.64       0.0  T
   2   -244.6353086 -0.200086E-04  0.391E-02    0.61       1.0  T
   3   -244.6352774  0.311515E-04  0.171E-02    0.63       1.0  T
   4   -244.6353109 -0.335144E-04  0.510E-03    0.62       1.7  T
   5   -244.6353159 -0.493468E-05  0.192E-03    0.62       4.6  T
   6   -244.6353163 -0.435284E-06  0.101E-03    0.62       8.8  T
   7   -244.6353163 -0.422627E-07  0.622E-04    0.62      14.3  T
   8   -244.6353164 -0.506071E-07  0.312E-04    0.62      28.5  T
     SCC iter.                  ...        0 min,  0.559 sec
     gradient                   ...        0 min,  0.038 sec
 * total energy  :  -241.9879307 Eh     change       -0.4889046E-03 Eh
   gradient norm :     0.0067608 Eh/α   predicted    -0.3765264E-03 ( -22.99%)
   displ. norm   :     0.5054264 α      lambda       -0.5618304E-03
   maximum displ.:     0.2464247 α      in ANC's #13, #9, #7, ...

........................................................................
.............................. CYCLE   10 ..............................
........................................................................

 iter      E             dE          RMSdq      gap      omega  full diag
   1   -244.6357070 -0.244636E+03  0.706E-02    0.64       0.0  T
   2   -244.6357215 -0.144418E-04  0.412E-02    0.62       1.0  T
   3   -244.6356859  0.355482E-04  0.160E-02    0.63       1.0  T
   4   -244.6357198 -0.338912E-04  0.574E-03    0.63       1.5  T
   5   -244.6357267 -0.681751E-05  0.233E-03    0.63       3.8  T
   6   -244.6357273 -0.676351E-06  0.145E-03    0.63       6.1  T
   7   -244.6357276 -0.232841E-06  0.826E-04    0.63      10.7  T
   8   -244.6357276 -0.898086E-07  0.371E-04    0.63      23.9  T
     SCC iter.                  ...        0 min,  0.468 sec
     gradient                   ...        0 min,  0.045 sec
 * total energy  :  -241.9883826 Eh     change       -0.4519267E-03 Eh
   gradient norm :     0.0070261 Eh/α   predicted    -0.3526767E-03 ( -21.96%)
   displ. norm   :     0.5349964 α      lambda       -0.5176777E-03
   maximum displ.:     0.2516941 α      in ANC's #9, #13, #7, ...

........................................................................
.............................. CYCLE   11 ..............................
........................................................................

 iter      E             dE          RMSdq      gap      omega  full diag
   1   -244.6353797 -0.244635E+03  0.732E-02    0.65       0.0  T
   2   -244.6353906 -0.109020E-04  0.428E-02    0.63       1.0  T
   3   -244.6353521  0.385701E-04  0.158E-02    0.64       1.0  T
   4   -244.6353882 -0.361086E-04  0.576E-03    0.64       1.5  T
   5   -244.6353950 -0.685290E-05  0.240E-03    0.64       3.7  T
   6   -244.6353958 -0.750086E-06  0.146E-03    0.64       6.1  T
   7   -244.6353960 -0.261309E-06  0.725E-04    0.64      12.2  T
   8   -244.6353961 -0.606853E-07  0.324E-04    0.64      27.4  T
     SCC iter.                  ...        0 min,  0.425 sec
     gradient                   ...        0 min,  0.040 sec
 * total energy  :  -241.9888047 Eh     change       -0.4221341E-03 Eh
   gradient norm :     0.0066211 Eh/α   predicted    -0.3329278E-03 ( -21.13%)
   displ. norm   :     0.5546405 α      lambda       -0.4858355E-03
   maximum displ.:     0.2560711 α      in ANC's #9, #13, #7, ...

........................................................................
.............................. CYCLE   12 ..............................
........................................................................

 iter      E             dE          RMSdq      gap      omega  full diag
   1   -244.6352820 -0.244635E+03  0.745E-02    0.65       0.0  T
   2   -244.6352905 -0.856553E-05  0.435E-02    0.64       1.0  T
   3   -244.6352497  0.408076E-04  0.158E-02    0.65       1.0  T
   4   -244.6352877 -0.380180E-04  0.573E-03    0.65       1.5  T
   5   -244.6352944 -0.669623E-05  0.254E-03    0.64       3.5  T
   6   -244.6352954 -0.957760E-06  0.137E-03    0.65       6.5  T
   7   -244.6352956 -0.208927E-06  0.688E-04    0.65      12.9  T
   8   -244.6352957 -0.552660E-07  0.305E-04    0.65      29.1  T
     SCC iter.                  ...        0 min,  0.504 sec
     gradient                   ...        0 min,  0.050 sec
 * total energy  :  -241.9891996 Eh     change       -0.3948287E-03 Eh
   gradient norm :     0.0059520 Eh/α   predicted    -0.3176459E-03 ( -19.55%)
   displ. norm   :     0.5763382 α      lambda       -0.4447438E-03
   maximum displ.:     0.2626146 α      in ANC's #9, #7, #13, ...

........................................................................
.............................. CYCLE   13 ..............................
........................................................................

 iter      E             dE          RMSdq      gap      omega  full diag
   1   -244.6335012 -0.244634E+03  0.772E-02    0.66       0.0  T
   2   -244.6335137 -0.124629E-04  0.450E-02    0.65       1.0  T
   3   -244.6334729  0.407657E-04  0.163E-02    0.66       1.0  T
   4   -244.6335096 -0.366602E-04  0.646E-03    0.66       1.4  T
   5   -244.6335181 -0.853398E-05  0.278E-03    0.66       3.2  T
   6   -244.6335193 -0.118463E-05  0.143E-03    0.66       6.2  T
   7   -244.6335195 -0.228184E-06  0.738E-04    0.66      12.0  T
   8   -244.6335196 -0.665450E-07  0.310E-04    0.66      28.7  T
     SCC iter.                  ...        0 min,  0.579 sec
     gradient                   ...        0 min,  0.038 sec
 * total energy  :  -241.9895537 Eh     change       -0.3540925E-03 Eh
   gradient norm :     0.0073635 Eh/α   predicted    -0.2962369E-03 ( -16.34%)
   displ. norm   :     0.5746904 α      lambda       -0.5222744E-03
   maximum displ.:     0.2434274 α      in ANC's #7, #9, #11, ...

........................................................................
.............................. CYCLE   14 ..............................
........................................................................

 iter      E             dE          RMSdq      gap      omega  full diag
   1   -244.6400905 -0.244640E+03  0.783E-02    0.66       0.0  T
   2   -244.6401126 -0.220888E-04  0.461E-02    0.66       1.0  T
   3   -244.6400761  0.365679E-04  0.165E-02    0.66       1.0  T
   4   -244.6400997 -0.236385E-04  0.891E-03    0.67       1.0  T
   5   -244.6401170 -0.172641E-04  0.336E-03    0.66       2.6  T
   6   -244.6401187 -0.169985E-05  0.174E-03    0.66       5.1  T
   7   -244.6401190 -0.377157E-06  0.807E-04    0.66      11.0  T
   8   -244.6401191 -0.762703E-07  0.396E-04    0.66      22.4  T
     SCC iter.                  ...        0 min,  0.779 sec
     gradient                   ...        0 min,  0.036 sec
 * total energy  :  -241.9897586 Eh     change       -0.2049175E-03 Eh
   gradient norm :     0.0187057 Eh/α   predicted    -0.3473835E-03 (  69.52%)
   displ. norm   :     0.4513447 α      lambda       -0.5805952E-03
   maximum displ.:     0.1954471 α      in ANC's #7, #9, #13, ...

........................................................................
.............................. CYCLE   15 ..............................
........................................................................

 iter      E             dE          RMSdq      gap      omega  full diag
   1   -244.6350477 -0.244635E+03  0.631E-02    0.68       0.0  T
   2   -244.6350821 -0.344347E-04  0.369E-02    0.67       1.0  T
   3   -244.6350661  0.160198E-04  0.160E-02    0.68       1.0  T
   4   -244.6350795 -0.134392E-04  0.696E-03    0.67       1.3  T
   5   -244.6350885 -0.891736E-05  0.301E-03    0.67       2.9  T
   6   -244.6350897 -0.127318E-05  0.171E-03    0.67       5.2  T
   7   -244.6350902 -0.472594E-06  0.761E-04    0.67      11.7  T
   8   -244.6350903 -0.748687E-07  0.311E-04    0.67      28.5  T
     SCC iter.                  ...        0 min,  0.599 sec
     gradient                   ...        0 min,  0.035 sec
 * total energy  :  -241.9901262 Eh     change       -0.3675996E-03 Eh
   gradient norm :     0.0095240 Eh/α   predicted    -0.3494434E-03 (  -4.94%)
   displ. norm   :     0.4236390 α      lambda       -0.3324580E-03
   maximum displ.:     0.1927896 α      in ANC's #7, #9, #6, ...

........................................................................
.............................. CYCLE   16 ..............................
........................................................................

 iter      E             dE          RMSdq      gap      omega  full diag
   1   -244.6320911 -0.244632E+03  0.541E-02    0.68       0.0  T
   2   -244.6321042 -0.130604E-04  0.320E-02    0.68       1.0  T
   3   -244.6320882  0.159854E-04  0.119E-02    0.68       1.0  T
   4   -244.6321009 -0.126998E-04  0.545E-03    0.68       1.6  T
   5   -244.6321064 -0.546662E-05  0.254E-03    0.68       3.5  T
   6   -244.6321074 -0.103471E-05  0.132E-03    0.68       6.7  T
   7   -244.6321077 -0.258152E-06  0.620E-04    0.68      14.3  T
   8   -244.6321077 -0.420135E-07  0.292E-04    0.68      30.4  T
     SCC iter.                  ...        0 min,  0.783 sec
     gradient                   ...        0 min,  0.072 sec
 * total energy  :  -241.9903543 Eh     change       -0.2281201E-03 Eh
   gradient norm :     0.0123431 Eh/α   predicted    -0.1960662E-03 ( -14.05%)
   displ. norm   :     0.4626708 α      lambda       -0.5075366E-03
   maximum displ.:     0.2032359 α      in ANC's #7, #11, #6, ...

........................................................................
.............................. CYCLE   17 ..............................
........................................................................

 iter      E             dE          RMSdq      gap      omega  full diag
   1   -244.6377563 -0.244638E+03  0.565E-02    0.68       0.0  T
   2   -244.6377659 -0.964772E-05  0.333E-02    0.68       1.0  T
   3   -244.6377419  0.240087E-04  0.139E-02    0.68       1.0  T
   4   -244.6377638 -0.218739E-04  0.543E-03    0.68       1.6  T
   5   -244.6377686 -0.486722E-05  0.282E-03    0.68       3.1  T
   6   -244.6377700 -0.138172E-05  0.122E-03    0.68       7.3  T
   7   -244.6377701 -0.124673E-06  0.718E-04    0.68      12.4  T
   8   -244.6377702 -0.662017E-07  0.272E-04    0.68      32.6  T
     SCC iter.                  ...        0 min,  1.691 sec
     gradient                   ...        0 min,  0.069 sec
 * total energy  :  -241.9907110 Eh     change       -0.3567292E-03 Eh
   gradient norm :     0.0087726 Eh/α   predicted    -0.3080963E-03 ( -13.63%)
   displ. norm   :     0.6732212 α      lambda       -0.4395180E-03
   maximum displ.:     0.3051748 α      in ANC's #7, #6, #11, ...

........................................................................
.............................. CYCLE   18 ..............................
........................................................................

 iter      E             dE          RMSdq      gap      omega  full diag
   1   -244.6336627 -0.244634E+03  0.795E-02    0.69       0.0  T
   2   -244.6336718 -0.911300E-05  0.468E-02    0.69       1.0  T
   3   -244.6336369  0.348850E-04  0.143E-02    0.69       1.0  T
   4   -244.6336667 -0.298212E-04  0.631E-03    0.69       1.4  T
   5   -244.6336747 -0.798823E-05  0.271E-03    0.69       3.3  T
   6   -244.6336757 -0.960013E-06  0.156E-03    0.69       5.7  T
   7   -244.6336759 -0.242372E-06  0.843E-04    0.69      10.5  T
   8   -244.6336760 -0.104703E-06  0.340E-04    0.69      26.1  T
     SCC iter.                  ...        0 min,  0.590 sec
     gradient                   ...        0 min,  0.043 sec
 * total energy  :  -241.9910282 Eh     change       -0.3172193E-03 Eh
   gradient norm :     0.0070476 Eh/α   predicted    -0.3193670E-03 (   0.68%)
   displ. norm   :     0.5365938 α      lambda       -0.3987542E-03
   maximum displ.:     0.2551517 α      in ANC's #7, #6, #11, ...

........................................................................
.............................. CYCLE   19 ..............................
........................................................................

 iter      E             dE          RMSdq      gap      omega  full diag
   1   -244.6397621 -0.244640E+03  0.607E-02    0.68       0.0  T
   2   -244.6397706 -0.848026E-05  0.357E-02    0.69       1.0  T
   3   -244.6397534  0.172077E-04  0.113E-02    0.68       1.0  T
   4   -244.6397684 -0.149593E-04  0.495E-03    0.69       1.8  T
   5   -244.6397729 -0.454668E-05  0.200E-03    0.69       4.4  T
   6   -244.6397733 -0.410012E-06  0.124E-03    0.69       7.2  T
   7   -244.6397735 -0.168187E-06  0.740E-04    0.69      12.0  T
   8   -244.6397736 -0.835566E-07  0.313E-04    0.69      28.4  T
     SCC iter.                  ...        0 min,  0.578 sec
     gradient                   ...        0 min,  0.040 sec
 * total energy  :  -241.9913016 Eh     change       -0.2733567E-03 Eh
   gradient norm :     0.0085231 Eh/α   predicted    -0.2567857E-03 (  -6.06%)
   displ. norm   :     0.6121856 α      lambda       -0.3745030E-03
   maximum displ.:     0.2917111 α      in ANC's #7, #6, #11, ...

........................................................................
.............................. CYCLE   20 ..............................
........................................................................

 iter      E             dE          RMSdq      gap      omega  full diag
   1   -244.6385540 -0.244639E+03  0.671E-02    0.70       0.0  T
   2   -244.6385586 -0.465716E-05  0.395E-02    0.69       1.0  T
   3   -244.6385416  0.169942E-04  0.101E-02    0.69       1.0  T
   4   -244.6385584 -0.167803E-04  0.376E-03    0.69       2.4  T
   5   -244.6385604 -0.202463E-05  0.180E-03    0.69       4.9  T
   6   -244.6385606 -0.191083E-06  0.126E-03    0.69       7.0  T
   7   -244.6385608 -0.185965E-06  0.621E-04    0.69      14.3  T
   8   -244.6385609 -0.640269E-07  0.267E-04    0.69      33.2  T
     SCC iter.                  ...        0 min,  0.907 sec
     gradient                   ...        0 min,  0.041 sec
 * total energy  :  -241.9916148 Eh     change       -0.3131896E-03 Eh
   gradient norm :     0.0077261 Eh/α   predicted    -0.2574320E-03 ( -17.80%)
   displ. norm   :     0.5855765 α      lambda       -0.4109139E-03
   maximum displ.:     0.2934908 α      in ANC's #6, #7, #11, ...
 * RMSD in coord.:     0.7069827 α      energy gain  -0.2656968E-01 Eh

generating ANC from exact Hessian ...
Using Lindh-Hessian (1995)
 Shifting diagonal of input Hessian by   1.008494943355982E-002
 Lowest  eigenvalues of input Hessian
    0.010000    0.010016    0.010030    0.000000    0.000000    0.000000
    0.000000    0.000000    0.000000    0.010108    0.010194    0.010209
    0.010243    0.010329    0.010621    0.010671    0.010779    0.011437
 Highest eigenvalues
    2.159887    2.265839    2.303537    2.321308    2.337138    2.454201
 

........................................................................
.............................. CYCLE   21 ..............................
........................................................................

 iter      E             dE          RMSdq      gap      omega  full diag
   1   -244.6398430 -0.244640E+03  0.639E-02    0.70       0.0  T
   2   -244.6398521 -0.907566E-05  0.377E-02    0.70       1.0  T
   3   -244.6398330  0.191074E-04  0.117E-02    0.70       1.0  T
   4   -244.6398400 -0.701870E-05  0.813E-03    0.70       1.1  T
   5   -244.6398538 -0.138053E-04  0.235E-03    0.70       3.8  T
   6   -244.6398546 -0.796592E-06  0.114E-03    0.70       7.8  T
   7   -244.6398547 -0.111645E-06  0.487E-04    0.70      18.2  T
   8   -244.6398548 -0.282483E-07  0.196E-04    0.70      45.2  T
     SCC iter.                  ...        0 min,  1.582 sec
     gradient                   ...        0 min,  0.096 sec
 * total energy  :  -241.9919358 Eh     change       -0.3209741E-03 Eh
   gradient norm :     0.0057324 Eh/α   predicted     0.0000000E+00 (-100.00%)
   displ. norm   :     0.0721424 α      lambda       -0.1230022E-03
   maximum displ.:     0.0333460 α      in ANC's #6, #15, #5, ...

........................................................................
.............................. CYCLE   22 ..............................
........................................................................

 iter      E             dE          RMSdq      gap      omega  full diag
   1   -244.6402336 -0.244640E+03  0.139E-02    0.70       0.0  T
   2   -244.6402343 -0.723808E-06  0.820E-03    0.70       1.1  T
   3   -244.6402323  0.198680E-05  0.369E-03    0.70       2.4  T
   4   -244.6402332 -0.913843E-06  0.231E-03    0.70       3.8  T
   5   -244.6402345 -0.127005E-05  0.625E-04    0.70      14.2  T
   6   -244.6402346 -0.542943E-07  0.337E-04    0.70      26.3  T
   7   -244.6402346 -0.115832E-07  0.191E-04    0.70      46.5  T
     SCC iter.                  ...        0 min,  0.937 sec
     gradient                   ...        0 min,  0.131 sec
 * total energy  :  -241.9920380 Eh     change       -0.1022787E-03 Eh
   gradient norm :     0.0030672 Eh/α   predicted    -0.6249818E-04 ( -38.89%)
   displ. norm   :     0.2272606 α      lambda       -0.2463340E-03
   maximum displ.:     0.1082406 α      in ANC's #6, #15, #5, ...

........................................................................
.............................. CYCLE   23 ..............................
........................................................................

 iter      E             dE          RMSdq      gap      omega  full diag
   1   -244.6405798 -0.244641E+03  0.381E-02    0.69       0.0  T
   2   -244.6405836 -0.378631E-05  0.225E-02    0.70       1.0  T
   3   -244.6405613  0.223066E-04  0.111E-02    0.70       1.0  T
   4   -244.6405769 -0.155808E-04  0.594E-03    0.69       1.5  T
   5   -244.6405852 -0.827118E-05  0.170E-03    0.70       5.2  T
   6   -244.6405855 -0.365088E-06  0.993E-04    0.70       8.9  T
   7   -244.6405856 -0.113098E-06  0.514E-04    0.70      17.3  T
     SCC iter.                  ...        0 min,  1.480 sec
     gradient                   ...        0 min,  0.079 sec
 * total energy  :  -241.9922095 Eh     change       -0.1714527E-03 Eh
   gradient norm :     0.0040351 Eh/α   predicted    -0.1295338E-03 ( -24.45%)
   displ. norm   :     0.2317685 α      lambda       -0.1482001E-03
   maximum displ.:     0.1168513 α      in ANC's #6, #15, #5, ...

........................................................................
.............................. CYCLE   24 ..............................
........................................................................

 iter      E             dE          RMSdq      gap      omega  full diag
   1   -244.6404824 -0.244640E+03  0.353E-02    0.69       0.0  T
   2   -244.6404846 -0.219826E-05  0.208E-02    0.69       1.0  T
   3   -244.6404644  0.201664E-04  0.101E-02    0.69       1.0  T
   4   -244.6404813 -0.168450E-04  0.446E-03    0.69       2.0  T
   5   -244.6404857 -0.448546E-05  0.150E-03    0.69       5.9  T
   6   -244.6404860 -0.268914E-06  0.905E-04    0.69       9.8  T
   7   -244.6404861 -0.881137E-07  0.480E-04    0.69      18.5  T
     SCC iter.                  ...        0 min,  0.833 sec
     gradient                   ...        0 min,  0.043 sec
 * total energy  :  -241.9923290 Eh     change       -0.1194717E-03 Eh
   gradient norm :     0.0057918 Eh/α   predicted    -0.7808075E-04 ( -34.65%)
   displ. norm   :     0.3337236 α      lambda       -0.1989705E-03
   maximum displ.:     0.1722973 α      in ANC's #6, #2, #5, ...

........................................................................
.............................. CYCLE   25 ..............................
........................................................................

 iter      E             dE          RMSdq      gap      omega  full diag
   1   -244.6402505 -0.244640E+03  0.475E-02    0.69       0.0  T
   2   -244.6402541 -0.361336E-05  0.280E-02    0.69       1.0  T
   3   -244.6402209  0.331772E-04  0.130E-02    0.69       1.0  T
   4   -244.6402496 -0.287434E-04  0.538E-03    0.69       1.6  T
   5   -244.6402560 -0.634384E-05  0.200E-03    0.69       4.4  T
   6   -244.6402565 -0.515855E-06  0.117E-03    0.69       7.6  T
   7   -244.6402566 -0.121805E-06  0.683E-04    0.69      13.0  T
   8   -244.6402567 -0.708172E-07  0.232E-04    0.69      38.2  T
     SCC iter.                  ...        0 min,  0.688 sec
     gradient                   ...        0 min,  0.076 sec
 * total energy  :  -241.9924935 Eh     change       -0.1645558E-03 Eh
   gradient norm :     0.0056061 Eh/α   predicted    -0.1105672E-03 ( -32.81%)
   displ. norm   :     0.4235183 α      lambda       -0.2408779E-03
   maximum displ.:     0.2238467 α      in ANC's #6, #2, #5, ...

........................................................................
.............................. CYCLE   26 ..............................
........................................................................

 iter      E             dE          RMSdq      gap      omega  full diag
   1   -244.6400732 -0.244640E+03  0.553E-02    0.69       0.0  T
   2   -244.6400783 -0.509542E-05  0.327E-02    0.69       1.0  T
   3   -244.6400434  0.349830E-04  0.141E-02    0.69       1.0  T
   4   -244.6400749 -0.315394E-04  0.536E-03    0.69       1.7  T
   5   -244.6400807 -0.581768E-05  0.220E-03    0.69       4.0  T
   6   -244.6400814 -0.667670E-06  0.123E-03    0.69       7.2  T
   7   -244.6400815 -0.857947E-07  0.846E-04    0.69      10.5  T
   8   -244.6400816 -0.118478E-06  0.304E-04    0.69      29.2  T
     SCC iter.                  ...        0 min,  0.797 sec
     gradient                   ...        0 min,  0.047 sec
 * total energy  :  -241.9926930 Eh     change       -0.1994685E-03 Eh
   gradient norm :     0.0042427 Eh/α   predicted    -0.1420498E-03 ( -28.79%)
   displ. norm   :     0.4726891 α      lambda       -0.2565039E-03
   maximum displ.:     0.2539915 α      in ANC's #6, #2, #5, ...

........................................................................
.............................. CYCLE   27 ..............................
........................................................................

 iter      E             dE          RMSdq      gap      omega  full diag
   1   -244.6402809 -0.244640E+03  0.563E-02    0.69       0.0  T
   2   -244.6402856 -0.470617E-05  0.333E-02    0.69       1.0  T
   3   -244.6402531  0.325342E-04  0.139E-02    0.69       1.0  T
   4   -244.6402844 -0.313431E-04  0.458E-03    0.69       1.9  T
   5   -244.6402882 -0.373923E-05  0.196E-03    0.69       4.5  T
   6   -244.6402887 -0.489207E-06  0.101E-03    0.69       8.8  T
   7   -244.6402887 -0.838455E-07  0.513E-04    0.69      17.3  T
   8   -244.6402888 -0.362169E-07  0.222E-04    0.69      39.9  T
     SCC iter.                  ...        0 min,  0.651 sec
     gradient                   ...        0 min,  0.076 sec
 * total energy  :  -241.9929101 Eh     change       -0.2171255E-03 Eh
   gradient norm :     0.0043780 Eh/α   predicted    -0.1569251E-03 ( -27.73%)
   displ. norm   :     0.5198404 α      lambda       -0.2814992E-03
   maximum displ.:     0.2815345 α      in ANC's #6, #2, #5, ...

........................................................................
.............................. CYCLE   28 ..............................
........................................................................

 iter      E             dE          RMSdq      gap      omega  full diag
   1   -244.6408185 -0.244641E+03  0.565E-02    0.69       0.0  T
   2   -244.6408222 -0.366985E-05  0.335E-02    0.69       1.0  T
   3   -244.6407834  0.387698E-04  0.147E-02    0.69       1.0  T
   4   -244.6408198 -0.363965E-04  0.525E-03    0.69       1.7  T
   5   -244.6408240 -0.420451E-05  0.272E-03    0.69       3.3  T
   6   -244.6408253 -0.123182E-05  0.117E-03    0.69       7.6  T
   7   -244.6408254 -0.911197E-07  0.633E-04    0.69      14.0  T
   8   -244.6408254 -0.612259E-07  0.282E-04    0.69      31.5  T
     SCC iter.                  ...        0 min,  0.562 sec
     gradient                   ...        0 min,  0.051 sec
 * total energy  :  -241.9931530 Eh     change       -0.2428747E-03 Eh
   gradient norm :     0.0058691 Eh/α   predicted    -0.1787849E-03 ( -26.39%)
   displ. norm   :     0.5699867 α      lambda       -0.3087300E-03
   maximum displ.:     0.3108099 α      in ANC's #6, #2, #5, ...

........................................................................
.............................. CYCLE   29 ..............................
........................................................................

 iter      E             dE          RMSdq      gap      omega  full diag
   1   -244.6412405 -0.244641E+03  0.587E-02    0.69       0.0  T
   2   -244.6412439 -0.339210E-05  0.349E-02    0.69       1.0  T
   3   -244.6411946  0.492643E-04  0.161E-02    0.69       1.0  T
   4   -244.6412408 -0.461624E-04  0.574E-03    0.69       1.5  T
   5   -244.6412461 -0.528940E-05  0.293E-03    0.69       3.0  T
   6   -244.6412476 -0.148875E-05  0.114E-03    0.69       7.8  T
   7   -244.6412477 -0.932275E-07  0.517E-04    0.69      17.2  T
   8   -244.6412477 -0.357428E-07  0.198E-04    0.69      44.9  T
     SCC iter.                  ...        0 min,  0.785 sec
     gradient                   ...        0 min,  0.042 sec
 * total energy  :  -241.9934205 Eh     change       -0.2675470E-03 Eh
   gradient norm :     0.0065318 Eh/α   predicted    -0.2045173E-03 ( -23.56%)
   displ. norm   :     0.6014472 α      lambda       -0.3177434E-03
   maximum displ.:     0.3318827 α      in ANC's #6, #2, #5, ...

........................................................................
.............................. CYCLE   30 ..............................
........................................................................

 iter      E             dE          RMSdq      gap      omega  full diag
   1   -244.6413185 -0.244641E+03  0.596E-02    0.69       0.0  T
   2   -244.6413221 -0.369010E-05  0.355E-02    0.69       1.0  T
   3   -244.6412618  0.603685E-04  0.175E-02    0.69       1.0  T
   4   -244.6413172 -0.554713E-04  0.654E-03    0.69       1.4  T
   5   -244.6413250 -0.775406E-05  0.305E-03    0.69       2.9  T
   6   -244.6413266 -0.155591E-05  0.120E-03    0.69       7.4  T
   7   -244.6413267 -0.978030E-07  0.568E-04    0.69      15.6  T
   8   -244.6413267 -0.407845E-07  0.236E-04    0.69      37.6  T
     SCC iter.                  ...        0 min,  1.264 sec
     gradient                   ...        0 min,  0.066 sec
 * total energy  :  -241.9936964 Eh     change       -0.2758430E-03 Eh
   gradient norm :     0.0058048 Eh/α   predicted    -0.2163428E-03 ( -21.57%)
   displ. norm   :     0.6130255 α      lambda       -0.3160088E-03
   maximum displ.:     0.3432047 α      in ANC's #6, #2, #5, ...

........................................................................
.............................. CYCLE   31 ..............................
........................................................................

 iter      E             dE          RMSdq      gap      omega  full diag
   1   -244.6413273 -0.244641E+03  0.604E-02    0.69       0.0  T
   2   -244.6413316 -0.427930E-05  0.361E-02    0.69       1.0  T
   3   -244.6412762  0.553774E-04  0.169E-02    0.69       1.0  T
   4   -244.6413273 -0.510503E-04  0.632E-03    0.70       1.4  T
   5   -244.6413343 -0.702637E-05  0.317E-03    0.69       2.8  T
   6   -244.6413360 -0.166918E-05  0.129E-03    0.69       6.9  T
   7   -244.6413361 -0.132281E-06  0.620E-04    0.69      14.3  T
   8   -244.6413362 -0.497029E-07  0.270E-04    0.69      32.8  T
     SCC iter.                  ...        0 min,  1.444 sec
     gradient                   ...        0 min,  0.238 sec
 * total energy  :  -241.9939733 Eh     change       -0.2768916E-03 Eh
   gradient norm :     0.0046013 Eh/α   predicted    -0.2173875E-03 ( -21.49%)
   displ. norm   :     0.6280683 α      lambda       -0.3236913E-03
   maximum displ.:     0.3562054 α      in ANC's #6, #2, #5, ...

........................................................................
.............................. CYCLE   32 ..............................
........................................................................

 iter      E             dE          RMSdq      gap      omega  full diag
   1   -244.6415377 -0.244642E+03  0.615E-02    0.70       0.0  T
   2   -244.6415421 -0.438273E-05  0.367E-02    0.70       1.0  T
   3   -244.6414882  0.538398E-04  0.166E-02    0.69       1.0  T
   4   -244.6415392 -0.509190E-04  0.575E-03    0.70       1.5  T
   5   -244.6415448 -0.569408E-05  0.311E-03    0.70       2.9  T
   6   -244.6415464 -0.152923E-05  0.143E-03    0.70       6.2  T
   7   -244.6415465 -0.169524E-06  0.775E-04    0.70      11.4  T
   8   -244.6415466 -0.941564E-07  0.318E-04    0.70      27.9  T
     SCC iter.                  ...        0 min,  0.793 sec
     gradient                   ...        0 min,  0.044 sec
 * total energy  :  -241.9942604 Eh     change       -0.2871724E-03 Eh
   gradient norm :     0.0046078 Eh/α   predicted    -0.2256889E-03 ( -21.41%)
   displ. norm   :     0.6571178 α      lambda       -0.3439909E-03
   maximum displ.:     0.3763956 α      in ANC's #6, #2, #5, ...

........................................................................
.............................. CYCLE   33 ..............................
........................................................................

 iter      E             dE          RMSdq      gap      omega  full diag
   1   -244.6419238 -0.244642E+03  0.655E-02    0.70       0.0  T
   2   -244.6419283 -0.454335E-05  0.391E-02    0.70       1.0  T
   3   -244.6418765  0.518769E-04  0.164E-02    0.69       1.0  T
   4   -244.6419278 -0.513766E-04  0.491E-03    0.70       1.8  T
   5   -244.6419318 -0.398070E-05  0.255E-03    0.70       3.5  T
   6   -244.6419326 -0.767227E-06  0.147E-03    0.70       6.0  T
   7   -244.6419328 -0.217770E-06  0.891E-04    0.70      10.0  T
   8   -244.6419329 -0.138227E-06  0.328E-04    0.70      27.0  T
     SCC iter.                  ...        0 min,  0.740 sec
     gradient                   ...        0 min,  0.071 sec
 * total energy  :  -241.9945677 Eh     change       -0.3072772E-03 Eh
   gradient norm :     0.0057605 Eh/α   predicted    -0.2462645E-03 ( -19.86%)
   displ. norm   :     0.6877453 α      lambda       -0.3651323E-03
   maximum displ.:     0.3980019 α      in ANC's #6, #2, #5, ...

........................................................................
.............................. CYCLE   34 ..............................
........................................................................

 iter      E             dE          RMSdq      gap      omega  full diag
   1   -244.6425328 -0.244643E+03  0.688E-02    0.70       0.0  T
   2   -244.6425372 -0.445634E-05  0.409E-02    0.70       1.0  T
   3   -244.6424768  0.604788E-04  0.177E-02    0.70       1.0  T
   4   -244.6425369 -0.600989E-04  0.525E-03    0.70       1.7  T
   5   -244.6425414 -0.456372E-05  0.248E-03    0.70       3.6  T
   6   -244.6425422 -0.720370E-06  0.133E-03    0.70       6.7  T
   7   -244.6425423 -0.151353E-06  0.698E-04    0.70      12.7  T
   8   -244.6425424 -0.842691E-07  0.305E-04    0.70      29.1  T
     SCC iter.                  ...        0 min,  0.712 sec
     gradient                   ...        0 min,  0.054 sec
 * total energy  :  -241.9948930 Eh     change       -0.3252409E-03 Eh
   gradient norm :     0.0063919 Eh/α   predicted    -0.2689231E-03 ( -17.32%)
   displ. norm   :     0.7101559 α      lambda       -0.3716451E-03
   maximum displ.:     0.4154005 α      in ANC's #6, #2, #5, ...

........................................................................
.............................. CYCLE   35 ..............................
........................................................................

 iter      E             dE          RMSdq      gap      omega  full diag
   1   -244.6428917 -0.244643E+03  0.722E-02    0.70       0.0  T
   2   -244.6428962 -0.450396E-05  0.430E-02    0.70       1.0  T
   3   -244.6428318  0.643707E-04  0.184E-02    0.70       1.0  T
   4   -244.6428943 -0.624644E-04  0.613E-03    0.70       1.4  T
   5   -244.6428999 -0.561335E-05  0.304E-03    0.70       2.9  T
   6   -244.6429010 -0.110351E-05  0.174E-03    0.70       5.1  T
   7   -244.6429013 -0.278220E-06  0.952E-04    0.70       9.3  T
   8   -244.6429014 -0.197474E-06  0.312E-04    0.70      28.5  T
     SCC iter.                  ...        0 min,  0.732 sec
     gradient                   ...        0 min,  0.043 sec
 * total energy  :  -241.9952215 Eh     change       -0.3285814E-03 Eh
   gradient norm :     0.0057931 Eh/α   predicted    -0.2795395E-03 ( -14.93%)
   displ. norm   :     0.7156589 α      lambda       -0.3600696E-03
   maximum displ.:     0.4243218 α      in ANC's #6, #2, #5, ...

........................................................................
.............................. CYCLE   36 ..............................
........................................................................

 iter      E             dE          RMSdq      gap      omega  full diag
   1   -244.6436072 -0.244644E+03  0.726E-02    0.71       0.0  T
   2   -244.6436120 -0.473877E-05  0.432E-02    0.71       1.0  T
   3   -244.6435486  0.634261E-04  0.183E-02    0.71       1.0  T
   4   -244.6436097 -0.611020E-04  0.629E-03    0.71       1.4  T
   5   -244.6436156 -0.596953E-05  0.306E-03    0.71       2.9  T
   6   -244.6436167 -0.111692E-05  0.176E-03    0.71       5.0  T
   7   -244.6436170 -0.291412E-06  0.950E-04    0.71       9.3  T
   8   -244.6436172 -0.194508E-06  0.316E-04    0.71      28.1  T
     SCC iter.                  ...        0 min,  0.725 sec
     gradient                   ...        0 min,  0.040 sec
 * total energy  :  -241.9955365 Eh     change       -0.3150039E-03 Eh
   gradient norm :     0.0048333 Eh/α   predicted    -0.2722429E-03 ( -13.57%)
   displ. norm   :     0.7282073 α      lambda       -0.3346576E-03
   maximum displ.:     0.4348702 α      in ANC's #6, #2, #5, ...

........................................................................
.............................. CYCLE   37 ..............................
........................................................................

 iter      E             dE          RMSdq      gap      omega  full diag
   1   -244.6425114 -0.244643E+03  0.744E-02    0.71       0.0  T
   2   -244.6425171 -0.573409E-05  0.443E-02    0.71       1.0  T
   3   -244.6424644  0.526907E-04  0.168E-02    0.71       1.0  T
   4   -244.6425142 -0.498142E-04  0.637E-03    0.71       1.4  T
   5   -244.6425201 -0.584018E-05  0.322E-03    0.71       2.8  T
   6   -244.6425215 -0.139856E-05  0.173E-03    0.71       5.1  T
   7   -244.6425218 -0.312375E-06  0.795E-04    0.71      11.2  T
   8   -244.6425219 -0.121657E-06  0.303E-04    0.71      29.3  T
     SCC iter.                  ...        0 min,  0.487 sec
     gradient                   ...        0 min,  0.046 sec
 * total energy  :  -241.9958301 Eh     change       -0.2935145E-03 Eh
   gradient norm :     0.0046842 Eh/α   predicted    -0.2560611E-03 ( -12.76%)
   displ. norm   :     0.6982503 α      lambda       -0.3365637E-03
   maximum displ.:     0.4257016 α      in ANC's #6, #2, #5, ...

........................................................................
.............................. CYCLE   38 ..............................
........................................................................

 iter      E             dE          RMSdq      gap      omega  full diag
   1   -244.6464499 -0.244646E+03  0.741E-02    0.72       0.0  T
   2   -244.6464578 -0.791931E-05  0.440E-02    0.72       1.0  T
   3   -244.6464141  0.436577E-04  0.159E-02    0.72       1.0  T
   4   -244.6464548 -0.407036E-04  0.637E-03    0.72       1.4  T
   5   -244.6464610 -0.610733E-05  0.304E-03    0.72       2.9  T
   6   -244.6464621 -0.111102E-05  0.181E-03    0.72       4.9  T
   7   -244.6464625 -0.415438E-06  0.700E-04    0.72      12.7  T
   8   -244.6464626 -0.824437E-07  0.256E-04    0.72      34.7  T
     SCC iter.                  ...        0 min,  0.314 sec
     gradient                   ...        0 min,  0.041 sec
 * total energy  :  -241.9960976 Eh     change       -0.2675337E-03 Eh
   gradient norm :     0.0059315 Eh/α   predicted    -0.2503313E-03 (  -6.43%)
   displ. norm   :     0.7679476 α      lambda       -0.3452283E-03
   maximum displ.:     0.4587770 α      in ANC's #6, #2, #5, ...

........................................................................
.............................. CYCLE   39 ..............................
........................................................................

 iter      E             dE          RMSdq      gap      omega  full diag
   1   -244.6400922 -0.244640E+03  0.793E-02    0.73       0.0  T
   2   -244.6401009 -0.866399E-05  0.471E-02    0.72       1.0  T
   3   -244.6400538  0.470437E-04  0.166E-02    0.73       1.0  T
   4   -244.6401009 -0.471403E-04  0.543E-03    0.72       1.6  T
   5   -244.6401053 -0.430612E-05  0.253E-03    0.72       3.5  T
   6   -244.6401054 -0.104243E-06  0.209E-03    0.72       4.2  T
   7   -244.6401061 -0.697031E-06  0.817E-04    0.72      10.9  T
   8   -244.6401062 -0.113981E-06  0.267E-04    0.72      33.2  T
     SCC iter.                  ...        0 min,  0.331 sec
     gradient                   ...        0 min,  0.047 sec
 * total energy  :  -241.9963531 Eh     change       -0.2555447E-03 Eh
   gradient norm :     0.0072712 Eh/α   predicted    -0.2744126E-03 (   7.38%)
   displ. norm   :     0.5960014 α      lambda       -0.2727128E-03
   maximum displ.:     0.3670225 α      in ANC's #6, #2, #5, ...

........................................................................
.............................. CYCLE   40 ..............................
........................................................................

 iter      E             dE          RMSdq      gap      omega  full diag
   1   -244.6403734 -0.244640E+03  0.640E-02    0.73       0.0  T
   2   -244.6403800 -0.659924E-05  0.381E-02    0.73       1.0  T
   3   -244.6403454  0.346415E-04  0.146E-02    0.73       1.0  T
   4   -244.6403795 -0.341030E-04  0.482E-03    0.73       1.8  T
   5   -244.6403835 -0.399585E-05  0.191E-03    0.73       4.6  T
   6   -244.6403837 -0.195905E-06  0.128E-03    0.73       7.0  T
   7   -244.6403839 -0.223855E-06  0.534E-04    0.73      16.6  T
   8   -244.6403840 -0.480441E-07  0.178E-04    0.73      50.0  T
     SCC iter.                  ...        0 min,  0.525 sec
     gradient                   ...        0 min,  0.045 sec
 * total energy  :  -241.9965904 Eh     change       -0.2372543E-03 Eh
   gradient norm :     0.0067103 Eh/α   predicted    -0.1847946E-03 ( -22.11%)
   displ. norm   :     0.5920399 α      lambda       -0.3414245E-03
   maximum displ.:     0.3667839 α      in ANC's #6, #2, #5, ...

........................................................................
.............................. CYCLE   41 ..............................
........................................................................

 iter      E             dE          RMSdq      gap      omega  full diag
   1   -244.6454954 -0.244645E+03  0.659E-02    0.74       0.0  T
   2   -244.6455020 -0.662163E-05  0.393E-02    0.73       1.0  T
   3   -244.6454390  0.629918E-04  0.192E-02    0.73       1.0  T
   4   -244.6454978 -0.587648E-04  0.684E-03    0.73       1.3  T
   5   -244.6455063 -0.853490E-05  0.280E-03    0.73       3.2  T
   6   -244.6455073 -0.963441E-06  0.157E-03    0.73       5.6  T
   7   -244.6455074 -0.178042E-06  0.951E-04    0.73       9.3  T
   8   -244.6455076 -0.154389E-06  0.401E-04    0.73      22.1  T
     SCC iter.                  ...        0 min,  0.354 sec
     gradient                   ...        0 min,  0.045 sec
 * total energy  :  -241.9968545 Eh     change       -0.2640879E-03 Eh
   gradient norm :     0.0044309 Eh/α   predicted    -0.2305492E-03 ( -12.70%)
   displ. norm   :     0.7571692 α      lambda       -0.2705891E-03
   maximum displ.:     0.4734639 α      in ANC's #6, #2, #5, ...

........................................................................
.............................. CYCLE   42 ..............................
........................................................................

 iter      E             dE          RMSdq      gap      omega  full diag
   1   -244.6421431 -0.244642E+03  0.795E-02    0.74       0.0  T
   2   -244.6421479 -0.483053E-05  0.473E-02    0.73       1.0  T
   3   -244.6420864  0.615132E-04  0.184E-02    0.74       1.0  T
   4   -244.6421480 -0.616246E-04  0.526E-03    0.74       1.7  T
   5   -244.6421517 -0.360674E-05  0.295E-03    0.74       3.0  T
   6   -244.6421525 -0.854238E-06  0.178E-03    0.74       5.0  T
   7   -244.6421528 -0.330384E-06  0.917E-04    0.74       9.7  T
   8   -244.6421530 -0.154868E-06  0.366E-04    0.74      24.2  T
     SCC iter.                  ...        0 min,  0.292 sec
     gradient                   ...        0 min,  0.037 sec
 * total energy  :  -241.9970826 Eh     change       -0.2281390E-03 Eh
   gradient norm :     0.0048756 Eh/α   predicted    -0.2128622E-03 (  -6.70%)
   displ. norm   :     0.6803044 α      lambda       -0.2490630E-03
   maximum displ.:     0.4322863 α      in ANC's #6, #2, #5, ...
 * RMSD in coord.:     0.9682278 α      energy gain  -0.5467833E-02 Eh

generating ANC from exact Hessian ...
Using Lindh-Hessian (1995)
 Shifting diagonal of input Hessian by   1.008398692217870E-002
 Lowest  eigenvalues of input Hessian
    0.010000    0.010025    0.010043    0.000000    0.000000    0.000000
    0.000000    0.000000    0.000000    0.010117    0.010197    0.010255
    0.010277    0.010348    0.010617    0.010791    0.010928    0.011550
 Highest eigenvalues
    2.155242    2.267243    2.305057    2.326119    2.335451    2.445074
 

........................................................................
.............................. CYCLE   43 ..............................
........................................................................

 iter      E             dE          RMSdq      gap      omega  full diag
   1   -244.6435673 -0.244644E+03  0.739E-02    0.74       0.0  T
   2   -244.6435701 -0.281114E-05  0.441E-02    0.74       1.0  T
   3   -244.6434948  0.752742E-04  0.200E-02    0.74       1.0  T
   4   -244.6435698 -0.750354E-04  0.528E-03    0.74       1.7  T
   5   -244.6435736 -0.380752E-05  0.294E-03    0.74       3.0  T
   6   -244.6435746 -0.990437E-06  0.165E-03    0.74       5.4  T
   7   -244.6435749 -0.225323E-06  0.947E-04    0.74       9.4  T
   8   -244.6435750 -0.189121E-06  0.298E-04    0.74      29.8  T
     SCC iter.                  ...        0 min,  0.316 sec
     gradient                   ...        0 min,  0.040 sec
 * total energy  :  -241.9972846 Eh     change       -0.2019514E-03 Eh
   gradient norm :     0.0046844 Eh/α   predicted     0.0000000E+00 (-100.00%)
   displ. norm   :     0.0446922 α      lambda       -0.5537571E-04
   maximum displ.:     0.0225487 α      in ANC's #5, #7, #10, ...

........................................................................
.............................. CYCLE   44 ..............................
........................................................................

 iter      E             dE          RMSdq      gap      omega  full diag
   1   -244.6462682 -0.244646E+03  0.861E-03    0.73       0.0  T
   2   -244.6462686 -0.429634E-06  0.515E-03    0.74       1.7  T
   3   -244.6462677  0.927052E-06  0.282E-03    0.73       3.1  T
   4   -244.6462680 -0.308447E-06  0.180E-03    0.74       4.9  T
   5   -244.6462688 -0.741922E-06  0.559E-04    0.73      15.9  T
   6   -244.6462688 -0.550378E-07  0.193E-04    0.74      46.0  T
     SCC iter.                  ...        0 min,  0.240 sec
     gradient                   ...        0 min,  0.039 sec
 * total energy  :  -241.9973327 Eh     change       -0.4816629E-04 Eh
   gradient norm :     0.0024880 Eh/α   predicted    -0.2997292E-04 ( -37.77%)
   displ. norm   :     0.1301641 α      lambda       -0.9972879E-04
   maximum displ.:     0.0677721 α      in ANC's #5, #7, #10, ...

........................................................................
.............................. CYCLE   45 ..............................
........................................................................

 iter      E             dE          RMSdq      gap      omega  full diag
   1   -244.6495851 -0.244650E+03  0.186E-02    0.73       0.0  T
   2   -244.6495871 -0.201536E-05  0.111E-02    0.73       1.0  T
   3   -244.6495835  0.364238E-05  0.582E-03    0.73       1.5  T
   4   -244.6495849 -0.149561E-05  0.359E-03    0.73       2.5  T
   5   -244.6495876 -0.265589E-05  0.122E-03    0.73       7.3  T
   6   -244.6495879 -0.284682E-06  0.312E-04    0.73      28.4  T
   7   -244.6495879 -0.313432E-08  0.194E-04    0.73      45.7  T
     SCC iter.                  ...        0 min,  0.268 sec
     gradient                   ...        0 min,  0.039 sec
 * total energy  :  -241.9974001 Eh     change       -0.6734538E-04 Eh
   gradient norm :     0.0024185 Eh/α   predicted    -0.5070987E-04 ( -24.70%)
   displ. norm   :     0.1337255 α      lambda       -0.5708577E-04
   maximum displ.:     0.0718646 α      in ANC's #5, #7, #10, ...

........................................................................
.............................. CYCLE   46 ..............................
........................................................................

 iter      E             dE          RMSdq      gap      omega  full diag
   1   -244.6497426 -0.244650E+03  0.167E-02    0.73       0.0  T
   2   -244.6497434 -0.894305E-06  0.987E-03    0.73       1.0  T
   3   -244.6497389  0.451595E-05  0.517E-03    0.73       1.7  T
   4   -244.6497416 -0.267171E-05  0.312E-03    0.73       2.8  T
   5   -244.6497438 -0.221696E-05  0.805E-04    0.73      11.0  T
   6   -244.6497439 -0.964596E-07  0.324E-04    0.73      27.4  T
   7   -244.6497439 -0.177175E-08  0.240E-04    0.73      37.0  T
     SCC iter.                  ...        0 min,  0.270 sec
     gradient                   ...        0 min,  0.045 sec
 * total energy  :  -241.9974462 Eh     change       -0.4611229E-04 Eh
   gradient norm :     0.0037179 Eh/α   predicted    -0.2905365E-04 ( -36.99%)
   displ. norm   :     0.2206683 α      lambda       -0.8535829E-04
   maximum displ.:     0.1183006 α      in ANC's #5, #7, #10, ...

........................................................................
.............................. CYCLE   47 ..............................
........................................................................

 iter      E             dE          RMSdq      gap      omega  full diag
   1   -244.6482100 -0.244648E+03  0.255E-02    0.72       0.0  T
   2   -244.6482117 -0.170404E-05  0.150E-02    0.73       1.0  T
   3   -244.6482036  0.809090E-05  0.689E-03    0.72       1.3  T
   4   -244.6482084 -0.480609E-05  0.418E-03    0.73       2.1  T
   5   -244.6482123 -0.392811E-05  0.110E-03    0.73       8.1  T
   6   -244.6482125 -0.176182E-06  0.456E-04    0.73      19.5  T
   7   -244.6482125  0.862684E-09  0.330E-04    0.73      26.9  T
     SCC iter.                  ...        0 min,  0.282 sec
     gradient                   ...        0 min,  0.035 sec
 * total energy  :  -241.9975153 Eh     change       -0.6913511E-04 Eh
   gradient norm :     0.0040509 Eh/α   predicted    -0.4475785E-04 ( -35.26%)
   displ. norm   :     0.2806285 α      lambda       -0.9631512E-04
   maximum displ.:     0.1527184 α      in ANC's #5, #7, #10, ...

........................................................................
.............................. CYCLE   48 ..............................
........................................................................

 iter      E             dE          RMSdq      gap      omega  full diag
   1   -244.6457653 -0.244646E+03  0.308E-02    0.72       0.0  T
   2   -244.6457676 -0.237391E-05  0.181E-02    0.73       1.0  T
   3   -244.6457547  0.129219E-04  0.862E-03    0.72       1.0  T
   4   -244.6457623 -0.756062E-05  0.526E-03    0.73       1.7  T
   5   -244.6457686 -0.635732E-05  0.129E-03    0.73       6.9  T
   6   -244.6457689 -0.217345E-06  0.584E-04    0.73      15.2  T
   7   -244.6457689 -0.850406E-09  0.432E-04    0.73      20.5  T
     SCC iter.                  ...        0 min,  0.256 sec
     gradient                   ...        0 min,  0.040 sec
 * total energy  :  -241.9975911 Eh     change       -0.7575754E-04 Eh
   gradient norm :     0.0032768 Eh/α   predicted    -0.5195594E-04 ( -31.42%)
   displ. norm   :     0.2677520 α      lambda       -0.8289698E-04
   maximum displ.:     0.1491892 α      in ANC's #5, #7, #10, ...

........................................................................
.............................. CYCLE   49 ..............................
........................................................................

 iter      E             dE          RMSdq      gap      omega  full diag
   1   -244.6444486 -0.244644E+03  0.285E-02    0.73       0.0  T
   2   -244.6444505 -0.189032E-05  0.168E-02    0.73       1.0  T
   3   -244.6444419  0.868118E-05  0.728E-03    0.72       1.2  T
   4   -244.6444467 -0.484766E-05  0.447E-03    0.73       2.0  T
   5   -244.6444512 -0.453299E-05  0.118E-03    0.73       7.5  T
   6   -244.6444514 -0.180328E-06  0.530E-04    0.73      16.8  T
   7   -244.6444514 -0.380277E-08  0.373E-04    0.73      23.8  T
     SCC iter.                  ...        0 min,  0.249 sec
     gradient                   ...        0 min,  0.036 sec
 * total energy  :  -241.9976582 Eh     change       -0.6710886E-04 Eh
   gradient norm :     0.0025021 Eh/α   predicted    -0.4442210E-04 ( -33.81%)
   displ. norm   :     0.2588757 α      lambda       -0.8204120E-04
   maximum displ.:     0.1474839 α      in ANC's #5, #7, #2, ...

........................................................................
.............................. CYCLE   50 ..............................
........................................................................

 iter      E             dE          RMSdq      gap      omega  full diag
   1   -244.6446207 -0.244645E+03  0.265E-02    0.73       0.0  T
   2   -244.6446219 -0.124932E-05  0.156E-02    0.73       1.0  T
   3   -244.6446147  0.721232E-05  0.642E-03    0.73       1.4  T
   4   -244.6446193 -0.458752E-05  0.372E-03    0.73       2.4  T
   5   -244.6446224 -0.314872E-05  0.105E-03    0.73       8.5  T
   6   -244.6446226 -0.118453E-06  0.522E-04    0.73      17.0  T
   7   -244.6446226 -0.151290E-07  0.341E-04    0.73      26.0  T
     SCC iter.                  ...        0 min,  0.281 sec
     gradient                   ...        0 min,  0.039 sec
 * total energy  :  -241.9977262 Eh     change       -0.6803640E-04 Eh
   gradient norm :     0.0026414 Eh/α   predicted    -0.4379128E-04 ( -35.64%)
   displ. norm   :     0.2831774 α      lambda       -0.8817358E-04
   maximum displ.:     0.1637634 α      in ANC's #5, #7, #2, ...

........................................................................
.............................. CYCLE   51 ..............................
........................................................................

 iter      E             dE          RMSdq      gap      omega  full diag
   1   -244.6459448 -0.244646E+03  0.288E-02    0.73       0.0  T
   2   -244.6459458 -0.984045E-06  0.170E-02    0.73       1.0  T
   3   -244.6459405  0.522009E-05  0.541E-03    0.73       1.6  T
   4   -244.6459442 -0.369890E-05  0.297E-03    0.73       3.0  T
   5   -244.6459461 -0.186087E-05  0.111E-03    0.73       8.0  T
   6   -244.6459462 -0.139079E-06  0.557E-04    0.73      15.9  T
   7   -244.6459463 -0.291293E-07  0.288E-04    0.73      30.8  T
     SCC iter.                  ...        0 min,  0.421 sec
     gradient                   ...        0 min,  0.059 sec
 * total energy  :  -241.9978004 Eh     change       -0.7412434E-04 Eh
   gradient norm :     0.0033302 Eh/α   predicted    -0.4762391E-04 ( -35.75%)
   displ. norm   :     0.3297036 α      lambda       -0.9806210E-04
   maximum displ.:     0.1925887 α      in ANC's #5, #7, #2, ...

........................................................................
.............................. CYCLE   52 ..............................
........................................................................

 iter      E             dE          RMSdq      gap      omega  full diag
   1   -244.6474969 -0.244647E+03  0.330E-02    0.73       0.0  T
   2   -244.6474979 -0.103376E-05  0.196E-02    0.73       1.0  T
   3   -244.6474925  0.544145E-05  0.544E-03    0.73       1.6  T
   4   -244.6474969 -0.441998E-05  0.268E-03    0.73       3.3  T
   5   -244.6474982 -0.131702E-05  0.129E-03    0.73       6.9  T
   6   -244.6474984 -0.211278E-06  0.661E-04    0.73      13.4  T
   7   -244.6474985 -0.451770E-07  0.313E-04    0.73      28.4  T
     SCC iter.                  ...        0 min,  0.660 sec
     gradient                   ...        0 min,  0.051 sec
 * total energy  :  -241.9978862 Eh     change       -0.8582043E-04 Eh
   gradient norm :     0.0036132 Eh/α   predicted    -0.5436712E-04 ( -36.65%)
   displ. norm   :     0.4052546 α      lambda       -0.1234907E-03
   maximum displ.:     0.2382834 α      in ANC's #5, #7, #2, ...

........................................................................
.............................. CYCLE   53 ..............................
........................................................................

 iter      E             dE          RMSdq      gap      omega  full diag
   1   -244.6487790 -0.244649E+03  0.405E-02    0.73       0.0  T
   2   -244.6487806 -0.160141E-05  0.240E-02    0.73       1.0  T
   3   -244.6487740  0.655642E-05  0.630E-03    0.73       1.4  T
   4   -244.6487803 -0.629793E-05  0.244E-03    0.74       3.6  T
   5   -244.6487811 -0.802574E-06  0.134E-03    0.73       6.6  T
   6   -244.6487813 -0.125893E-06  0.935E-04    0.73       9.5  T
   7   -244.6487814 -0.139068E-06  0.381E-04    0.73      23.3  T
     SCC iter.                  ...        0 min,  0.692 sec
     gradient                   ...        0 min,  0.051 sec
 * total energy  :  -241.9979982 Eh     change       -0.1120677E-03 Eh
   gradient norm :     0.0032846 Eh/α   predicted    -0.7188605E-04 ( -35.85%)
   displ. norm   :     0.5157063 α      lambda       -0.1657755E-03
   maximum displ.:     0.3044613 α      in ANC's #5, #7, #2, ...

........................................................................
.............................. CYCLE   54 ..............................
........................................................................

 iter      E             dE          RMSdq      gap      omega  full diag
   1   -244.6492000 -0.244649E+03  0.511E-02    0.74       0.0  T
   2   -244.6492026 -0.268113E-05  0.303E-02    0.74       1.0  T
   3   -244.6491915  0.111072E-04  0.836E-03    0.74       1.1  T
   4   -244.6492029 -0.113592E-04  0.281E-03    0.74       3.2  T
   5   -244.6492039 -0.103000E-05  0.130E-03    0.74       6.8  T
   6   -244.6492039  0.228920E-07  0.989E-04    0.74       9.0  T
   7   -244.6492040 -0.145385E-06  0.528E-04    0.74      16.8  T
     SCC iter.                  ...        0 min,  0.358 sec
     gradient                   ...        0 min,  0.037 sec
 * total energy  :  -241.9981508 Eh     change       -0.1525151E-03 Eh
   gradient norm :     0.0029113 Eh/α   predicted    -0.1049328E-03 ( -31.20%)
   displ. norm   :     0.6234937 α      lambda       -0.2073118E-03
   maximum displ.:     0.3691784 α      in ANC's #5, #7, #2, ...

........................................................................
.............................. CYCLE   55 ..............................
........................................................................

 iter      E             dE          RMSdq      gap      omega  full diag
   1   -244.6484583 -0.244648E+03  0.611E-02    0.74       0.0  T
   2   -244.6484621 -0.389674E-05  0.363E-02    0.74       1.0  T
   3   -244.6484456  0.165409E-04  0.102E-02    0.74       1.0  T
   4   -244.6484628 -0.172112E-04  0.329E-03    0.74       2.7  T
   5   -244.6484642 -0.137854E-05  0.146E-03    0.74       6.1  T
   6   -244.6484643 -0.702391E-07  0.812E-04    0.74      10.9  T
   7   -244.6484643 -0.561588E-07  0.437E-04    0.74      20.3  T
     SCC iter.                  ...        0 min,  0.246 sec
     gradient                   ...        0 min,  0.042 sec
 * total energy  :  -241.9983398 Eh     change       -0.1890681E-03 Eh
   gradient norm :     0.0034213 Eh/α   predicted    -0.1439536E-03 ( -23.86%)
   displ. norm   :     0.6919804 α      lambda       -0.2276404E-03
   maximum displ.:     0.4106665 α      in ANC's #5, #7, #2, ...

........................................................................
.............................. CYCLE   56 ..............................
........................................................................

 iter      E             dE          RMSdq      gap      omega  full diag
   1   -244.6468873 -0.244647E+03  0.667E-02    0.74       0.0  T
   2   -244.6468920 -0.464698E-05  0.396E-02    0.74       1.0  T
   3   -244.6468696  0.223531E-04  0.116E-02    0.74       1.0  T
   4   -244.6468914 -0.217652E-04  0.434E-03    0.74       2.0  T
   5   -244.6468936 -0.223173E-05  0.264E-03    0.74       3.4  T
   6   -244.6468943 -0.710046E-06  0.154E-03    0.74       5.8  T
   7   -244.6468947 -0.346743E-06  0.576E-04    0.74      15.4  T
   8   -244.6468947 -0.514264E-07  0.221E-04    0.74      40.1  T
     SCC iter.                  ...        0 min,  0.525 sec
     gradient                   ...        0 min,  0.043 sec
 * total energy  :  -241.9985420 Eh     change       -0.2021364E-03 Eh
   gradient norm :     0.0043617 Eh/α   predicted    -0.1683234E-03 ( -16.73%)
   displ. norm   :     0.6912856 α      lambda       -0.2174292E-03
   maximum displ.:     0.4123492 α      in ANC's #5, #7, #2, ...

........................................................................
.............................. CYCLE   57 ..............................
........................................................................

 iter      E             dE          RMSdq      gap      omega  full diag
   1   -244.6455079 -0.244646E+03  0.657E-02    0.74       0.0  T
   2   -244.6455124 -0.448618E-05  0.390E-02    0.74       1.0  T
   3   -244.6454880  0.243733E-04  0.118E-02    0.74       1.0  T
   4   -244.6455098 -0.217861E-04  0.517E-03    0.74       1.7  T
   5   -244.6455138 -0.391523E-05  0.289E-03    0.74       3.1  T
   6   -244.6455149 -0.111879E-05  0.136E-03    0.74       6.5  T
   7   -244.6455151 -0.207048E-06  0.555E-04    0.74      16.0  T
   8   -244.6455151 -0.473634E-07  0.222E-04    0.74      40.1  T
     SCC iter.                  ...        0 min,  0.383 sec
     gradient                   ...        0 min,  0.041 sec
 * total energy  :  -241.9987305 Eh     change       -0.1885436E-03 Eh
   gradient norm :     0.0047566 Eh/α   predicted    -0.1606680E-03 ( -14.78%)
   displ. norm   :     0.6615626 α      lambda       -0.1998763E-03
   maximum displ.:     0.3986651 α      in ANC's #5, #7, #2, ...

........................................................................
.............................. CYCLE   58 ..............................
........................................................................

 iter      E             dE          RMSdq      gap      omega  full diag
   1   -244.6449532 -0.244645E+03  0.624E-02    0.74       0.0  T
   2   -244.6449569 -0.375314E-05  0.370E-02    0.74       1.0  T
   3   -244.6449195  0.374824E-04  0.138E-02    0.74       1.0  T
   4   -244.6449510 -0.315937E-04  0.639E-03    0.74       1.4  T
   5   -244.6449588 -0.773030E-05  0.258E-03    0.74       3.4  T
   6   -244.6449596 -0.796997E-06  0.119E-03    0.74       7.5  T
   7   -244.6449597 -0.118834E-06  0.543E-04    0.74      16.4  T
   8   -244.6449597 -0.453874E-07  0.220E-04    0.74      40.3  T
     SCC iter.                  ...        0 min,  0.300 sec
     gradient                   ...        0 min,  0.037 sec
 * total energy  :  -241.9989032 Eh     change       -0.1727022E-03 Eh
   gradient norm :     0.0043197 Eh/α   predicted    -0.1436790E-03 ( -16.81%)
   displ. norm   :     0.6477448 α      lambda       -0.1953364E-03
   maximum displ.:     0.3962699 α      in ANC's #5, #7, #2, ...

........................................................................
.............................. CYCLE   59 ..............................
........................................................................

 iter      E             dE          RMSdq      gap      omega  full diag
   1   -244.6452344 -0.244645E+03  0.618E-02    0.74       0.0  T
   2   -244.6452377 -0.335050E-05  0.366E-02    0.74       1.0  T
   3   -244.6451684  0.693578E-04  0.182E-02    0.74       1.0  T
   4   -244.6452313 -0.629112E-04  0.692E-03    0.74       1.3  T
   5   -244.6452408 -0.952108E-05  0.236E-03    0.74       3.8  T
   6   -244.6452413 -0.549029E-06  0.113E-03    0.74       7.8  T
   7   -244.6452414 -0.934885E-07  0.564E-04    0.74      15.7  T
   8   -244.6452415 -0.506309E-07  0.209E-04    0.74      42.4  T
     SCC iter.                  ...        0 min,  0.388 sec
     gradient                   ...        0 min,  0.055 sec
 * total energy  :  -241.9990731 Eh     change       -0.1699255E-03 Eh
   gradient norm :     0.0036067 Eh/α   predicted    -0.1386493E-03 ( -18.41%)
   displ. norm   :     0.6643178 α      lambda       -0.2036757E-03
   maximum displ.:     0.4132453 α      in ANC's #5, #7, #2, ...

........................................................................
.............................. CYCLE   60 ..............................
........................................................................

 iter      E             dE          RMSdq      gap      omega  full diag
   1   -244.6460254 -0.244646E+03  0.650E-02    0.74       0.0  T
   2   -244.6460292 -0.380435E-05  0.386E-02    0.74       1.0  T
   3   -244.6459122  0.116930E-03  0.235E-02    0.73       1.0  T
   4   -244.6460208 -0.108548E-03  0.812E-03    0.74       1.1  T
   5   -244.6460343 -0.135037E-04  0.244E-03    0.74       3.6  T
   6   -244.6460349 -0.558800E-06  0.116E-03    0.74       7.7  T
   7   -244.6460349 -0.734485E-07  0.602E-04    0.74      14.7  T
   8   -244.6460350 -0.615441E-07  0.183E-04    0.74      48.5  T
     SCC iter.                  ...        0 min,  0.324 sec
     gradient                   ...        0 min,  0.038 sec
 * total energy  :  -241.9992519 Eh     change       -0.1787182E-03 Eh
   gradient norm :     0.0038758 Eh/α   predicted    -0.1467817E-03 ( -17.87%)
   displ. norm   :     0.6509173 α      lambda       -0.2073472E-03
   maximum displ.:     0.4115701 α      in ANC's #5, #7, #2, ...

........................................................................
.............................. CYCLE   61 ..............................
........................................................................

 iter      E             dE          RMSdq      gap      omega  full diag
   1   -244.6475361 -0.244648E+03  0.660E-02    0.74       0.0  T
   2   -244.6475405 -0.435828E-05  0.391E-02    0.75       1.0  T
   3   -244.6473952  0.145257E-03  0.263E-02    0.73       1.0  T
   4   -244.6475297 -0.134456E-03  0.911E-03    0.74       1.0  T
   5   -244.6475470 -0.173845E-04  0.251E-03    0.74       3.5  T
   6   -244.6475476 -0.606780E-06  0.116E-03    0.74       7.6  T
   7   -244.6475477 -0.487252E-07  0.631E-04    0.74      14.1  T
   8   -244.6475478 -0.717815E-07  0.184E-04    0.74      48.2  T
     SCC iter.                  ...        0 min,  0.311 sec
     gradient                   ...        0 min,  0.037 sec
 * total energy  :  -241.9994348 Eh     change       -0.1829639E-03 Eh
   gradient norm :     0.0047659 Eh/α   predicted    -0.1476009E-03 ( -19.33%)
   displ. norm   :     0.6921029 α      lambda       -0.2143520E-03
   maximum displ.:     0.4418154 α      in ANC's #5, #7, #2, ...

........................................................................
.............................. CYCLE   62 ..............................
........................................................................

 iter      E             dE          RMSdq      gap      omega  full diag
   1   -244.6472219 -0.244647E+03  0.707E-02    0.73       0.0  T
   2   -244.6472267 -0.479469E-05  0.419E-02    0.75       1.0  T
   3   -244.6470748  0.151894E-03  0.268E-02    0.73       1.0  T
   4   -244.6472153 -0.140432E-03  0.930E-03    0.74       1.0  T
   5   -244.6472334 -0.180869E-04  0.265E-03    0.74       3.3  T
   6   -244.6472340 -0.682204E-06  0.123E-03    0.74       7.2  T
   7   -244.6472341 -0.447604E-07  0.687E-04    0.74      12.9  T
   8   -244.6472342 -0.900684E-07  0.203E-04    0.74      43.6  T
     SCC iter.                  ...        0 min,  0.397 sec
     gradient                   ...        0 min,  0.046 sec
 * total energy  :  -241.9996264 Eh     change       -0.1916142E-03 Eh
   gradient norm :     0.0052581 Eh/α   predicted    -0.1585210E-03 ( -17.27%)
   displ. norm   :     0.6919843 α      lambda       -0.2390589E-03
   maximum displ.:     0.4479631 α      in ANC's #5, #7, #2, ...

........................................................................
.............................. CYCLE   63 ..............................
........................................................................

 iter      E             dE          RMSdq      gap      omega  full diag
   1   -244.6523258 -0.244652E+03  0.726E-02    0.73       0.0  T
   2   -244.6523322 -0.632626E-05  0.430E-02    0.75       1.0  T
   3   -244.6521838  0.148322E-03  0.266E-02    0.73       1.0  T
   4   -244.6523160 -0.132112E-03  0.104E-02    0.74       1.0  T
   5   -244.6523389 -0.229203E-04  0.283E-03    0.74       3.1  T
   6   -244.6523397 -0.779008E-06  0.132E-03    0.74       6.7  T
   7   -244.6523397 -0.386474E-07  0.804E-04    0.74      11.0  T
   8   -244.6523398 -0.125600E-06  0.245E-04    0.74      36.2  T
     SCC iter.                  ...        0 min,  0.307 sec
     gradient                   ...        0 min,  0.037 sec
 * total energy  :  -241.9998189 Eh     change       -0.1924864E-03 Eh
   gradient norm :     0.0045260 Eh/α   predicted    -0.1767661E-03 (  -8.17%)
   displ. norm   :     0.8172411 α      lambda       -0.2458355E-03
   maximum displ.:     0.5268000 α      in ANC's #5, #7, #2, ...

........................................................................
.............................. CYCLE   64 ..............................
........................................................................

 iter      E             dE          RMSdq      gap      omega  full diag
   1   -244.6444501 -0.244644E+03  0.820E-02    0.74       0.0  T
   2   -244.6444565 -0.646112E-05  0.486E-02    0.75       1.0  T
   3   -244.6443620  0.945846E-04  0.211E-02    0.73       1.0  T
   4   -244.6444416 -0.796614E-04  0.954E-03    0.75       1.0  T
   5   -244.6444607 -0.190682E-04  0.304E-03    0.74       2.9  T
   6   -244.6444616 -0.878006E-06  0.145E-03    0.74       6.1  T
   7   -244.6444617 -0.110050E-06  0.828E-04    0.74      10.7  T
   8   -244.6444618 -0.134103E-06  0.259E-04    0.74      34.2  T
     SCC iter.                  ...        0 min,  0.283 sec
     gradient                   ...        0 min,  0.036 sec
 * total energy  :  -242.0000034 Eh     change       -0.1844866E-03 Eh
   gradient norm :     0.0053958 Eh/α   predicted    -0.2050135E-03 (  11.13%)
   displ. norm   :     0.6042251 α      lambda       -0.1931780E-03
   maximum displ.:     0.3944298 α      in ANC's #5, #7, #2, ...

........................................................................
.............................. CYCLE   65 ..............................
........................................................................

 iter      E             dE          RMSdq      gap      omega  full diag
   1   -244.6455890 -0.244646E+03  0.599E-02    0.74       0.0  T
   2   -244.6455929 -0.388236E-05  0.356E-02    0.75       1.0  T
   3   -244.6455713  0.215692E-04  0.106E-02    0.74       1.0  T
   4   -244.6455865 -0.151919E-04  0.610E-03    0.75       1.5  T
   5   -244.6455938 -0.730533E-05  0.260E-03    0.75       3.4  T
   6   -244.6455947 -0.882493E-06  0.109E-03    0.75       8.2  T
   7   -244.6455948 -0.770015E-07  0.569E-04    0.75      15.6  T
   8   -244.6455948 -0.579633E-07  0.190E-04    0.75      46.7  T
     SCC iter.                  ...        0 min,  0.309 sec
     gradient                   ...        0 min,  0.047 sec
 * total energy  :  -242.0001715 Eh     change       -0.1680923E-03 Eh
   gradient norm :     0.0049455 Eh/α   predicted    -0.1318531E-03 ( -21.56%)
   displ. norm   :     0.5758889 α      lambda       -0.2524651E-03
   maximum displ.:     0.3766417 α      in ANC's #5, #2, #3, ...

........................................................................
.............................. CYCLE   66 ..............................
........................................................................

 iter      E             dE          RMSdq      gap      omega  full diag
   1   -244.6522748 -0.244652E+03  0.583E-02    0.75       0.0  T
   2   -244.6522794 -0.459083E-05  0.347E-02    0.75       1.0  T
   3   -244.6522533  0.260899E-04  0.125E-02    0.75       1.0  T
   4   -244.6522736 -0.203253E-04  0.649E-03    0.75       1.4  T
   5   -244.6522808 -0.719103E-05  0.254E-03    0.75       3.5  T
   6   -244.6522817 -0.913664E-06  0.124E-03    0.75       7.2  T
   7   -244.6522819 -0.155647E-06  0.535E-04    0.75      16.6  T
   8   -244.6522819 -0.431271E-07  0.170E-04    0.75      52.1  T
     SCC iter.                  ...        0 min,  0.271 sec
     gradient                   ...        0 min,  0.036 sec
 * total energy  :  -242.0003681 Eh     change       -0.1965680E-03 Eh
   gradient norm :     0.0051753 Eh/α   predicted    -0.1680977E-03 ( -14.48%)
   displ. norm   :     0.8002991 α      lambda       -0.2328899E-03
   maximum displ.:     0.5275174 α      in ANC's #5, #7, #2, ...
 * RMSD in coord.:     0.9776958 α      energy gain  -0.3285446E-02 Eh

generating ANC from exact Hessian ...
Using Lindh-Hessian (1995)
 Shifting diagonal of input Hessian by   1.008847068898503E-002
 Lowest  eigenvalues of input Hessian
    0.010000    0.010009    0.010045    0.000000    0.000000    0.000000
    0.000000    0.000000    0.000000    0.010129    0.010211    0.010315
    0.010345    0.010367    0.010635    0.010877    0.011003    0.011662
 Highest eigenvalues
    2.153495    2.265525    2.309855    2.324266    2.334642    2.445139
 

........................................................................
.............................. CYCLE   67 ..............................
........................................................................

 iter      E             dE          RMSdq      gap      omega  full diag
   1   -244.6491210 -0.244649E+03  0.772E-02    0.75       0.0  T
   2   -244.6491270 -0.602906E-05  0.459E-02    0.75       1.0  T
   3   -244.6491128  0.141874E-04  0.977E-03    0.75       1.0  T
   4   -244.6491274 -0.145865E-04  0.399E-03    0.75       2.2  T
   5   -244.6491292 -0.182375E-05  0.184E-03    0.75       4.8  T
   6   -244.6491293 -0.852075E-07  0.111E-03    0.75       8.0  T
   7   -244.6491295 -0.140572E-06  0.659E-04    0.75      13.5  T
   8   -244.6491296 -0.842676E-07  0.218E-04    0.75      40.6  T
     SCC iter.                  ...        0 min,  0.321 sec
     gradient                   ...        0 min,  0.035 sec
 * total energy  :  -242.0005729 Eh     change       -0.2048799E-03 Eh
   gradient norm :     0.0055298 Eh/α   predicted     0.0000000E+00 (-100.00%)
   displ. norm   :     0.0436711 α      lambda       -0.6867370E-04
   maximum displ.:     0.0243326 α      in ANC's #5, #13, #6, ...

........................................................................
.............................. CYCLE   68 ..............................
........................................................................

 iter      E             dE          RMSdq      gap      omega  full diag
   1   -244.6519284 -0.244652E+03  0.971E-03    0.75       0.0  T
   2   -244.6519289 -0.457387E-06  0.575E-03    0.75       1.5  T
   3   -244.6519282  0.633434E-06  0.249E-03    0.75       3.6  T
   4   -244.6519287 -0.437165E-06  0.128E-03    0.75       6.9  T
   5   -244.6519290 -0.300265E-06  0.532E-04    0.75      16.7  T
   6   -244.6519290 -0.437504E-07  0.251E-04    0.75      35.3  T
     SCC iter.                  ...        0 min,  0.204 sec
     gradient                   ...        0 min,  0.046 sec
 * total energy  :  -242.0006304 Eh     change       -0.5745736E-04 Eh
   gradient norm :     0.0029703 Eh/α   predicted    -0.3717960E-04 ( -35.29%)
   displ. norm   :     0.1000587 α      lambda       -0.8292281E-04
   maximum displ.:     0.0603439 α      in ANC's #5, #13, #6, ...

........................................................................
.............................. CYCLE   69 ..............................
........................................................................

 iter      E             dE          RMSdq      gap      omega  full diag
   1   -244.6542795 -0.244654E+03  0.187E-02    0.75       0.0  T
   2   -244.6542810 -0.146880E-05  0.110E-02    0.75       1.0  T
   3   -244.6542785  0.255290E-05  0.472E-03    0.75       1.9  T
   4   -244.6542803 -0.186159E-05  0.239E-03    0.75       3.7  T
   5   -244.6542813 -0.101470E-05  0.103E-03    0.75       8.6  T
   6   -244.6542815 -0.168057E-06  0.488E-04    0.75      18.2  T
   7   -244.6542815 -0.174475E-07  0.282E-04    0.75      31.5  T
     SCC iter.                  ...        0 min,  0.330 sec
     gradient                   ...        0 min,  0.035 sec
 * total energy  :  -242.0006859 Eh     change       -0.5552730E-04 Eh
   gradient norm :     0.0021205 Eh/α   predicted    -0.4187678E-04 ( -24.58%)
   displ. norm   :     0.0981738 α      lambda       -0.4163720E-04
   maximum displ.:     0.0618843 α      in ANC's #5, #6, #13, ...

........................................................................
.............................. CYCLE   70 ..............................
........................................................................

 iter      E             dE          RMSdq      gap      omega  full diag
   1   -244.6542788 -0.244654E+03  0.156E-02    0.75       0.0  T
   2   -244.6542796 -0.832350E-06  0.915E-03    0.75       1.0  T
   3   -244.6542771  0.257756E-05  0.426E-03    0.75       2.1  T
   4   -244.6542790 -0.198271E-05  0.203E-03    0.75       4.4  T
   5   -244.6542799 -0.897048E-06  0.665E-04    0.75      13.3  T
   6   -244.6542800 -0.656340E-07  0.308E-04    0.75      28.8  T
     SCC iter.                  ...        0 min,  0.231 sec
     gradient                   ...        0 min,  0.038 sec
 * total energy  :  -242.0007200 Eh     change       -0.3409390E-04 Eh
   gradient norm :     0.0030883 Eh/α   predicted    -0.2117014E-04 ( -37.91%)
   displ. norm   :     0.1602930 α      lambda       -0.6129827E-04
   maximum displ.:     0.0989490 α      in ANC's #5, #6, #13, ...

........................................................................
.............................. CYCLE   71 ..............................
........................................................................

 iter      E             dE          RMSdq      gap      omega  full diag
   1   -244.6529786 -0.244653E+03  0.233E-02    0.75       0.0  T
   2   -244.6529805 -0.194390E-05  0.136E-02    0.75       1.0  T
   3   -244.6529757  0.480118E-05  0.607E-03    0.75       1.5  T
   4   -244.6529795 -0.372609E-05  0.284E-03    0.75       3.1  T
   5   -244.6529812 -0.169618E-05  0.104E-03    0.75       8.5  T
   6   -244.6529813 -0.165081E-06  0.510E-04    0.75      17.4  T
   7   -244.6529813 -0.422185E-08  0.388E-04    0.75      22.9  T
     SCC iter.                  ...        0 min,  0.267 sec
     gradient                   ...        0 min,  0.038 sec
 * total energy  :  -242.0007702 Eh     change       -0.5014178E-04 Eh
   gradient norm :     0.0034044 Eh/α   predicted    -0.3143703E-04 ( -37.30%)
   displ. norm   :     0.2180937 α      lambda       -0.7211603E-04
   maximum displ.:     0.1336438 α      in ANC's #5, #6, #4, ...

........................................................................
.............................. CYCLE   72 ..............................
........................................................................

 iter      E             dE          RMSdq      gap      omega  full diag
   1   -244.6510950 -0.244651E+03  0.290E-02    0.75       0.0  T
   2   -244.6510982 -0.324021E-05  0.170E-02    0.75       1.0  T
   3   -244.6510909  0.734824E-05  0.770E-03    0.75       1.2  T
   4   -244.6510961 -0.528038E-05  0.398E-03    0.75       2.2  T
   5   -244.6510991 -0.300507E-05  0.145E-03    0.75       6.1  T
   6   -244.6510994 -0.293582E-06  0.747E-04    0.75      11.9  T
   7   -244.6510995 -0.280705E-07  0.483E-04    0.75      18.4  T
     SCC iter.                  ...        0 min,  0.324 sec
     gradient                   ...        0 min,  0.038 sec
 * total energy  :  -242.0008277 Eh     change       -0.5753907E-04 Eh
   gradient norm :     0.0029275 Eh/α   predicted    -0.3777412E-04 ( -34.35%)
   displ. norm   :     0.2287596 α      lambda       -0.6566686E-04
   maximum displ.:     0.1399071 α      in ANC's #5, #6, #4, ...

........................................................................
.............................. CYCLE   73 ..............................
........................................................................

 iter      E             dE          RMSdq      gap      omega  full diag
   1   -244.6498747 -0.244650E+03  0.277E-02    0.75       0.0  T
   2   -244.6498775 -0.282131E-05  0.162E-02    0.74       1.0  T
   3   -244.6498712  0.633098E-05  0.711E-03    0.75       1.2  T
   4   -244.6498759 -0.466266E-05  0.362E-03    0.75       2.5  T
   5   -244.6498783 -0.247552E-05  0.133E-03    0.74       6.6  T
   6   -244.6498786 -0.239480E-06  0.696E-04    0.75      12.7  T
   7   -244.6498786 -0.286134E-07  0.441E-04    0.75      20.1  T
     SCC iter.                  ...        0 min,  0.263 sec
     gradient                   ...        0 min,  0.034 sec
 * total energy  :  -242.0008815 Eh     change       -0.5381423E-04 Eh
   gradient norm :     0.0023997 Eh/α   predicted    -0.3455392E-04 ( -35.79%)
   displ. norm   :     0.2395827 α      lambda       -0.6750276E-04
   maximum displ.:     0.1456891 α      in ANC's #5, #6, #4, ...

........................................................................
.............................. CYCLE   74 ..............................
........................................................................

 iter      E             dE          RMSdq      gap      omega  full diag
   1   -244.6496197 -0.244650E+03  0.265E-02    0.75       0.0  T
   2   -244.6496217 -0.196406E-05  0.155E-02    0.74       1.0  T
   3   -244.6496154  0.628669E-05  0.656E-03    0.75       1.4  T
   4   -244.6496196 -0.418386E-05  0.370E-03    0.75       2.4  T
   5   -244.6496222 -0.263869E-05  0.132E-03    0.74       6.7  T
   6   -244.6496225 -0.263451E-06  0.611E-04    0.74      14.5  T
   7   -244.6496225 -0.270551E-07  0.340E-04    0.74      26.1  T
     SCC iter.                  ...        0 min,  0.252 sec
     gradient                   ...        0 min,  0.034 sec
 * total energy  :  -242.0009387 Eh     change       -0.5715026E-04 Eh
   gradient norm :     0.0026578 Eh/α   predicted    -0.3569325E-04 ( -37.54%)
   displ. norm   :     0.2906291 α      lambda       -0.8234143E-04
   maximum displ.:     0.1754426 α      in ANC's #5, #6, #4, ...

........................................................................
.............................. CYCLE   75 ..............................
........................................................................

 iter      E             dE          RMSdq      gap      omega  full diag
   1   -244.6500651 -0.244650E+03  0.306E-02    0.74       0.0  T
   2   -244.6500667 -0.155124E-05  0.179E-02    0.74       1.0  T
   3   -244.6500552  0.114508E-04  0.789E-03    0.74       1.1  T
   4   -244.6500637 -0.845352E-05  0.421E-03    0.75       2.1  T
   5   -244.6500673 -0.362523E-05  0.139E-03    0.74       6.4  T
   6   -244.6500676 -0.293211E-06  0.610E-04    0.74      14.6  T
   7   -244.6500676 -0.271364E-07  0.291E-04    0.74      30.5  T
     SCC iter.                  ...        0 min,  0.261 sec
     gradient                   ...        0 min,  0.047 sec
 * total energy  :  -242.0010092 Eh     change       -0.7054820E-04 Eh
   gradient norm :     0.0035147 Eh/α   predicted    -0.4464912E-04 ( -36.71%)
   displ. norm   :     0.3697892 α      lambda       -0.1025694E-03
   maximum displ.:     0.2220807 α      in ANC's #5, #6, #4, ...

........................................................................
.............................. CYCLE   76 ..............................
........................................................................

 iter      E             dE          RMSdq      gap      omega  full diag
   1   -244.6507133 -0.244651E+03  0.379E-02    0.74       0.0  T
   2   -244.6507148 -0.148313E-05  0.222E-02    0.75       1.0  T
   3   -244.6506905  0.242390E-04  0.108E-02    0.74       1.0  T
   4   -244.6507115 -0.209850E-04  0.460E-03    0.75       1.9  T
   5   -244.6507158 -0.427928E-05  0.168E-03    0.74       5.3  T
   6   -244.6507162 -0.417350E-06  0.706E-04    0.74      12.6  T
   7   -244.6507162 -0.287369E-07  0.343E-04    0.74      25.9  T
     SCC iter.                  ...        0 min,  0.318 sec
     gradient                   ...        0 min,  0.036 sec
 * total energy  :  -242.0010988 Eh     change       -0.8962622E-04 Eh
   gradient norm :     0.0041214 Eh/α   predicted    -0.5829929E-04 ( -34.95%)
   displ. norm   :     0.4640477 α      lambda       -0.1293758E-03
   maximum displ.:     0.2779788 α      in ANC's #5, #6, #4, ...

........................................................................
.............................. CYCLE   77 ..............................
........................................................................

 iter      E             dE          RMSdq      gap      omega  full diag
   1   -244.6511445 -0.244651E+03  0.471E-02    0.74       0.0  T
   2   -244.6511463 -0.185192E-05  0.277E-02    0.75       1.0  T
   3   -244.6511019  0.443894E-04  0.143E-02    0.74       1.0  T
   4   -244.6511423 -0.403121E-04  0.540E-03    0.75       1.6  T
   5   -244.6511481 -0.584044E-05  0.212E-03    0.74       4.2  T
   6   -244.6511487 -0.630208E-06  0.916E-04    0.75       9.7  T
   7   -244.6511488 -0.290123E-07  0.564E-04    0.75      15.7  T
     SCC iter.                  ...        0 min,  0.288 sec
     gradient                   ...        0 min,  0.036 sec
 * total energy  :  -242.0012147 Eh     change       -0.1158665E-03 Eh
   gradient norm :     0.0040269 Eh/α   predicted    -0.7862753E-04 ( -32.14%)
   displ. norm   :     0.5586206 α      lambda       -0.1630149E-03
   maximum displ.:     0.3344769 α      in ANC's #5, #6, #4, ...

........................................................................
.............................. CYCLE   78 ..............................
........................................................................

 iter      E             dE          RMSdq      gap      omega  full diag
   1   -244.6511803 -0.244651E+03  0.562E-02    0.74       0.0  T
   2   -244.6511831 -0.275449E-05  0.330E-02    0.75       1.0  T
   3   -244.6511153  0.677754E-04  0.176E-02    0.74       1.0  T
   4   -244.6511767 -0.614073E-04  0.670E-03    0.75       1.3  T
   5   -244.6511859 -0.919795E-05  0.253E-03    0.75       3.5  T
   6   -244.6511867 -0.820775E-06  0.117E-03    0.75       7.6  T
   7   -244.6511868 -0.646651E-07  0.740E-04    0.75      12.0  T
   8   -244.6511869 -0.107263E-06  0.227E-04    0.75      39.1  T
     SCC iter.                  ...        0 min,  0.269 sec
     gradient                   ...        0 min,  0.036 sec
 * total energy  :  -242.0013627 Eh     change       -0.1480134E-03 Eh
   gradient norm :     0.0034011 Eh/α   predicted    -0.1069536E-03 ( -27.74%)
   displ. norm   :     0.6259228 α      lambda       -0.1943749E-03
   maximum displ.:     0.3753578 α      in ANC's #5, #6, #4, ...

........................................................................
.............................. CYCLE   79 ..............................
........................................................................

 iter      E             dE          RMSdq      gap      omega  full diag
   1   -244.6509505 -0.244651E+03  0.627E-02    0.74       0.0  T
   2   -244.6509546 -0.407838E-05  0.369E-02    0.75       1.0  T
   3   -244.6508754  0.791813E-04  0.193E-02    0.74       1.0  T
   4   -244.6509450 -0.696662E-04  0.791E-03    0.75       1.1  T
   5   -244.6509581 -0.130933E-04  0.287E-03    0.75       3.1  T
   6   -244.6509592 -0.105694E-05  0.132E-03    0.75       6.7  T
   7   -244.6509593 -0.810912E-07  0.826E-04    0.75      10.7  T
   8   -244.6509594 -0.133014E-06  0.261E-04    0.75      34.0  T
     SCC iter.                  ...        0 min,  0.318 sec
     gradient                   ...        0 min,  0.035 sec
 * total energy  :  -242.0015378 Eh     change       -0.1750725E-03 Eh
   gradient norm :     0.0032025 Eh/α   predicted    -0.1352671E-03 ( -22.74%)
   displ. norm   :     0.6619219 α      lambda       -0.2126595E-03
   maximum displ.:     0.3981768 α      in ANC's #5, #4, #6, ...

........................................................................
.............................. CYCLE   80 ..............................
........................................................................

 iter      E             dE          RMSdq      gap      omega  full diag
   1   -244.6506496 -0.244651E+03  0.657E-02    0.74       0.0  T
   2   -244.6506548 -0.512972E-05  0.387E-02    0.75       1.0  T
   3   -244.6505741  0.806548E-04  0.197E-02    0.74       1.0  T
   4   -244.6506432 -0.691031E-04  0.853E-03    0.75       1.0  T
   5   -244.6506587 -0.155165E-04  0.301E-03    0.75       3.0  T
   6   -244.6506599 -0.112806E-05  0.141E-03    0.75       6.3  T
   7   -244.6506600 -0.881475E-07  0.899E-04    0.75       9.9  T
   8   -244.6506601 -0.160069E-06  0.266E-04    0.75      33.4  T
     SCC iter.                  ...        0 min,  0.272 sec
     gradient                   ...        0 min,  0.037 sec
 * total energy  :  -242.0017265 Eh     change       -0.1886614E-03 Eh
   gradient norm :     0.0040206 Eh/α   predicted    -0.1529178E-03 ( -18.95%)
   displ. norm   :     0.6731568 α      lambda       -0.2154834E-03
   maximum displ.:     0.4068320 α      in ANC's #5, #4, #6, ...

........................................................................
.............................. CYCLE   81 ..............................
........................................................................

 iter      E             dE          RMSdq      gap      omega  full diag
   1   -244.6503504 -0.244650E+03  0.663E-02    0.74       0.0  T
   2   -244.6503561 -0.562544E-05  0.391E-02    0.75       1.0  T
   3   -244.6502936  0.624928E-04  0.176E-02    0.74       1.0  T
   4   -244.6503450 -0.514188E-04  0.823E-03    0.75       1.1  T
   5   -244.6503594 -0.143729E-04  0.298E-03    0.75       3.0  T
   6   -244.6503605 -0.113166E-05  0.136E-03    0.75       6.5  T
   7   -244.6503605 -0.616608E-07  0.882E-04    0.75      10.1  T
   8   -244.6503607 -0.158188E-06  0.250E-04    0.75      35.4  T
     SCC iter.                  ...        0 min,  0.274 sec
     gradient                   ...        0 min,  0.036 sec
 * total energy  :  -242.0019149 Eh     change       -0.1884001E-03 Eh
   gradient norm :     0.0047974 Eh/α   predicted    -0.1565652E-03 ( -16.90%)
   displ. norm   :     0.6619928 α      lambda       -0.2107105E-03
   maximum displ.:     0.4026105 α      in ANC's #5, #4, #6, ...

........................................................................
.............................. CYCLE   82 ..............................
........................................................................

 iter      E             dE          RMSdq      gap      omega  full diag
   1   -244.6503293 -0.244650E+03  0.644E-02    0.74       0.0  T
   2   -244.6503347 -0.541716E-05  0.380E-02    0.75       1.0  T
   3   -244.6502959  0.388341E-04  0.142E-02    0.74       1.0  T
   4   -244.6503261 -0.302168E-04  0.726E-03    0.75       1.2  T
   5   -244.6503369 -0.108305E-04  0.284E-03    0.74       3.1  T
   6   -244.6503380 -0.107600E-05  0.121E-03    0.74       7.3  T
   7   -244.6503380 -0.286221E-07  0.787E-04    0.74      11.3  T
   8   -244.6503382 -0.126421E-06  0.221E-04    0.74      40.2  T
     SCC iter.                  ...        0 min,  0.290 sec
     gradient                   ...        0 min,  0.046 sec
 * total energy  :  -242.0020986 Eh     change       -0.1837828E-03 Eh
   gradient norm :     0.0047309 Eh/α   predicted    -0.1515304E-03 ( -17.55%)
   displ. norm   :     0.6443828 α      lambda       -0.2103774E-03
   maximum displ.:     0.3954513 α      in ANC's #5, #4, #2, ...

........................................................................
.............................. CYCLE   83 ..............................
........................................................................

 iter      E             dE          RMSdq      gap      omega  full diag
   1   -244.6504240 -0.244650E+03  0.629E-02    0.74       0.0  T
   2   -244.6504290 -0.505478E-05  0.372E-02    0.74       1.0  T
   3   -244.6504122  0.168648E-04  0.101E-02    0.74       1.0  T
   4   -244.6504255 -0.133471E-04  0.530E-03    0.74       1.7  T
   5   -244.6504300 -0.449770E-05  0.280E-03    0.74       3.2  T
   6   -244.6504312 -0.120254E-05  0.103E-03    0.74       8.6  T
   7   -244.6504313 -0.671384E-07  0.473E-04    0.74      18.8  T
   8   -244.6504313 -0.377972E-07  0.144E-04    0.74      61.6  T
     SCC iter.                  ...        0 min,  0.284 sec
     gradient                   ...        0 min,  0.033 sec
 * total energy  :  -242.0022848 Eh     change       -0.1861797E-03 Eh
   gradient norm :     0.0040203 Eh/α   predicted    -0.1488726E-03 ( -20.04%)
   displ. norm   :     0.6513687 α      lambda       -0.2323922E-03
   maximum displ.:     0.4026563 α      in ANC's #5, #4, #2, ...

........................................................................
.............................. CYCLE   84 ..............................
........................................................................

 iter      E             dE          RMSdq      gap      omega  full diag
   1   -244.6513539 -0.244651E+03  0.651E-02    0.74       0.0  T
   2   -244.6513595 -0.560452E-05  0.386E-02    0.74       1.0  T
   3   -244.6513445  0.149559E-04  0.991E-03    0.74       1.0  T
   4   -244.6513586 -0.140238E-04  0.414E-03    0.74       2.1  T
   5   -244.6513609 -0.233297E-05  0.243E-03    0.74       3.6  T
   6   -244.6513616 -0.734961E-06  0.121E-03    0.74       7.3  T
   7   -244.6513617 -0.765863E-07  0.747E-04    0.74      11.9  T
   8   -244.6513618 -0.118343E-06  0.265E-04    0.74      33.5  T
     SCC iter.                  ...        0 min,  0.250 sec
     gradient                   ...        0 min,  0.037 sec
 * total energy  :  -242.0024900 Eh     change       -0.2052105E-03 Eh
   gradient norm :     0.0037824 Eh/α   predicted    -0.1654992E-03 ( -19.35%)
   displ. norm   :     0.7045618 α      lambda       -0.2577219E-03
   maximum displ.:     0.4393309 α      in ANC's #5, #4, #2, ...

........................................................................
.............................. CYCLE   85 ..............................
........................................................................

 iter      E             dE          RMSdq      gap      omega  full diag
   1   -244.6500890 -0.244650E+03  0.726E-02    0.74       0.0  T
   2   -244.6500953 -0.625979E-05  0.431E-02    0.74       1.0  T
   3   -244.6500621  0.331605E-04  0.137E-02    0.74       1.0  T
   4   -244.6500915 -0.293559E-04  0.570E-03    0.74       1.6  T
   5   -244.6500978 -0.638142E-05  0.254E-03    0.74       3.5  T
   6   -244.6500987 -0.824739E-06  0.113E-03    0.74       7.9  T
   7   -244.6500987 -0.800105E-07  0.539E-04    0.74      16.5  T
   8   -244.6500988 -0.310514E-07  0.328E-04    0.74      27.0  T
     SCC iter.                  ...        0 min,  0.283 sec
     gradient                   ...        0 min,  0.037 sec
 * total energy  :  -242.0027194 Eh     change       -0.2293724E-03 Eh
   gradient norm :     0.0052005 Eh/α   predicted    -0.1928299E-03 ( -15.93%)
   displ. norm   :     0.6719105 α      lambda       -0.3144250E-03
   maximum displ.:     0.4109630 α      in ANC's #5, #4, #2, ...

........................................................................
.............................. CYCLE   86 ..............................
........................................................................

 iter      E             dE          RMSdq      gap      omega  full diag
   1   -244.6573443 -0.244657E+03  0.770E-02    0.74       0.0  T
   2   -244.6573526 -0.823927E-05  0.460E-02    0.73       1.0  T
   3   -244.6572612  0.914118E-04  0.223E-02    0.74       1.0  T
   4   -244.6573441 -0.829429E-04  0.812E-03    0.74       1.1  T
   5   -244.6573591 -0.149698E-04  0.310E-03    0.74       2.9  T
   6   -244.6573604 -0.134016E-05  0.150E-03    0.74       5.9  T
   7   -244.6573604  0.582278E-07  0.124E-03    0.74       7.2  T
   8   -244.6573606 -0.286242E-06  0.420E-04    0.74      21.1  T
   9   -244.6573607 -0.302721E-07  0.149E-04    0.74      59.5  T
     SCC iter.                  ...        0 min,  0.354 sec
     gradient                   ...        0 min,  0.035 sec
 * total energy  :  -242.0029386 Eh     change       -0.2192449E-03 Eh
   gradient norm :     0.0072919 Eh/α   predicted    -0.2281893E-03 (   4.08%)
   displ. norm   :     0.7380437 α      lambda       -0.3199371E-03
   maximum displ.:     0.4663727 α      in ANC's #5, #4, #2, ...

........................................................................
.............................. CYCLE   87 ..............................
........................................................................

 iter      E             dE          RMSdq      gap      omega  full diag
   1   -244.6489658 -0.244649E+03  0.784E-02    0.74       0.0  T
   2   -244.6489720 -0.616260E-05  0.465E-02    0.74       1.0  T
   3   -244.6489105  0.614371E-04  0.184E-02    0.74       1.0  T
   4   -244.6489662 -0.556955E-04  0.717E-03    0.74       1.2  T
   5   -244.6489755 -0.930369E-05  0.309E-03    0.74       2.9  T
   6   -244.6489764 -0.925669E-06  0.176E-03    0.74       5.0  T
   7   -244.6489767 -0.234175E-06  0.109E-03    0.74       8.1  T
   8   -244.6489769 -0.258549E-06  0.326E-04    0.74      27.2  T
   9   -244.6489770 -0.155385E-07  0.125E-04    0.74      70.8  T
     SCC iter.                  ...        0 min,  0.317 sec
     gradient                   ...        0 min,  0.034 sec
 * total energy  :  -242.0031843 Eh     change       -0.2456329E-03 Eh
   gradient norm :     0.0073081 Eh/α   predicted    -0.2471076E-03 (   0.60%)
   displ. norm   :     0.6335192 α      lambda       -0.2404188E-03
   maximum displ.:     0.4005641 α      in ANC's #5, #4, #2, ...

........................................................................
.............................. CYCLE   88 ..............................
........................................................................

 iter      E             dE          RMSdq      gap      omega  full diag
   1   -244.6467497 -0.244647E+03  0.661E-02    0.74       0.0  T
   2   -244.6467523 -0.261952E-05  0.392E-02    0.74       1.0  T
   3   -244.6466861  0.662297E-04  0.184E-02    0.74       1.0  T
   4   -244.6467494 -0.632640E-04  0.586E-03    0.74       1.5  T
   5   -244.6467552 -0.587427E-05  0.255E-03    0.74       3.5  T
   6   -244.6467558 -0.564759E-06  0.155E-03    0.74       5.7  T
   7   -244.6467561 -0.312689E-06  0.760E-04    0.74      11.7  T
   8   -244.6467562 -0.116326E-06  0.251E-04    0.74      35.3  T
     SCC iter.                  ...        0 min,  0.270 sec
     gradient                   ...        0 min,  0.041 sec
 * total energy  :  -242.0033984 Eh     change       -0.2140790E-03 Eh
   gradient norm :     0.0066175 Eh/α   predicted    -0.1684580E-03 ( -21.31%)
   displ. norm   :     0.5550187 α      lambda       -0.3565741E-03
   maximum displ.:     0.3420353 α      in ANC's #5, #4, #2, ...

........................................................................
.............................. CYCLE   89 ..............................
........................................................................

 iter      E             dE          RMSdq      gap      omega  full diag
   1   -244.6510881 -0.244651E+03  0.623E-02    0.74       0.0  T
   2   -244.6510908 -0.263166E-05  0.369E-02    0.74       1.0  T
   3   -244.6509485  0.142316E-03  0.271E-02    0.73       1.0  T
   4   -244.6510843 -0.135866E-03  0.816E-03    0.74       1.1  T
   5   -244.6510969 -0.126080E-04  0.288E-03    0.74       3.1  T
   6   -244.6510981 -0.114205E-05  0.146E-03    0.74       6.1  T
   7   -244.6510983 -0.181114E-06  0.811E-04    0.74      10.9  T
   8   -244.6510984 -0.112913E-06  0.331E-04    0.74      26.8  T
     SCC iter.                  ...        0 min,  0.336 sec
     gradient                   ...        0 min,  0.036 sec
 * total energy  :  -242.0036702 Eh     change       -0.2717905E-03 Eh
   gradient norm :     0.0047805 Eh/α   predicted    -0.2332135E-03 ( -14.19%)
   displ. norm   :     0.7208750 α      lambda       -0.2893271E-03
   maximum displ.:     0.4556319 α      in ANC's #5, #4, #2, ...

........................................................................
.............................. CYCLE   90 ..............................
........................................................................

 iter      E             dE          RMSdq      gap      omega  full diag
   1   -244.6504013 -0.244650E+03  0.742E-02    0.74       0.0  T
   2   -244.6504044 -0.311835E-05  0.439E-02    0.74       1.0  T
   3   -244.6502792  0.125210E-03  0.247E-02    0.73       1.0  T
   4   -244.6503999 -0.120746E-03  0.708E-03    0.74       1.3  T
   5   -244.6504091 -0.915874E-05  0.279E-03    0.74       3.2  T
   6   -244.6504099 -0.847136E-06  0.150E-03    0.74       5.9  T
   7   -244.6504101 -0.182276E-06  0.836E-04    0.74      10.6  T
   8   -244.6504102 -0.144492E-06  0.282E-04    0.74      31.5  T
     SCC iter.                  ...        0 min,  0.287 sec
     gradient                   ...        0 min,  0.038 sec
 * total energy  :  -242.0039304 Eh     change       -0.2602818E-03 Eh
   gradient norm :     0.0064294 Eh/α   predicted    -0.2198438E-03 ( -15.54%)
   displ. norm   :     0.6812419 α      lambda       -0.3291929E-03
   maximum displ.:     0.4235390 α      in ANC's #5, #4, #2, ...

........................................................................
.............................. CYCLE   91 ..............................
........................................................................

 iter      E             dE          RMSdq      gap      omega  full diag
   1   -244.6517165 -0.244652E+03  0.699E-02    0.74       0.0  T
   2   -244.6517195 -0.299130E-05  0.413E-02    0.74       1.0  T
   3   -244.6515848  0.134675E-03  0.256E-02    0.73       1.0  T
   4   -244.6517138 -0.128940E-03  0.759E-03    0.74       1.2  T
   5   -244.6517247 -0.109016E-04  0.282E-03    0.74       3.1  T
   6   -244.6517257 -0.105057E-05  0.135E-03    0.74       6.6  T
   7   -244.6517258 -0.858085E-07  0.811E-04    0.74      10.9  T
   8   -244.6517259 -0.129245E-06  0.288E-04    0.74      30.8  T
     SCC iter.                  ...        0 min,  0.459 sec
     gradient                   ...        0 min,  0.047 sec
 * total energy  :  -242.0042366 Eh     change       -0.3061745E-03 Eh
   gradient norm :     0.0071544 Eh/α   predicted    -0.2409863E-03 ( -21.29%)
   displ. norm   :     0.7343914 α      lambda       -0.4254565E-03
   maximum displ.:     0.4490639 α      in ANC's #5, #4, #2, ...

........................................................................
.............................. CYCLE   92 ..............................
........................................................................

 iter      E             dE          RMSdq      gap      omega  full diag
   1   -244.6550131 -0.244655E+03  0.763E-02    0.73       0.0  T
   2   -244.6550190 -0.582749E-05  0.450E-02    0.74       1.0  T
   3   -244.6548629  0.156076E-03  0.276E-02    0.73       1.0  T
   4   -244.6550037 -0.140828E-03  0.104E-02    0.74       1.0  T
   5   -244.6550257 -0.219793E-04  0.326E-03    0.73       2.7  T
   6   -244.6550272 -0.153435E-05  0.138E-03    0.74       6.4  T
   7   -244.6550273 -0.974437E-07  0.731E-04    0.73      12.1  T
   8   -244.6550274 -0.836484E-07  0.254E-04    0.73      35.0  T
     SCC iter.                  ...        0 min,  0.422 sec
     gradient                   ...        0 min,  0.038 sec
 * total energy  :  -242.0046273 Eh     change       -0.3906753E-03 Eh
   gradient norm :     0.0061939 Eh/α   predicted    -0.3274596E-03 ( -16.18%)
   displ. norm   :     0.8280756 α      lambda       -0.4935603E-03
   maximum displ.:     0.5021590 α      in ANC's #5, #4, #2, ...
 * RMSD in coord.:     1.0601877 α      energy gain  -0.4259217E-02 Eh

generating ANC from exact Hessian ...
Using Lindh-Hessian (1995)
 Shifting diagonal of input Hessian by   1.008175018522118E-002
 Lowest  eigenvalues of input Hessian
    0.010000    0.010022    0.000000    0.000000    0.010063    0.000000
    0.000000    0.000000    0.000000    0.010165    0.010217    0.010282
    0.010358    0.010394    0.010627    0.010999    0.011264    0.011775
 Highest eigenvalues
    2.155915    2.266716    2.306270    2.323153    2.323888    2.448779
 

........................................................................
.............................. CYCLE   93 ..............................
........................................................................

 iter      E             dE          RMSdq      gap      omega  full diag
   1   -244.6540174 -0.244654E+03  0.851E-02    0.73       0.0  T
   2   -244.6540238 -0.638232E-05  0.502E-02    0.73       1.0  T
   3   -244.6538759  0.147840E-03  0.266E-02    0.72       1.0  T
   4   -244.6540092 -0.133302E-03  0.101E-02    0.73       1.0  T
   5   -244.6540301 -0.208789E-04  0.334E-03    0.73       2.7  T
   6   -244.6540316 -0.150123E-05  0.149E-03    0.73       6.0  T
   7   -244.6540318 -0.178860E-06  0.689E-04    0.73      12.9  T
   8   -244.6540319 -0.697272E-07  0.205E-04    0.73      43.3  T
     SCC iter.                  ...        0 min,  0.315 sec
     gradient                   ...        0 min,  0.038 sec
 * total energy  :  -242.0050846 Eh     change       -0.4573503E-03 Eh
   gradient norm :     0.0052123 Eh/α   predicted     0.0000000E+00 (-100.00%)
   displ. norm   :     0.0704770 α      lambda       -0.1021447E-03
   maximum displ.:     0.0364620 α      in ANC's #5, #6, #4, ...

........................................................................
.............................. CYCLE   94 ..............................
........................................................................

 iter      E             dE          RMSdq      gap      omega  full diag
   1   -244.6548141 -0.244655E+03  0.123E-02    0.73       0.0  T
   2   -244.6548145 -0.411946E-06  0.732E-03    0.73       1.2  T
   3   -244.6548107  0.375900E-05  0.502E-03    0.73       1.8  T
   4   -244.6548138 -0.307330E-05  0.232E-03    0.73       3.8  T
   5   -244.6548149 -0.108410E-05  0.670E-04    0.73      13.2  T
   6   -244.6548149 -0.588452E-07  0.376E-04    0.73      23.6  T
   7   -244.6548150 -0.181084E-07  0.190E-04    0.73      46.7  T
     SCC iter.                  ...        0 min,  0.273 sec
     gradient                   ...        0 min,  0.043 sec
 * total energy  :  -242.0051713 Eh     change       -0.8666678E-04 Eh
   gradient norm :     0.0027489 Eh/α   predicted    -0.5223079E-04 ( -39.73%)
   displ. norm   :     0.2315849 α      lambda       -0.2199937E-03
   maximum displ.:     0.1178341 α      in ANC's #5, #6, #4, ...

........................................................................
.............................. CYCLE   95 ..............................
........................................................................

 iter      E             dE          RMSdq      gap      omega  full diag
   1   -244.6557203 -0.244656E+03  0.339E-02    0.74       0.0  T
   2   -244.6557222 -0.190917E-05  0.200E-02    0.73       1.0  T
   3   -244.6556869  0.353027E-04  0.146E-02    0.74       1.0  T
   4   -244.6557188 -0.319648E-04  0.566E-03    0.74       1.6  T
   5   -244.6557251 -0.624448E-05  0.180E-03    0.74       4.9  T
   6   -244.6557255 -0.460523E-06  0.101E-03    0.74       8.8  T
   7   -244.6557257 -0.140829E-06  0.480E-04    0.74      18.5  T
   8   -244.6557257 -0.341736E-07  0.207E-04    0.74      42.9  T
     SCC iter.                  ...        0 min,  0.350 sec
     gradient                   ...        0 min,  0.061 sec
 * total energy  :  -242.0053349 Eh     change       -0.1635746E-03 Eh
   gradient norm :     0.0039062 Eh/α   predicted    -0.1158994E-03 ( -29.15%)
   displ. norm   :     0.2981404 α      lambda       -0.1881262E-03
   maximum displ.:     0.1521867 α      in ANC's #5, #6, #4, ...

........................................................................
.............................. CYCLE   96 ..............................
........................................................................

 iter      E             dE          RMSdq      gap      omega  full diag
   1   -244.6556307 -0.244656E+03  0.394E-02    0.74       0.0  T
   2   -244.6556324 -0.168226E-05  0.231E-02    0.74       1.0  T
   3   -244.6555861  0.463308E-04  0.161E-02    0.74       1.0  T
   4   -244.6556296 -0.435428E-04  0.548E-03    0.74       1.6  T
   5   -244.6556352 -0.562034E-05  0.196E-03    0.74       4.5  T
   6   -244.6556358 -0.598200E-06  0.104E-03    0.74       8.5  T
   7   -244.6556360 -0.126037E-06  0.530E-04    0.74      16.7  T
   8   -244.6556360 -0.459621E-07  0.207E-04    0.74      42.9  T
     SCC iter.                  ...        0 min,  0.295 sec
     gradient                   ...        0 min,  0.036 sec
 * total energy  :  -242.0054950 Eh     change       -0.1601632E-03 Eh
   gradient norm :     0.0063192 Eh/α   predicted    -0.1024624E-03 ( -36.03%)
   displ. norm   :     0.4349863 α      lambda       -0.2673735E-03
   maximum displ.:     0.2210797 α      in ANC's #5, #6, #4, ...

........................................................................
.............................. CYCLE   97 ..............................
........................................................................

 iter      E             dE          RMSdq      gap      omega  full diag
   1   -244.6547342 -0.244655E+03  0.532E-02    0.74       0.0  T
   2   -244.6547370 -0.274557E-05  0.312E-02    0.74       1.0  T
   3   -244.6546651  0.718883E-04  0.197E-02    0.75       1.0  T
   4   -244.6547338 -0.687534E-04  0.628E-03    0.74       1.4  T
   5   -244.6547410 -0.720618E-05  0.243E-03    0.74       3.7  T
   6   -244.6547419 -0.879251E-06  0.133E-03    0.74       6.7  T
   7   -244.6547421 -0.183584E-06  0.713E-04    0.74      12.4  T
   8   -244.6547422 -0.931233E-07  0.235E-04    0.74      37.8  T
     SCC iter.                  ...        0 min,  0.304 sec
     gradient                   ...        0 min,  0.039 sec
 * total energy  :  -242.0057371 Eh     change       -0.2420607E-03 Eh
   gradient norm :     0.0070896 Eh/α   predicted    -0.1589828E-03 ( -34.32%)
   displ. norm   :     0.5822349 α      lambda       -0.3768458E-03
   maximum displ.:     0.2968148 α      in ANC's #5, #6, #4, ...

........................................................................
.............................. CYCLE   98 ..............................
........................................................................

 iter      E             dE          RMSdq      gap      omega  full diag
   1   -244.6532244 -0.244653E+03  0.666E-02    0.75       0.0  T
   2   -244.6532291 -0.468169E-05  0.390E-02    0.74       1.0  T
   3   -244.6531479  0.812121E-04  0.209E-02    0.75       1.0  T
   4   -244.6532247 -0.768050E-04  0.703E-03    0.74       1.3  T
   5   -244.6532340 -0.930912E-05  0.268E-03    0.74       3.3  T
   6   -244.6532349 -0.943843E-06  0.156E-03    0.74       5.7  T
   7   -244.6532351 -0.222368E-06  0.872E-04    0.74      10.2  T
   8   -244.6532353 -0.152042E-06  0.272E-04    0.74      32.7  T
     SCC iter.                  ...        0 min,  0.278 sec
     gradient                   ...        0 min,  0.035 sec
 * total energy  :  -242.0060788 Eh     change       -0.3417044E-03 Eh
   gradient norm :     0.0065587 Eh/α   predicted    -0.2523018E-03 ( -26.16%)
   displ. norm   :     0.6485550 α      lambda       -0.4383463E-03
   maximum displ.:     0.3338382 α      in ANC's #5, #6, #4, ...

........................................................................
.............................. CYCLE   99 ..............................
........................................................................

 iter      E             dE          RMSdq      gap      omega  full diag
   1   -244.6521418 -0.244652E+03  0.689E-02    0.74       0.0  T
   2   -244.6521473 -0.543368E-05  0.404E-02    0.74       1.0  T
   3   -244.6520907  0.565359E-04  0.175E-02    0.74       1.0  T
   4   -244.6521449 -0.541477E-04  0.579E-03    0.74       1.5  T
   5   -244.6521517 -0.676929E-05  0.225E-03    0.74       3.9  T
   6   -244.6521522 -0.568281E-06  0.132E-03    0.74       6.7  T
   7   -244.6521523 -0.731325E-07  0.870E-04    0.74      10.2  T
   8   -244.6521525 -0.155160E-06  0.294E-04    0.74      30.2  T
     SCC iter.                  ...        0 min,  0.258 sec
     gradient                   ...        0 min,  0.035 sec
 * total energy  :  -242.0064735 Eh     change       -0.3947159E-03 Eh
   gradient norm :     0.0064925 Eh/α   predicted    -0.3113685E-03 ( -21.12%)
   displ. norm   :     0.6610834 α      lambda       -0.4843343E-03
   maximum displ.:     0.3446036 α      in ANC's #5, #6, #4, ...

........................................................................
.............................. CYCLE  100 ..............................
........................................................................

 iter      E             dE          RMSdq      gap      omega  full diag
   1   -244.6525047 -0.244653E+03  0.655E-02    0.74       0.0  T
   2   -244.6525101 -0.538266E-05  0.383E-02    0.74       1.0  T
   3   -244.6524780  0.320767E-04  0.135E-02    0.74       1.0  T
   4   -244.6525088 -0.307420E-04  0.465E-03    0.74       1.9  T
   5   -244.6525129 -0.407243E-05  0.234E-03    0.74       3.8  T
   6   -244.6525136 -0.764156E-06  0.125E-03    0.74       7.1  T
   7   -244.6525138 -0.159327E-06  0.688E-04    0.74      12.9  T
   8   -244.6525139 -0.819465E-07  0.258E-04    0.74      34.4  T
     SCC iter.                  ...        0 min,  0.260 sec
     gradient                   ...        0 min,  0.038 sec
 * total energy  :  -242.0069107 Eh     change       -0.4371977E-03 Eh
   gradient norm :     0.0075477 Eh/α   predicted    -0.3480208E-03 ( -20.40%)
   displ. norm   :     0.6860301 α      lambda       -0.5605416E-03
   maximum displ.:     0.3643813 α      in ANC's #6, #5, #4, ...

........................................................................
.............................. CYCLE  101 ..............................
........................................................................

 iter      E             dE          RMSdq      gap      omega  full diag
   1   -244.6543351 -0.244654E+03  0.651E-02    0.73       0.0  T
   2   -244.6543408 -0.573141E-05  0.381E-02    0.74       1.0  T
   3   -244.6542918  0.490346E-04  0.164E-02    0.73       1.0  T
   4   -244.6543315 -0.397169E-04  0.786E-03    0.74       1.1  T
   5   -244.6543440 -0.124827E-04  0.248E-03    0.73       3.6  T
   6   -244.6543449 -0.951202E-06  0.104E-03    0.74       8.6  T
   7   -244.6543450 -0.897264E-07  0.503E-04    0.74      17.7  T
   8   -244.6543450 -0.372700E-07  0.165E-04    0.74      53.6  T
     SCC iter.                  ...        0 min,  0.280 sec
     gradient                   ...        0 min,  0.035 sec
 * total energy  :  -242.0074162 Eh     change       -0.5055245E-03 Eh
   gradient norm :     0.0087864 Eh/α   predicted    -0.4121770E-03 ( -18.47%)
   displ. norm   :     0.7315274 α      lambda       -0.6349295E-03
   maximum displ.:     0.3946063 α      in ANC's #6, #5, #4, ...

........................................................................
.............................. CYCLE  102 ..............................
........................................................................

 iter      E             dE          RMSdq      gap      omega  full diag
   1   -244.6560194 -0.244656E+03  0.691E-02    0.73       0.0  T
   2   -244.6560265 -0.708037E-05  0.404E-02    0.73       1.0  T
   3   -244.6559395  0.870071E-04  0.218E-02    0.73       1.0  T
   4   -244.6560114 -0.719084E-04  0.991E-03    0.73       1.0  T
   5   -244.6560312 -0.198189E-04  0.292E-03    0.73       3.0  T
   6   -244.6560326 -0.137333E-05  0.122E-03    0.73       7.2  T
   7   -244.6560327 -0.605384E-07  0.806E-04    0.73      11.0  T
   8   -244.6560328 -0.113078E-06  0.310E-04    0.73      28.6  T
     SCC iter.                  ...        0 min,  0.250 sec
     gradient                   ...        0 min,  0.037 sec
 * total energy  :  -242.0079918 Eh     change       -0.5755642E-03 Eh
   gradient norm :     0.0091800 Eh/α   predicted    -0.4873538E-03 ( -15.33%)
   displ. norm   :     0.7588559 α      lambda       -0.6901930E-03
   maximum displ.:     0.4139481 α      in ANC's #6, #5, #4, ...

........................................................................
.............................. CYCLE  103 ..............................
........................................................................

 iter      E             dE          RMSdq      gap      omega  full diag
   1   -244.6570932 -0.244657E+03  0.713E-02    0.72       0.0  T
   2   -244.6571015 -0.828456E-05  0.418E-02    0.73       1.0  T
   3   -244.6569824  0.119077E-03  0.258E-02    0.72       1.0  T
   4   -244.6570824 -0.100014E-03  0.112E-02    0.73       1.0  T
   5   -244.6571078 -0.254144E-04  0.334E-03    0.73       2.7  T
   6   -244.6571097 -0.184212E-05  0.147E-03    0.73       6.0  T
   7   -244.6571098 -0.125180E-06  0.936E-04    0.73       9.5  T
   8   -244.6571100 -0.159724E-06  0.329E-04    0.73      27.0  T
     SCC iter.                  ...        0 min,  0.270 sec
     gradient                   ...        0 min,  0.035 sec
 * total energy  :  -242.0086107 Eh     change       -0.6189113E-03 Eh
   gradient norm :     0.0080648 Eh/α   predicted    -0.5438246E-03 ( -12.13%)
   displ. norm   :     0.7680322 α      lambda       -0.6788594E-03
   maximum displ.:     0.4220872 α      in ANC's #6, #5, #4, ...

........................................................................
.............................. CYCLE  104 ..............................
........................................................................

 iter      E             dE          RMSdq      gap      omega  full diag
   1   -244.6567890 -0.244657E+03  0.702E-02    0.72       0.0  T
   2   -244.6567966 -0.758276E-05  0.411E-02    0.73       1.0  T
   3   -244.6566904  0.106219E-03  0.246E-02    0.72       1.0  T
   4   -244.6567807 -0.903124E-04  0.105E-02    0.73       1.0  T
   5   -244.6568024 -0.216952E-04  0.322E-03    0.73       2.8  T
   6   -244.6568041 -0.165404E-05  0.156E-03    0.73       5.7  T
   7   -244.6568043 -0.220954E-06  0.899E-04    0.73       9.9  T
   8   -244.6568044 -0.143376E-06  0.314E-04    0.73      28.3  T
     SCC iter.                  ...        0 min,  0.265 sec
     gradient                   ...        0 min,  0.040 sec
 * total energy  :  -242.0092042 Eh     change       -0.5934704E-03 Eh
   gradient norm :     0.0064968 Eh/α   predicted    -0.5396795E-03 (  -9.06%)
   displ. norm   :     0.7305720 α      lambda       -0.5873923E-03
   maximum displ.:     0.4033219 α      in ANC's #6, #5, #4, ...

........................................................................
.............................. CYCLE  105 ..............................
........................................................................

 iter      E             dE          RMSdq      gap      omega  full diag
   1   -244.6570380 -0.244657E+03  0.637E-02    0.73       0.0  T
   2   -244.6570434 -0.539912E-05  0.372E-02    0.73       1.0  T
   3   -244.6569705  0.728655E-04  0.205E-02    0.73       1.0  T
   4   -244.6570339 -0.633628E-04  0.838E-03    0.73       1.1  T
   5   -244.6570477 -0.137917E-04  0.270E-03    0.73       3.3  T
   6   -244.6570487 -0.103112E-05  0.147E-03    0.73       6.1  T
   7   -244.6570489 -0.247736E-06  0.756E-04    0.73      11.7  T
   8   -244.6570490 -0.983970E-07  0.281E-04    0.73      31.5  T
     SCC iter.                  ...        0 min,  0.262 sec
     gradient                   ...        0 min,  0.050 sec
 * total energy  :  -242.0096929 Eh     change       -0.4887384E-03 Eh
   gradient norm :     0.0057521 Eh/α   predicted    -0.4504529E-03 (  -7.83%)
   displ. norm   :     0.6945419 α      lambda       -0.4410790E-03
   maximum displ.:     0.3852058 α      in ANC's #6, #5, #4, ...

........................................................................
.............................. CYCLE  106 ..............................
........................................................................

 iter      E             dE          RMSdq      gap      omega  full diag
   1   -244.6549586 -0.244655E+03  0.594E-02    0.73       0.0  T
   2   -244.6549626 -0.408287E-05  0.347E-02    0.73       1.0  T
   3   -244.6549422  0.204819E-04  0.111E-02    0.73       1.0  T
   4   -244.6549602 -0.180553E-04  0.473E-03    0.73       1.9  T
   5   -244.6549646 -0.437640E-05  0.174E-03    0.73       5.1  T
   6   -244.6549649 -0.252985E-06  0.107E-03    0.73       8.3  T
   7   -244.6549650 -0.122410E-06  0.628E-04    0.73      14.1  T
   8   -244.6549651 -0.801465E-07  0.216E-04    0.73      41.2  T
     SCC iter.                  ...        0 min,  0.320 sec
     gradient                   ...        0 min,  0.034 sec
 * total energy  :  -242.0100379 Eh     change       -0.3449804E-03 Eh
   gradient norm :     0.0058853 Eh/α   predicted    -0.3269262E-03 (  -5.23%)
   displ. norm   :     0.5545685 α      lambda       -0.4167168E-03
   maximum displ.:     0.2911470 α      in ANC's #6, #4, #5, ...

........................................................................
.............................. CYCLE  107 ..............................
........................................................................

 iter      E             dE          RMSdq      gap      omega  full diag
   1   -244.6638976 -0.244664E+03  0.589E-02    0.73       0.0  T
   2   -244.6639066 -0.891170E-05  0.352E-02    0.72       1.0  T
   3   -244.6638488  0.577666E-04  0.195E-02    0.73       1.0  T
   4   -244.6639003 -0.515146E-04  0.749E-03    0.72       1.2  T
   5   -244.6639135 -0.132398E-04  0.269E-03    0.73       3.3  T
   6   -244.6639148 -0.128091E-05  0.106E-03    0.72       8.4  T
   7   -244.6639148  0.456640E-07  0.940E-04    0.73       9.4  T
   8   -244.6639149 -0.134933E-06  0.409E-04    0.73      21.7  T
     SCC iter.                  ...        0 min,  0.271 sec
     gradient                   ...        0 min,  0.037 sec
 * total energy  :  -242.0101879 Eh     change       -0.1499480E-03 Eh
   gradient norm :     0.0095801 Eh/α   predicted    -0.2724401E-03 (  81.69%)
   displ. norm   :     0.4142316 α      lambda       -0.3429379E-03
   maximum displ.:     0.2253512 α      in ANC's #6, #5, #4, ...

........................................................................
.............................. CYCLE  108 ..............................
........................................................................

 iter      E             dE          RMSdq      gap      omega  full diag
   1   -244.6579594 -0.244658E+03  0.463E-02    0.73       0.0  T
   2   -244.6579652 -0.575388E-05  0.274E-02    0.72       1.0  T
   3   -244.6579394  0.258237E-04  0.133E-02    0.73       1.0  T
   4   -244.6579555 -0.161255E-04  0.764E-03    0.72       1.2  T
   5   -244.6579673 -0.118512E-04  0.226E-03    0.72       3.9  T
   6   -244.6579682 -0.892181E-06  0.908E-04    0.72       9.8  T
   7   -244.6579683 -0.261226E-07  0.582E-04    0.72      15.3  T
     SCC iter.                  ...        0 min,  0.252 sec
     gradient                   ...        0 min,  0.034 sec
 * total energy  :  -242.0103810 Eh     change       -0.1931009E-03 Eh
   gradient norm :     0.0045892 Eh/α   predicted    -0.2008948E-03 (   4.04%)
   displ. norm   :     0.1028679 α      lambda       -0.1003398E-03
   maximum displ.:     0.0430726 α      in ANC's #6, #5, #9, ...

........................................................................
.............................. CYCLE  109 ..............................
........................................................................

 iter      E             dE          RMSdq      gap      omega  full diag
   1   -244.6590455 -0.244659E+03  0.204E-02    0.72       0.0  T
   2   -244.6590462 -0.754827E-06  0.122E-02    0.72       1.0  T
   3   -244.6590308  0.154062E-04  0.937E-03    0.73       1.0  T
   4   -244.6590432 -0.123424E-04  0.434E-03    0.72       2.0  T
   5   -244.6590471 -0.395333E-05  0.116E-03    0.72       7.6  T
   6   -244.6590474 -0.234407E-06  0.427E-04    0.72      20.8  T
   7   -244.6590474 -0.742054E-08  0.261E-04    0.72      34.0  T
     SCC iter.                  ...        0 min,  0.223 sec
     gradient                   ...        0 min,  0.034 sec
 * total energy  :  -242.0104622 Eh     change       -0.8121845E-04 Eh
   gradient norm :     0.0033589 Eh/α   predicted    -0.5070152E-04 ( -37.57%)
   displ. norm   :     0.2641925 α      lambda       -0.1974171E-03
   maximum displ.:     0.1212188 α      in ANC's #9, #6, #5, ...

........................................................................
.............................. CYCLE  110 ..............................
........................................................................

 iter      E             dE          RMSdq      gap      omega  full diag
   1   -244.6614423 -0.244661E+03  0.511E-02    0.72       0.0  T
   2   -244.6614447 -0.240783E-05  0.306E-02    0.72       1.0  T
   3   -244.6613330  0.111693E-03  0.242E-02    0.73       1.0  T
   4   -244.6614309 -0.978535E-04  0.965E-03    0.72       1.0  T
   5   -244.6614506 -0.196888E-04  0.260E-03    0.72       3.4  T
   6   -244.6614517 -0.113623E-05  0.935E-04    0.72       9.5  T
   7   -244.6614517 -0.346296E-07  0.536E-04    0.72      16.5  T
   8   -244.6614518 -0.363544E-07  0.167E-04    0.72      53.1  T
     SCC iter.                  ...        0 min,  0.260 sec
     gradient                   ...        0 min,  0.039 sec
 * total energy  :  -242.0105653 Eh     change       -0.1031312E-03 Eh
   gradient norm :     0.0050681 Eh/α   predicted    -0.1055982E-03 (   2.39%)
   displ. norm   :     0.1831570 α      lambda       -0.8663582E-04
   maximum displ.:     0.0800056 α      in ANC's #9, #6, #5, ...

........................................................................
.............................. CYCLE  111 ..............................
........................................................................

 iter      E             dE          RMSdq      gap      omega  full diag
   1   -244.6622089 -0.244662E+03  0.270E-02    0.72       0.0  T
   2   -244.6622093 -0.387061E-06  0.161E-02    0.72       1.0  T
   3   -244.6621830  0.263029E-04  0.110E-02    0.73       1.0  T
   4   -244.6622070 -0.239697E-04  0.401E-03    0.72       2.2  T
   5   -244.6622105 -0.349239E-05  0.975E-04    0.72       9.1  T
   6   -244.6622106 -0.142332E-06  0.445E-04    0.72      19.9  T
   7   -244.6622106 -0.906022E-08  0.294E-04    0.72      30.2  T
     SCC iter.                  ...        0 min,  0.219 sec
     gradient                   ...        0 min,  0.037 sec
 * total energy  :  -242.0106176 Eh     change       -0.5234478E-04 Eh
   gradient norm :     0.0045937 Eh/α   predicted    -0.4477499E-04 ( -14.46%)
   displ. norm   :     0.1716065 α      lambda       -0.7198073E-04
   maximum displ.:     0.0780810 α      in ANC's #9, #6, #5, ...

........................................................................
.............................. CYCLE  112 ..............................
........................................................................

 iter      E             dE          RMSdq      gap      omega  full diag
   1   -244.6620410 -0.244662E+03  0.238E-02    0.72       0.0  T
   2   -244.6620411 -0.769701E-07  0.142E-02    0.72       1.0  T
   3   -244.6620177  0.233898E-04  0.100E-02    0.73       1.0  T
   4   -244.6620403 -0.225919E-04  0.290E-03    0.72       3.1  T
   5   -244.6620420 -0.173453E-05  0.779E-04    0.72      11.4  T
   6   -244.6620421 -0.767127E-07  0.410E-04    0.72      21.7  T
   7   -244.6620421 -0.997665E-08  0.262E-04    0.72      33.8  T
     SCC iter.                  ...        0 min,  0.249 sec
     gradient                   ...        0 min,  0.034 sec
 * total energy  :  -242.0106778 Eh     change       -0.6016501E-04 Eh
   gradient norm :     0.0039074 Eh/α   predicted    -0.3705234E-04 ( -38.42%)
   displ. norm   :     0.3746342 α      lambda       -0.1726587E-03
   maximum displ.:     0.1812228 α      in ANC's #9, #15, #8, ...

........................................................................
.............................. CYCLE  113 ..............................
........................................................................

 iter      E             dE          RMSdq      gap      omega  full diag
   1   -244.6601415 -0.244660E+03  0.553E-02    0.73       0.0  T
   2   -244.6601433 -0.184581E-05  0.328E-02    0.73       1.0  T
   3   -244.6600501  0.932455E-04  0.207E-02    0.73       1.0  T
   4   -244.6601358 -0.857473E-04  0.736E-03    0.72       1.2  T
   5   -244.6601473 -0.115237E-04  0.180E-03    0.73       4.9  T
   6   -244.6601477 -0.371232E-06  0.841E-04    0.73      10.5  T
   7   -244.6601477 -0.971599E-08  0.565E-04    0.73      15.7  T
     SCC iter.                  ...        0 min,  0.228 sec
     gradient                   ...        0 min,  0.039 sec
 * total energy  :  -242.0107786 Eh     change       -0.1008157E-03 Eh
   gradient norm :     0.0044827 Eh/α   predicted    -0.9844957E-04 (  -2.35%)
   displ. norm   :     0.2195757 α      lambda       -0.7443840E-04
   maximum displ.:     0.1149408 α      in ANC's #9, #8, #15, ...

........................................................................
.............................. CYCLE  114 ..............................
........................................................................

 iter      E             dE          RMSdq      gap      omega  full diag
   1   -244.6595169 -0.244660E+03  0.321E-02    0.73       0.0  T
   2   -244.6595182 -0.128013E-05  0.191E-02    0.73       1.0  T
   3   -244.6595034  0.148679E-04  0.848E-03    0.73       1.0  T
   4   -244.6595146 -0.112502E-04  0.444E-03    0.73       2.0  T
   5   -244.6595190 -0.440844E-05  0.114E-03    0.73       7.8  T
   6   -244.6595192 -0.171118E-06  0.518E-04    0.73      17.1  T
   7   -244.6595192 -0.257748E-08  0.358E-04    0.73      24.8  T
     SCC iter.                  ...        0 min,  0.243 sec
     gradient                   ...        0 min,  0.039 sec
 * total energy  :  -242.0108239 Eh     change       -0.4528754E-04 Eh
   gradient norm :     0.0042084 Eh/α   predicted    -0.3901865E-04 ( -13.84%)
   displ. norm   :     0.1663081 α      lambda       -0.5339520E-04
   maximum displ.:     0.0831288 α      in ANC's #9, #5, #3, ...

........................................................................
.............................. CYCLE  115 ..............................
........................................................................

 iter      E             dE          RMSdq      gap      omega  full diag
   1   -244.6597393 -0.244660E+03  0.217E-02    0.73       0.0  T
   2   -244.6597398 -0.582880E-06  0.129E-02    0.73       1.0  T
   3   -244.6597369  0.298320E-05  0.430E-03    0.73       2.1  T
   4   -244.6597400 -0.310663E-05  0.121E-03    0.73       7.3  T
   5   -244.6597402 -0.211259E-06  0.573E-04    0.73      15.5  T
   6   -244.6597402 -0.138980E-07  0.400E-04    0.73      22.2  T
     SCC iter.                  ...        0 min,  0.223 sec
     gradient                   ...        0 min,  0.041 sec
 * total energy  :  -242.0108698 Eh     change       -0.4587896E-04 Eh
   gradient norm :     0.0032026 Eh/α   predicted    -0.2743997E-04 ( -40.19%)
   displ. norm   :     0.2889458 α      lambda       -0.1100913E-03
   maximum displ.:     0.1412078 α      in ANC's #9, #5, #1, ...

........................................................................
.............................. CYCLE  116 ..............................
........................................................................

 iter      E             dE          RMSdq      gap      omega  full diag
   1   -244.6610859 -0.244661E+03  0.379E-02    0.73       0.0  T
   2   -244.6610882 -0.232152E-05  0.226E-02    0.72       1.0  T
   3   -244.6610632  0.249923E-04  0.117E-02    0.72       1.0  T
   4   -244.6610831 -0.198777E-04  0.562E-03    0.73       1.6  T
   5   -244.6610898 -0.669044E-05  0.181E-03    0.72       4.9  T
   6   -244.6610903 -0.514038E-06  0.840E-04    0.72      10.6  T
   7   -244.6610903 -0.533521E-07  0.425E-04    0.72      20.9  T
     SCC iter.                  ...        0 min,  0.286 sec
     gradient                   ...        0 min,  0.040 sec
 * total energy  :  -242.0109482 Eh     change       -0.7840755E-04 Eh
   gradient norm :     0.0028602 Eh/α   predicted    -0.5964548E-04 ( -23.93%)
   displ. norm   :     0.3019999 α      lambda       -0.6768569E-04
   maximum displ.:     0.1459007 α      in ANC's #9, #5, #3, ...

........................................................................
.............................. CYCLE  117 ..............................
........................................................................

 iter      E             dE          RMSdq      gap      omega  full diag
   1   -244.6606203 -0.244661E+03  0.376E-02    0.72       0.0  T
   2   -244.6606215 -0.124436E-05  0.223E-02    0.72       1.0  T
   3   -244.6605964  0.251289E-04  0.111E-02    0.72       1.0  T
   4   -244.6606180 -0.215695E-04  0.474E-03    0.73       1.9  T
   5   -244.6606227 -0.476200E-05  0.148E-03    0.72       6.0  T
   6   -244.6606230 -0.267806E-06  0.800E-04    0.72      11.1  T
   7   -244.6606230 -0.563804E-07  0.419E-04    0.72      21.2  T
     SCC iter.                  ...        0 min,  0.251 sec
     gradient                   ...        0 min,  0.037 sec
 * total energy  :  -242.0110004 Eh     change       -0.5222792E-04 Eh
   gradient norm :     0.0041826 Eh/α   predicted    -0.3693452E-04 ( -29.28%)
   displ. norm   :     0.3278786 α      lambda       -0.7362396E-04
   maximum displ.:     0.1512267 α      in ANC's #9, #5, #2, ...

........................................................................
.............................. CYCLE  118 ..............................
........................................................................

 iter      E             dE          RMSdq      gap      omega  full diag
   1   -244.6607766 -0.244661E+03  0.389E-02    0.72       0.0  T
   2   -244.6607775 -0.957491E-06  0.231E-02    0.73       1.0  T
   3   -244.6607423  0.352629E-04  0.130E-02    0.72       1.0  T
   4   -244.6607741 -0.318682E-04  0.487E-03    0.73       1.8  T
   5   -244.6607790 -0.490109E-05  0.148E-03    0.72       6.0  T
   6   -244.6607793 -0.244793E-06  0.824E-04    0.72      10.8  T
   7   -244.6607793 -0.601105E-07  0.434E-04    0.72      20.4  T
     SCC iter.                  ...        0 min,  0.253 sec
     gradient                   ...        0 min,  0.037 sec
 * total energy  :  -242.0110619 Eh     change       -0.6143860E-04 Eh
   gradient norm :     0.0046002 Eh/α   predicted    -0.4077378E-04 ( -33.63%)
   displ. norm   :     0.4384770 α      lambda       -0.1083678E-03
   maximum displ.:     0.1931790 α      in ANC's #5, #9, #2, ...

........................................................................
.............................. CYCLE  119 ..............................
........................................................................

 iter      E             dE          RMSdq      gap      omega  full diag
   1   -244.6606469 -0.244661E+03  0.498E-02    0.72       0.0  T
   2   -244.6606484 -0.149682E-05  0.296E-02    0.73       1.0  T
   3   -244.6605987  0.497473E-04  0.154E-02    0.72       1.0  T
   4   -244.6606437 -0.450478E-04  0.575E-03    0.73       1.5  T
   5   -244.6606504 -0.673983E-05  0.194E-03    0.73       4.6  T
   6   -244.6606509 -0.422925E-06  0.102E-03    0.73       8.7  T
   7   -244.6606509 -0.794040E-07  0.572E-04    0.73      15.5  T
   8   -244.6606510 -0.587953E-07  0.222E-04    0.73      40.0  T
     SCC iter.                  ...        0 min,  0.310 sec
     gradient                   ...        0 min,  0.038 sec
 * total energy  :  -242.0111497 Eh     change       -0.8781946E-04 Eh
   gradient norm :     0.0041564 Eh/α   predicted    -0.6460358E-04 ( -26.44%)
   displ. norm   :     0.4650052 α      lambda       -0.1108306E-03
   maximum displ.:     0.2108764 α      in ANC's #5, #9, #2, ...

........................................................................
.............................. CYCLE  120 ..............................
........................................................................

 iter      E             dE          RMSdq      gap      omega  full diag
   1   -244.6606270 -0.244661E+03  0.505E-02    0.72       0.0  T
   2   -244.6606294 -0.233200E-05  0.301E-02    0.73       1.0  T
   3   -244.6606029  0.264880E-04  0.117E-02    0.72       1.0  T
   4   -244.6606257 -0.227893E-04  0.505E-03    0.73       1.8  T
   5   -244.6606304 -0.478236E-05  0.227E-03    0.73       3.9  T
   6   -244.6606312 -0.770191E-06  0.980E-04    0.73       9.1  T
   7   -244.6606313 -0.630952E-07  0.525E-04    0.73      16.9  T
     SCC iter.                  ...        0 min,  0.249 sec
     gradient                   ...        0 min,  0.051 sec
 * total energy  :  -242.0112331 Eh     change       -0.8338558E-04 Eh
   gradient norm :     0.0039013 Eh/α   predicted    -0.6739931E-04 ( -19.17%)
   displ. norm   :     0.3984088 α      lambda       -0.7761862E-04
   maximum displ.:     0.1828184 α      in ANC's #5, #9, #2, ...
 * RMSD in coord.:     0.8365916 α      energy gain  -0.6605792E-02 Eh

generating ANC from exact Hessian ...
Using Lindh-Hessian (1995)
 Shifting diagonal of input Hessian by   1.006459344970912E-002
 Lowest  eigenvalues of input Hessian
    0.010000    0.000000    0.000000    0.000000    0.000000    0.000000
    0.000000    0.010083    0.010094    0.010172    0.010264    0.010333
    0.010407    0.010594    0.010882    0.011049    0.011447    0.011834
 Highest eigenvalues
    2.154234    2.266750    2.307981    2.316589    2.325730    2.443003
 

........................................................................
.............................. CYCLE  121 ..............................
........................................................................

 iter      E             dE          RMSdq      gap      omega  full diag
   1   -244.6606312 -0.244661E+03  0.428E-02    0.72       0.0  T
   2   -244.6606331 -0.190729E-05  0.255E-02    0.73       1.0  T
   3   -244.6606205  0.126869E-04  0.836E-03    0.73       1.1  T
   4   -244.6606317 -0.111901E-04  0.365E-03    0.73       2.4  T
   5   -244.6606339 -0.219759E-05  0.170E-03    0.73       5.2  T
   6   -244.6606342 -0.331654E-06  0.916E-04    0.73       9.7  T
   7   -244.6606342 -0.641934E-07  0.555E-04    0.73      16.0  T
     SCC iter.                  ...        0 min,  0.482 sec
     gradient                   ...        0 min,  0.062 sec
 * total energy  :  -242.0112909 Eh     change       -0.5782780E-04 Eh
   gradient norm :     0.0036482 Eh/α   predicted     0.0000000E+00 (-100.00%)
   displ. norm   :     0.0295510 α      lambda       -0.3046615E-04
   maximum displ.:     0.0098632 α      in ANC's #10, #21, #25, ...

........................................................................
.............................. CYCLE  122 ..............................
........................................................................

 iter      E             dE          RMSdq      gap      omega  full diag
   1   -244.6616322 -0.244662E+03  0.814E-03    0.73       0.0  T
   2   -244.6616322  0.118675E-07  0.498E-03    0.73       1.8  T
   3   -244.6616279  0.430296E-05  0.504E-03    0.73       1.8  T
   4   -244.6616317 -0.385020E-05  0.204E-03    0.73       4.4  T
   5   -244.6616326 -0.872167E-06  0.433E-04    0.73      20.5  T
   6   -244.6616326 -0.284205E-07  0.183E-04    0.73      48.5  T
     SCC iter.                  ...        0 min,  0.344 sec
     gradient                   ...        0 min,  0.037 sec
 * total energy  :  -242.0113183 Eh     change       -0.2744618E-04 Eh
   gradient norm :     0.0021224 Eh/α   predicted    -0.1666444E-04 ( -39.28%)
   displ. norm   :     0.0891196 α      lambda       -0.6030552E-04
   maximum displ.:     0.0328558 α      in ANC's #10, #6, #25, ...

........................................................................
.............................. CYCLE  123 ..............................
........................................................................

 iter      E             dE          RMSdq      gap      omega  full diag
   1   -244.6627709 -0.244663E+03  0.222E-02    0.72       0.0  T
   2   -244.6627701  0.851929E-06  0.136E-02    0.72       1.0  T
   3   -244.6627276  0.424265E-04  0.151E-02    0.73       1.0  T
   4   -244.6627691 -0.414721E-04  0.464E-03    0.72       1.9  T
   5   -244.6627735 -0.440468E-05  0.105E-03    0.72       8.4  T
   6   -244.6627737 -0.155822E-06  0.458E-04    0.72      19.4  T
   7   -244.6627737 -0.119769E-07  0.268E-04    0.72      33.1  T
     SCC iter.                  ...        0 min,  0.282 sec
     gradient                   ...        0 min,  0.042 sec
 * total energy  :  -242.0113558 Eh     change       -0.3745521E-04 Eh
   gradient norm :     0.0019551 Eh/α   predicted    -0.3039243E-04 ( -18.86%)
   displ. norm   :     0.0899058 α      lambda       -0.1742963E-04
   maximum displ.:     0.0360488 α      in ANC's #10, #6, #2, ...

........................................................................
.............................. CYCLE  124 ..............................
........................................................................

 iter      E             dE          RMSdq      gap      omega  full diag
   1   -244.6624518 -0.244662E+03  0.199E-02    0.72       0.0  T
   2   -244.6624506  0.118199E-05  0.122E-02    0.72       1.0  T
   3   -244.6624080  0.426088E-04  0.145E-02    0.73       1.0  T
   4   -244.6624515 -0.435258E-04  0.319E-03    0.72       2.8  T
   5   -244.6624534 -0.193741E-05  0.895E-04    0.72       9.9  T
   6   -244.6624536 -0.115570E-06  0.420E-04    0.72      21.1  T
   7   -244.6624536 -0.646986E-08  0.286E-04    0.72      31.1  T
     SCC iter.                  ...        0 min,  0.262 sec
     gradient                   ...        0 min,  0.041 sec
 * total energy  :  -242.0113742 Eh     change       -0.1841972E-04 Eh
   gradient norm :     0.0022916 Eh/α   predicted    -0.9153113E-05 ( -50.31%)
   displ. norm   :     0.0664127 α      lambda       -0.1770595E-04
   maximum displ.:     0.0277761 α      in ANC's #6, #10, #2, ...

........................................................................
.............................. CYCLE  125 ..............................
........................................................................

 iter      E             dE          RMSdq      gap      omega  full diag
   1   -244.6619282 -0.244662E+03  0.128E-02    0.72       0.0  T
   2   -244.6619281  0.155010E-06  0.774E-03    0.72       1.1  T
   3   -244.6619150  0.131192E-04  0.794E-03    0.73       1.1  T
   4   -244.6619279 -0.129243E-04  0.217E-03    0.72       4.1  T
   5   -244.6619288 -0.943680E-06  0.522E-04    0.72      17.0  T
   6   -244.6619289 -0.332128E-07  0.293E-04    0.72      30.3  T
     SCC iter.                  ...        0 min,  0.271 sec
     gradient                   ...        0 min,  0.036 sec
 * total energy  :  -242.0113886 Eh     change       -0.1433482E-04 Eh
   gradient norm :     0.0014629 Eh/α   predicted    -0.8938505E-05 ( -37.64%)
   displ. norm   :     0.1935979 α      lambda       -0.2638575E-04
   maximum displ.:     0.0824251 α      in ANC's #6, #10, #12, ...

........................................................................
.............................. CYCLE  126 ..............................
........................................................................

 iter      E             dE          RMSdq      gap      omega  full diag
   1   -244.6605531 -0.244661E+03  0.334E-02    0.73       0.0  T
   2   -244.6605529  0.192395E-06  0.202E-02    0.72       1.0  T
   3   -244.6604830  0.698291E-04  0.182E-02    0.73       1.0  T
   4   -244.6605496 -0.665137E-04  0.586E-03    0.72       1.5  T
   5   -244.6605567 -0.711481E-05  0.131E-03    0.73       6.8  T
   6   -244.6605569 -0.193979E-06  0.744E-04    0.73      11.9  T
   7   -244.6605569 -0.357238E-07  0.468E-04    0.72      19.0  T
     SCC iter.                  ...        0 min,  0.250 sec
     gradient                   ...        0 min,  0.040 sec
 * total energy  :  -242.0114080 Eh     change       -0.1943243E-04 Eh
   gradient norm :     0.0023378 Eh/α   predicted    -0.1343933E-04 ( -30.84%)
   displ. norm   :     0.0426164 α      lambda       -0.1126262E-04
   maximum displ.:     0.0194084 α      in ANC's #6, #13, #10, ...

........................................................................
.............................. CYCLE  127 ..............................
........................................................................

 iter      E             dE          RMSdq      gap      omega  full diag
   1   -244.6609144 -0.244661E+03  0.678E-03    0.73       0.0  T
   2   -244.6609144 -0.196192E-07  0.405E-03    0.73       2.2  T
   3   -244.6609134  0.988417E-06  0.224E-03    0.72       4.0  T
   4   -244.6609144 -0.958594E-06  0.627E-04    0.73      14.1  T
   5   -244.6609145 -0.695320E-07  0.256E-04    0.72      34.7  T
     SCC iter.                  ...        0 min,  0.220 sec
     gradient                   ...        0 min,  0.038 sec
 * total energy  :  -242.0114182 Eh     change       -0.1017403E-04 Eh
   gradient norm :     0.0019944 Eh/α   predicted    -0.5644334E-05 ( -44.52%)
   displ. norm   :     0.3153400 α      lambda       -0.5227351E-04
   maximum displ.:     0.1416025 α      in ANC's #6, #13, #12, ...

........................................................................
.............................. CYCLE  128 ..............................
........................................................................

 iter      E             dE          RMSdq      gap      omega  full diag
   1   -244.6625979 -0.244663E+03  0.435E-02    0.72       0.0  T
   2   -244.6625982 -0.298022E-06  0.259E-02    0.72       1.0  T
   3   -244.6625238  0.744089E-04  0.195E-02    0.72       1.0  T
   4   -244.6625965 -0.727460E-04  0.499E-03    0.72       1.8  T
   5   -244.6626012 -0.470851E-05  0.167E-03    0.72       5.3  T
   6   -244.6626016 -0.347090E-06  0.105E-03    0.72       8.5  T
   7   -244.6626017 -0.121757E-06  0.513E-04    0.72      17.3  T
   8   -244.6626017 -0.437190E-07  0.177E-04    0.72      50.0  T
     SCC iter.                  ...        0 min,  0.357 sec
     gradient                   ...        0 min,  0.042 sec
 * total energy  :  -242.0114635 Eh     change       -0.4533242E-04 Eh
   gradient norm :     0.0019571 Eh/α   predicted    -0.2729537E-04 ( -39.79%)
   displ. norm   :     0.2510528 α      lambda       -0.2125587E-04
   maximum displ.:     0.1149305 α      in ANC's #6, #10, #13, ...

........................................................................
.............................. CYCLE  129 ..............................
........................................................................

 iter      E             dE          RMSdq      gap      omega  full diag
   1   -244.6613229 -0.244661E+03  0.329E-02    0.72       0.0  T
   2   -244.6613235 -0.639184E-06  0.196E-02    0.72       1.0  T
   3   -244.6613126  0.108773E-04  0.744E-03    0.72       1.2  T
   4   -244.6613231 -0.104700E-04  0.232E-03    0.72       3.8  T
   5   -244.6613241 -0.101946E-05  0.972E-04    0.72       9.1  T
   6   -244.6613242 -0.747137E-07  0.612E-04    0.72      14.5  T
   7   -244.6613242 -0.168903E-07  0.417E-04    0.72      21.3  T
     SCC iter.                  ...        0 min,  0.267 sec
     gradient                   ...        0 min,  0.035 sec
 * total energy  :  -242.0114883 Eh     change       -0.2484997E-04 Eh
   gradient norm :     0.0021685 Eh/α   predicted    -0.1093370E-04 ( -56.00%)
   displ. norm   :     0.2438772 α      lambda       -0.3971906E-04
   maximum displ.:     0.1144546 α      in ANC's #6, #13, #10, ...

........................................................................
.............................. CYCLE  130 ..............................
........................................................................

 iter      E             dE          RMSdq      gap      omega  full diag
   1   -244.6605107 -0.244661E+03  0.306E-02    0.72       0.0  T
   2   -244.6605111 -0.479410E-06  0.181E-02    0.72       1.0  T
   3   -244.6604948  0.163464E-04  0.917E-03    0.72       1.0  T
   4   -244.6605105 -0.157409E-04  0.269E-03    0.72       3.3  T
   5   -244.6605117 -0.120713E-05  0.115E-03    0.72       7.7  T
   6   -244.6605119 -0.155363E-06  0.703E-04    0.72      12.6  T
   7   -244.6605120 -0.581494E-07  0.347E-04    0.72      25.6  T
     SCC iter.                  ...        0 min,  0.251 sec
     gradient                   ...        0 min,  0.038 sec
 * total energy  :  -242.0115200 Eh     change       -0.3169247E-04 Eh
   gradient norm :     0.0022391 Eh/α   predicted    -0.2104488E-04 ( -33.60%)
   displ. norm   :     0.3122785 α      lambda       -0.4919796E-04
   maximum displ.:     0.1494965 α      in ANC's #6, #13, #10, ...

........................................................................
.............................. CYCLE  131 ..............................
........................................................................

 iter      E             dE          RMSdq      gap      omega  full diag
   1   -244.6594056 -0.244659E+03  0.379E-02    0.72       0.0  T
   2   -244.6594065 -0.880322E-06  0.225E-02    0.72       1.0  T
   3   -244.6593795  0.270104E-04  0.117E-02    0.72       1.0  T
   4   -244.6594047 -0.252394E-04  0.385E-03    0.72       2.3  T
   5   -244.6594075 -0.277735E-05  0.135E-03    0.72       6.6  T
   6   -244.6594077 -0.203148E-06  0.811E-04    0.72      10.9  T
   7   -244.6594078 -0.639686E-07  0.400E-04    0.72      22.2  T
     SCC iter.                  ...        0 min,  0.246 sec
     gradient                   ...        0 min,  0.039 sec
 * total energy  :  -242.0115564 Eh     change       -0.3635279E-04 Eh
   gradient norm :     0.0032039 Eh/α   predicted    -0.2699915E-04 ( -25.73%)
   displ. norm   :     0.2480083 α      lambda       -0.5133281E-04
   maximum displ.:     0.1217449 α      in ANC's #6, #13, #3, ...

........................................................................
.............................. CYCLE  132 ..............................
........................................................................

 iter      E             dE          RMSdq      gap      omega  full diag
   1   -244.6596958 -0.244660E+03  0.308E-02    0.72       0.0  T
   2   -244.6596966 -0.808021E-06  0.184E-02    0.72       1.0  T
   3   -244.6596695  0.270867E-04  0.115E-02    0.72       1.0  T
   4   -244.6596936 -0.240948E-04  0.445E-03    0.72       2.0  T
   5   -244.6596978 -0.416354E-05  0.122E-03    0.72       7.3  T
   6   -244.6596980 -0.190901E-06  0.604E-04    0.72      14.7  T
   7   -244.6596980 -0.310357E-07  0.270E-04    0.72      32.9  T
     SCC iter.                  ...        0 min,  0.289 sec
     gradient                   ...        0 min,  0.035 sec
 * total energy  :  -242.0115946 Eh     change       -0.3818527E-04 Eh
   gradient norm :     0.0033588 Eh/α   predicted    -0.2724718E-04 ( -28.64%)
   displ. norm   :     0.3845144 α      lambda       -0.6022746E-04
   maximum displ.:     0.1896848 α      in ANC's #6, #13, #3, ...

........................................................................
.............................. CYCLE  133 ..............................
........................................................................

 iter      E             dE          RMSdq      gap      omega  full diag
   1   -244.6587589 -0.244659E+03  0.454E-02    0.72       0.0  T
   2   -244.6587604 -0.158484E-05  0.270E-02    0.72       1.0  T
   3   -244.6587317  0.287796E-04  0.117E-02    0.72       1.0  T
   4   -244.6587558 -0.241194E-04  0.523E-03    0.72       1.7  T
   5   -244.6587616 -0.583237E-05  0.165E-03    0.72       5.4  T
   6   -244.6587619 -0.296073E-06  0.848E-04    0.72      10.5  T
   7   -244.6587620 -0.675201E-07  0.420E-04    0.72      21.1  T
     SCC iter.                  ...        0 min,  0.322 sec
     gradient                   ...        0 min,  0.040 sec
 * total energy  :  -242.0116398 Eh     change       -0.4517806E-04 Eh
   gradient norm :     0.0041575 Eh/α   predicted    -0.3456874E-04 ( -23.48%)
   displ. norm   :     0.3616015 α      lambda       -0.1133852E-03
   maximum displ.:     0.1750115 α      in ANC's #6, #3, #17, ...

........................................................................
.............................. CYCLE  134 ..............................
........................................................................

 iter      E             dE          RMSdq      gap      omega  full diag
   1   -244.6618823 -0.244662E+03  0.475E-02    0.72       0.0  T
   2   -244.6618842 -0.188137E-05  0.284E-02    0.72       1.0  T
   3   -244.6618222  0.619451E-04  0.171E-02    0.72       1.0  T
   4   -244.6618790 -0.567895E-04  0.612E-03    0.72       1.5  T
   5   -244.6618875 -0.848477E-05  0.238E-03    0.72       3.7  T
   6   -244.6618882 -0.766233E-06  0.115E-03    0.72       7.7  T
   7   -244.6618884 -0.104243E-06  0.725E-04    0.72      12.2  T
   8   -244.6618884 -0.879035E-07  0.223E-04    0.72      39.7  T
     SCC iter.                  ...        0 min,  0.338 sec
     gradient                   ...        0 min,  0.033 sec
 * total energy  :  -242.0117023 Eh     change       -0.6256528E-04 Eh
   gradient norm :     0.0034478 Eh/α   predicted    -0.6410792E-04 (   2.47%)
   displ. norm   :     0.4948658 α      lambda       -0.8501970E-04
   maximum displ.:     0.2472046 α      in ANC's #6, #3, #1, ...

........................................................................
.............................. CYCLE  135 ..............................
........................................................................

 iter      E             dE          RMSdq      gap      omega  full diag
   1   -244.6592269 -0.244659E+03  0.576E-02    0.72       0.0  T
   2   -244.6592300 -0.311338E-05  0.343E-02    0.72       1.0  T
   3   -244.6592087  0.212964E-04  0.103E-02    0.72       1.0  T
   4   -244.6592257 -0.169289E-04  0.504E-03    0.73       1.8  T
   5   -244.6592312 -0.550413E-05  0.208E-03    0.72       4.3  T
   6   -244.6592316 -0.428142E-06  0.123E-03    0.72       7.2  T
   7   -244.6592318 -0.167081E-06  0.663E-04    0.72      13.4  T
   8   -244.6592318 -0.820089E-07  0.204E-04    0.72      43.5  T
     SCC iter.                  ...        0 min,  0.358 sec
     gradient                   ...        0 min,  0.040 sec
 * total energy  :  -242.0117506 Eh     change       -0.4831062E-04 Eh
   gradient norm :     0.0051330 Eh/α   predicted    -0.5294074E-04 (   9.58%)
   displ. norm   :     0.1262074 α      lambda       -0.7899521E-04
   maximum displ.:     0.0589165 α      in ANC's #6, #3, #5, ...

........................................................................
.............................. CYCLE  136 ..............................
........................................................................

 iter      E             dE          RMSdq      gap      omega  full diag
   1   -244.6607631 -0.244661E+03  0.192E-02    0.73       0.0  T
   2   -244.6607637 -0.629267E-06  0.116E-02    0.72       1.0  T
   3   -244.6607471  0.166284E-04  0.948E-03    0.73       1.0  T
   4   -244.6607617 -0.146299E-04  0.382E-03    0.73       2.3  T
   5   -244.6607646 -0.294873E-05  0.952E-04    0.73       9.3  T
   6   -244.6607648 -0.139712E-06  0.503E-04    0.73      17.7  T
   7   -244.6607648 -0.238026E-07  0.271E-04    0.73      32.8  T
     SCC iter.                  ...        0 min,  0.245 sec
     gradient                   ...        0 min,  0.041 sec
 * total energy  :  -242.0118116 Eh     change       -0.6095636E-04 Eh
   gradient norm :     0.0034495 Eh/α   predicted    -0.4012809E-04 ( -34.17%)
   displ. norm   :     0.3700761 α      lambda       -0.9864970E-04
   maximum displ.:     0.1807886 α      in ANC's #6, #3, #1, ...

........................................................................
.............................. CYCLE  137 ..............................
........................................................................

 iter      E             dE          RMSdq      gap      omega  full diag
   1   -244.6615094 -0.244662E+03  0.437E-02    0.73       0.0  T
   2   -244.6615114 -0.207599E-05  0.262E-02    0.73       1.0  T
   3   -244.6614525  0.589414E-04  0.174E-02    0.73       1.0  T
   4   -244.6615062 -0.537216E-04  0.635E-03    0.73       1.4  T
   5   -244.6615141 -0.790711E-05  0.182E-03    0.73       4.9  T
   6   -244.6615145 -0.396413E-06  0.111E-03    0.73       8.0  T
   7   -244.6615147 -0.134428E-06  0.558E-04    0.73      15.9  T
   8   -244.6615147 -0.573455E-07  0.182E-04    0.73      48.8  T
     SCC iter.                  ...        0 min,  0.275 sec
     gradient                   ...        0 min,  0.036 sec
 * total energy  :  -242.0118847 Eh     change       -0.7314042E-04 Eh
   gradient norm :     0.0032048 Eh/α   predicted    -0.5608277E-04 ( -23.32%)
   displ. norm   :     0.3951863 α      lambda       -0.7515011E-04
   maximum displ.:     0.1937825 α      in ANC's #6, #3, #1, ...

........................................................................
.............................. CYCLE  138 ..............................
........................................................................

 iter      E             dE          RMSdq      gap      omega  full diag
   1   -244.6614049 -0.244661E+03  0.448E-02    0.74       0.0  T
   2   -244.6614064 -0.145902E-05  0.269E-02    0.73       1.0  T
   3   -244.6613442  0.621589E-04  0.176E-02    0.74       1.0  T
   4   -244.6614025 -0.582834E-04  0.576E-03    0.73       1.5  T
   5   -244.6614090 -0.651418E-05  0.166E-03    0.73       5.3  T
   6   -244.6614092 -0.244961E-06  0.106E-03    0.73       8.4  T
   7   -244.6614093 -0.112351E-06  0.545E-04    0.73      16.3  T
   8   -244.6614094 -0.584533E-07  0.180E-04    0.73      49.3  T
     SCC iter.                  ...        0 min,  0.293 sec
     gradient                   ...        0 min,  0.042 sec
 * total energy  :  -242.0119441 Eh     change       -0.5933208E-04 Eh
   gradient norm :     0.0032747 Eh/α   predicted    -0.4344386E-04 ( -26.78%)
   displ. norm   :     0.3904216 α      lambda       -0.7758299E-04
   maximum displ.:     0.1867979 α      in ANC's #6, #3, #5, ...

........................................................................
.............................. CYCLE  139 ..............................
........................................................................

 iter      E             dE          RMSdq      gap      omega  full diag
   1   -244.6620321 -0.244662E+03  0.434E-02    0.74       0.0  T
   2   -244.6620331 -0.979857E-06  0.262E-02    0.73       1.0  T
   3   -244.6619616  0.714978E-04  0.186E-02    0.74       1.0  T
   4   -244.6620298 -0.682337E-04  0.559E-03    0.74       1.6  T
   5   -244.6620361 -0.624067E-05  0.149E-03    0.74       6.0  T
   6   -244.6620362 -0.145630E-06  0.924E-04    0.74       9.6  T
   7   -244.6620363 -0.659153E-07  0.506E-04    0.74      17.6  T
     SCC iter.                  ...        0 min,  0.241 sec
     gradient                   ...        0 min,  0.036 sec
 * total energy  :  -242.0120006 Eh     change       -0.5651843E-04 Eh
   gradient norm :     0.0028123 Eh/α   predicted    -0.4470540E-04 ( -20.90%)
   displ. norm   :     0.6070080 α      lambda       -0.7908791E-04
   maximum displ.:     0.2992837 α      in ANC's #6, #3, #1, ...

........................................................................
.............................. CYCLE  140 ..............................
........................................................................

 iter      E             dE          RMSdq      gap      omega  full diag
   1   -244.6579053 -0.244658E+03  0.673E-02    0.74       0.0  T
   2   -244.6579095 -0.427141E-05  0.403E-02    0.74       1.0  T
   3   -244.6578693  0.402607E-04  0.146E-02    0.74       1.0  T
   4   -244.6578996 -0.303366E-04  0.785E-03    0.74       1.1  T
   5   -244.6579118 -0.121809E-04  0.202E-03    0.74       4.4  T
   6   -244.6579120 -0.153110E-06  0.136E-03    0.74       6.5  T
   7   -244.6579122 -0.210422E-06  0.701E-04    0.74      12.7  T
   8   -244.6579123 -0.106027E-06  0.207E-04    0.74      42.9  T
     SCC iter.                  ...        0 min,  0.252 sec
     gradient                   ...        0 min,  0.035 sec
 * total energy  :  -242.0120106 Eh     change       -0.9992526E-05 Eh
   gradient norm :     0.0072722 Eh/α   predicted    -0.5411811E-04 ( 441.59%)
   displ. norm   :     0.0864691 α      lambda       -0.1389499E-03
   maximum displ.:     0.0378634 α      in ANC's #5, #8, #15, ...

........................................................................
.............................. CYCLE  141 ..............................
........................................................................

 iter      E             dE          RMSdq      gap      omega  full diag
   1   -244.6620163 -0.244662E+03  0.196E-02    0.74       0.0  T
   2   -244.6620168 -0.488031E-06  0.117E-02    0.74       1.0  T
   3   -244.6620024  0.143835E-04  0.850E-03    0.74       1.0  T
   4   -244.6620157 -0.133052E-04  0.299E-03    0.74       3.0  T
   5   -244.6620177 -0.202366E-05  0.104E-03    0.74       8.5  T
   6   -244.6620179 -0.154911E-06  0.557E-04    0.74      15.9  T
   7   -244.6620179 -0.382529E-07  0.290E-04    0.74      30.6  T
     SCC iter.                  ...        0 min,  0.228 sec
     gradient                   ...        0 min,  0.038 sec
 * total energy  :  -242.0120875 Eh     change       -0.7694602E-04 Eh
   gradient norm :     0.0032528 Eh/α   predicted    -0.6999543E-04 (  -9.03%)
   displ. norm   :     0.2533798 α      lambda       -0.4789728E-04
   maximum displ.:     0.1124511 α      in ANC's #6, #5, #1, ...

........................................................................
.............................. CYCLE  142 ..............................
........................................................................

 iter      E             dE          RMSdq      gap      omega  full diag
   1   -244.6622676 -0.244662E+03  0.289E-02    0.74       0.0  T
   2   -244.6622682 -0.657797E-06  0.172E-02    0.74       1.0  T
   3   -244.6622608  0.746687E-05  0.615E-03    0.74       1.4  T
   4   -244.6622676 -0.687961E-05  0.225E-03    0.74       3.9  T
   5   -244.6622686 -0.100369E-05  0.893E-04    0.74       9.9  T
   6   -244.6622687 -0.531949E-07  0.557E-04    0.74      15.9  T
   7   -244.6622687 -0.204075E-07  0.364E-04    0.74      24.4  T
     SCC iter.                  ...        0 min,  0.296 sec
     gradient                   ...        0 min,  0.040 sec
 * total energy  :  -242.0121304 Eh     change       -0.4286284E-04 Eh
   gradient norm :     0.0030808 Eh/α   predicted    -0.2549017E-04 ( -40.53%)
   displ. norm   :     0.5540443 α      lambda       -0.1378830E-03
   maximum displ.:     0.2314025 α      in ANC's #6, #5, #1, ...

........................................................................
.............................. CYCLE  143 ..............................
........................................................................

 iter      E             dE          RMSdq      gap      omega  full diag
   1   -244.6618723 -0.244662E+03  0.697E-02    0.74       0.0  T
   2   -244.6618738 -0.152945E-05  0.414E-02    0.74       1.0  T
   3   -244.6617362  0.137584E-03  0.264E-02    0.73       1.0  T
   4   -244.6618722 -0.135918E-03  0.655E-03    0.74       1.4  T
   5   -244.6618791 -0.692088E-05  0.292E-03    0.74       3.0  T
   6   -244.6618801 -0.102771E-05  0.180E-03    0.74       4.9  T
   7   -244.6618806 -0.442257E-06  0.822E-04    0.74      10.8  T
   8   -244.6618807 -0.124274E-06  0.235E-04    0.74      37.8  T
     SCC iter.                  ...        0 min,  0.255 sec
     gradient                   ...        0 min,  0.034 sec
 * total energy  :  -242.0122362 Eh     change       -0.1058201E-03 Eh
   gradient norm :     0.0033142 Eh/α   predicted    -0.9011964E-04 ( -14.84%)
   displ. norm   :     0.4478145 α      lambda       -0.9641302E-04
   maximum displ.:     0.1987575 α      in ANC's #5, #1, #6, ...

........................................................................
.............................. CYCLE  144 ..............................
........................................................................

 iter      E             dE          RMSdq      gap      omega  full diag
   1   -244.6617251 -0.244662E+03  0.592E-02    0.73       0.0  T
   2   -244.6617248  0.335690E-06  0.352E-02    0.74       1.0  T
   3   -244.6615809  0.143824E-03  0.271E-02    0.73       1.0  T
   4   -244.6617249 -0.144002E-03  0.603E-03    0.73       1.5  T
   5   -244.6617309 -0.594048E-05  0.260E-03    0.73       3.4  T
   6   -244.6617318 -0.887244E-06  0.158E-03    0.74       5.6  T
   7   -244.6617321 -0.345081E-06  0.733E-04    0.73      12.1  T
   8   -244.6617322 -0.929577E-07  0.208E-04    0.74      42.7  T
     SCC iter.                  ...        0 min,  0.268 sec
     gradient                   ...        0 min,  0.040 sec
 * total energy  :  -242.0123089 Eh     change       -0.7272164E-04 Eh
   gradient norm :     0.0043806 Eh/α   predicted    -0.5788343E-04 ( -20.40%)
   displ. norm   :     0.3566711 α      lambda       -0.8625914E-04
   maximum displ.:     0.1709798 α      in ANC's #5, #1, #3, ...

........................................................................
.............................. CYCLE  145 ..............................
........................................................................

 iter      E             dE          RMSdq      gap      omega  full diag
   1   -244.6624119 -0.244662E+03  0.483E-02    0.73       0.0  T
   2   -244.6624116  0.341484E-06  0.287E-02    0.73       1.0  T
   3   -244.6623103  0.101336E-03  0.231E-02    0.73       1.0  T
   4   -244.6624113 -0.101086E-03  0.545E-03    0.73       1.6  T
   5   -244.6624164 -0.509403E-05  0.220E-03    0.73       4.0  T
   6   -244.6624171 -0.647355E-06  0.134E-03    0.73       6.6  T
   7   -244.6624173 -0.249085E-06  0.633E-04    0.73      14.0  T
   8   -244.6624174 -0.680054E-07  0.179E-04    0.73      49.6  T
     SCC iter.                  ...        0 min,  0.276 sec
     gradient                   ...        0 min,  0.048 sec
 * total energy  :  -242.0123775 Eh     change       -0.6856117E-04 Eh
   gradient norm :     0.0040468 Eh/α   predicted    -0.4862085E-04 ( -29.08%)
   displ. norm   :     0.5259107 α      lambda       -0.1167793E-03
   maximum displ.:     0.2524356 α      in ANC's #5, #1, #3, ...

........................................................................
.............................. CYCLE  146 ..............................
........................................................................

 iter      E             dE          RMSdq      gap      omega  full diag
   1   -244.6608851 -0.244661E+03  0.636E-02    0.73       0.0  T
   2   -244.6608882 -0.302339E-05  0.379E-02    0.73       1.0  T
   3   -244.6608153  0.728360E-04  0.196E-02    0.73       1.0  T
   4   -244.6608839 -0.685635E-04  0.644E-03    0.73       1.4  T
   5   -244.6608915 -0.766215E-05  0.263E-03    0.73       3.4  T
   6   -244.6608923 -0.790154E-06  0.156E-03    0.73       5.7  T
   7   -244.6608926 -0.251917E-06  0.904E-04    0.73       9.8  T
   8   -244.6608928 -0.172818E-06  0.221E-04    0.73      40.1  T
     SCC iter.                  ...        0 min,  0.270 sec
     gradient                   ...        0 min,  0.037 sec
 * total energy  :  -242.0124638 Eh     change       -0.8628412E-04 Eh
   gradient norm :     0.0044921 Eh/α   predicted    -0.7454707E-04 ( -13.60%)
   displ. norm   :     0.3917702 α      lambda       -0.1543597E-03
   maximum displ.:     0.2081134 α      in ANC's #5, #1, #10, ...

........................................................................
.............................. CYCLE  147 ..............................
........................................................................

 iter      E             dE          RMSdq      gap      omega  full diag
   1   -244.6637203 -0.244664E+03  0.510E-02    0.72       0.0  T
   2   -244.6637249 -0.458984E-05  0.302E-02    0.72       1.0  T
   3   -244.6636777  0.471745E-04  0.169E-02    0.72       1.0  T
   4   -244.6637150 -0.373269E-04  0.792E-03    0.72       1.1  T
   5   -244.6637275 -0.125024E-04  0.256E-03    0.72       3.5  T
   6   -244.6637286 -0.101414E-05  0.129E-03    0.72       6.9  T
   7   -244.6637287 -0.136162E-06  0.783E-04    0.72      11.3  T
   8   -244.6637288 -0.118703E-06  0.257E-04    0.72      34.6  T
     SCC iter.                  ...        0 min,  0.257 sec
     gradient                   ...        0 min,  0.039 sec
 * total energy  :  -242.0125388 Eh     change       -0.7503196E-04 Eh
   gradient norm :     0.0042393 Eh/α   predicted    -0.8903438E-04 (  18.66%)
   displ. norm   :     0.4302896 α      lambda       -0.1029799E-03
   maximum displ.:     0.2138068 α      in ANC's #5, #1, #3, ...

........................................................................
.............................. CYCLE  148 ..............................
........................................................................

 iter      E             dE          RMSdq      gap      omega  full diag
   1   -244.6609260 -0.244661E+03  0.487E-02    0.72       0.0  T
   2   -244.6609284 -0.242135E-05  0.290E-02    0.73       1.0  T
   3   -244.6609250  0.336198E-05  0.526E-03    0.72       1.7  T
   4   -244.6609279 -0.290026E-05  0.257E-03    0.73       3.4  T
   5   -244.6609288 -0.820916E-06  0.155E-03    0.72       5.7  T
   6   -244.6609289 -0.165316E-06  0.106E-03    0.72       8.4  T
   7   -244.6609291 -0.195054E-06  0.296E-04    0.72      30.0  T
   8   -244.6609291 -0.143772E-07  0.134E-04    0.72      66.0  T
     SCC iter.                  ...        0 min,  0.274 sec
     gradient                   ...        0 min,  0.035 sec
 * total energy  :  -242.0125911 Eh     change       -0.5233699E-04 Eh
   gradient norm :     0.0056003 Eh/α   predicted    -0.6103089E-04 (  16.61%)
   displ. norm   :     0.1762413 α      lambda       -0.7841023E-04
   maximum displ.:     0.0924837 α      in ANC's #5, #1, #10, ...

........................................................................
.............................. CYCLE  149 ..............................
........................................................................

 iter      E             dE          RMSdq      gap      omega  full diag
   1   -244.6609139 -0.244661E+03  0.219E-02    0.73       0.0  T
   2   -244.6609143 -0.405032E-06  0.131E-02    0.73       1.0  T
   3   -244.6609022  0.120999E-04  0.774E-03    0.73       1.1  T
   4   -244.6609139 -0.117226E-04  0.231E-03    0.73       3.8  T
   5   -244.6609150 -0.108766E-05  0.760E-04    0.73      11.7  T
   6   -244.6609150 -0.390933E-07  0.526E-04    0.73      16.9  T
   7   -244.6609150 -0.171905E-07  0.355E-04    0.73      25.0  T
     SCC iter.                  ...        0 min,  0.385 sec
     gradient                   ...        0 min,  0.044 sec
 * total energy  :  -242.0126494 Eh     change       -0.5822843E-04 Eh
   gradient norm :     0.0042568 Eh/α   predicted    -0.4042549E-04 ( -30.57%)
   displ. norm   :     0.2129063 α      lambda       -0.1407204E-03
   maximum displ.:     0.1071503 α      in ANC's #5, #1, #10, ...

........................................................................
.............................. CYCLE  150 ..............................
........................................................................

 iter      E             dE          RMSdq      gap      omega  full diag
   1   -244.6642276 -0.244664E+03  0.439E-02    0.73       0.0  T
   2   -244.6642266  0.101974E-05  0.265E-02    0.73       1.0  T
   3   -244.6641260  0.100635E-03  0.239E-02    0.73       1.0  T
   4   -244.6642284 -0.102390E-03  0.617E-03    0.73       1.4  T
   5   -244.6642359 -0.753179E-05  0.211E-03    0.73       4.2  T
   6   -244.6642365 -0.586647E-06  0.128E-03    0.73       7.0  T
   7   -244.6642367 -0.181087E-06  0.715E-04    0.73      12.4  T
   8   -244.6642368 -0.905366E-07  0.222E-04    0.73      39.9  T
     SCC iter.                  ...        0 min,  0.319 sec
     gradient                   ...        0 min,  0.034 sec
 * total energy  :  -242.0127237 Eh     change       -0.7431405E-04 Eh
   gradient norm :     0.0039271 Eh/α   predicted    -0.7355405E-04 (  -1.02%)
   displ. norm   :     0.3833921 α      lambda       -0.6369811E-04
   maximum displ.:     0.2051723 α      in ANC's #5, #1, #10, ...
 * RMSD in coord.:     0.6838073 α      energy gain  -0.1490604E-02 Eh

generating ANC from exact Hessian ...
Using Lindh-Hessian (1995)
 Shifting diagonal of input Hessian by   1.009675434886879E-002
 Lowest  eigenvalues of input Hessian
    0.010000    0.010033    0.000000    0.000000    0.000000    0.000000
    0.000000    0.000000    0.010129    0.010179    0.010355    0.010425
    0.010492    0.010666    0.010847    0.011028    0.011479    0.011857
 Highest eigenvalues
    2.156213    2.267527    2.307360    2.310113    2.328610    2.445266
 

........................................................................
.............................. CYCLE  151 ..............................
........................................................................

 iter      E             dE          RMSdq      gap      omega  full diag
   1   -244.6625554 -0.244663E+03  0.421E-02    0.73       0.0  T
   2   -244.6625569 -0.153344E-05  0.251E-02    0.74       1.0  T
   3   -244.6625436  0.133531E-04  0.800E-03    0.73       1.1  T
   4   -244.6625552 -0.116869E-04  0.341E-03    0.74       2.6  T
   5   -244.6625577 -0.248963E-05  0.118E-03    0.73       7.5  T
   6   -244.6625578 -0.844689E-07  0.720E-04    0.73      12.3  T
   7   -244.6625579 -0.471086E-07  0.404E-04    0.73      22.0  T
     SCC iter.                  ...        0 min,  0.232 sec
     gradient                   ...        0 min,  0.035 sec
 * total energy  :  -242.0127697 Eh     change       -0.4597940E-04 Eh
   gradient norm :     0.0042238 Eh/α   predicted     0.0000000E+00 (-100.00%)
   displ. norm   :     0.0352699 α      lambda       -0.4289789E-04
   maximum displ.:     0.0151661 α      in ANC's #13, #16, #12, ...

........................................................................
.............................. CYCLE  152 ..............................
........................................................................

 iter      E             dE          RMSdq      gap      omega  full diag
   1   -244.6637015 -0.244664E+03  0.804E-03    0.73       0.0  T
   2   -244.6637016 -0.135567E-06  0.476E-03    0.73       1.9  T
   3   -244.6636990  0.260926E-05  0.382E-03    0.74       2.3  T
   4   -244.6637012 -0.220049E-05  0.167E-03    0.73       5.3  T
   5   -244.6637018 -0.581365E-06  0.415E-04    0.73      21.4  T
   6   -244.6637018 -0.282656E-07  0.195E-04    0.73      45.5  T
     SCC iter.                  ...        0 min,  0.227 sec
     gradient                   ...        0 min,  0.035 sec
 * total energy  :  -242.0128039 Eh     change       -0.3420880E-04 Eh
   gradient norm :     0.0021021 Eh/α   predicted    -0.2184488E-04 ( -36.14%)
   displ. norm   :     0.0911962 α      lambda       -0.5240309E-04
   maximum displ.:     0.0429253 α      in ANC's #13, #12, #16, ...

........................................................................
.............................. CYCLE  153 ..............................
........................................................................

 iter      E             dE          RMSdq      gap      omega  full diag
   1   -244.6646781 -0.244665E+03  0.169E-02    0.73       0.0  T
   2   -244.6646785 -0.381775E-06  0.998E-03    0.73       1.0  T
   3   -244.6646673  0.111888E-04  0.785E-03    0.74       1.1  T
   4   -244.6646771 -0.986403E-05  0.313E-03    0.73       2.8  T
   5   -244.6646792 -0.201962E-05  0.854E-04    0.73      10.4  T
   6   -244.6646793 -0.122137E-06  0.391E-04    0.73      22.7  T
   7   -244.6646793 -0.182098E-08  0.263E-04    0.73      33.7  T
     SCC iter.                  ...        0 min,  0.226 sec
     gradient                   ...        0 min,  0.035 sec
 * total energy  :  -242.0128424 Eh     change       -0.3848345E-04 Eh
   gradient norm :     0.0018903 Eh/α   predicted    -0.2859248E-04 ( -25.70%)
   displ. norm   :     0.1526203 α      lambda       -0.3373590E-04
   maximum displ.:     0.0751991 α      in ANC's #13, #12, #3, ...

........................................................................
.............................. CYCLE  154 ..............................
........................................................................

 iter      E             dE          RMSdq      gap      omega  full diag
   1   -244.6645734 -0.244665E+03  0.249E-02    0.73       0.0  T
   2   -244.6645737 -0.321164E-06  0.147E-02    0.73       1.0  T
   3   -244.6645454  0.283053E-04  0.123E-02    0.74       1.0  T
   4   -244.6645723 -0.269257E-04  0.390E-03    0.73       2.3  T
   5   -244.6645753 -0.297571E-05  0.122E-03    0.73       7.3  T
   6   -244.6645755 -0.234642E-06  0.631E-04    0.73      14.1  T
   7   -244.6645755 -0.250968E-07  0.385E-04    0.73      23.0  T
     SCC iter.                  ...        0 min,  0.224 sec
     gradient                   ...        0 min,  0.032 sec
 * total energy  :  -242.0128771 Eh     change       -0.3475683E-04 Eh
   gradient norm :     0.0032442 Eh/α   predicted    -0.1711499E-04 ( -50.76%)
   displ. norm   :     0.1215193 α      lambda       -0.3568110E-04
   maximum displ.:     0.0616009 α      in ANC's #13, #12, #14, ...

........................................................................
.............................. CYCLE  155 ..............................
........................................................................

 iter      E             dE          RMSdq      gap      omega  full diag
   1   -244.6640091 -0.244664E+03  0.180E-02    0.73       0.0  T
   2   -244.6640093 -0.193295E-06  0.107E-02    0.73       1.0  T
   3   -244.6639958  0.135119E-04  0.845E-03    0.74       1.0  T
   4   -244.6640085 -0.127467E-04  0.279E-03    0.73       3.2  T
   5   -244.6640100 -0.152933E-05  0.855E-04    0.73      10.4  T
   6   -244.6640102 -0.113790E-06  0.452E-04    0.73      19.6  T
   7   -244.6640102 -0.182922E-07  0.257E-04    0.73      34.5  T
     SCC iter.                  ...        0 min,  0.232 sec
     gradient                   ...        0 min,  0.035 sec
 * total energy  :  -242.0129073 Eh     change       -0.3023587E-04 Eh
   gradient norm :     0.0026886 Eh/α   predicted    -0.1810433E-04 ( -40.12%)
   displ. norm   :     0.2402123 α      lambda       -0.6237536E-04
   maximum displ.:     0.1189514 α      in ANC's #13, #12, #14, ...

........................................................................
.............................. CYCLE  156 ..............................
........................................................................

 iter      E             dE          RMSdq      gap      omega  full diag
   1   -244.6627420 -0.244663E+03  0.343E-02    0.74       0.0  T
   2   -244.6627432 -0.115817E-05  0.203E-02    0.74       1.0  T
   3   -244.6627033  0.399441E-04  0.146E-02    0.74       1.0  T
   4   -244.6627396 -0.363591E-04  0.543E-03    0.74       1.6  T
   5   -244.6627455 -0.587656E-05  0.162E-03    0.74       5.5  T
   6   -244.6627459 -0.416969E-06  0.825E-04    0.74      10.8  T
   7   -244.6627460 -0.575532E-07  0.483E-04    0.74      18.4  T
     SCC iter.                  ...        0 min,  0.303 sec
     gradient                   ...        0 min,  0.041 sec
 * total energy  :  -242.0129480 Eh     change       -0.4070420E-04 Eh
   gradient norm :     0.0025089 Eh/α   predicted    -0.3299210E-04 ( -18.95%)
   displ. norm   :     0.1194662 α      lambda       -0.2697771E-04
   maximum displ.:     0.0584200 α      in ANC's #13, #3, #14, ...

........................................................................
.............................. CYCLE  157 ..............................
........................................................................

 iter      E             dE          RMSdq      gap      omega  full diag
   1   -244.6627333 -0.244663E+03  0.162E-02    0.74       0.0  T
   2   -244.6627337 -0.411179E-06  0.960E-03    0.74       1.0  T
   3   -244.6627282  0.553148E-05  0.546E-03    0.74       1.6  T
   4   -244.6627329 -0.476472E-05  0.232E-03    0.74       3.8  T
   5   -244.6627341 -0.113131E-05  0.700E-04    0.74      12.7  T
   6   -244.6627341 -0.622218E-07  0.382E-04    0.74      23.2  T
   7   -244.6627341 -0.144225E-07  0.227E-04    0.74      39.1  T
     SCC iter.                  ...        0 min,  0.264 sec
     gradient                   ...        0 min,  0.037 sec
 * total energy  :  -242.0129698 Eh     change       -0.2172715E-04 Eh
   gradient norm :     0.0025360 Eh/α   predicted    -0.1371627E-04 ( -36.87%)
   displ. norm   :     0.1746994 α      lambda       -0.4782495E-04
   maximum displ.:     0.0815626 α      in ANC's #13, #3, #14, ...

........................................................................
.............................. CYCLE  158 ..............................
........................................................................

 iter      E             dE          RMSdq      gap      omega  full diag
   1   -244.6635349 -0.244664E+03  0.232E-02    0.74       0.0  T
   2   -244.6635359 -0.941697E-06  0.138E-02    0.74       1.0  T
   3   -244.6635293  0.659048E-05  0.591E-03    0.74       1.5  T
   4   -244.6635344 -0.512386E-05  0.282E-03    0.74       3.1  T
   5   -244.6635363 -0.194881E-05  0.852E-04    0.74      10.4  T
   6   -244.6635364 -0.946944E-07  0.470E-04    0.74      18.9  T
   7   -244.6635364 -0.765044E-08  0.348E-04    0.74      25.5  T
     SCC iter.                  ...        0 min,  0.246 sec
     gradient                   ...        0 min,  0.037 sec
 * total energy  :  -242.0130023 Eh     change       -0.3250375E-04 Eh
   gradient norm :     0.0024243 Eh/α   predicted    -0.2464391E-04 ( -24.18%)
   displ. norm   :     0.1508309 α      lambda       -0.2418359E-04
   maximum displ.:     0.0699174 α      in ANC's #13, #3, #14, ...

........................................................................
.............................. CYCLE  159 ..............................
........................................................................

 iter      E             dE          RMSdq      gap      omega  full diag
   1   -244.6637265 -0.244664E+03  0.185E-02    0.74       0.0  T
   2   -244.6637269 -0.448949E-06  0.110E-02    0.74       1.0  T
   3   -244.6637229  0.401118E-05  0.448E-03    0.74       2.0  T
   4   -244.6637258 -0.294349E-05  0.235E-03    0.74       3.8  T
   5   -244.6637271 -0.130319E-05  0.672E-04    0.74      13.2  T
   6   -244.6637272 -0.482045E-07  0.405E-04    0.74      21.9  T
   7   -244.6637272 -0.149027E-07  0.229E-04    0.74      38.7  T
     SCC iter.                  ...        0 min,  0.246 sec
     gradient                   ...        0 min,  0.045 sec
 * total energy  :  -242.0130205 Eh     change       -0.1823034E-04 Eh
   gradient norm :     0.0021621 Eh/α   predicted    -0.1237014E-04 ( -32.15%)
   displ. norm   :     0.1533576 α      lambda       -0.2523541E-04
   maximum displ.:     0.0662171 α      in ANC's #13, #3, #14, ...

........................................................................
.............................. CYCLE  160 ..............................
........................................................................

 iter      E             dE          RMSdq      gap      omega  full diag
   1   -244.6641646 -0.244664E+03  0.179E-02    0.74       0.0  T
   2   -244.6641650 -0.358020E-06  0.107E-02    0.74       1.0  T
   3   -244.6641580  0.697767E-05  0.592E-03    0.74       1.5  T
   4   -244.6641636 -0.559139E-05  0.282E-03    0.74       3.1  T
   5   -244.6641653 -0.172241E-05  0.634E-04    0.74      14.0  T
   6   -244.6641654 -0.482322E-07  0.322E-04    0.74      27.6  T
   7   -244.6641654 -0.525390E-08  0.180E-04    0.74      49.3  T
     SCC iter.                  ...        0 min,  0.320 sec
     gradient                   ...        0 min,  0.042 sec
 * total energy  :  -242.0130385 Eh     change       -0.1801635E-04 Eh
   gradient norm :     0.0014750 Eh/α   predicted    -0.1292593E-04 ( -28.25%)
   displ. norm   :     0.2244985 α      lambda       -0.1828527E-04
   maximum displ.:     0.0944113 α      in ANC's #13, #14, #3, ...

........................................................................
.............................. CYCLE  161 ..............................
........................................................................

 iter      E             dE          RMSdq      gap      omega  full diag
   1   -244.6637840 -0.244664E+03  0.246E-02    0.74       0.0  T
   2   -244.6637848 -0.843292E-06  0.147E-02    0.74       1.0  T
   3   -244.6637778  0.697858E-05  0.628E-03    0.74       1.4  T
   4   -244.6637826 -0.471238E-05  0.358E-03    0.74       2.5  T
   5   -244.6637852 -0.265848E-05  0.866E-04    0.74      10.2  T
   6   -244.6637853 -0.968829E-07  0.461E-04    0.74      19.3  T
   7   -244.6637853 -0.176140E-07  0.195E-04    0.74      45.5  T
     SCC iter.                  ...        0 min,  0.290 sec
     gradient                   ...        0 min,  0.038 sec
 * total energy  :  -242.0130543 Eh     change       -0.1577477E-04 Eh
   gradient norm :     0.0018420 Eh/α   predicted    -0.9350619E-05 ( -40.72%)
   displ. norm   :     0.0794121 α      lambda       -0.1637230E-04
   maximum displ.:     0.0305772 α      in ANC's #11, #2, #4, ...

........................................................................
.............................. CYCLE  162 ..............................
........................................................................

 iter      E             dE          RMSdq      gap      omega  full diag
   1   -244.6652624 -0.244665E+03  0.173E-02    0.73       0.0  T
   2   -244.6652628 -0.327318E-06  0.102E-02    0.74       1.0  T
   3   -244.6652503  0.124893E-04  0.850E-03    0.74       1.0  T
   4   -244.6652623 -0.120080E-04  0.278E-03    0.74       3.2  T
   5   -244.6652637 -0.143854E-05  0.102E-03    0.74       8.7  T
   6   -244.6652639 -0.176143E-06  0.535E-04    0.74      16.6  T
   7   -244.6652639 -0.378422E-07  0.264E-04    0.74      33.6  T
     SCC iter.                  ...        0 min,  0.266 sec
     gradient                   ...        0 min,  0.035 sec
 * total energy  :  -242.0130620 Eh     change       -0.7663916E-05 Eh
   gradient norm :     0.0027375 Eh/α   predicted    -0.8224424E-05 (   7.31%)
   displ. norm   :     0.0887491 α      lambda       -0.1873473E-04
   maximum displ.:     0.0363475 α      in ANC's #14, #13, #10, ...

........................................................................
.............................. CYCLE  163 ..............................
........................................................................

 iter      E             dE          RMSdq      gap      omega  full diag
   1   -244.6644251 -0.244664E+03  0.101E-02    0.74       0.0  T
   2   -244.6644253 -0.130418E-06  0.600E-03    0.74       1.5  T
   3   -244.6644220  0.326432E-05  0.391E-03    0.74       2.3  T
   4   -244.6644249 -0.286316E-05  0.158E-03    0.74       5.6  T
   5   -244.6644254 -0.548951E-06  0.475E-04    0.74      18.7  T
   6   -244.6644255 -0.323882E-07  0.229E-04    0.74      38.8  T
     SCC iter.                  ...        0 min,  0.271 sec
     gradient                   ...        0 min,  0.039 sec
 * total energy  :  -242.0130768 Eh     change       -0.1485282E-04 Eh
   gradient norm :     0.0017251 Eh/α   predicted    -0.9451031E-05 ( -36.37%)
   displ. norm   :     0.2037135 α      lambda       -0.2123215E-04
   maximum displ.:     0.0864598 α      in ANC's #14, #4, #2, ...

........................................................................
.............................. CYCLE  164 ..............................
........................................................................

 iter      E             dE          RMSdq      gap      omega  full diag
   1   -244.6627544 -0.244663E+03  0.240E-02    0.74       0.0  T
   2   -244.6627552 -0.848372E-06  0.142E-02    0.74       1.0  T
   3   -244.6627364  0.188746E-04  0.948E-03    0.74       1.0  T
   4   -244.6627527 -0.163670E-04  0.393E-03    0.73       2.3  T
   5   -244.6627562 -0.343410E-05  0.127E-03    0.74       7.0  T
   6   -244.6627564 -0.248466E-06  0.570E-04    0.74      15.6  T
   7   -244.6627564 -0.314969E-07  0.324E-04    0.74      27.4  T
     SCC iter.                  ...        0 min,  0.265 sec
     gradient                   ...        0 min,  0.038 sec
 * total energy  :  -242.0130886 Eh     change       -0.1180613E-04 Eh
   gradient norm :     0.0020548 Eh/α   predicted    -0.1081555E-04 (  -8.39%)
   displ. norm   :     0.0470415 α      lambda       -0.9002632E-05
   maximum displ.:     0.0254605 α      in ANC's #13, #3, #12, ...

........................................................................
.............................. CYCLE  165 ..............................
........................................................................

 iter      E             dE          RMSdq      gap      omega  full diag
   1   -244.6633593 -0.244663E+03  0.651E-03    0.74       0.0  T
   2   -244.6633594 -0.551650E-07  0.388E-03    0.74       2.3  T
   3   -244.6633588  0.559736E-06  0.171E-03    0.74       5.2  T
   4   -244.6633593 -0.505045E-06  0.657E-04    0.74      13.5  T
   5   -244.6633594 -0.989871E-07  0.209E-04    0.74      42.4  T
     SCC iter.                  ...        0 min,  0.181 sec
     gradient                   ...        0 min,  0.038 sec
 * total energy  :  -242.0130954 Eh     change       -0.6818062E-05 Eh
   gradient norm :     0.0012195 Eh/α   predicted    -0.4513336E-05 ( -33.80%)
   displ. norm   :     0.0701382 α      lambda       -0.9348065E-05
   maximum displ.:     0.0304498 α      in ANC's #2, #13, #4, ...

........................................................................
.............................. CYCLE  166 ..............................
........................................................................

 iter      E             dE          RMSdq      gap      omega  full diag
   1   -244.6643370 -0.244664E+03  0.129E-02    0.74       0.0  T
   2   -244.6643373 -0.256770E-06  0.766E-03    0.74       1.2  T
   3   -244.6643338  0.347318E-05  0.442E-03    0.74       2.0  T
   4   -244.6643372 -0.338164E-05  0.141E-03    0.74       6.3  T
   5   -244.6643376 -0.419685E-06  0.562E-04    0.74      15.8  T
   6   -244.6643376 -0.477447E-07  0.262E-04    0.74      33.9  T
     SCC iter.                  ...        0 min,  0.216 sec
     gradient                   ...        0 min,  0.038 sec
 * total energy  :  -242.0131024 Eh     change       -0.6961012E-05 Eh
   gradient norm :     0.0007758 Eh/α   predicted    -0.4686062E-05 ( -32.68%)
   displ. norm   :     0.0538607 α      lambda       -0.2512167E-05
   maximum displ.:     0.0249527 α      in ANC's #2, #4, #14, ...

........................................................................
.............................. CYCLE  167 ..............................
........................................................................

 iter      E             dE          RMSdq      gap      omega  full diag
   1   -244.6641579 -0.244664E+03  0.555E-03    0.74       0.0  T
   2   -244.6641579 -0.577198E-07  0.329E-03    0.74       2.7  T
   3   -244.6641577  0.219822E-06  0.121E-03    0.74       7.4  T
   4   -244.6641579 -0.186208E-06  0.548E-04    0.74      16.2  T
   5   -244.6641579 -0.518065E-07  0.232E-04    0.74      38.3  T
     SCC iter.                  ...        0 min,  0.204 sec
     gradient                   ...        0 min,  0.038 sec
 * total energy  :  -242.0131057 Eh     change       -0.3261857E-05 Eh
   gradient norm :     0.0004773 Eh/α   predicted    -0.1259367E-05 ( -61.39%)
   displ. norm   :     0.0849073 α      lambda       -0.3993339E-05
   maximum displ.:     0.0422383 α      in ANC's #2, #4, #14, ...

   *** GEOMETRY OPTIMIZATION CONVERGED AFTER 167 ITERATIONS ***

------------------------------------------------------------------------
 total energy gain   :        -0.0480606 Eh      -30.1585 kcal/mol
 total RMSD          :         3.3993119 a0        1.7988 Å
 total power (kW/mol):        -0.7555867 (step)   -1.6015 (real)
------------------------------------------------------------------------

 ANCopt (total)                0 d,  0 h,  1 min, 18.789 sec
 optimizer setup                ...        0 min,  0.001 sec (  0.001%)
 model hessian                  ...        0 min,  0.526 sec (  0.668%)
 ANC generation                 ...        0 min,  0.187 sec (  0.237%)
 coordinate transformation      ...        0 min,  0.023 sec (  0.029%)
 single point calculation       ...        1 min, 17.552 sec ( 98.430%)
 optimization log               ...        0 min,  0.301 sec (  0.382%)
 hessian update                 ...        0 min,  0.118 sec (  0.150%)
 rational function              ...        0 min,  0.055 sec (  0.070%)

================
 final structure:
================
127
 xtb: 6.7.1pre (5071a88)
O           -0.64564289855550       -1.14249399712135        7.20626434016642
C            0.01560250953560       -0.25033728945902        7.72046087132404
C           -0.69357942262826        1.02295247553773        8.07755833261279
C           -1.97857562932778        0.82164094386606        8.58037011466922
C           -2.85774041388692        1.86095277352730        8.82948554628446
C           -4.25077705119842        1.58075946497139        9.32885956776738
C           -4.77188786330309        0.24669947100395        8.87550280266915
N           -5.11211118322403       -0.57325528491663        9.81072504143538
N           -5.58469301046936       -1.77998214019526        9.48984416411339
C           -5.75083947241720       -2.30472494035321        8.22796712185248
O           -6.20053487983848       -3.42528641925905        8.08261310239121
C           -5.35188601184294       -1.38622220458129        7.15797691392801
C           -5.45622886222619       -1.78961950064270        5.82670824571290
C           -5.10251810052412       -0.92575301915440        4.81485643686864
C           -4.63560064843014        0.35149203290160        5.12057121581811
C           -4.51990282497326        0.75986121374141        6.43040058388739
C           -4.87307997228194       -0.10041251646947        7.47653229573922
C           -2.43379517599558        3.16270718073902        8.58668078301364
C           -1.16575759226173        3.39803349078433        8.09443196057491
C           -0.31376669077440        2.33690051790272        7.83478246672293
F            0.89446265814335        2.65049249496985        7.32646426714420
N            1.30967892028398       -0.43350830395033        8.04366975867981
C            1.90565485751025       -1.71960645819110        7.73423559300634
C            3.32035612822690       -1.55891225572600        7.19892962064903
N            4.13852959562060       -0.81486186397678        8.14207514750977
C            5.40786796195344       -0.42243681974862        7.85822503008389
O            6.02144373291530        0.34596570259264        8.57671423761986
C            5.98386956322666       -1.01444407803468        6.60799395110920
C            7.19896792614642       -0.36780302065898        6.01746156091181
C            5.87635165747530       -0.20575049901169        5.34072309962245
C            3.42105317359762       -0.16722661470003        9.21916641116075
C            2.19242266326769        0.53998128339862        8.65409124510388
H           -2.28937180603937       -0.19862274769694        8.74481871378535
H           -4.92583222596805        2.37132865773093        8.99105324019492
H           -4.25768034907208        1.57779003329607       10.42212647219423
H           -5.83520079642828       -2.36213868997177       10.28161258797364
H           -5.82126047652932       -2.78535696266194        5.62630199206953
H           -5.18830052436874       -1.23110770231086        3.78340875087728
H           -4.35690790848893        1.02433228756024        4.32567478733569
H           -4.14887401118149        1.74832568192858        6.64893043775388
H           -3.10013887314317        3.99302491546168        8.76893601781464
H           -0.82314580831911        4.39909763200939        7.88451293001387
H            1.90549861012380       -2.34965757184477        8.63226734071122
H            1.27647804404068       -2.19691966118931        6.98037240159683
H            3.28491137279842       -1.03520471193575        6.24008012642774
H            3.74385532136426       -2.55534170535174        7.03647852277329
H            5.88199416960004       -2.08806851094297        6.52306500632295
H            7.60161150336788        0.47732797061150        6.55391422015618
H            7.94398431409329       -1.00006678800332        5.55977519159451
H            5.69160591093192       -0.73535800466742        4.41904968017922
H            5.38683396971450        0.75412070933785        5.39861956016381
H            3.13664114133931       -0.89799668776137        9.98337920883016
H            4.10349696013780        0.55911753255716        9.66636889424250
H            1.66408686621157        1.07757977852944        9.44712838594824
H            2.53536732477591        1.25903152819702        7.90339607542946
B            3.88272081037406       -1.58203694424054        1.27261078139191
N            3.75757071196012        0.94072372916402        0.40004519045926
B            2.19174133976119        2.09187548373208       -1.45061876872008
N            1.29847533235565       -0.97699203037570       -2.46747590199237
B            1.57751301371224       -3.38983812540829        3.41564545975489
N           -2.11962552147615       -2.27181022351222        3.66544776267229
B            0.01705008889013        4.28869164576915        2.52341581106796
N           -1.81802496720666       -0.17869942550059       -2.64620824012014
B           -1.66726876125127        1.22037684337999       -2.96545696450479
N            0.48422165332899       -3.95568998974453       -0.88390011231727
B           -3.51440535795346        2.47935179928793        1.49569101293100
N           -2.73801827643864        2.89892454090313        0.40500229532612
B           -0.22031572135411        0.39852883017014       -4.30532447153566
N            1.08287855946782        3.57517431007425        3.24378957296430
B           -0.14218668132050       -3.10285666655355       -1.86060096329583
N           -0.48793678723638        3.73648557454564       -0.28919660159805
B            0.65010817246840        2.47076636353752        3.96125687438693
N            2.90912256058944       -1.14463963835441        3.65976937608582
B           -0.75681041304193        3.33111769704000       -1.62615040098323
N            2.75208485717908        0.24661319679191        3.94861857365343
B           -2.45953170049309       -0.62195833727971       -1.45588606812187
N           -3.06564740854038        2.14799324525527        2.77458230749495
B            1.09519359169293        4.54637035292761        1.40453769478024
N            1.75312690975183        0.29955564072770        4.95921982988275
B           -1.71660967887732        2.55532098398495        3.05946787213914
N            3.39720101262959       -0.45126546869815       -1.19186221475145
B           -1.77884962223547       -3.35824266477131        2.87591337009666
N            2.09792694174332        3.80102130426380        2.20649895129490
B           -0.47515079166318       -0.39942775329137        4.54488869691767
N           -2.46001154202911       -3.40326903191574        1.56959171610824
B            2.38831078714427       -1.37999306959626       -1.53432768172125
N           -3.00848236196702       -1.00820980308858        1.66942020224456
B            2.73640434391303        2.87406585815558        1.31279131304379
N           -1.32248671664630       -2.98953466379087       -1.01449850748458
B           -2.39518653933645       -2.12089834896549       -0.73520291985999
N            0.84983953439819        3.91043687999152        0.15744220379908
B            0.18826047073385        2.66697915753949       -2.79373313211482
N            0.61699109133174       -4.20136358753060        2.78815955075029
B           -1.49812553884146        3.56336284809560        0.74955404611841
N           -1.20939689986030        3.64610510977530        2.17708925652484
B            1.84463880753732       -4.18407215322269        2.08645139929575
N            0.93123048333447        1.41739399352005        4.89804789145795
B           -2.87306024826503       -2.24335951949281        0.86434562911423
N           -0.72027123267438       -4.28693172245741        2.52035155649578
B           -2.91454353436135        0.56005549426712       -0.32750708105932
N            2.32088155611116       -3.99764305724002        0.77300885523884
B            4.04608557273517       -0.43248208554995        0.15981062772347
N            1.17625251685532        1.65381769834065       -2.32489870955192
B           -0.43566994754578        1.87620747462986       -4.04431077355350
N           -3.85549964320514        1.14163648396084        1.86405150169186
B           -2.08434526131653        2.35551954205018       -1.84383651487077
N           -2.77804348398047        1.96872192923838       -0.68695590961411
B            3.10528924984610       -2.80680918105638        0.55273813796363
N            1.81242951707617       -3.87723560391188       -0.56803808460131
B            3.23346161768672        0.57718709965294        2.62580408309749
N           -0.45069267158655        1.02916570656347        4.83996775548521
B           -1.23815195244804       -4.08479809014866        1.16748143167707
N           -3.20535365328981        0.24421672403205        1.03456722525107
B            3.24898781843147        0.97385272081524       -0.96861484268685
N            3.31387485932822        1.57114965006453        1.58911479830380
B            0.21074503153226       -1.87588133478491       -2.83374971199758
N           -0.76949044618564        2.11397475714109        3.97725658919698
B            0.95898445746234        0.35635415778457       -2.94969063525149
N           -1.64927751726663       -0.94362631981067        4.04961246413167
B           -0.84245073597747       -0.86722954152079       -3.54866551763304
N           -0.66831488428767       -3.79729517499957       -0.05043818711901
B            1.71108178787339       -1.87511133418165        4.02940687229472
N            0.88540563558992       -0.87605243136811        4.66274388477262
B           -2.59140562541958       -1.10421521409392        3.00447248318377
N            3.53581526075117       -0.85913102165654        2.42414431591252
B            2.02594095206080        3.19058932769046       -0.22984008088093
N            2.44579984565603       -2.57212339938659       -0.70964160108707
 
 Bond Distances (Angstroems)
 ---------------------------
O1-C2=1.2238         C2-O1=1.2238         C2-C3=1.5006         C2-N22=1.3463        C3-C2=1.5006         C3-C4=1.3945         
C3-C20=1.3891        C4-C3=1.3945         C4-C5=1.3839         C4-H33=1.0792        C5-C4=1.3839         C5-C6=1.5061         
C5-C18=1.3904        C6-C5=1.5061         C6-C7=1.5023         C6-H34=1.0931        C6-H35=1.0933        C7-C6=1.5023         
C7-N8=1.2895         C7-C17=1.4449        N8-C7=1.2895         N8-N9=1.3351         N9-N8=1.3351         N9-C10=1.3767        
N9-H36=1.0142        C10-N9=1.3767        C10-O11=1.2161       C10-C12=1.4655       O11-C10=1.2161       C12-C10=1.4655       
C12-C13=1.3950       C12-C17=1.4086       C13-C12=1.3950       C13-C14=1.3767       C13-H37=1.0793       C14-C13=1.3767       
C14-C15=1.3939       C14-H38=1.0791       C15-C14=1.3939       C15-C16=1.3769       C15-H39=1.0781       C16-C15=1.3769       
C16-C17=1.3997       C16-H40=1.0782       C17-C7=1.4449        C17-C12=1.4086       C17-C16=1.3997       C18-C5=1.3904        
C18-C19=1.3804       C18-H41=1.0801       C19-C18=1.3804       C19-C20=1.3854       C19-H42=1.0787       C20-C3=1.3891        
C20-C19=1.3854       C20-F21=1.3478       F21-C20=1.3478       N22-C2=1.3463        N22-C23=1.4509       N22-C32=1.4490       
C23-N22=1.4509       C23-C24=1.5211       C23-H43=1.0970       C23-H44=1.0918       C24-C23=1.5211       C24-N25=1.4535       
C24-H45=1.0931       C24-H46=1.0948       N25-C24=1.4535       N25-C26=1.3586       N25-C31=1.4472       C26-N25=1.3586       
C26-O27=1.2178       C26-C28=1.4984       O27-C26=1.2178       C28-C26=1.4984       C28-C29=1.4978       C28-C30=1.5072       
C28-H47=1.0818       C29-C28=1.4978       C29-C30=1.4945       C29-H48=1.0790       C29-H49=1.0790       C30-C28=1.5072       
C30-C29=1.4945       C30-H50=1.0789       C30-H51=1.0790       C31-N25=1.4472       C31-C32=1.5261       C31-H52=1.0950       
C31-H53=1.0924       C32-N22=1.4490       C32-C31=1.5261       C32-H54=1.0941       C32-H55=1.0946       H33-C4=1.0792        
H34-C6=1.0931        H35-C6=1.0933        H36-N9=1.0142        H37-C13=1.0793       H38-C14=1.0791       H39-C15=1.0781       
H40-C16=1.0782       H41-C18=1.0801       H42-C19=1.0787       H43-C23=1.0970       H44-C23=1.0918       H45-C24=1.0931       
H46-C24=1.0948       H47-C28=1.0818       H48-C29=1.0790       H49-C29=1.0790       H50-C30=1.0789       H51-C30=1.0790       
H52-C31=1.0950       H53-C31=1.0924       H54-C32=1.0941       H55-C32=1.0946       B56-B102=1.6083      B56-B108=1.6195      
B56-N125=1.4032      N57-B102=1.4236      N57-B114=1.4605      N57-N115=1.4171      B58-N103=1.4098      B58-B114=1.6125      
B58-B126=1.6507      N59-B86=1.4903       N59-B116=1.4578      N59-B118=1.4579      B60-N93=1.4053       B60-B96=1.5713       
B60-B122=1.6398      N61-B82=1.3856       N61-N119=1.4604      N61-B124=1.4222      B62-N69=1.4711       B62-B78=1.5750       
B62-N95=1.4272       N63-B64=1.4429       N63-B76=1.4230       N63-B120=1.4967      B64-N63=1.4429       B64-B68=2.1364       
B64-B104=1.7638      B64-B106=1.6494      N65-B70=1.4400       N65-N109=1.3675      N65-N121=1.4311      B66-N67=1.4030       
B66-N77=1.3953       B66-N105=1.4288      N67-B66=1.4030       N67-B94=1.4483       N67-N107=1.4350      B68-B64=2.1364       
B68-B104=1.5159      B68-B118=1.7973      B68-B120=1.6005      N69-B62=1.4711       N69-B72=1.3863       N69-N83=1.4688       
B70-N65=1.4400       B70-N89=1.4567       B70-B116=1.6053      B70-N121=2.0089      N71-B74=1.4227       N71-N91=1.4211       
N71-B94=1.4593       B72-N69=1.3863       B72-N97=1.4374       B72-N117=1.4638      N73-N75=1.4296       N73-B122=1.4510      
N73-N125=1.4146      B74-N71=1.4227       B74-B92=1.6424       B74-B106=1.6618      N75-N73=1.4296       N75-N79=1.4220       
N75-B110=1.4460      B76-N63=1.4230       B76-B90=1.6644       B76-B100=1.6963      N77-B66=1.3953       N77-B80=1.4377       
N77-N105=1.5703      B78-B62=1.5750       B78-N83=1.4846       B78-N91=1.4212       N79-N75=1.4220       N79-N97=1.3888       
N79-N123=1.4909      B80-N77=1.4377       B80-N95=1.4919       B80-N117=1.3907      N81-B86=1.4134       N81-B102=1.4995      
N81-B114=1.4501      B82-N61=1.3856       B82-N85=1.4739       B82-N99=1.4524       B82-B112=1.9336      N83-N69=1.4688       
N83-B78=1.4846       N83-B88=1.4372       B84-N111=1.4590      B84-N119=1.3856      B84-N123=1.4464      N85-B82=1.4739       
N85-B98=1.4189       N85-B112=1.4557      B86-N59=1.4903       B86-N81=1.4134       B86-N127=1.4507      N87-B98=1.4806       
N87-N113=1.4179      N87-B124=1.4020      B88-N83=1.4372       B88-N115=1.4517      B88-B126=1.7276      N89-B70=1.4567       
N89-B90=1.4083       N89-N121=1.4177      B90-B76=1.6644       B90-N89=1.4083       B90-B98=1.6739       N91-N71=1.4211       
N91-B78=1.4212       N91-B126=1.4323      B92-B74=1.6424       B92-N103=1.4908      B92-B104=1.6058      N93-B60=1.4053       
N93-B96=1.4141       N93-N99=1.3665       B94-N67=1.4483       B94-N71=1.4593       B94-N95=1.4588       N95-B62=1.4272       
N95-B80=1.4919       N95-B94=1.4588       B96-B60=1.5713       B96-N93=1.4141       B96-N101=1.4095      N97-B72=1.4374       
N97-N79=1.3888       N97-N111=1.4366      B98-N85=1.4189       B98-N87=1.4806       B98-B90=1.6739       N99-B82=1.4524       
N99-N93=1.3665       N99-B112=1.4626      B100-B76=1.6963      B100-N107=1.4602     B100-N113=1.4281     N101-B96=1.4095      
N101-B108=1.4429     N101-N109=1.4392     B102-B56=1.6083      B102-N57=1.4236      B102-N81=1.4995      B102-B114=1.9714     
N103-B58=1.4098      N103-B92=1.4908      N103-B118=1.4564     B104-B64=1.7638      B104-B68=1.5159      B104-B92=1.6058      
N105-B66=1.4288      N105-N77=1.5703      N105-N113=1.3842     B106-B64=1.6494      B106-B74=1.6618      B106-N107=1.4033     
N107-N67=1.4350      N107-B100=1.4602     N107-B106=1.4033     B108-B56=1.6195      B108-N101=1.4429     B108-N127=1.4435     
N109-N65=1.3675      N109-N101=1.4392     N109-N127=1.4576     B110-N75=1.4460      B110-N115=1.4385     B110-N125=1.4816     
N111-B84=1.4590      N111-N97=1.4366      N111-N117=1.4222     B112-B82=1.9336      B112-N85=1.4557      B112-N99=1.4626      
B112-N121=1.3750     N113-N87=1.4179      N113-B100=1.4281     N113-N105=1.3842     B114-N57=1.4605      B114-B58=1.6125      
B114-N81=1.4501      B114-B102=1.9714     N115-N57=1.4171      N115-B88=1.4517      N115-B110=1.4385     B116-N59=1.4578      
B116-B70=1.6053      B116-B120=1.6241     N117-B72=1.4638      N117-B80=1.3907      N117-N111=1.4222     B118-N59=1.4579      
B118-B68=1.7973      B118-N103=1.4564     N119-N61=1.4604      N119-B84=1.3856      N119-B124=1.4162     B120-N63=1.4967      
B120-B68=1.6005      B120-B116=1.6241     N121-N65=1.4311      N121-B70=2.0089      N121-N89=1.4177      N121-B112=1.3750     
B122-B60=1.6398      B122-N73=1.4510      B122-N123=1.4426     N123-N79=1.4909      N123-B84=1.4464      N123-B122=1.4426     
B124-N61=1.4222      B124-N87=1.4020      B124-N119=1.4162     N125-B56=1.4032      N125-N73=1.4146      N125-B110=1.4816     
B126-B58=1.6507      B126-B88=1.7276      B126-N91=1.4323      N127-B86=1.4507      N127-B108=1.4435     N127-N109=1.4576     
 B  B  Rav=1.6895 sigma=0.1396  Rmin=1.5159  Rmax=2.1364    24
 C  H  Rav=1.0859 sigma=0.0074  Rmin=1.0781  Rmax=1.0970    22
 C  C  Rav=1.4408 sigma=0.0561  Rmin=1.3767  Rmax=1.5261    23
 N  H  Rav=1.0142 sigma=0.0000  Rmin=1.0142  Rmax=1.0142     1
 N  B  Rav=1.4477 sigma=0.0752  Rmin=1.3750  Rmax=2.0089    67
 N  C  Rav=1.3964 sigma=0.0584  Rmin=1.2895  Rmax=1.4535     8
 N  N  Rav=1.4270 sigma=0.0468  Rmin=1.3351  Rmax=1.5703    22
 O  C  Rav=1.2193 sigma=0.0033  Rmin=1.2161  Rmax=1.2238     3
 F  C  Rav=1.3478 sigma=0.0000  Rmin=1.3478  Rmax=1.3478     1
 
 selected bond angles (degree)
 --------------------
C3-C2-O1=117.60                N22-C2-O1=121.40               N22-C2-C3=120.84               C4-C3-C2=113.50                
C20-C3-C2=129.18               C20-C3-C4=116.84               C5-C4-C3=122.81                H33-C4-C3=117.18               
H33-C4-C5=119.98               C6-C5-C4=120.50                C18-C5-C4=118.55               C18-C5-C6=120.94               
C7-C6-C5=112.70                H34-C6-C5=109.52               H34-C6-C7=109.56               H35-C6-C5=109.75               
H35-C6-C7=107.29               H35-C6-H34=107.88              N8-C7-C6=115.93                C17-C7-C6=121.99               
C17-C7-N8=122.07               N9-N8-C7=119.59                C10-N9-N8=127.41               H36-N9-N8=114.75               
H36-N9-C10=117.84              O11-C10-N9=120.36              C12-C10-N9=113.42              C12-C10-O11=126.22             
 
 selected dihedral angles (degree)
 ---------------------------------
C4-C3-C2-O1= 38.46            C4-C3-C2-N22=223.08           C20-C3-C2-O1=226.69           C20-C3-C2-N22= 51.31          
C5-C4-C3-C2=187.45            C5-C4-C3-C20=  0.30           H33-C4-C3-C2=  5.47           H33-C4-C3-C20=178.32          
C6-C5-C4-C3=177.91            C6-C5-C4-H33=359.94           C18-C5-C4-C3=359.01           C18-C5-C4-H33=181.04          
C7-C6-C5-C4=331.24            C7-C6-C5-C18=150.11           H34-C6-C5-C4=209.00           H34-C6-C5-C18= 27.88          
H35-C6-C5-C4= 90.74           H35-C6-C5-C18=269.62          N8-C7-C6-C5=121.54            N8-C7-C6-H34=243.76           
N8-C7-C6-H35=  0.62           C17-C7-C6-C5=302.12           C17-C7-C6-H34= 64.34          C17-C7-C6-H35=181.20          
N9-N8-C7-C6=180.01            N9-N8-C7-C17=359.43           C10-N9-N8-C7=  1.01           H36-N9-N8-C7=180.40           
O11-C10-N9-N8=180.28          O11-C10-N9-H36=  0.91         C12-C10-N9-N8=359.73          C12-C10-N9-H36=180.36         
 
 CMA Distance (Angstroems)
 ---------------------------
R(CMA):  6.8437
           -------------------------------------------------
          |                Final Singlepoint                |
           -------------------------------------------------

          ...................................................
          :                      SETUP                      :
          :.................................................:
          :  # basis functions                 439          :
          :  # atomic orbitals                 439          :
          :  # shells                          231          :
          :  # electrons                       452          :
          :  max. iterations                    50          :
          :  Hamiltonian                  GFN2-xTB          :
          :  restarted?                      false          :
          :  GBSA solvation                  false          :
          :  PC potential                    false          :
          :  electronic temp.          300.0000000     K    :
          :  accuracy                    1.0000000          :
          :  -> integral cutoff          0.2500000E+02      :
          :  -> integral neglect         0.1000000E-07      :
          :  -> SCF convergence          0.1000000E-05 Eh   :
          :  -> wf. convergence          0.1000000E-03 e    :
          :  Broyden damping             0.4000000          :
          :  net charge                          0          :
          :  unpaired electrons                  0          :
          ...................................................

 iter      E             dE          RMSdq      gap      omega  full diag
   1   -244.6641579 -0.244664E+03  0.114E-04    0.74       0.0  T
   2   -244.6641579  0.484599E-08  0.171E-04    0.74      52.0  T
   3   -244.6641579 -0.654143E-08  0.460E-05    0.74     192.9  T

   *** convergence criteria satisfied after 3 iterations ***

         #    Occupation            Energy/Eh            Energy/eV
      -------------------------------------------------------------
         1        2.0000           -0.8135860             -22.1388
       ...           ...                  ...                  ...
       220        2.0000           -0.3311760              -9.0118
       221        2.0000           -0.3287382              -8.9454
       222        2.0000           -0.3273884              -8.9087
       223        2.0000           -0.3242381              -8.8230
       224        2.0000           -0.3189908              -8.6802
       225        2.0000           -0.3171350              -8.6297
       226        2.0000           -0.3146699              -8.5626 (HOMO)
       227        0.0000           -0.2876153              -7.8264 (LUMO)
       228                         -0.2793328              -7.6010
       229                         -0.2680537              -7.2941
       230                         -0.2623587              -7.1391
       231                         -0.2561420              -6.9700
       ...                                ...                  ...
       439                          0.9795514              26.6549
      -------------------------------------------------------------
                  HL-Gap            0.0270545 Eh            0.7362 eV
             Fermi-level           -0.3011038 Eh           -8.1935 eV

 SCC (total)                   0 d,  0 h,  0 min,  0.159 sec
 SCC setup                      ...        0 min,  0.002 sec (  1.258%)
 Dispersion                     ...        0 min,  0.002 sec (  1.258%)
 classical contributions        ...        0 min,  0.000 sec (  0.000%)
 integral evaluation            ...        0 min,  0.013 sec (  8.176%)
 iterations                     ...        0 min,  0.103 sec ( 64.780%)
 molecular gradient             ...        0 min,  0.036 sec ( 22.642%)
 printout                       ...        0 min,  0.002 sec (  1.258%)

         :::::::::::::::::::::::::::::::::::::::::::::::::::::
         ::                     SUMMARY                     ::
         :::::::::::::::::::::::::::::::::::::::::::::::::::::
         :: total energy            -242.013105674588 Eh    ::
         :: gradient norm              0.000482181681 Eh/a0 ::
         :: HOMO-LUMO gap              0.736191662280 eV    ::
         ::.................................................::
         :: SCC energy              -244.643473788678 Eh    ::
         :: -> isotropic ES            0.761313575947 Eh    ::
         :: -> anisotropic ES         -0.036983710915 Eh    ::
         :: -> anisotropic XC          0.098446329556 Eh    ::
         :: -> dispersion             -0.233507987498 Eh    ::
         :: repulsion energy           2.630368114090 Eh    ::
         :: add. restraining           0.000000000000 Eh    ::
         :: total charge               0.000000000062 e     ::
         :::::::::::::::::::::::::::::::::::::::::::::::::::::

           -------------------------------------------------
          |                Property Printout                |
           -------------------------------------------------

    * Orbital Energies and Occupations

         #    Occupation            Energy/Eh            Energy/eV
      -------------------------------------------------------------
         1        2.0000           -0.8135860             -22.1388
       ...           ...                  ...                  ...
       214        2.0000           -0.3438430              -9.3564
       215        2.0000           -0.3424848              -9.3195
       216        2.0000           -0.3385886              -9.2135
       217        2.0000           -0.3361079              -9.1460
       218        2.0000           -0.3344141              -9.0999
       219        2.0000           -0.3324381              -9.0461
       220        2.0000           -0.3311760              -9.0118
       221        2.0000           -0.3287382              -8.9454
       222        2.0000           -0.3273884              -8.9087
       223        2.0000           -0.3242381              -8.8230
       224        2.0000           -0.3189908              -8.6802
       225        2.0000           -0.3171350              -8.6297
       226        2.0000           -0.3146699              -8.5626 (HOMO)
       227        0.0000           -0.2876153              -7.8264 (LUMO)
       228                         -0.2793328              -7.6010
       229                         -0.2680537              -7.2941
       230                         -0.2623587              -7.1391
       231                         -0.2561420              -6.9700
       232                         -0.2528413              -6.8802
       233                         -0.2500422              -6.8040
       234                         -0.2494132              -6.7869
       235                         -0.2392896              -6.5114
       236                         -0.2354983              -6.4082
       237                         -0.2332316              -6.3466
       ...                                ...                  ...
       439                          0.9795514              26.6549
      -------------------------------------------------------------
                  HL-Gap            0.0270545 Eh            0.7362 eV
             Fermi-level           -0.3011038 Eh           -8.1935 eV

     #   Z          covCN         q      C6AA      α(0)
     1   8 O        0.860    -0.454    22.791     6.401
     2   6 C        2.777     0.265    22.531     7.774
     3   6 C        2.964    -0.030    28.747     8.794
     4   6 C        2.946    -0.031    28.767     8.797
     5   6 C        2.967     0.016    27.647     8.625
     6   6 C        3.819    -0.077    21.959     6.669
     7   6 C        2.919     0.082    26.162     8.388
     8   7 N        1.911    -0.180    25.703     7.517
     9   7 N        2.797    -0.057    22.347     7.021
    10   6 C        2.758     0.258    22.654     7.794
    11   8 O        0.859    -0.442    22.535     6.365
    12   6 C        2.988    -0.013    28.325     8.730
    13   6 C        2.920    -0.020    28.509     8.756
    14   6 C        2.918    -0.024    28.612     8.772
    15   6 C        2.918    -0.030    28.741     8.791
    16   6 C        2.919    -0.032    28.793     8.799
    17   6 C        2.977     0.002    27.966     8.674
    18   6 C        2.927    -0.041    29.007     8.832
    19   6 C        2.918    -0.053    29.308     8.878
    20   6 C        2.786     0.167    24.387     8.089
    21   9 F        0.787    -0.225    11.496     4.005
    22   7 N        2.736    -0.078    22.756     7.085
    23   6 C        3.760    -0.012    20.841     6.508
    24   6 C        3.748    -0.023    21.041     6.543
    25   7 N        2.740    -0.104    23.281     7.166
    26   6 C        2.764     0.261    22.598     7.785
    27   8 O        0.859    -0.447    22.650     6.381
    28   6 C        3.862    -0.052    21.463     6.588
    29   6 C        3.807    -0.062    21.681     6.628
    30   6 C        3.806    -0.069    21.813     6.649
    31   6 C        3.755    -0.008    20.766     6.498
    32   6 C        3.746    -0.013    20.870     6.516
    33   1 H        0.926     0.067     2.122     2.278
    34   1 H        0.924     0.062     2.177     2.307
    35   1 H        0.924     0.078     2.003     2.213
    36   1 H        0.860     0.190     1.161     1.688
    37   1 H        0.926     0.065     2.136     2.285
    38   1 H        0.926     0.049     2.332     2.388
    39   1 H        0.926     0.070     2.089     2.260
    40   1 H        0.926     0.042     2.419     2.432
    41   1 H        0.926     0.047     2.354     2.399
    42   1 H        0.926     0.063     2.167     2.302
    43   1 H        0.924     0.054     2.276     2.360
    44   1 H        0.924     0.097     1.816     2.108
    45   1 H        0.924     0.082     1.959     2.189
    46   1 H        0.924     0.054     2.267     2.355
    47   1 H        0.925     0.038     2.476     2.461
    48   1 H        0.926     0.062     2.174     2.306
    49   1 H        0.926     0.038     2.478     2.462
    50   1 H        0.926     0.047     2.364     2.404
    51   1 H        0.926     0.046     2.371     2.408
    52   1 H        0.924     0.050     2.317     2.380
    53   1 H        0.924     0.091     1.867     2.137
    54   1 H        0.924     0.054     2.276     2.359
    55   1 H        0.924     0.083     1.953     2.186
    56   5 B        2.781     0.076    20.192     7.513
    57   7 N        2.775    -0.227    25.965     7.568
    58   5 B        2.788     0.092    19.929     7.463
    59   7 N        2.524    -0.314    28.119     7.875
    60   5 B        2.780     0.079    20.144     7.504
    61   7 N        2.656    -0.258    26.708     7.675
    62   5 B        2.850     0.241    17.662     7.017
    63   7 N        2.529    -0.272    27.076     7.728
    64   5 B        3.193     0.150    18.926     7.256
    65   7 N        2.979    -0.109    23.385     7.182
    66   5 B        2.644     0.376    16.283     6.805
    67   7 N        2.669    -0.214    25.672     7.525
    68   5 B        3.180     0.023    20.974     7.638
    69   7 N        2.890    -0.221    25.816     7.546
    70   5 B        3.009     0.209    18.076     7.092
    71   7 N        2.660    -0.163    24.540     7.357
    72   5 B        2.905     0.323    16.564     6.792
    73   7 N        3.141    -0.102    23.241     7.160
    74   5 B        2.778     0.094    19.903     7.460
    75   7 N        3.026    -0.138    23.980     7.273
    76   5 B        2.758     0.090    20.007     7.484
    77   7 N        2.627    -0.325    28.360     7.909
    78   5 B        3.042     0.227    17.817     7.041
    79   7 N        2.980    -0.008    21.398     6.870
    80   5 B        2.582     0.328    17.270     7.080
    81   7 N        2.597    -0.360    29.282     8.037
    82   5 B        3.277     0.339    16.341     6.742
    83   7 N        2.785    -0.252    26.537     7.651
    84   5 B        2.558     0.340    17.353     7.138
    85   7 N        2.579    -0.367    29.478     8.063
    86   5 B        2.530     0.301    18.222     7.376
    87   7 N        2.665    -0.209    25.544     7.506
    88   5 B        2.698     0.197    18.485     7.215
    89   7 N        2.844    -0.166    24.590     7.365
    90   5 B        2.758     0.082    20.132     7.507
    91   7 N        2.672    -0.174    24.774     7.392
    92   5 B        2.877     0.111    19.572     7.385
    93   7 N        2.663    -0.141    24.058     7.285
    94   5 B        2.594     0.313    17.375     7.083
    95   7 N        2.519    -0.357    29.229     8.029
    96   5 B        2.685     0.183    18.733     7.271
    97   7 N        3.011    -0.120    23.604     7.216
    98   5 B        2.677     0.209    18.371     7.204
    99   7 N        2.716    -0.245    26.374     7.627
   100   5 B        2.648     0.165    19.143     7.375
   101   7 N        2.826    -0.206    25.466     7.495
   102   5 B        3.322     0.230    17.780     7.031
   103   7 N        2.531    -0.286    27.402     7.774
   104   5 B        2.949     0.036    20.766     7.603
   105   7 N        2.777    -0.191    25.134     7.446
   106   5 B        2.796     0.085    20.027     7.479
   107   7 N        2.673    -0.156    24.368     7.332
   108   5 B        3.021     0.210    18.062     7.089
   109   7 N        3.272     0.016    20.964     6.800
   110   5 B        2.858     0.309    16.756     6.834
   111   7 N        3.152    -0.123    23.671     7.226
   112   5 B        3.257     0.320    16.585     6.792
   113   7 N        2.833    -0.059    22.370     7.025
   114   5 B        3.304     0.231    17.758     7.027
   115   7 N        2.656    -0.184    24.998     7.426
   116   5 B        2.838     0.113    19.560     7.386
   117   7 N        2.837    -0.230    26.014     7.575
   118   5 B        2.863     0.253    17.499     6.984
   119   7 N        2.655    -0.226    25.946     7.565
   120   5 B        3.011     0.115    19.477     7.362
   121   7 N        3.153    -0.085    22.896     7.107
   122   5 B        2.673     0.204    18.456     7.224
   123   7 N        2.693    -0.232    26.083     7.585
   124   5 B        2.582     0.368    16.754     6.973
   125   7 N        2.873    -0.183    24.956     7.420
   126   5 B        2.824     0.107    19.659     7.406
   127   7 N        2.828    -0.252    26.549     7.653

 Mol. C6AA /au·bohr⁶  :     275964.656287
 Mol. C8AA /au·bohr⁸  :    7575469.478414
 Mol. α(0) /au        :        822.383333


Wiberg/Mayer (AO) data.
largest (>0.10) Wiberg bond orders for each atom

 ---------------------------------------------------------------------------
     #   Z sym  total        # sym  WBO       # sym  WBO       # sym  WBO
 ---------------------------------------------------------------------------
     1   8 O    1.990 --     2 C    1.624    22 N    0.198
     2   6 C    3.956 --     1 O    1.624    22 N    1.268     3 C    0.973
     3   6 C    3.984 --     4 C    1.392    20 C    1.367     2 C    0.973
                            18 C    0.104
     4   6 C    3.987 --     5 C    1.425     3 C    1.392    33 H    0.961
                            19 C    0.108
     5   6 C    3.987 --     4 C    1.425    18 C    1.395     6 C    1.000
     6   6 C    3.994 --     7 C    1.002     5 C    1.000    34 H    0.954
                            35 H    0.952
     7   6 C    3.978 --     8 N    1.637    17 C    1.131     6 C    1.002
     8   7 N    3.031 --     7 C    1.637     9 N    1.161
     9   7 N    3.563 --     8 N    1.161    10 C    1.140    36 H    0.930
                            11 O    0.161
    10   6 C    3.953 --    11 O    1.657     9 N    1.140    12 C    1.054
    11   8 O    1.996 --    10 C    1.657     9 N    0.161
    12   6 C    3.989 --    13 C    1.364    17 C    1.311    10 C    1.054
    13   6 C    3.988 --    14 C    1.481    12 C    1.364    37 H    0.965
                            16 C    0.108
    14   6 C    3.990 --    13 C    1.481    15 C    1.383    38 H    0.964
    15   6 C    3.986 --    16 C    1.490    14 C    1.383    39 H    0.959
    16   6 C    3.992 --    15 C    1.490    17 C    1.342    40 H    0.965
                            13 C    0.108
    17   6 C    3.990 --    16 C    1.342    12 C    1.311     7 C    1.131
    18   6 C    3.989 --    19 C    1.452     5 C    1.395    41 H    0.968
                             3 C    0.104
    19   6 C    3.988 --    18 C    1.452    20 C    1.390    42 H    0.966
                             4 C    0.108
    20   6 C    3.884 --    19 C    1.390     3 C    1.367    21 F    0.957
    21   9 F    1.093 --    20 C    0.957
    22   7 N    3.515 --     2 C    1.268    32 C    0.985    23 C    0.984
                             1 O    0.198
    23   6 C    3.968 --    24 C    1.005    22 N    0.984    43 H    0.963
                            44 H    0.956
    24   6 C    3.972 --    23 C    1.005    25 N    0.986    46 H    0.963
                            45 H    0.955
    25   7 N    3.473 --    26 C    1.227    31 C    0.990    24 C    0.986
                            27 O    0.191
    26   6 C    3.953 --    27 O    1.665    25 N    1.227    28 C    0.980
    27   8 O    1.995 --    26 C    1.665    25 N    0.191
    28   6 C    3.945 --    26 C    0.980    29 C    0.973    47 H    0.961
                            30 C    0.944
    29   6 C    3.945 --    30 C    0.990    49 H    0.981    48 H    0.977
                            28 C    0.973
    30   6 C    3.945 --    29 C    0.990    51 H    0.980    50 H    0.979
                            28 C    0.944
    31   6 C    3.972 --    32 C    0.999    25 N    0.990    52 H    0.966
                            53 H    0.959
    32   6 C    3.970 --    31 C    0.999    22 N    0.985    54 H    0.967
                            55 H    0.958
    33   1 H    0.996 --     4 C    0.961
    34   1 H    0.995 --     6 C    0.954
    35   1 H    0.993 --     6 C    0.952
    36   1 H    0.963 --     9 N    0.930
    37   1 H    0.995 --    13 C    0.965
    38   1 H    0.997 --    14 C    0.964
    39   1 H    0.994 --    15 C    0.959
    40   1 H    0.998 --    16 C    0.965
    41   1 H    0.997 --    18 C    0.968
    42   1 H    0.995 --    19 C    0.966
    43   1 H    0.997 --    23 C    0.963
    44   1 H    0.990 --    23 C    0.956
    45   1 H    0.993 --    24 C    0.955
    46   1 H    0.996 --    24 C    0.963
    47   1 H    0.999 --    28 C    0.961
    48   1 H    0.996 --    29 C    0.977
    49   1 H    0.998 --    29 C    0.981
    50   1 H    0.998 --    30 C    0.979
    51   1 H    0.998 --    30 C    0.980
    52   1 H    0.997 --    31 C    0.966
    53   1 H    0.991 --    31 C    0.959
    54   1 H    0.997 --    32 C    0.967
    55   1 H    0.993 --    32 C    0.958
    56   5 B    3.478 --   125 N    1.280   108 B    1.001   102 B    0.969
    57   7 N    3.399 --   102 B    1.144   115 N    1.008   114 B    0.999
    58   5 B    3.465 --   103 N    1.277   126 B    0.978   114 B    0.958
    59   7 N    3.530 --   118 B    1.154   116 B    1.149    86 B    1.017
    60   5 B    3.469 --    93 N    1.241   122 B    0.995    96 B    0.992
    61   7 N    3.285 --    82 B    1.215   124 B    0.967   119 N    0.892
    62   5 B    3.408 --    95 N    1.173    69 N    1.036    78 B    0.963
    63   7 N    3.569 --    76 B    1.277    64 B    1.158   120 B    0.973
    64   5 B    3.393 --    63 N    1.158   106 B    0.933   104 B    0.640
                            68 B    0.294
    65   7 N    3.323 --    70 B    1.114   109 N    1.044   121 N    0.944
    66   5 B    3.433 --    67 N    1.188    77 N    1.124   105 N    0.963
    67   7 N    3.445 --    66 B    1.188    94 B    1.086   107 N    0.966
    68   5 B    3.455 --   104 B    1.284   120 B    1.003   118 B    0.626
                            64 B    0.294
    69   7 N    3.430 --    72 B    1.230    62 B    1.036    83 N    0.930
    70   5 B    3.391 --    65 N    1.114    89 N    1.039   116 B    1.006
    71   7 N    3.510 --    74 B    1.205    94 B    1.124    91 N    0.999
    72   5 B    3.512 --    69 N    1.230    97 N    1.081   117 N    0.993
    73   7 N    3.307 --   122 B    1.103   125 N    0.984    75 N    0.979
    74   5 B    3.413 --    71 N    1.205    92 B    1.008   106 B    0.927
    75   7 N    3.302 --   110 B    1.121    73 N    0.979    79 N    0.974
    76   5 B    3.464 --    63 N    1.277    90 B    0.979   100 B    0.932
    77   7 N    3.199 --    66 B    1.124    80 B    1.056   105 N    0.773
    78   5 B    3.367 --    91 N    1.153    83 N    0.989    62 B    0.963
    79   7 N    3.099 --    97 N    1.014    75 N    0.974   123 N    0.933
    80   5 B    3.508 --   117 N    1.251    77 N    1.056    95 N    0.991
    81   7 N    3.433 --    86 B    1.201   114 B    1.064   102 B    0.924
    82   5 B    3.484 --    61 N    1.215    99 N    1.037    85 N    0.975
    83   7 N    3.286 --    88 B    1.174    78 B    0.989    69 N    0.930
    84   5 B    3.507 --   119 N    1.214   123 N    1.101   111 N    1.019
    85   7 N    3.432 --    98 B    1.226   112 B    0.995    82 B    0.975
    86   5 B    3.519 --    81 N    1.201   127 N    1.100    59 N    1.017
    87   7 N    3.434 --   124 B    1.253    98 B    0.995   113 N    0.989
    88   5 B    3.444 --    83 N    1.174   115 N    1.118   126 B    0.923
    89   7 N    3.471 --    90 B    1.260    70 B    1.039   121 N    0.985
    90   5 B    3.421 --    89 N    1.260    76 B    0.979    98 B    0.960
    91   7 N    3.511 --   126 B    1.171    78 B    1.153    71 N    0.999
    92   5 B    3.348 --   104 B    1.009    74 B    1.008   103 N    0.963
    93   7 N    3.513 --    60 B    1.241    96 B    1.091    99 N    1.041
    94   5 B    3.514 --    71 N    1.124    95 N    1.103    67 N    1.086
    95   7 N    3.475 --    62 B    1.173    94 B    1.103    80 B    0.991
    96   5 B    3.464 --   101 N    1.177    93 N    1.091    60 B    0.992
    97   7 N    3.274 --    72 B    1.081    79 N    1.014   111 N    0.976
    98   5 B    3.393 --    85 N    1.226    87 N    0.995    90 B    0.960
    99   7 N    3.376 --    93 N    1.041    82 B    1.037   112 B    0.986
   100   5 B    3.450 --   113 N    1.183   107 N    1.083    76 B    0.932
   101   7 N    3.407 --    96 B    1.177   108 B    1.074   109 N    0.960
   102   5 B    3.364 --    57 N    1.144    56 B    0.969    81 N    0.924
                           114 B    0.127
   103   7 N    3.561 --    58 B    1.277   118 B    1.104    92 B    0.963
   104   5 B    3.367 --    68 B    1.284    92 B    1.009    64 B    0.640
                           118 B    0.186
   105   7 N    2.982 --   113 N    1.056    66 B    0.963    77 N    0.773
   106   5 B    3.452 --   107 N    1.263    64 B    0.933    74 B    0.927
   107   7 N    3.481 --   106 B    1.263   100 B    1.083    67 N    0.966
   108   5 B    3.443 --   127 N    1.129   101 N    1.074    56 B    1.001
   109   7 N    3.188 --    65 N    1.044   101 N    0.960   127 N    0.951
   110   5 B    3.520 --   115 N    1.169    75 N    1.121   125 N    1.005
   111   7 N    3.205 --    84 B    1.019   117 N    0.984    97 N    0.976
   112   5 B    3.508 --   121 N    1.263    85 N    0.995    99 N    0.986
   113   7 N    3.444 --   100 B    1.183   105 N    1.056    87 N    0.989
   114   5 B    3.327 --    81 N    1.064    57 N    0.999    58 B    0.958
                           102 B    0.127
   115   7 N    3.492 --   110 B    1.169    88 B    1.118    57 N    1.008
   116   5 B    3.385 --    59 N    1.149    70 B    1.006   120 B    1.003
   117   7 N    3.442 --    80 B    1.251    72 B    0.993   111 N    0.984
   118   5 B    3.444 --    59 N    1.154   103 N    1.104    68 B    0.626
                           104 B    0.186   120 B    0.120
   119   7 N    3.340 --    84 B    1.214   124 B    1.033    61 N    0.892
   120   5 B    3.333 --    68 B    1.003   116 B    1.003    63 N    0.973
                           118 B    0.120
   121   7 N    3.439 --   112 B    1.263    89 N    0.985    65 N    0.944
   122   5 B    3.444 --   123 N    1.151    73 N    1.103    60 B    0.995
   123   7 N    3.403 --   122 B    1.151    84 B    1.101    79 N    0.933
   124   5 B    3.438 --    87 N    1.253   119 N    1.033    61 N    0.967
   125   7 N    3.475 --    56 B    1.280   110 B    1.005    73 N    0.984
   126   5 B    3.358 --    91 N    1.171    58 B    0.978    88 B    0.923
   127   7 N    3.418 --   108 B    1.129    86 B    1.100   109 N    0.951
 ---------------------------------------------------------------------------

Topologies differ in total number of bonds
Writing topology from bond orders to xtbtopo.mol

molecular dipole:
                 x           y           z       tot (Debye)
 q only:        0.134       2.749      -4.817
   full:       -0.745       2.249      -2.612       8.962
molecular quadrupole (traceless):
                xx          xy          yy          xz          yz          zz
 q only:      -25.358     -44.550      14.241      -3.230      19.065      11.117
  q+dip:      -29.217     -46.653      37.087     -17.261      21.549      -7.870
   full:      -19.141     -47.738      32.022     -15.992      21.116     -12.880

           -------------------------------------------------
          |                Geometry Summary                 |
           -------------------------------------------------

      molecular mass/u    :     1327.9020550
   center of mass at/Å    :       -0.1140890      -0.0169998       3.1295493
  moments of inertia/u·Å² :        0.1856347E+05   0.2661787E+05   0.3144803E+05
rotational constants/cm⁻¹ :        0.9081081E-03   0.6333201E-03   0.5360472E-03

 * 146 selected distances

     #   Z          #   Z                                           value/Å
     1   8 O        2   6 C                                       1.2237595
     3   6 C        4   6 C                                       1.3944754
     4   6 C        5   6 C                                       1.3838926
     7   6 C        8   7 N                                       1.2894645
     8   7 N        9   7 N                                       1.3350986
     9   7 N       10   6 C                                       1.3766967
    10   6 C       11   8 O                                       1.2161464
    12   6 C       13   6 C                                       1.3949528
    13   6 C       14   6 C                                       1.3766703
    14   6 C       15   6 C                                       1.3938539
    15   6 C       16   6 C                                       1.3768822
    12   6 C       17   6 C                                       1.4085594
    16   6 C       17   6 C                                       1.3997132
     5   6 C       18   6 C                                       1.3904131
    18   6 C       19   6 C                                       1.3804373
     3   6 C       20   6 C                                       1.3891212
    19   6 C       20   6 C                                       1.3853916
     2   6 C       22   7 N                                       1.3463468
    22   7 N       23   6 C                                       1.4508569
    23   6 C       24   6 C                                       1.5211033
    24   6 C       25   7 N                                       1.4534589
    25   7 N       26   6 C                                       1.3585980
    26   6 C       27   8 O                                       1.2178443
    28   6 C       29   6 C                                       1.4977776
    28   6 C       30   6 C                                       1.5071567
    29   6 C       30   6 C                                       1.4945067
    25   7 N       31   6 C                                       1.4471800
    22   7 N       32   6 C                                       1.4489766
    31   6 C       32   6 C                                       1.5261017
     4   6 C       33   1 H                                       1.0791551
     6   6 C       34   1 H                                       1.0930748
     6   6 C       35   1 H                                       1.0932928
     9   7 N       36   1 H                                       1.0141784 (min)
    13   6 C       37   1 H                                       1.0793072
    14   6 C       38   1 H                                       1.0791129
    15   6 C       39   1 H                                       1.0780743
    16   6 C       40   1 H                                       1.0781836
    18   6 C       41   1 H                                       1.0801197
    19   6 C       42   1 H                                       1.0786929
    23   6 C       43   1 H                                       1.0970076
    23   6 C       44   1 H                                       1.0917881
    24   6 C       45   1 H                                       1.0931233
    24   6 C       46   1 H                                       1.0948122
    28   6 C       47   1 H                                       1.0817861
    29   6 C       48   1 H                                       1.0789578
    29   6 C       49   1 H                                       1.0790199
    30   6 C       50   1 H                                       1.0789334
    30   6 C       51   1 H                                       1.0790424
    31   6 C       52   1 H                                       1.0949596
    31   6 C       53   1 H                                       1.0923807
    32   6 C       54   1 H                                       1.0941019
    32   6 C       55   1 H                                       1.0946176
    63   7 N       64   5 B                                       1.4429352
    66   5 B       67   7 N                                       1.4030041
    62   5 B       69   7 N                                       1.4710663
    65   7 N       70   5 B                                       1.4400198
    69   7 N       72   5 B                                       1.3862780
    71   7 N       74   5 B                                       1.4226953
    73   7 N       75   7 N                                       1.4295732
    63   7 N       76   5 B                                       1.4229816
    66   5 B       77   7 N                                       1.3952582
    62   5 B       78   5 B                                       1.5750176
    75   7 N       79   7 N                                       1.4219828
    77   7 N       80   5 B                                       1.4376992
    61   7 N       82   5 B                                       1.3855788
    78   5 B       83   7 N                                       1.4846419
    82   5 B       85   7 N                                       1.4739354
    59   7 N       86   5 B                                       1.4902742
    81   7 N       86   5 B                                       1.4133922
    83   7 N       88   5 B                                       1.4372242
    70   5 B       89   7 N                                       1.4566536
    76   5 B       90   5 B                                       1.6644357
    89   7 N       90   5 B                                       1.4082686
    78   5 B       91   7 N                                       1.4212169
    74   5 B       92   5 B                                       1.6424034
    60   5 B       93   7 N                                       1.4053166
    67   7 N       94   5 B                                       1.4482847
    71   7 N       94   5 B                                       1.4592656
    62   5 B       95   7 N                                       1.4272463
    80   5 B       95   7 N                                       1.4918670
    94   5 B       95   7 N                                       1.4587898
    60   5 B       96   5 B                                       1.5712801
    93   7 N       96   5 B                                       1.4141473
    72   5 B       97   7 N                                       1.4374286
    79   7 N       97   7 N                                       1.3888192
    85   7 N       98   5 B                                       1.4189333
    87   7 N       98   5 B                                       1.4805673
    90   5 B       98   5 B                                       1.6738925 (max)
    82   5 B       99   7 N                                       1.4524036
    93   7 N       99   7 N                                       1.3664969
    96   5 B      101   7 N                                       1.4095016
    56   5 B      102   5 B                                       1.6082565
    57   7 N      102   5 B                                       1.4236039
    81   7 N      102   5 B                                       1.4994745
    58   5 B      103   7 N                                       1.4097794
    92   5 B      103   7 N                                       1.4907819
    68   5 B      104   5 B                                       1.5159288
    92   5 B      104   5 B                                       1.6057876
    66   5 B      105   7 N                                       1.4288168
    64   5 B      106   5 B                                       1.6494043
    74   5 B      106   5 B                                       1.6617847
   100   5 B      107   7 N                                       1.4601977
   106   5 B      107   7 N                                       1.4032828
    56   5 B      108   5 B                                       1.6194703
   101   7 N      108   5 B                                       1.4428792
    65   7 N      109   7 N                                       1.3675015
    75   7 N      110   5 B                                       1.4459742
    84   5 B      111   7 N                                       1.4589549
    97   7 N      111   7 N                                       1.4365955
    85   7 N      112   5 B                                       1.4557183
    99   7 N      112   5 B                                       1.4626402
   100   5 B      113   7 N                                       1.4281357
   105   7 N      113   7 N                                       1.3842314
    57   7 N      114   5 B                                       1.4604742
    58   5 B      114   5 B                                       1.6124743
    81   7 N      114   5 B                                       1.4500927
    88   5 B      115   7 N                                       1.4516948
   110   5 B      115   7 N                                       1.4384550
    59   7 N      116   5 B                                       1.4578464
    70   5 B      116   5 B                                       1.6053187
    72   5 B      117   7 N                                       1.4638364
    80   5 B      117   7 N                                       1.3907400
   111   7 N      117   7 N                                       1.4222214
    59   7 N      118   5 B                                       1.4579429
   103   7 N      118   5 B                                       1.4563593
    84   5 B      119   7 N                                       1.3856495
    63   7 N      120   5 B                                       1.4967459
    68   5 B      120   5 B                                       1.6005404
   116   5 B      120   5 B                                       1.6241012
    65   7 N      121   7 N                                       1.4311144
    89   7 N      121   7 N                                       1.4176849
   112   5 B      121   7 N                                       1.3750275
    60   5 B      122   5 B                                       1.6397992
    73   7 N      122   5 B                                       1.4510420
    84   5 B      123   7 N                                       1.4464353
   122   5 B      123   7 N                                       1.4425588
    61   7 N      124   5 B                                       1.4222318
    87   7 N      124   5 B                                       1.4019754
   119   7 N      124   5 B                                       1.4162317
    56   5 B      125   7 N                                       1.4031986
    73   7 N      125   7 N                                       1.4145772
   110   5 B      125   7 N                                       1.4815851
    58   5 B      126   5 B                                       1.6507462
    91   7 N      126   5 B                                       1.4322650
    86   5 B      127   7 N                                       1.4507196
   108   5 B      127   7 N                                       1.4434704

 * 8 distinct bonds (by element types)

   Z      Z             #   av. dist./Å        max./Å        min./Å
   5 B    5 B          17     1.6188613     1.6738925     1.5159288
   1 H    6 C          22     1.0858884     1.0970076     1.0780743
   6 C    6 C          17     1.4247652     1.5261017     1.3766703
   1 H    7 N           1     1.0141784     1.0141784     1.0141784
   5 B    7 N          66     1.4391469     1.4994745     1.3750275
   6 C    7 N           8     1.3964473     1.4534589     1.2894645
   7 N    7 N          12     1.4013247     1.4365955     1.3350986
   6 C    8 O           3     1.2192501     1.2237595     1.2161464


optimized geometry written to: xtbopt.xyz


           -------------------------------------------------
          | TOTAL ENERGY             -242.013105674588 Eh   |
          | GRADIENT NORM               0.000482181681 Eh/α |
          | HOMO-LUMO GAP               0.736191662280 eV   |
           -------------------------------------------------

------------------------------------------------------------------------
 * finished run on 2026/08/31 at 21:07:50.852     
------------------------------------------------------------------------
 total:
 * wall-time:     0 d,  0 h,  1 min, 20.185 sec
 *  cpu-time:     0 d,  0 h, 10 min, 13.625 sec
 * ratio c/w:     7.653 speedup
 SCF:
 * wall-time:     0 d,  0 h,  0 min,  1.154 sec
 *  cpu-time:     0 d,  0 h,  0 min,  5.938 sec
 * ratio c/w:     5.145 speedup
 ANC optimizer:
 * wall-time:     0 d,  0 h,  1 min, 18.959 sec
 *  cpu-time:     0 d,  0 h, 10 min,  7.047 sec
 * ratio c/w:     7.688 speedup

normal termination of xtb
