127
 energy: -241.986518305051 gnorm: 0.007617964449 xtb: 6.7.1pre (5071a88)
O           -0.21100831914734        0.29114097311902        8.28610356573625
C            0.04642938981279       -0.26937742940284        9.33232871582316
C            0.65439046937473        0.49053928040760       10.47439743179904
C           -0.02537935388494        1.58889731660758       10.97957490791955
C            0.52819047511614        2.38870721081076       11.97041829827001
C           -0.24906633395070        3.57323490476608       12.48374993079002
C           -0.83728903653481        4.36201548890893       11.34735616907950
N           -2.12231505351109        4.32718482449830       11.23861108051576
N           -2.71964207756692        4.98278841331865       10.24350367664012
C           -2.11702377823916        5.74064288986469        9.25993644550615
O           -2.78875590390133        6.31025618552080        8.42385380160988
C           -0.65532199707962        5.76674486350693        9.36214639695560
C            0.08879994975898        6.47582156384380        8.41746963486242
C            1.46118598050995        6.50969181873689        8.50619488358231
C            2.10754689122740        5.83196158704443        9.53921518576658
C            1.38814871505605        5.12634032618978       10.47633334540622
C           -0.00999030689240        5.08004918031890       10.40689366900206
C            1.79119470288425        2.08018477332871       12.45806818632581
C            2.49286758862873        0.99367473553689       11.96597639161759
C            1.91901169733508        0.21617515511176       10.97856556516453
F            2.61557750947723       -0.83748750563413       10.49994832399147
N           -0.20880842268777       -1.57768615107234        9.54986892268378
C           -0.84352698692120       -2.34310900400653        8.49204985418315
C           -0.51482543749504       -3.82519948592948        8.60762477151552
N           -0.90760939605432       -4.33687640202973        9.91100863563133
C           -0.86761071949388       -5.64872597788463       10.26597557721866
O           -1.04680540294320       -5.99820559499910       11.41586817541890
C           -0.58868678695702       -6.62005559808541        9.16394093163440
C           -0.30113965566887       -8.03859110159841        9.55285956638118
C            0.81034870548881       -7.17156165703403        9.06681204456867
C           -1.09313524577028       -3.34319451710601       10.94893389438841
C           -0.03715130679449       -2.25428790859506       10.81858284313309
H           -1.00291269742282        1.81916180806405       10.58498471249902
H            0.39093583055575        4.21024712370370       13.09711280150449
H           -1.08060159957059        3.22364884878910       13.10006158283546
H           -3.73141820579625        4.90304224160323       10.22936863445646
H           -0.44456737619267        6.98424526119698        7.62851374543284
H            2.04037842515380        7.05773445032429        7.77837416739583
H            3.18534105774985        5.86011367784525        9.60308810810764
H            1.90289111010806        4.59887724780591       11.26344401620595
H            2.23597960533010        2.69323760375601       13.22812959680192
H            3.47658139852252        0.74664956390235       12.33225982923095
H           -1.93044809197743       -2.20005284348101        8.53251403707929
H           -0.49247552756879       -1.94600225745453        7.53647502037716
H            0.55950010685255       -3.98417138806778        8.45145545306091
H           -1.05362116320124       -4.35256840001160        7.81709581412892
H           -1.11982533328686       -6.44196378789349        8.24114906896961
H           -0.34026422526781       -8.25736035509052       10.60741612470301
H           -0.66352182516424       -8.82892825011813        8.91559980587172
H            1.21741878534058       -7.34549872667324        8.08320307324953
H            1.53307230652408       -6.82462502440619        9.78732012929775
H           -2.09438335944480       -2.90296343837821       10.88015080255017
H           -1.00539494632566       -3.85879361543028       11.90781064803373
H           -0.13951823623394       -1.53704721962158       11.63698390486487
H            0.96107274015024       -2.70706823022439       10.87721447974526
B            3.45661427975050       -1.48009236064487        1.65641777695669
N            3.45203539861558        1.11074790132848        0.99527981422736
B            2.53655858875008        2.36591354855669       -1.19329895969846
N            2.29233747731195       -0.62293681061098       -2.69433058545876
B            0.68762538390410       -3.60019912097179        2.70907550352299
N           -2.94359982815931       -2.68759737251222        1.72369803272523
B           -1.04467670100829        4.05698148578764        1.91815829548024
N           -0.61998446940586        0.04689432528020       -3.90072697228745
B           -0.47398744065712        1.47628479345842       -4.03458943830696
N            1.21061783803012       -3.78056143205722       -1.73627994539745
B           -3.84637563492614        2.20252905035801       -0.43005453306320
N           -2.77486733750696        2.76440677562597       -1.14228399622211
B            1.40494244533150        0.85856653020872       -4.83820998277280
N           -0.24187013967213        3.32616411483946        2.91157653972089
B            0.89924553015287       -2.86079611986438       -2.80059799399184
N           -0.49471355526038        3.76666525094066       -0.92960724733952
B           -0.81163894232207        2.14042059997553        3.35318441870512
N            1.64906617626936       -1.32109416766024        3.52835096112255
B           -0.25049278274156        3.48416837774556       -2.30186765235743
N            1.29988930797107        0.01729007808538        3.85440501831416
B           -1.59732847614510       -0.53950923226511       -3.04871939211729
N           -3.83487090154076        1.75570669263261        0.89023102290671
B            0.33115624618671        4.47202932230846        1.27296915519397
N            0.03799754474602       -0.07128495159816        4.49830625517253
B           -2.71288001738030        2.20009169372001        1.66701879561995
N            3.77092525200684       -0.13361701269340       -0.72330412781374
B           -2.25464812535701       -3.66189239269415        1.01097417534305
N            1.04953486998706        3.69936820318387        2.31627288597618
B           -1.82928784639662       -0.82348192052304        3.25299812909790
N           -2.43652085590157       -3.60954444484094       -0.44726529707174
B            3.01740006084198       -1.06679199885936       -1.47053883582168
N           -3.15705140053522       -1.26109135460420       -0.35545919666948
B            2.02943345737168        2.89649300273740        1.63559455948743
N           -0.50634212401279       -2.88558146929589       -2.42009648396924
B           -1.67292444706256       -2.09835794984509       -2.47179808315939
N            0.58660576297079        3.95603472557941       -0.02722261705951
B            1.08858779122725        2.98296027590545       -3.11001535251942
N            0.07549462817453       -4.38915717306623        1.71940287163422
B           -1.78714036084591        3.44577620166205       -0.33002074240552
N           -2.01767451996132        3.39744176717240        1.10834779819308
B            1.46403289175944       -4.23599947289170        1.49805062035482
N           -0.80064368204281        1.00630457151398        4.24042109536570
B           -2.66573377706000       -2.40136512236468       -1.15874919445065
N           -1.07595797255543       -4.50832688470984        0.98681216596281
B           -2.50311058288516        0.50137645354790       -2.06169920076705
N            2.35125879103204       -3.90101132300712        0.45620388272235
B            3.90957000360435       -0.21848231160813        0.76783707417368
N            1.92697806580078        1.97305430580120       -2.40258343994280
B            1.00003616138915        2.29198650593331       -4.55722453150663
N           -4.18637733019234        0.82002802072010       -0.29669451918905
B           -1.33965653370101        2.47431275360185       -3.04747884179826
N           -2.36032091776186        1.94471548585449       -2.24397729981352
B            3.07139021073645       -2.66000679790681        0.61689947177840
N            2.33566702354983       -3.67347146947847       -0.96564987317324
B            2.21338615604840        0.50797005310632        2.85906033911635
N           -2.02600502471234        0.56064559283244        3.64207419745358
B           -1.10114108347959       -4.19034543682312       -0.44234336996761
N           -3.21683104365355        0.03946882446127       -0.91569137201352
B            3.44436569475241        1.25485146659851       -0.45710708269264
N            2.57802865947580        1.60337426701677        1.99703500586261
B            1.47220504849471       -1.52837246696073       -3.48886373565243
N           -2.10697656487237        1.71467883637158        2.82042766607468
B            2.03955947185302        0.73590976685405       -3.16154766386671
N           -2.72560191937159       -1.38084594022801        2.34915498757525
B            0.65862674893252       -0.50306764522490       -4.45059843371645
N           -0.16776832921115       -3.75625615140957       -1.35269768526052
B            0.48052130413427       -2.15322353068273        3.45525044080894
N           -0.59309921596489       -1.25879245075125        3.85887447131636
B           -3.22516578769882       -1.47491563179136        1.02690168587820
N            2.66781613788275       -0.89287765545137        2.65506013711647
B            1.87461722225368        3.33058535936944       -0.02857273700509
N            2.87631770867257       -2.33285885301374       -0.77439621414645
