138
Lapatinib/B36N36 GFN2 opt
C       1.11352866      1.33321605      9.37612957
S       1.80041625      0.58777293     10.86572387
O       2.15385565     -0.78054194     10.54368774
O       2.86365483      1.42001611     11.35982419
C       0.48215771      0.50184691     12.10771299
C      -0.14141019      1.87017079     12.35560643
N      -1.59275479      1.80159371     12.37821027
C      -2.25134065      1.69500856     11.07379085
C      -2.56639740      0.27786270     10.70633480
C      -3.68522090     -0.46828306     10.94027679
C      -3.44956126     -1.73510238     10.36528529
C      -2.19210763     -1.68714579      9.81638826
O      -1.65670067     -0.46034006     10.03093389
C      -1.42978928     -2.67085411      9.07537027
C      -0.07397885     -2.48987370      8.84874297
C       0.63936379     -3.38918397      8.04024933
C      -0.04104425     -4.48639453      7.45199548
C      -1.40431922     -4.68828748      7.75050029
C      -2.08257286     -3.79617232      8.52820037
N       0.56964624     -5.32271866      6.58321206
C       1.78882008     -5.01614256      6.24595716
N       2.52060325     -3.99536988      6.68827452
C       1.99154596     -3.19225648      7.59516863
N       2.73584968     -2.16852002      8.08899156
C       3.68328263     -1.42459092      7.40981871
C       3.97714519     -1.63498261      6.06239939
C       4.79583179     -0.74792966      5.38973859
C       5.38713476      0.33597137      6.04100837
C       5.14096360      0.49519251      7.40164792
C       4.29665622     -0.36121784      8.07803571
O       6.21474434      1.20874733      5.37521382
C       5.54017368      2.23112940      4.63976901
C       4.95987053      3.25112879      5.58524188
C       3.68577763      3.06394179      6.10849572
C       3.21169117      3.96585660      7.04110586
C       3.95865642      5.04342219      7.47849959
C       5.22823318      5.21802916      6.95420820
C       5.72576020      4.32724770      6.01954657
F       1.97099242      3.78701531      7.55818837
Cl      5.03727580     -0.97319812      3.69830349
H       1.07487748      2.40774222      9.48507096
H       0.13833822      0.90462889      9.18965292
H       1.78305115      1.07624473      8.56397479
H       0.94277851      0.08061598     12.99622851
H      -0.24026546     -0.20302879     11.71747320
H       0.22951747      2.56893980     11.58737636
H       0.18503603      2.25121366     13.32473801
H      -1.95876392      2.59796938     12.88256898
H      -1.64822693      2.14609608     10.27239319
H      -3.20330640      2.22645977     11.12944832
H      -4.56602309     -0.15207563     11.45985045
H      -4.11806952     -2.57036787     10.37517924
H       0.43712087     -1.67012099      9.32607131
H      -1.89197514     -5.54313583      7.31115021
H      -3.13606742     -3.93218058      8.71371107
H       2.28015079     -5.66481725      5.53207831
H       2.45045783     -1.76551104      8.98004495
H       3.55744462     -2.48232635      5.54837195
H       5.61482500      1.31549898      7.91842768
H       4.09736131     -0.20392137      9.12714119
H       6.31919937      2.67591030      4.01687485
H       4.75562241      1.80748980      4.00252164
H       3.06319865      2.24106770      5.79375942
H       3.55189363      5.72175145      8.21117852
H       5.83127012      6.05080240      7.28186400
H       6.72086562      4.46183440      5.62413709
B       0.77118221     -3.42752504      1.38799222
N       1.35896073     -3.54587561      2.71332956
B       0.01721267     -4.04671277      2.97414796
N      -0.41041794     -4.24991281      1.59738937
N      -4.93274788     -2.75408388      2.92727791
B      -4.42778896     -2.57369562      4.27960572
N      -5.18352776     -1.38203406      4.63963772
B      -5.37170225     -1.39390886      3.19630232
B      -1.62979027     -3.59177309      1.27314132
N      -2.66733073     -3.51417341      2.29260043
B      -3.90704339     -2.83873764      1.94187321
N      -3.95176810     -1.91124116      0.82013736
B      -2.89571120     -2.01345784     -0.17771111
N      -1.63984118     -2.67561413      0.14070519
N      -2.27795680      0.98836325     -1.45309978
B      -1.69882931     -0.34702059     -1.44183423
N      -2.92408984     -1.11585061     -1.28312675
B      -3.39975810      0.21558494     -0.94145262
B      -2.51683784     -1.87786731      5.61066112
N      -3.09493765     -2.82643041      4.67802182
B      -2.23269203     -3.43680610      3.67927794
N      -0.82691538     -3.57323199      4.00585726
B      -0.23388276     -2.63191471      4.93327792
N      -1.10939794     -2.01789537      5.91227095
N       0.80122043     -0.47008756      6.54042732
B       0.00440930      0.74220254      6.57463050
N      -1.21855742      0.19584299      7.14159280
B      -0.53129757     -1.03494952      6.75184024
N      -4.12159477      0.53210733      0.23389325
B      -4.51210024     -0.59209735      1.06611056
N      -5.12805553     -0.28934253      2.34640826
B      -4.79425091      0.96093822      3.00283170
N      -4.40119202      2.07311375      2.15630065
B      -3.78022086      1.78887778      0.87436806
B       1.58982465     -1.15152752      1.12075436
N       0.79929583     -2.25197739      0.59975251
B      -0.41074666     -1.94948515     -0.14109253
N      -0.46127873     -0.67837525     -0.84269842
B       0.32168784      0.43279923     -0.33342350
N       1.52654379      0.11417558      0.41057256
N      -4.47802495      0.97837323      4.42381192
B      -4.37010764     -0.30736356      5.09902688
N      -3.19836805     -0.62346571      5.90308364
B      -2.37213529      0.48481055      6.35562102
N      -2.45154856      1.78521763      5.70381696
B      -3.63728264      2.06419722      4.90566234
B      -2.45833543      3.82863650      3.76261508
N      -2.83687377      4.06187991      2.37799266
B      -3.94852728      3.23509625      2.82327018
N      -3.73208892      3.33002145      4.25960645
N      -0.27824918      1.75412578     -0.21765431
B      -1.70372483      1.86632888     -0.49094267
N      -2.58984662      2.51802690      0.46367544
B      -1.98502189      3.41394743      1.43780515
N      -0.56343332      3.32565303      1.74092155
B       0.29168093      2.66118802      0.76671687
B       1.35684611     -0.74567810      5.25654341
N       1.05269288     -2.02438865      4.63635603
B       1.62986947     -2.29198170      3.32668685
N       2.07999457     -1.19099832      2.48663825
B       2.38061238      0.07603912      3.13885625
N       1.81283317      0.37939946      4.44997202
N      -1.19358042      3.35009454      4.17805026
B      -1.20189962      2.39062130      5.26540231
N       0.06399399      1.77356163      5.61320271
B       1.08290259      1.63225475      4.58945424
N       1.07603461      2.60088981      3.50990104
B      -0.18545964      3.22006267      3.14070657
N       2.81612829      1.17099467      2.33189708
B       2.19645634      1.20367833      1.01376660
N       1.68515835      2.56648236      1.04578393
B       1.98448407      2.35905062      2.45227209
