66
Lapatinib GFN2 opt
C       1.22901833     -1.71668358     -0.63404522
S       0.14421485     -1.97392348      0.78924715
O      -0.30462735     -0.66887710      1.22959177
O      -0.87422621     -2.92140644      0.43115035
C       1.14163710     -2.64422871      2.14651223
C       1.81123765     -3.95817877      1.76641982
N       3.20460098     -3.97910634      2.17306760
C       4.12488608     -3.22059804      1.32635200
C       4.36854258     -1.83455692      1.83784393
C       5.30049309     -1.36499101      2.71541104
C       5.10136322      0.02998496      2.80936183
C       4.04941783      0.33101696      1.98377434
O       3.60110661     -0.80761475      1.39311432
C       3.41981281      1.60100144      1.66715522
C       2.11141638      1.66840799      1.22332352
C       1.53939445      2.89928876      0.87460284
C       2.32379955      4.08028328      0.96322405
C       3.64057753      3.99499250      1.45791793
C       4.17297405      2.78726783      1.80165698
N       1.85324940      5.28559937      0.57059372
C       0.64814812      5.30419367      0.07987770
N      -0.19877750      4.28361179     -0.03226265
C       0.19615518      3.09158972      0.38666332
N      -0.67796633      2.06127762      0.36757576
C      -1.96596516      2.02150947     -0.15113648
C      -2.43874461      2.92479030     -1.09978005
C      -3.68840091      2.73381177     -1.66259654
C      -4.50147605      1.66602553     -1.28617850
C      -4.04128926      0.81137864     -0.28845406
C      -2.79279428      0.97658870      0.26728784
O      -5.70609606      1.40682744     -1.90503526
C      -5.55806769      0.66803915     -3.12220535
C      -4.69966056     -0.54716386     -2.88746021
C      -3.32432723     -0.45535767     -3.06380408
C      -2.52453245     -1.50239129     -2.65260408
C      -3.03834144     -2.64711739     -2.07608904
C      -4.41222626     -2.74163253     -1.93343419
C      -5.23537048     -1.70159804     -2.33082212
F      -1.18190007     -1.38689933     -2.80575006
Cl     -4.23201743      3.82862938     -2.88437606
H       1.44561583     -2.67244587     -1.09060690
H       2.12502543     -1.21323246     -0.29638389
H       0.67879959     -1.09799690     -1.33236468
H       0.45155127     -2.74577679      2.97885770
H       1.86798311     -1.87812487      2.38714517
H       1.69113569     -4.11170559      0.67954499
H       1.30603187     -4.78618192      2.26621958
H       3.52092956     -4.93618654      2.25397934
H       3.76374049     -3.16202375      0.28798795
H       5.08918930     -3.73268070      1.32598038
H       6.03996620     -1.94434890      3.22849263
H       5.65352128      0.71301774      3.42081223
H       1.53092047      0.76120161      1.15244610
H       4.20875422      4.90828462      1.53301561
H       5.19002136      2.72191770      2.15625768
H       0.27294990      6.25814983     -0.27015464
H      -0.40737730      1.19389957      0.82367773
H      -1.82521723      3.75570276     -1.40355839
H      -4.67444369     -0.00578143      0.01987084
H      -2.42949069      0.27483302      1.00099013
H      -6.57638154      0.39920878     -3.40899922
H      -5.11627142      1.30831985     -3.89667022
H      -2.87370686      0.42697977     -3.49137699
H      -2.37486059     -3.41964260     -1.72436549
H      -4.84040010     -3.62680241     -1.48879756
H      -6.30322460     -1.77237552     -2.18731285
