72
carrier @complex
B       0.77118221     -3.42752504      1.38799222
N       1.35896073     -3.54587561      2.71332956
B       0.01721267     -4.04671277      2.97414796
N      -0.41041794     -4.24991281      1.59738937
N      -4.93274788     -2.75408388      2.92727791
B      -4.42778896     -2.57369562      4.27960572
N      -5.18352776     -1.38203406      4.63963772
B      -5.37170225     -1.39390886      3.19630232
B      -1.62979027     -3.59177309      1.27314132
N      -2.66733073     -3.51417341      2.29260043
B      -3.90704339     -2.83873764      1.94187321
N      -3.95176810     -1.91124116      0.82013736
B      -2.89571120     -2.01345784     -0.17771111
N      -1.63984118     -2.67561413      0.14070519
N      -2.27795680      0.98836325     -1.45309978
B      -1.69882931     -0.34702059     -1.44183423
N      -2.92408984     -1.11585061     -1.28312675
B      -3.39975810      0.21558494     -0.94145262
B      -2.51683784     -1.87786731      5.61066112
N      -3.09493765     -2.82643041      4.67802182
B      -2.23269203     -3.43680610      3.67927794
N      -0.82691538     -3.57323199      4.00585726
B      -0.23388276     -2.63191471      4.93327792
N      -1.10939794     -2.01789537      5.91227095
N       0.80122043     -0.47008756      6.54042732
B       0.00440930      0.74220254      6.57463050
N      -1.21855742      0.19584299      7.14159280
B      -0.53129757     -1.03494952      6.75184024
N      -4.12159477      0.53210733      0.23389325
B      -4.51210024     -0.59209735      1.06611056
N      -5.12805553     -0.28934253      2.34640826
B      -4.79425091      0.96093822      3.00283170
N      -4.40119202      2.07311375      2.15630065
B      -3.78022086      1.78887778      0.87436806
B       1.58982465     -1.15152752      1.12075436
N       0.79929583     -2.25197739      0.59975251
B      -0.41074666     -1.94948515     -0.14109253
N      -0.46127873     -0.67837525     -0.84269842
B       0.32168784      0.43279923     -0.33342350
N       1.52654379      0.11417558      0.41057256
N      -4.47802495      0.97837323      4.42381192
B      -4.37010764     -0.30736356      5.09902688
N      -3.19836805     -0.62346571      5.90308364
B      -2.37213529      0.48481055      6.35562102
N      -2.45154856      1.78521763      5.70381696
B      -3.63728264      2.06419722      4.90566234
B      -2.45833543      3.82863650      3.76261508
N      -2.83687377      4.06187991      2.37799266
B      -3.94852728      3.23509625      2.82327018
N      -3.73208892      3.33002145      4.25960645
N      -0.27824918      1.75412578     -0.21765431
B      -1.70372483      1.86632888     -0.49094267
N      -2.58984662      2.51802690      0.46367544
B      -1.98502189      3.41394743      1.43780515
N      -0.56343332      3.32565303      1.74092155
B       0.29168093      2.66118802      0.76671687
B       1.35684611     -0.74567810      5.25654341
N       1.05269288     -2.02438865      4.63635603
B       1.62986947     -2.29198170      3.32668685
N       2.07999457     -1.19099832      2.48663825
B       2.38061238      0.07603912      3.13885625
N       1.81283317      0.37939946      4.44997202
N      -1.19358042      3.35009454      4.17805026
B      -1.20189962      2.39062130      5.26540231
N       0.06399399      1.77356163      5.61320271
B       1.08290259      1.63225475      4.58945424
N       1.07603461      2.60088981      3.50990104
B      -0.18545964      3.22006267      3.14070657
N       2.81612829      1.17099467      2.33189708
B       2.19645634      1.20367833      1.01376660
N       1.68515835      2.56648236      1.04578393
B       1.98448407      2.35905062      2.45227209
