127
Capivasertib/B36N36 GFN2 opt
C      -0.49457208     -2.08451343      7.71019864
C       0.84282163     -2.47980077      8.34779432
N       0.75283637     -2.47737158      9.78861498
C       0.37954823     -1.18261666     10.31430901
C      -0.97056073     -0.74475682      9.73864433
C      -0.93831995     -0.68921642      8.19847549
C       0.02520572      0.36237277      7.64715612
O       0.54963720      0.31164415      6.50446094
N       0.31860110      1.38718700      8.42902816
C       1.18467305      2.49889498      8.06000555
C       0.35301327      3.73366190      7.68679474
C      -0.47336808      3.46704699      6.42820682
O      -0.98199717      4.68447445      5.93308862
C       2.12897800      2.78120448      9.20488321
C       3.50325117      2.71644908      9.01237149
C       4.37928778      2.97239218     10.05198556
C       3.87645878      3.29268576     11.30344212
C       2.50749730      3.36209014     11.51566145
C       1.64349797      3.10753420     10.46700631
Cl      4.95993710      3.60794086     12.60763519
N      -2.24582292     -0.25173793      7.72082738
C       0.52942308     -3.58620289     10.54415860
N       0.03775173     -3.36076022     11.76961248
C      -0.17770992     -4.36732206     12.59773617
N       0.02671856     -5.64641164     12.37662766
C       0.53285438     -5.88807433     11.16655405
C       0.82940408     -4.91939381     10.17170868
C       1.37771510     -5.65358539      9.07775754
C       1.38224561     -6.96719575      9.43277280
N       0.86730635     -7.11000660     10.69155242
H      -0.39235567     -2.09500402      6.62647812
H      -1.25871580     -2.81064703      7.99893278
H       1.61589617     -1.76416865      8.04674490
H       1.13090173     -3.46292116      7.99452035
H       1.16967126     -0.47139495     10.05060830
H       0.31338171     -1.27499077     11.39870186
H      -1.71366680     -1.49289980     10.02152560
H      -1.30552419      0.19880739     10.17028236
H      -0.12280055      1.44855820      9.33508256
H       1.74731410      2.17815722      7.17839705
H       1.02928939      4.56461392      7.48400469
H      -0.29938585      4.02679698      8.50967162
H       0.17162978      2.99351505      5.67979805
H      -1.29655305      2.77206950      6.64852273
H      -1.27471041      4.54121278      5.02522276
H       3.89350372      2.46534312      8.03791021
H       5.44507988      2.92229909      9.89586441
H       2.12593515      3.61577238     12.49178094
H       0.57998983      3.17856037     10.64107619
H      -2.20609025     -0.09735139      6.70747172
H      -2.93453808     -0.97751843      7.88798724
H      -0.57861348     -4.09982594     13.56700123
H       1.74901623     -5.28239047      8.14373959
H       1.71894405     -7.81946154      8.87568396
H       0.76125695     -7.96912792     11.20311065
B       0.33492357     -3.42251640     -1.01231181
N       0.40270640     -3.97572041      0.33109626
B      -1.03510921     -3.80726943      0.18218834
N      -1.08692347     -3.61229133     -1.26023212
N      -4.71948741     -0.33566224     -0.52978937
B      -4.60135214     -0.59272767      0.89861511
N      -4.84660472      0.75710414      1.38615809
B      -4.59380205      1.02222765     -0.02160753
B      -1.75933461     -2.41765015     -1.64656181
N      -2.91487171     -1.99254326     -0.87011276
B      -3.58749277     -0.76854279     -1.27863220
N      -2.90642610      0.20448532     -2.12161636
B      -1.75370125     -0.25637905     -2.88145201
N      -1.05034558     -1.47051498     -2.49610544
N       0.41863282      2.22988496     -3.22792547
B       0.34527376      0.79016631     -3.42949923
N      -1.07766449      0.68052351     -3.71530465
B      -1.01964096      2.02170132     -3.15327453
B      -3.05300007     -1.06972202      2.71109841
N      -3.68915901     -1.50365048      1.47708347
B      -2.91363660     -2.30927964      0.55183976
N      -1.86741087     -3.14373235      1.11151301
B      -1.22464253     -2.71375375      2.34496806
N      -2.00697542     -1.90575799      3.25490216
N       0.11818231     -1.51207253      4.61640941
B       0.03170299     -0.05536283      5.06596018
N      -1.50149637     -0.05618038      4.94529762
B      -1.28826969     -1.35658267      4.34920387
N      -1.84604287      2.48978933     -2.10472973
B      -2.89839231      1.58781444     -1.67106783
N      -3.67137378      1.97959386     -0.50690194
B      -3.04388387      2.82540795      0.49277893
N      -1.99048608      3.71950920      0.04518333
B      -1.20606289      3.34108315     -1.11698639
B       2.07851041     -1.79459044     -0.53695876
N       1.08728149     -2.31291060     -1.46474878
B       0.39331833     -1.38181328     -2.33426193
N       1.09305902     -0.16252848     -2.69929284
B       2.08640859      0.37015366     -1.78271585
N       2.76803986     -0.57395156     -0.91743823
N      -3.17733484      2.50789727      1.90477227
B      -3.81772697      1.24416172      2.24568508
N      -3.17676928      0.31005348      3.15239180
B      -2.11772161      0.82088156      4.01714526
N      -1.46925403      2.08825193      3.71800356
B      -2.13241832      2.98776020      2.79625044
B      -0.04575517      4.11215515      2.38543727
N       0.12865113      4.67994660      1.05802670
B      -1.30375400      4.42975876      1.05901147
N      -1.49630360      4.23181180      2.49116290
N       2.10100353      1.79165173     -1.47079831
B       1.00387745      2.59915975     -1.98245623
N       0.24307585      3.46730666     -1.09459888
B       0.85984889      3.83595563      0.17154387
N       1.95724457      3.05204471      0.71430446
B       2.68893233      2.18684710     -0.19826449
B       0.82916295     -1.83293648      3.43508513
N       0.22123466     -2.75046686      2.47105777
B       0.98338814     -3.08295110      1.28187694
N       2.08744426     -2.23937921      0.84560600
B       2.67333302     -1.34267949      1.83465968
N       1.94809711     -0.98933686      3.03870206
N       0.71470592      3.04473430      2.90528163
B      -0.00635590      2.05000810      3.69485608
N       0.71466680      0.90081359      4.15395935
B       1.80042558      0.42776152      3.34263276
N       2.52882041      1.41237108      2.54328095
B       1.82323000      2.59070485      2.08979325
N       3.75751843     -0.50925571      1.42379073
B       3.62592551     -0.01732522      0.06160309
N       3.76091223      1.40775615      0.32326512
B       3.51227571      0.90418266      1.66806174
