55
Capivasertib GFN2 opt
C       1.36732891     -1.54115015     -0.66640532
C       1.86913316     -0.59153580     -1.75897692
N       2.46296414      0.57931136     -1.16904264
C       1.49125715      1.34088476     -0.41634114
C       0.99893843      0.50409889      0.76645831
C       0.39766687     -0.83571864      0.30165151
C      -0.95122471     -0.53484329     -0.37947765
O      -1.09514401     -0.38248631     -1.57628856
N      -1.94969642     -0.41840237      0.51111179
C      -3.31509032     -0.12110015      0.14304265
C      -4.22815746     -1.33263068      0.38520132
C      -3.81627552     -2.53229334     -0.47272277
O      -4.57033082     -3.68367195     -0.18261997
C      -3.81670016      1.08470129      0.90310789
C      -4.35174667      2.17326659      0.22736343
C      -4.82003237      3.27844753      0.91540676
C      -4.74837867      3.29722596      2.29859545
C      -4.21640460      2.22203884      2.99266939
C      -3.75616640      1.12302914      2.29166009
Cl     -5.32707877      4.67394493      3.16839662
N       0.11271862     -1.64337366      1.49046145
C       3.78130302      0.73296024     -0.90268034
N       4.09873030      1.82304165     -0.18743003
C       5.36119950      2.11714226      0.05549109
N       6.43120549      1.44800088     -0.31595321
C       6.13402424      0.34529148     -1.00558742
C       4.83409230     -0.10816217     -1.34713411
C       5.03276410     -1.33685830     -2.04521923
C       6.37365805     -1.56109686     -2.10281818
N       7.03975501     -0.54373052     -1.47696446
H       0.86385096     -2.39304047     -1.12882610
H       2.22305256     -1.91135294     -0.09212479
H       1.01464285     -0.26997263     -2.36032513
H       2.57935396     -1.09121364     -2.40984373
H       0.65756841      1.58693531     -1.07905331
H       1.96881011      2.25340783     -0.06202497
H       1.85019177      0.29757819      1.42065585
H       0.25526895      1.05890623      1.34004295
H      -1.72643591     -0.64058167      1.47157037
H      -3.29010763      0.10040140     -0.93001950
H      -5.25676613     -1.04709992      0.15035129
H      -4.18951083     -1.62064181      1.43775753
H      -3.89112497     -2.27145334     -1.53732551
H      -2.77972749     -2.80399399     -0.26223406
H      -5.49716740     -3.50780905     -0.37920566
H      -4.40072301      2.16047264     -0.85118583
H      -5.23389257      4.12099098      0.38434370
H      -4.16497298      2.24711308      4.06977309
H      -3.34624496      0.28801724      2.84005279
H      -0.18032127     -2.57626327      1.21554493
H       0.95115928     -1.74231076      2.05378897
H       5.53019847      3.01648674      0.63407232
H       4.29579286     -2.00000745     -2.45201887
H       6.90727929     -2.37968244     -2.54522082
H       8.03551327     -0.45121786     -1.37350134
