72
carrier @complex
B       3.56562664     -1.40505553      2.76047015
N       3.28101389      1.20499502      2.23894869
B       2.09077418      2.44865292      0.17313166
N       2.07701483     -0.46854157     -1.46978686
B       1.09780346     -3.84027437      3.84483039
N      -2.67069389     -3.25745821      3.10732341
B      -1.47829740      3.66722567      3.60635274
N      -0.95381565     -0.04123293     -2.48204274
B      -0.96097365      1.40049349     -2.55034622
N       1.37183069     -3.76085553     -0.62275717
B      -4.17492516      1.60890120      1.25812342
N      -3.20778860      2.30797819      0.52323065
B       0.92239712      1.01504641     -3.48406904
N      -0.49743207      2.92462173      4.47242064
B       0.90877250     -2.82858139     -1.61909999
N      -1.03135108      3.53240688      0.66432984
B      -0.91819011      1.65418024      4.82738014
N       1.88262941     -1.51993385      4.75572695
B      -0.83944807      3.34003634     -0.72996514
N       1.41342836     -0.23424423      5.16121579
B      -1.81640384     -0.76385093     -1.61100349
N      -4.05375550      1.10936198      2.55540564
B      -0.17279226      4.18704951      2.86693463
N       0.19264010     -0.49039797      5.83847454
B      -2.92469097      1.62255714      3.28093331
N       3.61387316      0.07806099      0.44138729
B      -1.92122504     -4.11918691      2.31382226
N       0.70131092      3.45162425      3.80838512
B      -1.66325631     -1.36535394      4.66713744
N      -2.19273559     -4.01788221      0.87072252
B       2.91333556     -0.89282162     -0.31198336
N      -3.14073047     -1.76401980      1.12118223
B       1.71799586      2.79925098      3.03765943
N      -0.46255343     -3.01299613     -1.16478375
B      -1.70229465     -2.34671495     -1.11207621
N       0.07194253      3.78624330      1.52378317
B       0.49166768      3.01425095     -1.63499475
N       0.50817878     -4.64191617      2.85240158
B      -2.23826315      3.03937501      1.32185122
N      -2.38358477      2.90645225      2.75762408
B       1.85971155     -4.34283508      2.56434943
N      -0.76082303      0.51122707      5.70000106
B      -2.58144196     -2.80905437      0.23512513
N      -0.66821153     -4.83715251      2.17975830
B      -2.76422056      0.13160888     -0.52562044
N       2.64658222     -3.86939226      1.49486753
B       3.84206910     -0.06400419      1.91630596
N       1.45983733      2.05771145     -1.02506867
B       0.39103852      2.38508915     -3.10949296
N      -4.37152306      0.19463113      1.33698893
B      -1.86356901      2.25738181     -1.46826212
N      -2.77761165      1.58766815     -0.64093683
B       3.24617337     -2.57008162      1.68381247
N       2.52444366     -3.57608686      0.09007429
B       2.19586025      0.38423546      4.11700273
N      -1.98284345     -0.02876103      5.16101886
B      -0.80831119     -4.45942469      0.77324471
N      -3.36463665     -0.45255897      0.63100573
B       3.15254575      1.40612869      0.79789078
N       2.41129181      1.55121478      3.30512092
B       1.30519149     -1.41388214     -2.26625158
N      -2.20711731      1.14028502      4.37295468
B       1.65818212      0.87645883     -1.85208289
N      -2.56637136     -1.96932298      3.79950423
B       0.33948691     -0.43161990     -3.12723249
N       0.02253270     -3.89344719     -0.16381267
B       0.78763998     -2.45836445      4.67293914
N      -0.34799623     -1.69324598      5.14943948
B      -3.11044257     -2.05033870      2.49091057
N       2.78310279     -0.94769826      3.83028925
B       1.41264643      3.29743964      1.41561643
N       2.93985680     -2.19764500      0.32360106
