55
drug @complex
C      -0.49457208     -2.08451343      7.71019864
C       0.84282163     -2.47980077      8.34779432
N       0.75283637     -2.47737158      9.78861498
C       0.37954823     -1.18261666     10.31430901
C      -0.97056073     -0.74475682      9.73864433
C      -0.93831995     -0.68921642      8.19847549
C       0.02520572      0.36237277      7.64715612
O       0.54963720      0.31164415      6.50446094
N       0.31860110      1.38718700      8.42902816
C       1.18467305      2.49889498      8.06000555
C       0.35301327      3.73366190      7.68679474
C      -0.47336808      3.46704699      6.42820682
O      -0.98199717      4.68447445      5.93308862
C       2.12897800      2.78120448      9.20488321
C       3.50325117      2.71644908      9.01237149
C       4.37928778      2.97239218     10.05198556
C       3.87645878      3.29268576     11.30344212
C       2.50749730      3.36209014     11.51566145
C       1.64349797      3.10753420     10.46700631
Cl      4.95993710      3.60794086     12.60763519
N      -2.24582292     -0.25173793      7.72082738
C       0.52942308     -3.58620289     10.54415860
N       0.03775173     -3.36076022     11.76961248
C      -0.17770992     -4.36732206     12.59773617
N       0.02671856     -5.64641164     12.37662766
C       0.53285438     -5.88807433     11.16655405
C       0.82940408     -4.91939381     10.17170868
C       1.37771510     -5.65358539      9.07775754
C       1.38224561     -6.96719575      9.43277280
N       0.86730635     -7.11000660     10.69155242
H      -0.39235567     -2.09500402      6.62647812
H      -1.25871580     -2.81064703      7.99893278
H       1.61589617     -1.76416865      8.04674490
H       1.13090173     -3.46292116      7.99452035
H       1.16967126     -0.47139495     10.05060830
H       0.31338171     -1.27499077     11.39870186
H      -1.71366680     -1.49289980     10.02152560
H      -1.30552419      0.19880739     10.17028236
H      -0.12280055      1.44855820      9.33508256
H       1.74731410      2.17815722      7.17839705
H       1.02928939      4.56461392      7.48400469
H      -0.29938585      4.02679698      8.50967162
H       0.17162978      2.99351505      5.67979805
H      -1.29655305      2.77206950      6.64852273
H      -1.27471041      4.54121278      5.02522276
H       3.89350372      2.46534312      8.03791021
H       5.44507988      2.92229909      9.89586441
H       2.12593515      3.61577238     12.49178094
H       0.57998983      3.17856037     10.64107619
H      -2.20609025     -0.09735139      6.70747172
H      -2.93453808     -0.97751843      7.88798724
H      -0.57861348     -4.09982594     13.56700123
H       1.74901623     -5.28239047      8.14373959
H       1.71894405     -7.81946154      8.87568396
H       0.76125695     -7.96912792     11.20311065
