      -----------------------------------------------------------      
     |                   =====================                   |     
     |                           x T B                           |     
     |                   =====================                   |     
     |                         S. Grimme                         |     
     |          Mulliken Center for Theoretical Chemistry        |     
     |                    University of Bonn                     |     
      -----------------------------------------------------------      

   * xtb version 6.7.1pre (5071a88) compiled by 'Marcel@Raven' on 2024-07-23

   xtb is free software: you can redistribute it and/or modify it under
   the terms of the GNU Lesser General Public License as published by
   the Free Software Foundation, either version 3 of the License, or
   (at your option) any later version.
   
   xtb is distributed in the hope that it will be useful,
   but WITHOUT ANY WARRANTY; without even the implied warranty of
   MERCHANTABILITY or FITNESS FOR A PARTICULAR PURPOSE.  See the
   GNU Lesser General Public License for more details.
   
   Cite this work as:
   * C. Bannwarth, E. Caldeweyher, S. Ehlert, A. Hansen, P. Pracht,
     J. Seibert, S. Spicher, S. Grimme, WIREs Comput. Mol. Sci., 2020, 11,
     e01493. DOI: 10.1002/wcms.1493
   
   for GFN2-xTB:
   * C. Bannwarth, S. Ehlert and S. Grimme., J. Chem. Theory Comput., 2019,
     15, 1652-1671. DOI: 10.1021/acs.jctc.8b01176
   for GFN1-xTB:
   * S. Grimme, C. Bannwarth, P. Shushkov, J. Chem. Theory Comput., 2017,
     13, 1989-2009. DOI: 10.1021/acs.jctc.7b00118
   for GFN0-xTB:
   * P. Pracht, E. Caldeweyher, S. Ehlert, S. Grimme, ChemRxiv, 2019, preprint.
     DOI: 10.26434/chemrxiv.8326202.v1
   for GFN-FF:
   * S. Spicher and S. Grimme, Angew. Chem. Int. Ed., 2020, 59, 15665-15673.
     DOI: 10.1002/anie.202004239
   
   for ALPB and GBSA implicit solvation:
   * S. Ehlert, M. Stahn, S. Spicher, S. Grimme, J. Chem. Theory Comput.,
     2021, 17, 4250-4261. DOI: 10.1021/acs.jctc.1c00471
   
   for ddCOSMO and CPCM-X implicit solvation:
   * M. Stahn, S. Ehlert, S. Grimme, J. Phys. Chem. A,
     2023, XX, XXXX-XXXX. DOI: 10.1021/acs.jpca.3c04382
   
   for DFT-D4:
   * E. Caldeweyher, C. Bannwarth and S. Grimme, J. Chem. Phys., 2017,
     147, 034112. DOI: 10.1063/1.4993215
   * E. Caldeweyher, S. Ehlert, A. Hansen, H. Neugebauer, S. Spicher,
     C. Bannwarth and S. Grimme, J. Chem. Phys., 2019, 150, 154122.
     DOI: 10.1063/1.5090222
   * E. Caldeweyher, J.-M. Mewes, S. Ehlert and S. Grimme, Phys. Chem. Chem. Phys.
     2020, 22, 8499-8512. DOI: 10.1039/D0CP00502A
   
   for sTDA-xTB:
   * S. Grimme and C. Bannwarth, J. Chem. Phys., 2016, 145, 054103.
     DOI: 10.1063/1.4959605
   
   in the mass-spec context:
   * V. Asgeirsson, C. Bauer and S. Grimme, Chem. Sci., 2017, 8, 4879.
     DOI: 10.1039/c7sc00601b
   * J. Koopman and S. Grimme, ACS Omega 2019, 4, 12, 15120-15133.
     DOI: 10.1021/acsomega.9b02011
   
   for metadynamics refer to:
   * S. Grimme, J. Chem. Theory Comput., 2019, 155, 2847-2862
     DOI: 10.1021/acs.jctc.9b00143
   
   for SPH calculations refer to:
   * S. Spicher and S. Grimme, J. Chem. Theory Comput., 2021, 17, 1701-1714
     DOI: 10.1021/acs.jctc.0c01306
   
   for ONIOM refer to:
   * C. Plett, A. Katbashev, S. Ehlert, S. Grimme, M. Bursch,
     Phys. Chem. Chem. Phys., 2023, 25, 17860-17868. DOI: 10.1039/D3CP02178E
   
   for DIPRO refer to:
   * J. Kohn, N. Gildemeister, S. Grimme, D. Fazzi, A. Hansen,
     J. Chem. Phys., 2023, just accepted.
   
   for PTB refer to:
   * S. Grimme, M. Mueller, A. Hansen, J. Chem. Phys., 2023, 158, 124111.
     DOI: 10.1063/5.0137838
   
   with help from (in alphabetical order)
   P. Atkinson, C. Bannwarth, F. Bohle, G. Brandenburg, E. Caldeweyher
   M. Checinski, S. Dohm, S. Ehlert, S. Ehrlich, I. Gerasimov, C. Hölzer
   A. Katbashev, J. Kohn, J. Koopman, C. Lavigne, S. Lehtola, F. März, M. Müller,
   F. Musil, H. Neugebauer, J. Pisarek, C. Plett, P. Pracht, F. Pultar,
   J. Seibert, P. Shushkov, S. Spicher, M. Stahn, M. Steiner, T. Strunk,
   J. Stückrath, T. Rose, and J. Unsleber
   
 * started run on 2026/08/31 at 18:34:31.549     
   ID    Z sym.   atoms
    1    6 C      1-5, 7-11, 13-16, 18, 20-25
    2    7 N      6, 19
    3    8 O      12, 17, 26
    4    1 H      27-42

           -------------------------------------------------
          |                Calculation Setup                |
           -------------------------------------------------

          program call               : "c:\Users\Andre\Proyectos doctorado\kras-pancreatic-gC3N4-ai\tools\xtb\xtb-6.7.1\bin\xtb.exe" "c:\Users\Andre\Proyectos doctorado\nano-qsar-ai-therapeutics\calculations\tnbc\SN_38\SN-38_drug.xyz" --gfn 2 --sp --chrg 0 --uhf 0 --iterations 500 --norestart
          coordinate file            : c:\Users\Andre\Proyectos doctorado\nano-qsar-ai-therapeutics\calculations\tnbc\SN_38\SN-38_drug.xyz
          omp threads                :                    16


           -------------------------------------------------
          |                 G F N 2 - x T B                 |
           -------------------------------------------------

        Reference                      10.1021/acs.jctc.8b01176
      * Hamiltonian:
        H0-scaling (s, p, d)           1.850000    2.230000    2.230000
        zeta-weighting                 0.500000
      * Dispersion:
        s8                             2.700000
        a1                             0.520000
        a2                             5.000000
        s9                             5.000000
      * Repulsion:
        kExp                           1.500000    1.000000
        rExp                           1.000000
      * Coulomb:
        alpha                          2.000000
        third order                    shell-resolved
        anisotropic                    true
        a3                             3.000000
        a5                             4.000000
        cn-shift                       1.200000
        cn-exp                         4.000000
        max-rad                        5.000000


          ...................................................
          :                      SETUP                      :
          :.................................................:
          :  # basis functions                 120          :
          :  # atomic orbitals                 120          :
          :  # shells                           68          :
          :  # electrons                       128          :
          :  max. iterations                   500          :
          :  Hamiltonian                  GFN2-xTB          :
          :  restarted?                      false          :
          :  GBSA solvation                  false          :
          :  PC potential                    false          :
          :  electronic temp.          300.0000000     K    :
          :  accuracy                    1.0000000          :
          :  -> integral cutoff          0.2500000E+02      :
          :  -> integral neglect         0.1000000E-07      :
          :  -> SCF convergence          0.1000000E-05 Eh   :
          :  -> wf. convergence          0.1000000E-03 e    :
          :  Broyden damping             0.4000000          :
          :  net charge                          0          :
          :  unpaired electrons                  0          :
          ...................................................

 iter      E             dE          RMSdq      gap      omega  full diag
   1    -72.1788773 -0.721789E+02  0.438E+00    2.20       0.0  T
   2    -72.2670954 -0.882182E-01  0.269E+00    2.08       1.0  T
   3    -72.2614246  0.567080E-02  0.134E+00    2.07       1.0  T
   4    -72.2814991 -0.200744E-01  0.410E-01    2.00       1.0  T
   5    -72.2869736 -0.547450E-02  0.119E-01    2.05       1.0  T
   6    -72.2871829 -0.209328E-03  0.636E-02    2.05       1.0  T
   7    -72.2872637 -0.807961E-04  0.249E-02    2.05       1.0  T
   8    -72.2872695 -0.579690E-05  0.107E-02    2.05       1.4  T
   9    -72.2872714 -0.193832E-05  0.383E-03    2.05       4.0  T
  10    -72.2872714 -0.156839E-07  0.185E-03    2.05       8.4  T
  11    -72.2872715 -0.100395E-06  0.720E-04    2.05      21.4  T
  12    -72.2872715 -0.530979E-08  0.373E-04    2.05      41.3  T

   *** convergence criteria satisfied after 12 iterations ***

         #    Occupation            Energy/Eh            Energy/eV
      -------------------------------------------------------------
         1        2.0000           -0.7191962             -19.5703
       ...           ...                  ...                  ...
        58        2.0000           -0.4113308             -11.1929
        59        2.0000           -0.4074632             -11.0876
        60        2.0000           -0.4061083             -11.0508
        61        2.0000           -0.3878847             -10.5549
        62        2.0000           -0.3869110             -10.5284
        63        2.0000           -0.3751964             -10.2096
        64        2.0000           -0.3665340              -9.9739 (HOMO)
        65                         -0.2911584              -7.9228 (LUMO)
        66                         -0.2570407              -6.9944
        67                         -0.2527210              -6.8769
        68                         -0.2231873              -6.0732
        69                         -0.2099278              -5.7124
       ...                                ...                  ...
       120                          0.7282662              19.8171
      -------------------------------------------------------------
                  HL-Gap            0.0753756 Eh            2.0511 eV
             Fermi-level           -0.3288462 Eh           -8.9484 eV

 SCC (total)                   0 d,  0 h,  0 min,  0.033 sec
 SCC setup                      ...        0 min,  0.000 sec (  0.000%)
 Dispersion                     ...        0 min,  0.001 sec (  3.031%)
 classical contributions        ...        0 min,  0.000 sec (  0.000%)
 integral evaluation            ...        0 min,  0.001 sec (  3.030%)
 iterations                     ...        0 min,  0.026 sec ( 78.788%)
 molecular gradient             ...        0 min,  0.004 sec ( 12.121%)
 printout                       ...        0 min,  0.001 sec (  3.030%)

         :::::::::::::::::::::::::::::::::::::::::::::::::::::
         ::                     SUMMARY                     ::
         :::::::::::::::::::::::::::::::::::::::::::::::::::::
         :: total energy             -71.240780042964 Eh    ::
         :: gradient norm              0.098118453119 Eh/a0 ::
         :: HOMO-LUMO gap              2.051074093352 eV    ::
         ::.................................................::
         :: SCC energy               -72.287642673792 Eh    ::
         :: -> isotropic ES            0.088166385336 Eh    ::
         :: -> anisotropic ES          0.006989419158 Eh    ::
         :: -> anisotropic XC          0.027082544814 Eh    ::
         :: -> dispersion             -0.050611974211 Eh    ::
         :: repulsion energy           1.046862630829 Eh    ::
         :: add. restraining           0.000000000000 Eh    ::
         :: total charge               0.000000000000 e     ::
         :::::::::::::::::::::::::::::::::::::::::::::::::::::

           -------------------------------------------------
          |                Property Printout                |
           -------------------------------------------------

    * Orbital Energies and Occupations

         #    Occupation            Energy/Eh            Energy/eV
      -------------------------------------------------------------
         1        2.0000           -0.7191962             -19.5703
       ...           ...                  ...                  ...
        52        2.0000           -0.4510252             -12.2730
        53        2.0000           -0.4476868             -12.1822
        54        2.0000           -0.4452987             -12.1172
        55        2.0000           -0.4376580             -11.9093
        56        2.0000           -0.4364823             -11.8773
        57        2.0000           -0.4302314             -11.7072
        58        2.0000           -0.4113308             -11.1929
        59        2.0000           -0.4074632             -11.0876
        60        2.0000           -0.4061083             -11.0508
        61        2.0000           -0.3878847             -10.5549
        62        2.0000           -0.3869110             -10.5284
        63        2.0000           -0.3751964             -10.2096
        64        2.0000           -0.3665340              -9.9739 (HOMO)
        65                         -0.2911584              -7.9228 (LUMO)
        66                         -0.2570407              -6.9944
        67                         -0.2527210              -6.8769
        68                         -0.2231873              -6.0732
        69                         -0.2099278              -5.7124
        70                         -0.1901696              -5.1748
        71                         -0.1699810              -4.6254
        72                         -0.1323360              -3.6010
        73                         -0.0779568              -2.1213
        74                         -0.0633436              -1.7237
        75                         -0.0195456              -0.5319
       ...                                ...                  ...
       120                          0.7282662              19.8171
      -------------------------------------------------------------
                  HL-Gap            0.0753756 Eh            2.0511 eV
             Fermi-level           -0.3288462 Eh           -8.9484 eV

     #   Z          covCN         q      C6AA      α(0)
     1   6 C        3.750    -0.096    22.388     6.748
     2   6 C        3.804    -0.058    21.614     6.619
     3   6 C        2.969     0.016    27.642     8.624
     4   6 C        3.032    -0.022    28.522     8.760
     5   6 C        3.792     0.007    20.464     6.442
     6   7 N        2.784    -0.067    22.535     7.050
     7   6 C        2.978     0.053    26.816     8.494
     8   6 C        2.904    -0.062    29.530     8.910
     9   6 C        2.980     0.006    27.892     8.663
    10   6 C        2.975    -0.022    28.541     8.763
    11   6 C        2.763     0.257    22.672     7.798
    12   8 O        0.858    -0.446    22.616     6.376
    13   6 C        2.912    -0.042    29.037     8.836
    14   6 C        2.843     0.147    24.793     8.160
    15   6 C        2.910    -0.066    29.638     8.927
    16   6 C        2.916    -0.037    28.912     8.817
    17   8 O        1.659    -0.387    20.591     6.126
    18   6 C        3.018     0.084    26.105     8.381
    19   7 N        1.846    -0.256    27.506     7.773
    20   6 C        2.977     0.094    25.897     8.348
    21   6 C        2.980    -0.012    28.319     8.729
    22   6 C        2.916    -0.037    28.918     8.818
    23   6 C        2.910    -0.050    29.250     8.868
    24   6 C        2.844     0.150    24.746     8.153
    25   6 C        2.929    -0.083    30.083     8.995
    26   8 O        1.659    -0.387    20.592     6.126
    27   1 H        0.924     0.041     2.434     2.440
    28   1 H        0.924     0.036     2.502     2.474
    29   1 H        0.924     0.039     2.457     2.451
    30   1 H        0.924     0.040     2.451     2.448
    31   1 H        0.924     0.043     2.411     2.428
    32   1 H        0.924     0.070     2.086     2.259
    33   1 H        0.924     0.072     2.065     2.247
    34   1 H        0.925     0.061     2.191     2.315
    35   1 H        0.925     0.080     1.976     2.198
    36   1 H        0.925     0.033     2.540     2.492
    37   1 H        0.925     0.042     2.422     2.434
    38   1 H        0.804     0.301     0.719     1.332
    39   1 H        0.925     0.046     2.370     2.407
    40   1 H        0.925     0.057     2.240     2.340
    41   1 H        0.925     0.049     2.339     2.391
    42   1 H        0.804     0.304     0.710     1.323

 Mol. C6AA /au·bohr⁶  :      24024.384787
 Mol. C8AA /au·bohr⁸  :     594434.540415
 Mol. α(0) /au        :        244.285878


Wiberg/Mayer (AO) data.
largest (>0.10) Wiberg bond orders for each atom

 ---------------------------------------------------------------------------
     #   Z sym  total        # sym  WBO       # sym  WBO       # sym  WBO
 ---------------------------------------------------------------------------
     1   6 C    3.994 --     2 C    1.001    28 H    0.987    29 H    0.987
                            27 H    0.985
     2   6 C    3.995 --     3 C    1.013     1 C    1.001    30 H    0.972
                            31 H    0.967
     3   6 C    3.979 --     4 C    1.470    21 C    1.266     2 C    1.013
                            19 N    0.101
     4   6 C    3.975 --     3 C    1.470    18 C    1.275     5 C    1.013
     5   6 C    3.969 --     4 C    1.013     6 N    0.974    33 H    0.952
                            32 H    0.951
     6   7 N    3.577 --    11 C    1.157     7 C    1.126     5 C    0.974
                            12 O    0.160
     7   6 C    3.957 --     8 C    1.595     6 N    1.126    18 C    1.068
     8   6 C    3.970 --     7 C    1.595     9 C    1.157    34 H    0.964
     9   6 C    3.988 --    16 C    1.349    10 C    1.300     8 C    1.157
    10   6 C    3.982 --    13 C    1.397     9 C    1.300    11 C    1.035
    11   6 C    3.952 --    12 O    1.652     6 N    1.157    10 C    1.035
    12   8 O    1.989 --    11 C    1.652     6 N    0.160
    13   6 C    3.983 --    10 C    1.397    14 C    1.383    35 H    0.961
                            16 C    0.110
    14   6 C    3.930 --    13 C    1.383    15 C    1.346    17 O    1.075
    15   6 C    3.987 --    16 C    1.476    14 C    1.346    36 H    0.966
    16   6 C    3.978 --    15 C    1.476     9 C    1.349    37 H    0.969
                            13 C    0.110
    17   8 O    2.116 --    14 C    1.075    38 H    0.888
    18   6 C    3.980 --    19 N    1.437     4 C    1.275     7 C    1.068
    19   7 N    3.036 --    18 C    1.437    20 C    1.302     3 C    0.101
    20   6 C    3.981 --    25 C    1.311    19 N    1.302    21 C    1.199
    21   6 C    3.983 --    22 C    1.302     3 C    1.266    20 C    1.199
    22   6 C    3.985 --    23 C    1.522    21 C    1.302    39 H    0.966
                            25 C    0.117
    23   6 C    3.976 --    22 C    1.522    24 C    1.304    40 H    0.967
    24   6 C    3.937 --    25 C    1.429    23 C    1.304    26 O    1.078
    25   6 C    3.974 --    24 C    1.429    20 C    1.311    41 H    0.962
                            22 C    0.117
    26   8 O    2.122 --    24 C    1.078    42 H    0.886
    27   1 H    0.997 --     1 C    0.985
    28   1 H    0.999 --     1 C    0.987
    29   1 H    0.998 --     1 C    0.987
    30   1 H    0.998 --     2 C    0.972
    31   1 H    0.998 --     2 C    0.967
    32   1 H    0.992 --     5 C    0.951
    33   1 H    0.992 --     5 C    0.952
    34   1 H    0.996 --     8 C    0.964
    35   1 H    0.993 --    13 C    0.961
    36   1 H    0.998 --    15 C    0.966
    37   1 H    0.998 --    16 C    0.969
    38   1 H    0.909 --    17 O    0.888
    39   1 H    0.998 --    22 C    0.966
    40   1 H    0.996 --    23 C    0.967
    41   1 H    0.997 --    25 C    0.962
    42   1 H    0.908 --    26 O    0.886
 ---------------------------------------------------------------------------

Topologies differ in total number of bonds
Writing topology from bond orders to xtbtopo.mol

molecular dipole:
                 x           y           z       tot (Debye)
 q only:       -0.680      -1.205       0.419
   full:       -0.581      -1.299       0.446       3.791
molecular quadrupole (traceless):
                xx          xy          yy          xz          yz          zz
 q only:        9.732     -23.685      -4.136       6.264       1.710      -5.595
  q+dip:       13.539     -31.934      -2.535       7.577       0.756     -11.005
   full:       10.274     -31.257      -5.282       8.663       3.687      -4.992


           -------------------------------------------------
          | TOTAL ENERGY              -71.240780042964 Eh   |
          | GRADIENT NORM               0.098118453119 Eh/α |
          | HOMO-LUMO GAP               2.051074093352 eV   |
           -------------------------------------------------

------------------------------------------------------------------------
 * finished run on 2026/08/31 at 18:34:31.618     
------------------------------------------------------------------------
 total:
 * wall-time:     0 d,  0 h,  0 min,  0.068 sec
 *  cpu-time:     0 d,  0 h,  0 min,  0.547 sec
 * ratio c/w:     8.042 speedup
 SCF:
 * wall-time:     0 d,  0 h,  0 min,  0.033 sec
 *  cpu-time:     0 d,  0 h,  0 min,  0.406 sec
 * ratio c/w:    12.311 speedup

normal termination of xtb
