114
Drug@B36N36 complex
C     -3.527143      2.167729     -1.636935
C     -3.017580      2.167892     -0.203041
C     -2.312591      0.879797      0.148356
C     -0.933642      0.792180      0.014916
C      0.079470      1.804326     -0.436393
N      1.339768      1.062688     -0.348641
C      1.134237     -0.227303      0.097426
C      2.132369     -1.099340      0.260697
C      3.494025     -0.652354     -0.050295
C      3.722906      0.661557     -0.506853
C      2.568542      1.593360     -0.670769
O      2.725957      2.743774     -1.064999
C      5.017131      1.095661     -0.805557
C      6.080626      0.215398     -0.647356
C      5.875248     -1.087188     -0.197363
C      4.580172     -1.521599      0.101550
O      7.330144      0.670731     -0.947566
C     -0.296517     -0.402497      0.327008
N     -0.887560     -1.522252      0.756622
C     -2.222684     -1.459669      0.883793
C     -2.994593     -0.290119      0.592081
C     -4.397083     -0.359127      0.758364
C     -5.018129     -1.527263      1.198395
C     -4.248145     -2.641739      1.477183
C     -2.867128     -2.607149      1.320831
O     -4.889330     -3.766112      1.905641
H     -4.022448      3.117716     -1.861394
H     -2.705386      2.037972     -2.349347
H     -4.248304      1.362060     -1.808330
H     -2.336921      3.016748     -0.065060
H     -3.840960      2.356420      0.494636
H      0.129845      2.670540      0.230427
H     -0.078638      2.119544     -1.472286
H      1.955306     -2.109607      0.611356
H      5.194569      2.108485     -1.157589
H      6.706140     -1.775456     -0.073592
H      4.429291     -2.540059      0.452196
H      7.972719     -0.040987     -0.793301
H     -5.031647      0.496590      0.544359
H     -6.097084     -1.563903      1.321177
H     -2.264946     -3.484445      1.538071
H     -4.230010     -4.462995      2.061581
B      2.101200      0.000000      3.345000
B     -2.101200      0.000000      3.345000
B      0.000000      2.101200      3.345000
B      0.000000     -2.101200      3.345000
B      3.345000      2.101200      0.000000
B      3.345000     -2.101200      0.000000
B      3.345000      0.000000      2.101200
B      3.345000      0.000000     -2.101200
B     -3.345000      2.101200      0.000000
B     -3.345000     -2.101200      0.000000
B     -3.345000      0.000000      2.101200
B     -3.345000      0.000000     -2.101200
B      2.101200      0.000000     -3.345000
B     -2.101200      0.000000     -3.345000
B      0.000000      2.101200     -3.345000
B      0.000000     -2.101200     -3.345000
B      0.000000      3.345000      2.101200
B      0.000000      3.345000     -2.101200
B      0.000000     -3.345000      2.101200
B      0.000000     -3.345000     -2.101200
B      2.101200      3.345000      0.000000
B     -2.101200      3.345000      0.000000
B      2.101200     -3.345000      0.000000
B     -2.101200     -3.345000      0.000000
B      1.480000      1.480000      3.580000
B     -1.480000      1.480000      3.580000
B      1.480000     -1.480000      3.580000
B     -1.480000     -1.480000      3.580000
B      3.580000      1.480000      1.480000
B      3.580000     -1.480000      1.480000
B      3.580000      1.480000     -1.480000
B      3.580000     -1.480000     -1.480000
B     -3.580000      1.480000      1.480000
B     -3.580000     -1.480000      1.480000
B     -3.580000      1.480000     -1.480000
B     -3.580000     -1.480000     -1.480000
N      2.101200      0.000000      3.920000
N     -2.101200      0.000000      3.920000
N      0.000000      2.101200      3.920000
N      0.000000     -2.101200      3.920000
N      3.920000      2.101200      0.000000
N      3.920000     -2.101200      0.000000
N      3.920000      0.000000      2.101200
N      3.920000      0.000000     -2.101200
N     -3.920000      2.101200      0.000000
N     -3.920000     -2.101200      0.000000
N     -3.920000      0.000000      2.101200
N     -3.920000      0.000000     -2.101200
N      2.101200      0.000000     -3.920000
N     -2.101200      0.000000     -3.920000
N      0.000000      2.101200     -3.920000
N      0.000000     -2.101200     -3.920000
N      0.000000      3.920000      2.101200
N      0.000000      3.920000     -2.101200
N      0.000000     -3.920000      2.101200
N      0.000000     -3.920000     -2.101200
N      2.101200      3.920000      0.000000
N     -2.101200      3.920000      0.000000
N      2.101200     -3.920000      0.000000
N     -2.101200     -3.920000      0.000000
N      1.480000      1.480000      4.220000
N     -1.480000      1.480000      4.220000
N      1.480000     -1.480000      4.220000
N     -1.480000     -1.480000      4.220000
N      4.220000      1.480000      1.480000
N      4.220000     -1.480000      1.480000
N      4.220000      1.480000     -1.480000
N      4.220000     -1.480000     -1.480000
N     -4.220000      1.480000      1.480000
N     -4.220000     -1.480000      1.480000
N     -4.220000      1.480000     -1.480000
N     -4.220000     -1.480000     -1.480000
