      -----------------------------------------------------------      
     |                   =====================                   |     
     |                           x T B                           |     
     |                   =====================                   |     
     |                         S. Grimme                         |     
     |          Mulliken Center for Theoretical Chemistry        |     
     |                    University of Bonn                     |     
      -----------------------------------------------------------      

   * xtb version 6.7.1pre (5071a88) compiled by 'Marcel@Raven' on 2024-07-23

   xtb is free software: you can redistribute it and/or modify it under
   the terms of the GNU Lesser General Public License as published by
   the Free Software Foundation, either version 3 of the License, or
   (at your option) any later version.
   
   xtb is distributed in the hope that it will be useful,
   but WITHOUT ANY WARRANTY; without even the implied warranty of
   MERCHANTABILITY or FITNESS FOR A PARTICULAR PURPOSE.  See the
   GNU Lesser General Public License for more details.
   
   Cite this work as:
   * C. Bannwarth, E. Caldeweyher, S. Ehlert, A. Hansen, P. Pracht,
     J. Seibert, S. Spicher, S. Grimme, WIREs Comput. Mol. Sci., 2020, 11,
     e01493. DOI: 10.1002/wcms.1493
   
   for GFN2-xTB:
   * C. Bannwarth, S. Ehlert and S. Grimme., J. Chem. Theory Comput., 2019,
     15, 1652-1671. DOI: 10.1021/acs.jctc.8b01176
   for GFN1-xTB:
   * S. Grimme, C. Bannwarth, P. Shushkov, J. Chem. Theory Comput., 2017,
     13, 1989-2009. DOI: 10.1021/acs.jctc.7b00118
   for GFN0-xTB:
   * P. Pracht, E. Caldeweyher, S. Ehlert, S. Grimme, ChemRxiv, 2019, preprint.
     DOI: 10.26434/chemrxiv.8326202.v1
   for GFN-FF:
   * S. Spicher and S. Grimme, Angew. Chem. Int. Ed., 2020, 59, 15665-15673.
     DOI: 10.1002/anie.202004239
   
   for ALPB and GBSA implicit solvation:
   * S. Ehlert, M. Stahn, S. Spicher, S. Grimme, J. Chem. Theory Comput.,
     2021, 17, 4250-4261. DOI: 10.1021/acs.jctc.1c00471
   
   for ddCOSMO and CPCM-X implicit solvation:
   * M. Stahn, S. Ehlert, S. Grimme, J. Phys. Chem. A,
     2023, XX, XXXX-XXXX. DOI: 10.1021/acs.jpca.3c04382
   
   for DFT-D4:
   * E. Caldeweyher, C. Bannwarth and S. Grimme, J. Chem. Phys., 2017,
     147, 034112. DOI: 10.1063/1.4993215
   * E. Caldeweyher, S. Ehlert, A. Hansen, H. Neugebauer, S. Spicher,
     C. Bannwarth and S. Grimme, J. Chem. Phys., 2019, 150, 154122.
     DOI: 10.1063/1.5090222
   * E. Caldeweyher, J.-M. Mewes, S. Ehlert and S. Grimme, Phys. Chem. Chem. Phys.
     2020, 22, 8499-8512. DOI: 10.1039/D0CP00502A
   
   for sTDA-xTB:
   * S. Grimme and C. Bannwarth, J. Chem. Phys., 2016, 145, 054103.
     DOI: 10.1063/1.4959605
   
   in the mass-spec context:
   * V. Asgeirsson, C. Bauer and S. Grimme, Chem. Sci., 2017, 8, 4879.
     DOI: 10.1039/c7sc00601b
   * J. Koopman and S. Grimme, ACS Omega 2019, 4, 12, 15120-15133.
     DOI: 10.1021/acsomega.9b02011
   
   for metadynamics refer to:
   * S. Grimme, J. Chem. Theory Comput., 2019, 155, 2847-2862
     DOI: 10.1021/acs.jctc.9b00143
   
   for SPH calculations refer to:
   * S. Spicher and S. Grimme, J. Chem. Theory Comput., 2021, 17, 1701-1714
     DOI: 10.1021/acs.jctc.0c01306
   
   for ONIOM refer to:
   * C. Plett, A. Katbashev, S. Ehlert, S. Grimme, M. Bursch,
     Phys. Chem. Chem. Phys., 2023, 25, 17860-17868. DOI: 10.1039/D3CP02178E
   
   for DIPRO refer to:
   * J. Kohn, N. Gildemeister, S. Grimme, D. Fazzi, A. Hansen,
     J. Chem. Phys., 2023, just accepted.
   
   for PTB refer to:
   * S. Grimme, M. Mueller, A. Hansen, J. Chem. Phys., 2023, 158, 124111.
     DOI: 10.1063/5.0137838
   
   with help from (in alphabetical order)
   P. Atkinson, C. Bannwarth, F. Bohle, G. Brandenburg, E. Caldeweyher
   M. Checinski, S. Dohm, S. Ehlert, S. Ehrlich, I. Gerasimov, C. Hölzer
   A. Katbashev, J. Kohn, J. Koopman, C. Lavigne, S. Lehtola, F. März, M. Müller,
   F. Musil, H. Neugebauer, J. Pisarek, C. Plett, P. Pracht, F. Pultar,
   J. Seibert, P. Shushkov, S. Spicher, M. Stahn, M. Steiner, T. Strunk,
   J. Stückrath, T. Rose, and J. Unsleber
   
 * started run on 2026/08/31 at 18:34:34.451     
   ID    Z sym.   atoms
    1    6 C      1-5, 7-11, 13-16, 18, 20-25
    2    7 N      6, 19, 79-114
    3    8 O      12, 17, 26
    4    1 H      27-42
    5    5 B      43-78

           -------------------------------------------------
          |                Calculation Setup                |
           -------------------------------------------------

          program call               : "c:\Users\Andre\Proyectos doctorado\kras-pancreatic-gC3N4-ai\tools\xtb\xtb-6.7.1\bin\xtb.exe" "c:\Users\Andre\Proyectos doctorado\nano-qsar-ai-therapeutics\calculations\tnbc\SN_38\SN-38_B36N36_complex.xyz" --gfn 2 --sp --chrg 0 --uhf 0 --iterations 500 --norestart
          coordinate file            : c:\Users\Andre\Proyectos doctorado\nano-qsar-ai-therapeutics\calculations\tnbc\SN_38\SN-38_B36N36_complex.xyz
          omp threads                :                    16


molecular fragmentation (1/2 indicates fragments):
111111111111111111111111111111111111111111111111111111111211121111111111
111111111111111111111211121111111111111111
# atoms in fragment 1/2:   110     4
 fragment masses (1/2) :     1188.17       49.64
CMA distance (Bohr)    :   8.476
constraining FC (au)   :  0.0500

           -------------------------------------------------
          |                 G F N 2 - x T B                 |
           -------------------------------------------------

        Reference                      10.1021/acs.jctc.8b01176
      * Hamiltonian:
        H0-scaling (s, p, d)           1.850000    2.230000    2.230000
        zeta-weighting                 0.500000
      * Dispersion:
        s8                             2.700000
        a1                             0.520000
        a2                             5.000000
        s9                             5.000000
      * Repulsion:
        kExp                           1.500000    1.000000
        rExp                           1.000000
      * Coulomb:
        alpha                          2.000000
        third order                    shell-resolved
        anisotropic                    true
        a3                             3.000000
        a5                             4.000000
        cn-shift                       1.200000
        cn-exp                         4.000000
        max-rad                        5.000000


          ...................................................
          :                      SETUP                      :
          :.................................................:
          :  # basis functions                 408          :
          :  # atomic orbitals                 408          :
          :  # shells                          212          :
          :  # electrons                       416          :
          :  max. iterations                   500          :
          :  Hamiltonian                  GFN2-xTB          :
          :  restarted?                      false          :
          :  GBSA solvation                  false          :
          :  PC potential                    false          :
          :  electronic temp.          300.0000000     K    :
          :  accuracy                    1.0000000          :
          :  -> integral cutoff          0.2500000E+02      :
          :  -> integral neglect         0.1000000E-07      :
          :  -> SCF convergence          0.1000000E-05 Eh   :
          :  -> wf. convergence          0.1000000E-03 e    :
          :  Broyden damping             0.4000000          :
          :  net charge                          0          :
          :  unpaired electrons                  0          :
          ...................................................

 iter      E             dE          RMSdq      gap      omega  full diag
   1   -212.9435347 -0.212944E+03  0.144E+01    0.27       0.0  T
   2   -192.8114354  0.201321E+02  0.109E+01    0.02       1.0  T
   3    229.5175039  0.422329E+03  0.176E+01    0.17       1.0  T
   4    -14.0027148 -0.243520E+03  0.124E+01    0.12       1.0  T
   5   -182.2961644 -0.168293E+03  0.857E+00    0.17       1.0  T
   6   -209.7805474 -0.274844E+02  0.613E+00    0.46       1.0  T
   7   -215.8343819 -0.605383E+01  0.428E+00    0.29       1.0  T
   8   -218.0204080 -0.218603E+01  0.336E+00    0.03       1.0  T
   9   -219.7542705 -0.173386E+01  0.286E+00    0.06       1.0  T
  10   -219.9517470 -0.197477E+00  0.239E+00    0.08       1.0  T
  11   -219.9539794 -0.223233E-02  0.201E+00    0.13       1.0  T
  12   -220.6665590 -0.712580E+00  0.144E+00    0.09       1.0  T
  13   -220.8121198 -0.145561E+00  0.122E+00    0.10       1.0  T
  14   -220.8086641  0.345572E-02  0.118E+00    0.05       1.0  T
  15   -220.9340026 -0.125338E+00  0.907E-01    0.07       1.0  T
  16   -220.7202048  0.213798E+00  0.964E-01    0.10       1.0  T
  17   -220.9897150 -0.269510E+00  0.399E-01    0.03       1.0  T
  18   -220.9927715 -0.305648E-02  0.375E-01    0.05       1.0  T
  19   -220.9381330  0.546385E-01  0.454E-01    0.16       1.0  T
  20   -220.9780209 -0.398879E-01  0.358E-01    0.09       1.0  T
  21   -220.9864208 -0.839991E-02  0.313E-01    0.09       1.0  T
  22   -221.0130788 -0.266580E-01  0.185E-01    0.02       1.0  T
  23   -221.0224288 -0.935000E-02  0.106E-01    0.03       1.0  T
  24   -221.0241853 -0.175645E-02  0.747E-02    0.03       1.0  T
  25   -221.0255315 -0.134626E-02  0.557E-02    0.03       1.0  T
  26   -221.0260216 -0.490078E-03  0.431E-02    0.03       1.0  T
  27   -221.0265563 -0.534693E-03  0.290E-02    0.02       1.0  T
  28   -221.0266578 -0.101486E-03  0.170E-02    0.03       1.0  T
  29   -221.0266447  0.130504E-04  0.141E-02    0.03       1.0  T
  30   -221.0266798 -0.350953E-04  0.955E-03    0.02       1.0  T
  31   -221.0266951 -0.152711E-04  0.546E-03    0.02       1.7  T
  32   -221.0266977 -0.263745E-05  0.357E-03    0.02       2.6  T
  33   -221.0266982 -0.483541E-06  0.266E-03    0.02       3.5  T
  34   -221.0267000 -0.179499E-05  0.938E-04    0.02      10.0  T
  35   -221.0267001 -0.109057E-06  0.516E-04    0.02      18.2  T
  36   -221.0267002 -0.919580E-07  0.238E-04    0.02      39.3  T

   *** convergence criteria satisfied after 36 iterations ***

         #    Occupation            Energy/Eh            Energy/eV
      -------------------------------------------------------------
         1        2.0000           -0.9739472             -26.5025
       ...           ...                  ...                  ...
       202        2.0000           -0.1869784              -5.0879
       203        2.0000           -0.1746918              -4.7536
       204        2.0000           -0.1647220              -4.4823
       205        2.0000           -0.1632135              -4.4413
       206        2.0000           -0.1455954              -3.9619
       207        2.0000           -0.1438963              -3.9156
       208        1.2149           -0.1342049              -3.6519 (HOMO)
       209        0.7544           -0.1333137              -3.6277 (LUMO)
       210        0.0305           -0.1298300              -3.5329
       211        0.0002           -0.1250225              -3.4020
       212        0.0000           -0.1223035              -3.3280
       213                         -0.1106988              -3.0123
       ...                                ...                  ...
       408                         45.8817470            1248.5059
      -------------------------------------------------------------
                  HL-Gap            0.0008912 Eh            0.0243 eV
             Fermi-level           -0.1337901 Eh           -3.6406 eV

 SCC (total)                   0 d,  0 h,  0 min,  0.829 sec
 SCC setup                      ...        0 min,  0.001 sec (  0.121%)
 Dispersion                     ...        0 min,  0.004 sec (  0.483%)
 classical contributions        ...        0 min,  0.000 sec (  0.000%)
 integral evaluation            ...        0 min,  0.016 sec (  1.930%)
 iterations                     ...        0 min,  0.774 sec ( 93.365%)
 molecular gradient             ...        0 min,  0.032 sec (  3.860%)
 printout                       ...        0 min,  0.002 sec (  0.241%)

         :::::::::::::::::::::::::::::::::::::::::::::::::::::
         ::                     SUMMARY                     ::
         :::::::::::::::::::::::::::::::::::::::::::::::::::::
         :: total energy              10.611940571846 Eh    ::
         :: gradient norm            169.165900569005 Eh/a0 ::
         :: HOMO-LUMO gap              0.024250359804 eV    ::
         ::.................................................::
         :: SCC energy              -220.992911832396 Eh    ::
         :: -> isotropic ES            1.238635341283 Eh    ::
         :: -> anisotropic ES          0.126671788533 Eh    ::
         :: -> anisotropic XC          0.325710627490 Eh    ::
         :: -> dispersion             -0.328095760717 Eh    ::
         :: repulsion energy         231.604852404242 Eh    ::
         :: add. restraining           0.000000000000 Eh    ::
         :: total charge              -0.000000000007 e     ::
         :::::::::::::::::::::::::::::::::::::::::::::::::::::

           -------------------------------------------------
          |                Property Printout                |
           -------------------------------------------------

    * Orbital Energies and Occupations

         #    Occupation            Energy/Eh            Energy/eV
      -------------------------------------------------------------
         1        2.0000           -0.9739472             -26.5025
       ...           ...                  ...                  ...
       196        2.0000           -0.2258144              -6.1447
       197        2.0000           -0.2140618              -5.8249
       198        2.0000           -0.2051395              -5.5821
       199        2.0000           -0.2026557              -5.5145
       200        2.0000           -0.1963560              -5.3431
       201        2.0000           -0.1903583              -5.1799
       202        2.0000           -0.1869784              -5.0879
       203        2.0000           -0.1746918              -4.7536
       204        2.0000           -0.1647220              -4.4823
       205        2.0000           -0.1632135              -4.4413
       206        2.0000           -0.1455954              -3.9619
       207        2.0000           -0.1438963              -3.9156
       208        1.2149           -0.1342049              -3.6519 (HOMO)
       209        0.7544           -0.1333137              -3.6277 (LUMO)
       210        0.0305           -0.1298300              -3.5329
       211        0.0002           -0.1250225              -3.4020
       212        0.0000           -0.1223035              -3.3280
       213                         -0.1106988              -3.0123
       214                         -0.1056957              -2.8761
       215                         -0.1028141              -2.7977
       216                         -0.0950296              -2.5859
       217                         -0.0862812              -2.3478
       218                         -0.0847241              -2.3055
       219                         -0.0813529              -2.2137
       ...                                ...                  ...
       408                         45.8817470            1248.5059
      -------------------------------------------------------------
                  HL-Gap            0.0008912 Eh            0.0243 eV
             Fermi-level           -0.1337901 Eh           -3.6406 eV

     #   Z          covCN         q      C6AA      α(0)
     1   6 C        7.485    -0.121    22.709     6.768
     2   6 C        9.145     0.121    18.535     6.114
     3   6 C        5.076    -0.249    25.413     7.159
     4   6 C        3.032    -0.220    33.832     9.541
     5   6 C        3.886    -0.125    22.837     6.794
     6   7 N        2.831    -0.173    24.735     7.387
     7   6 C        2.978    -0.077    29.907     8.970
     8   6 C        4.850    -0.257    25.577     7.182
     9   6 C        8.249    -0.115    22.601     6.752
    10   6 C        8.561     0.091    18.993     6.189
    11   6 C        6.857     0.088    19.046     6.198
    12   8 O        4.501    -0.423    21.246     6.225
    13   6 C        6.191    -0.096    22.240     6.697
    14   6 C        2.850    -0.009    28.235     8.709
    15   6 C        3.130    -0.249    34.506     9.617
    16   6 C        8.102     0.112    18.665     6.136
    17   8 O        1.659    -0.488    22.639     6.423
    18   6 C        3.018     0.013    27.697     8.633
    19   7 N        1.879    -0.438    32.461     8.446
    20   6 C        5.807     0.033    19.936     6.341
    21   6 C        7.193    -0.146    23.216     6.843
    22   6 C        7.751    -0.034    21.092     6.522
    23   6 C        6.009    -0.040    21.191     6.538
    24   6 C        6.331     0.071    19.312     6.241
    25   6 C        7.463    -0.182    23.955     6.951
    26   8 O        1.659    -0.464    22.121     6.349
    27   1 H        0.948    -0.150     7.653     4.324
    28   1 H        1.658     0.093     1.834     2.114
    29   1 H        3.088     0.554     0.275     0.818
    30   1 H        3.456     0.586     0.248     0.777
    31   1 H        3.932     0.583     0.250     0.781
    32   1 H        0.924     0.051     2.304     2.374
    33   1 H        1.600     0.119     1.614     1.983
    34   1 H        1.889     0.241     0.908     1.487
    35   1 H        1.720     0.209     1.046     1.596
    36   1 H        0.925    -0.060     4.333     3.255
    37   1 H        2.864     0.397     0.478     1.079
    38   1 H        0.804     0.270     0.818     1.421
    39   1 H        0.971    -0.039     3.824     3.056
    40   1 H        0.925    -0.003     3.107     2.756
    41   1 H        1.179     0.108     1.704     2.038
    42   1 H        0.804     0.326     0.647     1.263
    43   5 B        5.102     0.097    21.019     7.387
    44   5 B        5.102     0.084    21.244     7.426
    45   5 B        5.102     0.107    20.860     7.359
    46   5 B        5.102     0.132    20.435     7.284
    47   5 B        8.035     0.399    16.646     6.574
    48   5 B        9.005     0.238    18.819     6.990
    49   5 B        5.220     0.138    20.342     7.267
    50   5 B        6.269     0.187    19.570     7.128
    51   5 B        9.468     0.278    18.245     6.882
    52   5 B        8.772     0.331    17.517     6.744
    53   5 B        7.047     0.220    19.081     7.038
    54   5 B        5.302     0.107    20.857     7.359
    55   5 B        1.850     0.103    40.953    13.479
    56   5 B        1.850     0.072    41.989    13.648
    57   5 B        1.851     0.110    40.720    13.440
    58   5 B        1.850     0.113    40.628    13.425
    59   5 B        1.850     0.084    41.582    13.582
    60   5 B        2.617     0.138    19.741     7.521
    61   5 B        1.856     0.119    40.395    13.386
    62   5 B        1.850     0.109    40.747    13.445
    63   5 B        3.269     0.353    16.174     6.707
    64   5 B        3.730    -0.163    25.948     8.230
    65   5 B        2.609     0.093    20.523     7.678
    66   5 B        3.314     0.289    16.988     6.873
    67   5 B        4.397     0.296    17.997     6.835
    68   5 B        4.397     0.274    18.293     6.891
    69   5 B        4.397     0.290    18.071     6.849
    70   5 B        4.397     0.312    17.779     6.794
    71   5 B        4.657     0.288    18.098     6.854
    72   5 B        6.771     0.277    18.251     6.883
    73   5 B        7.865     0.340    17.408     6.723
    74   5 B        6.111     0.284    18.153     6.865
    75   5 B        7.082     0.205    19.294     7.077
    76   5 B        9.822     0.339    17.416     6.724
    77   5 B        8.153     0.396    16.688     6.582
    78   5 B        4.409     0.346    17.320     6.706
    79   7 N        4.372    -0.067    22.532     7.050
    80   7 N        4.372    -0.117    23.532     7.205
    81   7 N        4.372    -0.050    22.204     6.999
    82   7 N        4.372    -0.055    22.289     7.012
    83   7 N        7.590    -0.254    26.593     7.659
    84   7 N        7.350     0.131    19.008     6.475
    85   7 N        4.400    -0.135    23.906     7.262
    86   7 N        5.561    -0.164    24.542     7.358
    87   7 N        7.292    -0.077    22.738     7.082
    88   7 N        7.734    -0.303    27.778     7.828
    89   7 N        6.208    -0.256    26.643     7.666
    90   7 N        4.698    -0.335    28.591     7.942
    91   7 N        0.932    -0.164    24.439     7.138
    92   7 N        0.932    -0.207    25.378     7.274
    93   7 N        0.932    -0.157    24.276     7.115
    94   7 N        0.932    -0.113    23.361     6.979
    95   7 N        0.932    -0.192    25.046     7.226
    96   7 N        0.932    -0.250    26.388     7.418
    97   7 N        0.932    -0.214    25.536     7.297
    98   7 N        0.932    -0.113    23.359     6.979
    99   7 N        1.567    -0.425    31.355     8.210
   100   7 N        2.169     0.000    21.703     6.913
   101   7 N        0.932    -0.178    24.745     7.183
   102   7 N        1.288    -0.347    27.463     7.451
   103   7 N        3.977    -0.355    29.132     8.016
   104   7 N        3.977    -0.367    29.456     8.061
   105   7 N        3.977    -0.359    29.240     8.031
   106   7 N        3.977    -0.380    29.797     8.107
   107   7 N        4.052    -0.325    28.333     7.906
   108   7 N        5.627    -0.352    29.051     8.005
   109   7 N        7.329     0.071    20.005     6.643
   110   7 N        5.713    -0.395    30.211     8.163
   111   7 N        4.956    -0.540    34.544     8.729
   112   7 N        8.172     0.396    15.248     5.800
   113   7 N        6.333    -0.211    25.586     7.513
   114   7 N        3.978    -0.437    31.398     8.322

 Mol. C6AA /au·bohr⁶  :     247145.206619
 Mol. C8AA /au·bohr⁸  :    7027042.477783
 Mol. α(0) /au        :        783.502305


Wiberg/Mayer (AO) data.
largest (>0.10) Wiberg bond orders for each atom

 ---------------------------------------------------------------------------
     #   Z sym  total        # sym  WBO       # sym  WBO       # sym  WBO
 ---------------------------------------------------------------------------
     1   6 C    3.768 --    77 B    0.934   113 N    0.839    27 H    0.749
                            28 H    0.615     2 C    0.185
     2   6 C    3.871 --    51 B    1.776    87 N    0.774     3 C    0.413
                            64 B    0.211     1 C    0.185    30 H    0.110
     3   6 C    3.708 --     4 C    1.142    21 C    1.014     2 C    0.413
                            87 N    0.275    51 B    0.147    75 B    0.144
     4   6 C    3.753 --    18 C    1.198     3 C    1.142     5 C    1.004
     5   6 C    3.967 --     4 C    1.004     6 N    0.961    32 H    0.920
                            33 H    0.791
     6   7 N    3.336 --     7 C    1.031    11 C    0.978     5 C    0.961
     7   6 C    3.815 --    18 C    1.201     8 C    1.198     6 N    1.031
     8   6 C    3.744 --     7 C    1.198     9 C    0.722    34 H    0.616
                            48 B    0.414    72 B    0.179   101 N    0.113
     9   6 C    3.739 --    10 C    1.247    16 C    0.800     8 C    0.722
                            48 B    0.192    74 B    0.158
    10   6 C    3.762 --     9 C    1.247    13 C    0.694    11 C    0.419
                           109 N    0.376    73 B    0.277    83 N    0.172
    11   6 C    3.807 --     6 N    0.978    12 O    0.860    73 B    0.583
                            47 B    0.506    10 C    0.419
    12   8 O    2.055 --    11 C    0.860    63 B    0.279    47 B    0.230
                            73 B    0.196
    13   6 C    3.803 --    14 C    1.177   109 N    0.775    10 C    0.694
                            35 H    0.612    83 N    0.123
    14   6 C    3.712 --    15 C    1.213    13 C    1.177    17 O    0.944
    15   6 C    3.767 --    14 C    1.213    16 C    1.103    36 H    0.944
    16   6 C    3.859 --    15 C    1.103    84 N    0.915     9 C    0.800
                           108 N    0.448   110 N    0.133    48 B    0.101
    17   8 O    1.967 --    14 C    0.944    38 H    0.905
    18   6 C    3.929 --    19 N    1.212     7 C    1.201     4 C    1.198
    19   7 N    2.904 --    18 C    1.212    20 C    1.156
    20   6 C    3.795 --    19 N    1.156    21 C    0.816    25 C    0.703
                            76 B    0.401    52 B    0.232
    21   6 C    3.739 --     3 C    1.014    22 C    0.852    20 C    0.816
                            76 B    0.207    53 B    0.193    25 C    0.109
    22   6 C    3.537 --    21 C    0.852    39 H    0.843    23 C    0.625
                            89 N    0.387   112 N    0.232    76 B    0.109
    23   6 C    3.706 --   112 N    1.166    40 H    0.888    22 C    0.625
                            24 C    0.475    76 B    0.124
    24   6 C    3.464 --    26 O    0.950    25 C    0.778   112 N    0.565
                            23 C    0.475    76 B    0.247    88 N    0.141
    25   6 C    3.764 --    41 H    0.899    24 C    0.778    20 C    0.703
                            76 B    0.517    52 B    0.213    21 C    0.109
    26   8 O    1.947 --    24 C    0.950    42 H    0.866
    27   1 H    0.940 --     1 C    0.749
    28   1 H    0.984 --     1 C    0.615   113 N    0.162    77 B    0.126
    29   1 H    0.691 --   113 N    0.526    77 B    0.115
    30   1 H    0.655 --   100 N    0.230    64 B    0.217     2 C    0.110
    31   1 H    0.657 --    87 N    0.443    51 B    0.143
    32   1 H    0.994 --     5 C    0.920
    33   1 H    0.981 --     5 C    0.791    60 B    0.127
    34   1 H    0.939 --     8 C    0.616    48 B    0.141
    35   1 H    0.921 --    13 C    0.612   109 N    0.144
    36   1 H    0.991 --    15 C    0.944
    37   1 H    0.834 --    84 N    0.488
    38   1 H    0.926 --    17 O    0.905
    39   1 H    0.991 --    22 C    0.843
    40   1 H    0.992 --    23 C    0.888
    41   1 H    0.983 --    25 C    0.899
    42   1 H    0.892 --    26 O    0.866
    43   5 B    3.596 --    79 N    2.952    49 B    0.210    67 B    0.161
                            69 B    0.153
    44   5 B    3.618 --    80 N    2.904    53 B    0.285    70 B    0.146
                            68 B    0.146
    45   5 B    3.581 --    81 N    3.044    59 B    0.178    68 B    0.151
                            67 B    0.146
    46   5 B    3.577 --    82 N    3.064    61 B    0.157    69 B    0.150
                            70 B    0.139
    47   5 B    3.358 --    83 N    2.244    11 C    0.506    12 O    0.230
                            71 B    0.103
    48   5 B    3.477 --    84 N    1.999     8 C    0.414     9 C    0.192
                            65 B    0.170    34 H    0.141    74 B    0.110
                            16 C    0.101
    49   5 B    3.646 --    85 N    2.913    43 B    0.210    72 B    0.196
                            71 B    0.141
    50   5 B    3.587 --    86 N    3.007    55 B    0.166    74 B    0.119
                            73 B    0.107
    51   5 B    3.563 --     2 C    1.776    87 N    1.383     3 C    0.147
                            31 H    0.143
    52   5 B    3.420 --    88 N    2.627    20 C    0.232    25 C    0.213
                            78 B    0.120
    53   5 B    3.494 --    89 N    2.531    44 B    0.285    21 C    0.193
                            75 B    0.136
    54   5 B    3.615 --    90 N    2.813    77 B    0.256    56 B    0.186
                            78 B    0.136
    55   5 B    3.651 --    91 N    3.437    50 B    0.166
    56   5 B    3.668 --    92 N    3.388    54 B    0.186
    57   5 B    3.655 --    93 N    3.491    60 B    0.110
    58   5 B    3.656 --    94 N    3.531    62 B    0.122
    59   5 B    3.674 --    95 N    3.410    45 B    0.178
    60   5 B    3.643 --    96 N    3.356    33 H    0.127    57 B    0.110
    61   5 B    3.651 --    97 N    3.406    46 B    0.157
    62   5 B    3.660 --    98 N    3.533    58 B    0.122
    63   5 B    3.435 --    99 N    3.085    12 O    0.279
    64   5 B    3.710 --   100 N    3.056    30 H    0.217     2 C    0.211
                            87 N    0.103
    65   5 B    3.654 --   101 N    3.319    48 B    0.170
    66   5 B    3.519 --   102 N    3.260
    67   5 B    3.434 --   103 N    2.841    43 B    0.161    45 B    0.146
    68   5 B    3.451 --   104 N    2.870    45 B    0.151    44 B    0.146
    69   5 B    3.452 --   105 N    2.855    43 B    0.153    46 B    0.150
    70   5 B    3.455 --   106 N    2.886    44 B    0.146    46 B    0.139
    71   5 B    3.442 --   107 N    2.846    49 B    0.141    47 B    0.103
    72   5 B    3.428 --   108 N    2.520    49 B    0.196     8 C    0.179
    73   5 B    3.392 --   109 N    1.893    11 C    0.583    10 C    0.277
                            12 O    0.196    50 B    0.107
    74   5 B    3.403 --   110 N    2.730     9 C    0.158    50 B    0.119
                            48 B    0.110
    75   5 B    3.428 --   111 N    2.810     3 C    0.144    53 B    0.136
    76   5 B    3.413 --   112 N    1.492    25 C    0.517    20 C    0.401
                            24 C    0.247    21 C    0.207    23 C    0.124
                            22 C    0.109
    77   5 B    3.324 --   113 N    1.368     1 C    0.934    54 B    0.256
                            28 H    0.126    90 N    0.120    29 H    0.115
    78   5 B    3.401 --   114 N    2.844    54 B    0.136    52 B    0.120
    79   7 N    3.567 --    43 B    2.952   105 N    0.143   103 N    0.136
    80   7 N    3.546 --    44 B    2.904   104 N    0.134   106 N    0.120
    81   7 N    3.592 --    45 B    3.044   103 N    0.149   104 N    0.128
    82   7 N    3.603 --    46 B    3.064   106 N    0.142   105 N    0.132
    83   7 N    3.360 --    47 B    2.244    10 C    0.172   107 N    0.153
                            13 C    0.123
    84   7 N    3.653 --    48 B    1.999    16 C    0.915    37 H    0.488
    85   7 N    3.589 --    49 B    2.913   107 N    0.129
    86   7 N    3.593 --    50 B    3.007
    87   7 N    3.377 --    51 B    1.383     2 C    0.774    31 H    0.443
                             3 C    0.275    64 B    0.103
    88   7 N    3.343 --    52 B    2.627    24 C    0.141
    89   7 N    3.432 --    53 B    2.531    22 C    0.387
    90   7 N    3.398 --    54 B    2.813   114 N    0.121    77 B    0.120
    91   7 N    3.590 --    55 B    3.437
    92   7 N    3.551 --    56 B    3.388
    93   7 N    3.614 --    57 B    3.491
    94   7 N    3.648 --    58 B    3.531    98 N    0.113
    95   7 N    3.579 --    59 B    3.410
    96   7 N    3.541 --    60 B    3.356
    97   7 N    3.570 --    61 B    3.406
    98   7 N    3.650 --    62 B    3.533    94 N    0.113
    99   7 N    3.273 --    63 B    3.085
   100   7 N    3.541 --    64 B    3.056    30 H    0.230
   101   7 N    3.549 --    65 B    3.319     8 C    0.113
   102   7 N    3.441 --    66 B    3.260
   103   7 N    3.297 --    67 B    2.841    81 N    0.149    79 N    0.136
   104   7 N    3.293 --    68 B    2.870    80 N    0.134    81 N    0.128
   105   7 N    3.301 --    69 B    2.855    79 N    0.143    82 N    0.132
   106   7 N    3.296 --    70 B    2.886    82 N    0.142    80 N    0.120
   107   7 N    3.438 --    71 B    2.846    83 N    0.153    85 N    0.129
   108   7 N    3.381 --    72 B    2.520    16 C    0.448
   109   7 N    3.630 --    73 B    1.893    13 C    0.775    10 C    0.376
                            35 H    0.144
   110   7 N    3.347 --    74 B    2.730    16 C    0.133
   111   7 N    3.235 --    75 B    2.810
   112   7 N    3.679 --    76 B    1.492    23 C    1.166    24 C    0.565
                            22 C    0.232
   113   7 N    3.252 --    77 B    1.368     1 C    0.839    29 H    0.526
                            28 H    0.162
   114   7 N    3.293 --    78 B    2.844    90 N    0.121
 ---------------------------------------------------------------------------

Topologies differ in total number of bonds
Writing topology from bond orders to xtbtopo.mol

molecular dipole:
                 x           y           z       tot (Debye)
 q only:       -5.629       1.655      -1.890
   full:       -6.670       1.589      -0.976      17.603
molecular quadrupole (traceless):
                xx          xy          yy          xz          yz          zz
 q only:       13.429     -80.870      31.741       8.832     -12.340     -45.170
  q+dip:       84.821     -96.831     -23.651      -0.224     -31.571     -61.170
   full:       71.364     -96.851      -9.155       0.394     -31.228     -62.209


           -------------------------------------------------
          | TOTAL ENERGY               10.611940571846 Eh   |
          | GRADIENT NORM             169.165900569005 Eh/α |
          | HOMO-LUMO GAP               0.024250359804 eV   |
           -------------------------------------------------

------------------------------------------------------------------------
 * finished run on 2026/08/31 at 18:34:35.337     
------------------------------------------------------------------------
 total:
 * wall-time:     0 d,  0 h,  0 min,  0.884 sec
 *  cpu-time:     0 d,  0 h,  0 min, 11.188 sec
 * ratio c/w:    12.656 speedup
 SCF:
 * wall-time:     0 d,  0 h,  0 min,  0.830 sec
 *  cpu-time:     0 d,  0 h,  0 min, 10.484 sec
 * ratio c/w:    12.632 speedup

normal termination of xtb
