      -----------------------------------------------------------      
     |                   =====================                   |     
     |                           x T B                           |     
     |                   =====================                   |     
     |                         S. Grimme                         |     
     |          Mulliken Center for Theoretical Chemistry        |     
     |                    University of Bonn                     |     
      -----------------------------------------------------------      

   * xtb version 6.7.1pre (5071a88) compiled by 'Marcel@Raven' on 2024-07-23

   xtb is free software: you can redistribute it and/or modify it under
   the terms of the GNU Lesser General Public License as published by
   the Free Software Foundation, either version 3 of the License, or
   (at your option) any later version.
   
   xtb is distributed in the hope that it will be useful,
   but WITHOUT ANY WARRANTY; without even the implied warranty of
   MERCHANTABILITY or FITNESS FOR A PARTICULAR PURPOSE.  See the
   GNU Lesser General Public License for more details.
   
   Cite this work as:
   * C. Bannwarth, E. Caldeweyher, S. Ehlert, A. Hansen, P. Pracht,
     J. Seibert, S. Spicher, S. Grimme, WIREs Comput. Mol. Sci., 2020, 11,
     e01493. DOI: 10.1002/wcms.1493
   
   for GFN2-xTB:
   * C. Bannwarth, S. Ehlert and S. Grimme., J. Chem. Theory Comput., 2019,
     15, 1652-1671. DOI: 10.1021/acs.jctc.8b01176
   for GFN1-xTB:
   * S. Grimme, C. Bannwarth, P. Shushkov, J. Chem. Theory Comput., 2017,
     13, 1989-2009. DOI: 10.1021/acs.jctc.7b00118
   for GFN0-xTB:
   * P. Pracht, E. Caldeweyher, S. Ehlert, S. Grimme, ChemRxiv, 2019, preprint.
     DOI: 10.26434/chemrxiv.8326202.v1
   for GFN-FF:
   * S. Spicher and S. Grimme, Angew. Chem. Int. Ed., 2020, 59, 15665-15673.
     DOI: 10.1002/anie.202004239
   
   for ALPB and GBSA implicit solvation:
   * S. Ehlert, M. Stahn, S. Spicher, S. Grimme, J. Chem. Theory Comput.,
     2021, 17, 4250-4261. DOI: 10.1021/acs.jctc.1c00471
   
   for ddCOSMO and CPCM-X implicit solvation:
   * M. Stahn, S. Ehlert, S. Grimme, J. Phys. Chem. A,
     2023, XX, XXXX-XXXX. DOI: 10.1021/acs.jpca.3c04382
   
   for DFT-D4:
   * E. Caldeweyher, C. Bannwarth and S. Grimme, J. Chem. Phys., 2017,
     147, 034112. DOI: 10.1063/1.4993215
   * E. Caldeweyher, S. Ehlert, A. Hansen, H. Neugebauer, S. Spicher,
     C. Bannwarth and S. Grimme, J. Chem. Phys., 2019, 150, 154122.
     DOI: 10.1063/1.5090222
   * E. Caldeweyher, J.-M. Mewes, S. Ehlert and S. Grimme, Phys. Chem. Chem. Phys.
     2020, 22, 8499-8512. DOI: 10.1039/D0CP00502A
   
   for sTDA-xTB:
   * S. Grimme and C. Bannwarth, J. Chem. Phys., 2016, 145, 054103.
     DOI: 10.1063/1.4959605
   
   in the mass-spec context:
   * V. Asgeirsson, C. Bauer and S. Grimme, Chem. Sci., 2017, 8, 4879.
     DOI: 10.1039/c7sc00601b
   * J. Koopman and S. Grimme, ACS Omega 2019, 4, 12, 15120-15133.
     DOI: 10.1021/acsomega.9b02011
   
   for metadynamics refer to:
   * S. Grimme, J. Chem. Theory Comput., 2019, 155, 2847-2862
     DOI: 10.1021/acs.jctc.9b00143
   
   for SPH calculations refer to:
   * S. Spicher and S. Grimme, J. Chem. Theory Comput., 2021, 17, 1701-1714
     DOI: 10.1021/acs.jctc.0c01306
   
   for ONIOM refer to:
   * C. Plett, A. Katbashev, S. Ehlert, S. Grimme, M. Bursch,
     Phys. Chem. Chem. Phys., 2023, 25, 17860-17868. DOI: 10.1039/D3CP02178E
   
   for DIPRO refer to:
   * J. Kohn, N. Gildemeister, S. Grimme, D. Fazzi, A. Hansen,
     J. Chem. Phys., 2023, just accepted.
   
   for PTB refer to:
   * S. Grimme, M. Mueller, A. Hansen, J. Chem. Phys., 2023, 158, 124111.
     DOI: 10.1063/5.0137838
   
   with help from (in alphabetical order)
   P. Atkinson, C. Bannwarth, F. Bohle, G. Brandenburg, E. Caldeweyher
   M. Checinski, S. Dohm, S. Ehlert, S. Ehrlich, I. Gerasimov, C. Hölzer
   A. Katbashev, J. Kohn, J. Koopman, C. Lavigne, S. Lehtola, F. März, M. Müller,
   F. Musil, H. Neugebauer, J. Pisarek, C. Plett, P. Pracht, F. Pultar,
   J. Seibert, P. Shushkov, S. Spicher, M. Stahn, M. Steiner, T. Strunk,
   J. Stückrath, T. Rose, and J. Unsleber
   
 * started run on 2026/08/31 at 22:24:29.675     
   ID    Z sym.   atoms
    1    6 C      1-5, 7-11, 13-16, 18, 20-25
    2    7 N      6, 19, 44, 46, 48, 50, 52, 54, 56, 58, 60, 62, 64, 66, 68,
                  70, 72, 74, 76, 78, 80, 82, 84, 86, 88, 90, 92, 94, 96, 98,
                  100, 102, 104, 106, 108, 110, 112, 114
    3    8 O      12, 17, 26
    4    1 H      27-42
    5    5 B      43, 45, 47, 49, 51, 53, 55, 57, 59, 61, 63, 65, 67, 69, 71,
                  73, 75, 77, 79, 81, 83, 85, 87, 89, 91, 93, 95, 97, 99,
                  101, 103, 105, 107, 109, 111, 113

           -------------------------------------------------
          |                Calculation Setup                |
           -------------------------------------------------

          program call               : "c:\Users\Andre\Proyectos doctorado\kras-pancreatic-gC3N4-ai\tools\xtb\xtb-6.7.1\bin\xtb.exe" "c:\Users\Andre\Proyectos doctorado\nano-qsar-ai-therapeutics\calculations\tnbc\SN_38\SN_38_opt_0deg.xyz" --opt vloose --gfn 2 --chrg 0 --uhf 0 --etemp 300 --iterations 500 --cycles 15 --norestart
          coordinate file            : c:\Users\Andre\Proyectos doctorado\nano-qsar-ai-therapeutics\calculations\tnbc\SN_38\SN_38_opt_0deg.xyz
          omp threads                :                    16


molecular fragmentation (1/2 indicates fragments):
111111111111111111111111111111111111111111222222222222222222222222222222
222222222222222222222222222222222222222222
# atoms in fragment 1/2:    42    72
 fragment masses (1/2) :      344.36      893.44
CMA distance (Bohr)    :  21.861
constraining FC (au)   :  0.0500

           -------------------------------------------------
          |                 G F N 2 - x T B                 |
           -------------------------------------------------

        Reference                      10.1021/acs.jctc.8b01176
      * Hamiltonian:
        H0-scaling (s, p, d)           1.850000    2.230000    2.230000
        zeta-weighting                 0.500000
      * Dispersion:
        s8                             2.700000
        a1                             0.520000
        a2                             5.000000
        s9                             5.000000
      * Repulsion:
        kExp                           1.500000    1.000000
        rExp                           1.000000
      * Coulomb:
        alpha                          2.000000
        third order                    shell-resolved
        anisotropic                    true
        a3                             3.000000
        a5                             4.000000
        cn-shift                       1.200000
        cn-exp                         4.000000
        max-rad                        5.000000


          ...................................................
          :                      SETUP                      :
          :.................................................:
          :  # basis functions                 408          :
          :  # atomic orbitals                 408          :
          :  # shells                          212          :
          :  # electrons                       416          :
          :  max. iterations                   500          :
          :  Hamiltonian                  GFN2-xTB          :
          :  restarted?                      false          :
          :  GBSA solvation                  false          :
          :  PC potential                    false          :
          :  electronic temp.          300.0000000     K    :
          :  accuracy                    1.0000000          :
          :  -> integral cutoff          0.2500000E+02      :
          :  -> integral neglect         0.1000000E-07      :
          :  -> SCF convergence          0.1000000E-05 Eh   :
          :  -> wf. convergence          0.1000000E-03 e    :
          :  Broyden damping             0.4000000          :
          :  net charge                          0          :
          :  unpaired electrons                  0          :
          ...................................................

 iter      E             dE          RMSdq      gap      omega  full diag
   1   -222.9440748 -0.222944E+03  0.114E+01    0.60       0.0  T
   2   -223.3479728 -0.403898E+00  0.692E+00    0.11       1.0  T
   3   -219.2531605  0.409481E+01  0.483E+00    0.04       1.0  T
   4   -220.3508342 -0.109767E+01  0.329E+00    0.18       1.0  T
   5   -220.5276218 -0.176788E+00  0.339E+00    0.41       1.0  T
   6   -223.7862461 -0.325862E+01  0.121E+00    0.98       1.0  T
   7   -223.8599470 -0.737010E-01  0.804E-01    0.70       1.0  T
   8   -223.8466057  0.133413E-01  0.720E-01    0.94       1.0  T
   9   -223.8576524 -0.110467E-01  0.544E-01    0.76       1.0  T
  10   -223.8711057 -0.134533E-01  0.215E-01    0.70       1.0  T
  11   -223.8728702 -0.176450E-02  0.879E-02    0.65       1.0  T
  12   -223.8733865 -0.516351E-03  0.533E-02    0.64       1.0  T
  13   -223.8734214 -0.348517E-04  0.450E-02    0.63       1.0  T
  14   -223.8735107 -0.892816E-04  0.365E-02    0.64       1.0  T
  15   -223.8735782 -0.675517E-04  0.305E-02    0.64       1.0  T
  16   -223.8736157 -0.374692E-04  0.256E-02    0.64       1.0  T
  17   -223.8736388 -0.230794E-04  0.207E-02    0.65       1.0  T
  18   -223.8736772 -0.384567E-04  0.100E-02    0.65       1.0  T
  19   -223.8736887 -0.114484E-04  0.376E-03    0.63       2.5  T
  20   -223.8736906 -0.195418E-05  0.186E-03    0.62       5.0  T
  21   -223.8736907 -0.844957E-07  0.125E-03    0.62       7.5  T
  22   -223.8736907 -0.210185E-07  0.616E-04    0.62      15.2  T
  23   -223.8736907 -0.110842E-08  0.356E-04    0.62      26.3  T

   *** convergence criteria satisfied after 23 iterations ***

         #    Occupation            Energy/Eh            Energy/eV
      -------------------------------------------------------------
         1        2.0000           -0.7135816             -19.4175
       ...           ...                  ...                  ...
       202        2.0000           -0.3258987              -8.8682
       203        2.0000           -0.3230947              -8.7919
       204        2.0000           -0.3217146              -8.7543
       205        2.0000           -0.3188869              -8.6774
       206        2.0000           -0.3134694              -8.5299
       207        2.0000           -0.3119018              -8.4873
       208        2.0000           -0.3065043              -8.3404 (HOMO)
       209        0.0000           -0.2837857              -7.7222 (LUMO)
       210        0.0000           -0.2819740              -7.6729
       211                         -0.2732052              -7.4343
       212                         -0.2630660              -7.1584
       213                         -0.2495772              -6.7913
       ...                                ...                  ...
       408                          0.9851178              26.8064
      -------------------------------------------------------------
                  HL-Gap            0.0227186 Eh            0.6182 eV
             Fermi-level           -0.2952088 Eh           -8.0330 eV

 SCC (total)                   0 d,  0 h,  0 min,  0.802 sec
 SCC setup                      ...        0 min,  0.001 sec (  0.125%)
 Dispersion                     ...        0 min,  0.004 sec (  0.499%)
 classical contributions        ...        0 min,  0.000 sec (  0.000%)
 integral evaluation            ...        0 min,  0.013 sec (  1.621%)
 iterations                     ...        0 min,  0.740 sec ( 92.269%)
 molecular gradient             ...        0 min,  0.040 sec (  4.988%)
 printout                       ...        0 min,  0.003 sec (  0.374%)

         :::::::::::::::::::::::::::::::::::::::::::::::::::::
         ::                     SUMMARY                     ::
         :::::::::::::::::::::::::::::::::::::::::::::::::::::
         :: total energy            -221.447681105198 Eh    ::
         :: gradient norm              0.096936537708 Eh/a0 ::
         :: HOMO-LUMO gap              0.618203814321 eV    ::
         ::.................................................::
         :: SCC energy              -223.860241895193 Eh    ::
         :: -> isotropic ES            0.718720323853 Eh    ::
         :: -> anisotropic ES         -0.023021067036 Eh    ::
         :: -> anisotropic XC          0.089753229457 Eh    ::
         :: -> dispersion             -0.195832283035 Eh    ::
         :: repulsion energy           2.412560789995 Eh    ::
         :: add. restraining           0.000000000000 Eh    ::
         :: total charge               0.000000000001 e     ::
         :::::::::::::::::::::::::::::::::::::::::::::::::::::

      ----------------------------------------------------------- 
     |                   =====================                   |
     |                        A N C O P T                        |
     |                   =====================                   |
     |               Approximate Normal Coordinate               |
     |                Rational Function Optimizer                |
      ----------------------------------------------------------- 
      ----------------------------------------------------------- 
     |                   =====================                   |
     |                        A N C O P T                        |
     |                   =====================                   |
     |               Approximate Normal Coordinate               |
     |                Rational Function Optimizer                |
      ----------------------------------------------------------- 

          ...................................................
          :                      SETUP                      :
          :.................................................:
          :   optimization level            normal          :
          :   max. optcycles                    15          :
          :   ANC micro-cycles                  15          :
          :   degrees of freedom               336          :
          :.................................................:
          :   RF solver                   davidson          :
          :   write xtbopt.log                true          :
          :   linear?                        false          :
          :   energy convergence         0.5000000E-05 Eh   :
          :   grad. convergence          0.1000000E-02 Eh/α :
          :   maxmium RF displ.          1.0000000          :
          :   Hlow (freq-cutoff)         0.1000000E-01      :
          :   Hmax (freq-cutoff)         5.0000000          :
          :   S6 in model hess.         20.0000000          :
          ...................................................

generating ANC from exact Hessian ...
Using Lindh-Hessian (1995)
 Shifting diagonal of input Hessian by   1.008584088864158E-002
 Lowest  eigenvalues of input Hessian
    0.010000    0.010005    0.010016    0.000000    0.000000    0.000000
    0.000000    0.000000    0.010102    0.000000    0.010130    0.010186
    0.010608    0.010928    0.011736    0.012076    0.012735    0.013096
 Highest eigenvalues
    2.154603    2.164178    2.191076    2.260727    2.314981    2.338131
 

........................................................................
.............................. CYCLE    1 ..............................
........................................................................

 iter      E             dE          RMSdq      gap      omega  full diag
   1   -223.8736907 -0.223874E+03  0.196E-04    0.62       0.0  T
   2   -223.8736907 -0.247761E-08  0.241E-04    0.62      38.8  T
   3   -223.8736907 -0.476612E-08  0.137E-04    0.62      68.2  T
     SCC iter.                  ...        0 min,  0.095 sec
     gradient                   ...        0 min,  0.033 sec
 * total energy  :  -221.4476811 Eh     change       -0.1754543E-07 Eh
   gradient norm :     0.0969364 Eh/α   predicted     0.0000000E+00 (-100.00%)
   displ. norm   :     0.2135544 α      lambda       -0.9356778E-02
   maximum displ.:     0.1168131 α      in ANC's #29, #69, #143, ...

........................................................................
.............................. CYCLE    2 ..............................
........................................................................

 iter      E             dE          RMSdq      gap      omega  full diag
   1   -223.9030121 -0.223903E+03  0.933E-02    0.67       0.0  T
   2   -223.9030691 -0.570441E-04  0.575E-02    0.67       1.0  T
   3   -223.9030314  0.377808E-04  0.278E-02    0.67       1.0  T
   4   -223.9030894 -0.580698E-04  0.699E-03    0.67       1.3  T
   5   -223.9030937 -0.423319E-05  0.368E-03    0.67       2.5  T
   6   -223.9030958 -0.213727E-05  0.171E-03    0.67       5.5  T
   7   -223.9030961 -0.328240E-06  0.791E-04    0.67      11.8  T
   8   -223.9030961 -0.203073E-07  0.344E-04    0.67      27.2  T
     SCC iter.                  ...        0 min,  0.244 sec
     gradient                   ...        0 min,  0.030 sec
 * total energy  :  -221.4541748 Eh     change       -0.6493692E-02 Eh
   gradient norm :     0.0436564 Eh/α   predicted    -0.4893057E-02 ( -24.65%)
   displ. norm   :     0.1775152 α      lambda       -0.2839752E-02
   maximum displ.:     0.1081573 α      in ANC's #29, #27, #12, ...

........................................................................
.............................. CYCLE    3 ..............................
........................................................................

 iter      E             dE          RMSdq      gap      omega  full diag
   1   -223.9195634 -0.223920E+03  0.637E-02    0.67       0.0  T
   2   -223.9195949 -0.315528E-04  0.378E-02    0.67       1.0  T
   3   -223.9195803  0.145990E-04  0.208E-02    0.67       1.0  T
   4   -223.9196095 -0.291718E-04  0.405E-03    0.67       2.3  T
   5   -223.9196110 -0.148478E-05  0.213E-03    0.67       4.4  T
   6   -223.9196116 -0.593649E-06  0.116E-03    0.67       8.1  T
   7   -223.9196118 -0.161359E-06  0.540E-04    0.67      17.4  T
   8   -223.9196118 -0.139787E-07  0.236E-04    0.67      39.7  T
     SCC iter.                  ...        0 min,  0.255 sec
     gradient                   ...        0 min,  0.030 sec
 * total energy  :  -221.4557515 Eh     change       -0.1576722E-02 Eh
   gradient norm :     0.0111049 Eh/α   predicted    -0.1464780E-02 (  -7.10%)
   displ. norm   :     0.0837575 α      lambda       -0.2457326E-03
   maximum displ.:     0.0457411 α      in ANC's #12, #29, #27, ...

........................................................................
.............................. CYCLE    4 ..............................
........................................................................

 iter      E             dE          RMSdq      gap      omega  full diag
   1   -223.9196579 -0.223920E+03  0.186E-02    0.67       0.0  T
   2   -223.9196602 -0.231371E-05  0.108E-02    0.67       1.0  T
   3   -223.9196588  0.141573E-05  0.567E-03    0.67       1.7  T
   4   -223.9196609 -0.215499E-05  0.128E-03    0.67       7.3  T
   5   -223.9196611 -0.171740E-06  0.401E-04    0.67      23.3  T
   6   -223.9196611 -0.324204E-08  0.301E-04    0.67      31.1  T
     SCC iter.                  ...        0 min,  0.177 sec
     gradient                   ...        0 min,  0.036 sec
 * total energy  :  -221.4559324 Eh     change       -0.1808706E-03 Eh
   gradient norm :     0.0056623 Eh/α   predicted    -0.1237307E-03 ( -31.59%)
   displ. norm   :     0.1179702 α      lambda       -0.1624260E-03
   maximum displ.:     0.0729982 α      in ANC's #12, #4, #5, ...

........................................................................
.............................. CYCLE    5 ..............................
........................................................................

 iter      E             dE          RMSdq      gap      omega  full diag
   1   -223.9183599 -0.223918E+03  0.194E-02    0.67       0.0  T
   2   -223.9183623 -0.244314E-05  0.116E-02    0.67       1.0  T
   3   -223.9183604  0.187239E-05  0.623E-03    0.67       1.5  T
   4   -223.9183627 -0.225849E-05  0.211E-03    0.67       4.4  T
   5   -223.9183631 -0.361575E-06  0.134E-03    0.67       7.0  T
   6   -223.9183634 -0.327767E-06  0.401E-04    0.67      23.4  T
   7   -223.9183634 -0.119064E-07  0.227E-04    0.67      41.2  T
     SCC iter.                  ...        0 min,  0.331 sec
     gradient                   ...        0 min,  0.032 sec
 * total energy  :  -221.4560309 Eh     change       -0.9850096E-04 Eh
   gradient norm :     0.0026779 Eh/α   predicted    -0.8235296E-04 ( -16.39%)
   displ. norm   :     0.0768638 α      lambda       -0.3927325E-04
   maximum displ.:     0.0463985 α      in ANC's #12, #4, #5, ...

........................................................................
.............................. CYCLE    6 ..............................
........................................................................

 iter      E             dE          RMSdq      gap      omega  full diag
   1   -223.9179947 -0.223918E+03  0.862E-03    0.67       0.0  T
   2   -223.9179951 -0.335695E-06  0.516E-03    0.67       1.8  T
   3   -223.9179944  0.723598E-06  0.294E-03    0.67       3.2  T
   4   -223.9179950 -0.642786E-06  0.120E-03    0.67       7.8  T
   5   -223.9179952 -0.250564E-06  0.523E-04    0.67      17.9  T
   6   -223.9179953 -0.440833E-07  0.214E-04    0.67      43.8  T
     SCC iter.                  ...        0 min,  0.216 sec
     gradient                   ...        0 min,  0.038 sec
 * total energy  :  -221.4560633 Eh     change       -0.3236303E-04 Eh
   gradient norm :     0.0028509 Eh/α   predicted    -0.1975477E-04 ( -38.96%)
   displ. norm   :     0.1600655 α      lambda       -0.7141238E-04
   maximum displ.:     0.0899052 α      in ANC's #12, #4, #5, ...

........................................................................
.............................. CYCLE    7 ..............................
........................................................................

 iter      E             dE          RMSdq      gap      omega  full diag
   1   -223.9177283 -0.223918E+03  0.168E-02    0.67       0.0  T
   2   -223.9177294 -0.107534E-05  0.100E-02    0.67       1.0  T
   3   -223.9177268  0.257833E-05  0.505E-03    0.67       1.9  T
   4   -223.9177289 -0.210851E-05  0.234E-03    0.67       4.0  T
   5   -223.9177298 -0.852339E-06  0.113E-03    0.67       8.3  T
   6   -223.9177300 -0.215008E-06  0.390E-04    0.67      24.0  T
   7   -223.9177300 -0.878742E-09  0.253E-04    0.67      37.1  T
     SCC iter.                  ...        0 min,  0.235 sec
     gradient                   ...        0 min,  0.031 sec
 * total energy  :  -221.4561176 Eh     change       -0.5436082E-04 Eh
   gradient norm :     0.0030539 Eh/α   predicted    -0.3662185E-04 ( -32.63%)
   displ. norm   :     0.1800145 α      lambda       -0.5951890E-04
   maximum displ.:     0.0959120 α      in ANC's #4, #12, #5, ...

........................................................................
.............................. CYCLE    8 ..............................
........................................................................

 iter      E             dE          RMSdq      gap      omega  full diag
   1   -223.9178174 -0.223918E+03  0.185E-02    0.67       0.0  T
   2   -223.9178186 -0.118718E-05  0.109E-02    0.68       1.0  T
   3   -223.9178157  0.292901E-05  0.509E-03    0.67       1.8  T
   4   -223.9178184 -0.272471E-05  0.205E-03    0.68       4.6  T
   5   -223.9178191 -0.685073E-06  0.893E-04    0.67      10.5  T
   6   -223.9178192 -0.105312E-06  0.419E-04    0.67      22.4  T
     SCC iter.                  ...        0 min,  0.206 sec
     gradient                   ...        0 min,  0.032 sec
 * total energy  :  -221.4561624 Eh     change       -0.4481394E-04 Eh
   gradient norm :     0.0030214 Eh/α   predicted    -0.3072619E-04 ( -31.44%)
   displ. norm   :     0.1507640 α      lambda       -0.4287709E-04
   maximum displ.:     0.0883610 α      in ANC's #4, #5, #12, ...

........................................................................
.............................. CYCLE    9 ..............................
........................................................................

 iter      E             dE          RMSdq      gap      omega  full diag
   1   -223.9181964 -0.223918E+03  0.152E-02    0.67       0.0  T
   2   -223.9181972 -0.717800E-06  0.893E-03    0.68       1.0  T
   3   -223.9181947  0.250144E-05  0.445E-03    0.67       2.1  T
   4   -223.9181962 -0.157755E-05  0.254E-03    0.68       3.7  T
   5   -223.9181974 -0.119987E-05  0.870E-04    0.68      10.8  T
   6   -223.9181975 -0.113644E-06  0.344E-04    0.68      27.2  T
   7   -223.9181975 -0.167043E-08  0.218E-04    0.68      43.0  T
     SCC iter.                  ...        0 min,  0.308 sec
     gradient                   ...        0 min,  0.035 sec
 * total energy  :  -221.4561974 Eh     change       -0.3491804E-04 Eh
   gradient norm :     0.0023288 Eh/α   predicted    -0.2193381E-04 ( -37.18%)
   displ. norm   :     0.1436636 α      lambda       -0.4255465E-04
   maximum displ.:     0.0901961 α      in ANC's #4, #5, #2, ...

........................................................................
.............................. CYCLE   10 ..............................
........................................................................

 iter      E             dE          RMSdq      gap      omega  full diag
   1   -223.9187108 -0.223919E+03  0.140E-02    0.68       0.0  T
   2   -223.9187114 -0.559711E-06  0.818E-03    0.68       1.1  T
   3   -223.9187097  0.167846E-05  0.399E-03    0.68       2.3  T
   4   -223.9187113 -0.160107E-05  0.147E-03    0.68       6.4  T
   5   -223.9187116 -0.319696E-06  0.718E-04    0.68      13.0  T
   6   -223.9187117 -0.638456E-07  0.360E-04    0.68      26.0  T
     SCC iter.                  ...        0 min,  0.219 sec
     gradient                   ...        0 min,  0.030 sec
 * total energy  :  -221.4562334 Eh     change       -0.3599805E-04 Eh
   gradient norm :     0.0016951 Eh/α   predicted    -0.2172268E-04 ( -39.66%)
   displ. norm   :     0.2486858 α      lambda       -0.4865490E-04
   maximum displ.:     0.1590239 α      in ANC's #4, #5, #2, ...

........................................................................
.............................. CYCLE   11 ..............................
........................................................................

 iter      E             dE          RMSdq      gap      omega  full diag
   1   -223.9193215 -0.223919E+03  0.226E-02    0.68       0.0  T
   2   -223.9193226 -0.111524E-05  0.133E-02    0.68       1.0  T
   3   -223.9193161  0.644563E-05  0.702E-03    0.68       1.3  T
   4   -223.9193210 -0.482026E-05  0.343E-03    0.67       2.7  T
   5   -223.9193232 -0.223385E-05  0.123E-03    0.68       7.6  T
   6   -223.9193234 -0.225302E-06  0.499E-04    0.68      18.8  T
   7   -223.9193234 -0.138367E-07  0.269E-04    0.68      34.8  T
     SCC iter.                  ...        0 min,  0.235 sec
     gradient                   ...        0 min,  0.031 sec
 * total energy  :  -221.4562923 Eh     change       -0.5893475E-04 Eh
   gradient norm :     0.0031501 Eh/α   predicted    -0.2499686E-04 ( -57.59%)
   displ. norm   :     0.1784952 α      lambda       -0.5039814E-04
   maximum displ.:     0.1138659 α      in ANC's #4, #5, #2, ...

........................................................................
.............................. CYCLE   12 ..............................
........................................................................

 iter      E             dE          RMSdq      gap      omega  full diag
   1   -223.9193830 -0.223919E+03  0.148E-02    0.68       0.0  T
   2   -223.9193833 -0.291271E-06  0.874E-03    0.68       1.1  T
   3   -223.9193796  0.370370E-05  0.468E-03    0.68       2.0  T
   4   -223.9193826 -0.307167E-05  0.211E-03    0.68       4.4  T
   5   -223.9193835 -0.845838E-06  0.789E-04    0.68      11.9  T
   6   -223.9193836 -0.933277E-07  0.321E-04    0.68      29.2  T
     SCC iter.                  ...        0 min,  0.205 sec
     gradient                   ...        0 min,  0.030 sec
 * total energy  :  -221.4563402 Eh     change       -0.4787190E-04 Eh
   gradient norm :     0.0036618 Eh/α   predicted    -0.2600304E-04 ( -45.68%)
   displ. norm   :     0.2924572 α      lambda       -0.9256347E-04
   maximum displ.:     0.1844530 α      in ANC's #4, #5, #2, ...

........................................................................
.............................. CYCLE   13 ..............................
........................................................................

 iter      E             dE          RMSdq      gap      omega  full diag
   1   -223.9192720 -0.223919E+03  0.235E-02    0.68       0.0  T
   2   -223.9192725 -0.501804E-06  0.140E-02    0.68       1.0  T
   3   -223.9192627  0.978987E-05  0.748E-03    0.68       1.3  T
   4   -223.9192711 -0.839621E-05  0.319E-03    0.68       2.9  T
   5   -223.9192730 -0.188745E-05  0.114E-03    0.68       8.2  T
   6   -223.9192732 -0.186177E-06  0.469E-04    0.68      20.0  T
   7   -223.9192732 -0.113714E-07  0.224E-04    0.68      41.8  T
     SCC iter.                  ...        0 min,  0.302 sec
     gradient                   ...        0 min,  0.036 sec
 * total energy  :  -221.4564267 Eh     change       -0.8649385E-04 Eh
   gradient norm :     0.0036687 Eh/α   predicted    -0.5024277E-04 ( -41.91%)
   displ. norm   :     0.4560497 α      lambda       -0.1400495E-03
   maximum displ.:     0.2882399 α      in ANC's #4, #5, #2, ...

........................................................................
.............................. CYCLE   14 ..............................
........................................................................

 iter      E             dE          RMSdq      gap      omega  full diag
   1   -223.9188075 -0.223919E+03  0.359E-02    0.68       0.0  T
   2   -223.9188084 -0.932321E-06  0.213E-02    0.68       1.0  T
   3   -223.9187847  0.237453E-04  0.113E-02    0.68       1.0  T
   4   -223.9188057 -0.210592E-04  0.451E-03    0.68       2.1  T
   5   -223.9188095 -0.375911E-05  0.171E-03    0.68       5.5  T
   6   -223.9188099 -0.398450E-06  0.729E-04    0.68      12.8  T
   7   -223.9188099 -0.229654E-07  0.403E-04    0.68      23.2  T
     SCC iter.                  ...        0 min,  0.254 sec
     gradient                   ...        0 min,  0.036 sec
 * total energy  :  -221.4565540 Eh     change       -0.1273752E-03 Eh
   gradient norm :     0.0032307 Eh/α   predicted    -0.8459122E-04 ( -33.59%)
   displ. norm   :     0.5386591 α      lambda       -0.1502732E-03
   maximum displ.:     0.3440537 α      in ANC's #4, #5, #2, ...

........................................................................
.............................. CYCLE   15 ..............................
........................................................................

 iter      E             dE          RMSdq      gap      omega  full diag
   1   -223.9182550 -0.223918E+03  0.412E-02    0.68       0.0  T
   2   -223.9182562 -0.121225E-05  0.245E-02    0.68       1.0  T
   3   -223.9182283  0.278626E-04  0.122E-02    0.68       1.0  T
   4   -223.9182529 -0.246341E-04  0.489E-03    0.68       1.9  T
   5   -223.9182574 -0.443480E-05  0.190E-03    0.68       4.9  T
   6   -223.9182578 -0.451670E-06  0.855E-04    0.68      11.0  T
   7   -223.9182579 -0.368578E-07  0.489E-04    0.68      19.2  T
     SCC iter.                  ...        0 min,  0.262 sec
     gradient                   ...        0 min,  0.033 sec
 * total energy  :  -221.4566917 Eh     change       -0.1376185E-03 Eh
   gradient norm :     0.0028041 Eh/α   predicted    -0.9694267E-04 ( -29.56%)
   displ. norm   :     0.5352076 α      lambda       -0.1444478E-03
   maximum displ.:     0.3464856 α      in ANC's #4, #5, #2, ...

   *** FAILED TO CONVERGE GEOMETRY OPTIMIZATION IN 15 ITERATIONS ***


 ANCopt (total)                0 d,  0 h,  0 min,  4.390 sec
 optimizer setup                ...        0 min,  0.002 sec (  0.046%)
 model hessian                  ...        0 min,  0.046 sec (  1.048%)
 ANC generation                 ...        0 min,  0.016 sec (  0.364%)
 coordinate transformation      ...        0 min,  0.002 sec (  0.046%)
 single point calculation       ...        0 min,  4.291 sec ( 97.745%)
 optimization log               ...        0 min,  0.027 sec (  0.615%)
 hessian update                 ...        0 min,  0.004 sec (  0.091%)
 rational function              ...        0 min,  0.001 sec (  0.023%)

================
 final structure:
================
114
 xtb: 6.7.1pre (5071a88)
C           -3.19109109827812       -1.05712698608440        8.49548217525191
C           -2.81952717959218        0.33494700864369        9.01420711287505
C           -2.19896489949781        0.23862739820617       10.37749465748325
C           -0.83875020326909        0.23970302890745       10.53809875046660
C            0.27626713353008        0.38654296060427        9.55110175988962
N            1.46482309896526        0.30170966068972       10.38601611013590
C            1.16184845074694        0.12102174583914       11.71307247591796
C            2.12323800212624        0.00604216343492       12.66181900712949
C            3.48565255328862        0.07688241406902       12.25711997914129
C            3.79485051900251        0.27507107844499       10.89341157499764
C            2.73968699133248        0.40012768321870        9.88007887342111
O            2.92767844167685        0.57387539651881        8.68861670671493
C            5.12222274905454        0.35274259640933       10.48076055716640
C            6.15020409233485        0.23206564464169       11.39935383306407
C            5.84934554905151        0.02877439882384       12.75162309106010
C            4.54369025035659       -0.04532655647090       13.16966938954866
O            7.43298783193878        0.31392276056864       10.95874749489537
C           -0.28018982622265        0.08450860643801       11.83513715309611
N           -0.96036747645914       -0.07015782157076       12.93669507796118
C           -2.30508657317264       -0.06837146878382       12.81828009390437
C           -2.97572740002957        0.08653057543992       11.56552827873511
C           -4.38416320869989        0.08222681094489       11.57771604775316
C           -5.08743131041950       -0.07311147016637       12.74073653215390
C           -4.42029127285647       -0.23755182965055       13.96838275492992
C           -3.04696289110588       -0.23145472771294       13.99912362809284
O           -5.10474305319126       -0.39925676644526       15.13009440816904
H           -2.31108671688301       -1.69535334083512        8.46697538521450
H           -3.59548447268608       -0.98512772499581        7.48924143867861
H           -3.93104159140584       -1.52584229789398        9.14096441126715
H           -2.10868767008188        0.79032807198220        8.32370525340475
H           -3.70930456391915        0.96573857974504        9.04454783055990
H            0.29609367202376       -0.40225609135906        8.79162098991572
H            0.25979225060170        1.34681995916856        9.02315710832296
H            1.84686737293963       -0.13586242318817       13.69233283257681
H            5.34213511033804        0.50658921501175        9.43620354990264
H            6.65652744690696       -0.06995043760547       13.46671230522072
H            4.31473445784343       -0.20130845303656       14.21373131813746
H            8.04298928619396        0.21280804258202       11.69977795437245
H           -4.92623685449053        0.20744600798176       10.65364525552109
H           -6.17000624607293       -0.06977136149434       12.72684405891448
H           -2.51951998785100       -0.35049296337370       14.93052925759813
H           -6.05515931376977       -0.38385899934096       14.96251129229339
B            3.42219415900077       -1.45835021744233        1.76496788755907
N            3.44237097946433        1.13222913320159        1.09194870913554
B            2.54973820785492        2.36655925222429       -1.12062407404679
N            2.33470101711389       -0.62848312726094       -2.60894629662795
B            0.62431113454042       -3.57770095594368        2.78198480742973
N           -2.97788471674101       -2.66715481241427        1.72414555395584
B           -1.08522676324698        4.06505529151824        1.91162096388764
N           -0.55756089353602        0.03153993824480       -3.87235758973118
B           -0.40869062247531        1.45996430603840       -4.01166682479612
N            1.23287408737072       -3.77845169535349       -1.65167016732822
B           -3.84770677297701        2.20505149419883       -0.47415882299605
N           -2.76327517772336        2.76298394580121       -1.16943815929631
B            1.48383031497030        0.83932992505282       -4.77783084413035
N           -0.30269914297742        3.33776825824695        2.92400053210354
B            0.94115500178248       -2.86698007754877       -2.72729216175779
N           -0.48612769527583        3.76601844789565       -0.91925029329034
B           -0.88765990823538        2.16170728973539        3.36631239947486
N            1.55038177474152       -1.28041518728721        3.56228676361608
B           -0.21686069424306        3.47684626564644       -2.28602022722449
N            1.19939676686797        0.05678387945135        3.87688678281486
B           -1.55094190425607       -0.55060887657026       -3.03600066518165
N           -3.86208305285444        1.76577362753019        0.84933722787181
B            0.30157479307066        4.48491124751763        1.29480639476442
N           -0.05582154239101       -0.03321779342989        4.53648982351355
B           -2.75245824777125        2.21114096928190        1.64244942558309
N            3.77760395797545       -0.12786366605243       -0.61299645872045
B           -2.27912865018177       -3.64854730790013        1.03121012364467
N            0.99960246549001        3.71657511731328        2.35486479863996
B           -1.90362525121376       -0.79447441067043        3.27009484269254
N           -2.43682096642935       -3.60393147792634       -0.43083610343273
B            3.03806116302829       -1.06543737955963       -1.36956226850928
N           -3.15847064400841       -1.25521468632951       -0.36581860584292
B            1.99846207421788        2.91636200173226        1.69396835434357
N           -0.47209708090728       -2.89262071201250       -2.37435151417874
B           -1.63751175716940       -2.10606950677340       -2.45145842099673
N            0.57870805266054        3.96217566421958        0.00155682769377
B            1.13721485798665        2.97353629469250       -3.06746256822632
N            0.03577530610066       -4.37397045015138        1.78418429995311
B           -1.78889584904341        3.44678365763649       -0.34388676048595
N           -2.04609723233122        3.40393883900014        1.09091267594504
B            1.42742748332478       -4.21813867457246        1.59003014525564
N           -0.90569366088201        1.04298827076297        4.28555137160619
B           -2.65281088184067       -2.40096815157381       -1.15373149875994
N           -1.10215378282243       -4.49679742219686        1.03079356533025
B           -2.47549764271234        0.49585158757829       -2.07242861998096
N            2.33309280444728       -3.88543794561514        0.56278771089190
B            3.89771593233179       -0.20168438154553        0.88034290143511
N            1.96278859874737        1.96817385846174       -2.33915155690498
B            1.07453932691524        2.27418998601010       -4.51195391533006
N           -4.19184220162424        0.82381112767321       -0.34120940230747
B           -1.29259532677672        2.46319503047414       -3.04608852966611
N           -2.32915732827786        1.93786481893032       -2.25999882824668
B            3.05146578198805       -2.64467720794919        0.72712054142368
N            2.34419249084911       -3.66906299369897       -0.86133146452693
B            2.16342247094699        0.54228675380530        2.93381456101667
N           -2.12116822364733        0.59279352426709        3.65819729346250
B           -1.10205105522021       -4.18615750687635       -0.39954081547635
N           -3.21084957819640        0.04058893225034       -0.93705719241024
B            3.44861013284934        1.26244454766126       -0.36156433350050
N            2.54786059951721        1.63200283072290        2.07264214094525
B            1.52814307539459       -1.53886829308765       -3.41214519875027
N           -2.17254968221298        1.73656196358314        2.81503691350742
B            2.08989967301049        0.72675974714757       -3.08890028513011
N           -2.77969649852543       -1.35686818824036        2.34983414957135
B            0.73161559643065       -0.52038017711143       -4.39526547703665
N           -0.15264203298566       -3.75664814330029       -1.29581215508378
B            0.40000324023839       -2.12406654318975        3.50991189931885
N           -0.68332214447732       -1.22481423098049        3.90657724881801
B           -3.25028550586276       -1.46017682934758        1.01642377059015
N            2.60868200283317       -0.86331390441317        2.73831633400461
B            1.86815725800991        3.33950345961955        0.02577686438610
N            2.88257507965373       -2.32735143908895       -0.67001027199272
 
 Bond Distances (Angstroems)
 ---------------------------
C1-C2=1.5313         C1-H27=1.0875        C1-H28=1.0868        C1-H29=1.0881        C2-C1=1.5313         C2-C3=1.5010         
C2-H30=1.0906        C2-H31=1.0911        C3-C2=1.5010         C3-C4=1.3697         C3-C21=1.4276        C4-C3=1.3697         
C4-C5=1.4963         C4-C18=1.4207        C5-C4=1.4963         C5-N6=1.4550         C5-H32=1.0952        C5-H33=1.0960        
N6-C5=1.4550         N6-C7=1.3731         N6-C11=1.3751        C7-N6=1.3731         C7-C8=1.3556         C7-C18=1.4477        
C8-C7=1.3556         C8-C9=1.4230         C8-H34=1.0763        C9-C8=1.4230         C9-C10=1.4123        C9-C16=1.4025        
C10-C9=1.4123        C10-C11=1.4683       C10-C13=1.3922       C11-N6=1.3751        C11-C10=1.4683       C11-O12=1.2187       
O12-C11=1.2187       C13-C10=1.3922       C13-C14=1.3839       C13-H35=1.0785       C14-C13=1.3839       C14-C15=1.4002       
C14-O17=1.3588       C15-C14=1.4002       C15-C16=1.3729       C15-H36=1.0829       C16-C9=1.4025        C16-C15=1.3729       
C16-H37=1.0802       O17-C14=1.3588       O17-H38=0.9651       C18-C4=1.4207        C18-C7=1.4477        C18-N19=1.3038       
N19-C18=1.3038       N19-C20=1.3499       C20-N19=1.3499       C20-C21=1.4294       C20-C25=1.4041       C21-C3=1.4276        
C21-C20=1.4294       C21-C22=1.4085       C22-C21=1.4085       C22-C23=1.3680       C22-H39=1.0786       C23-C22=1.3680       
C23-C24=1.4069       C23-H40=1.0827       C24-C23=1.4069       C24-C25=1.3737       C24-O26=1.3580       C25-C20=1.4041       
C25-C24=1.3737       C25-H41=1.0770       O26-C24=1.3580       O26-H42=0.9652       H27-C1=1.0875        H28-C1=1.0868        
H29-C1=1.0881        H30-C2=1.0906        H31-C2=1.0911        H32-C5=1.0952        H33-C5=1.0960        H34-C8=1.0763        
H35-C13=1.0785       H36-C15=1.0829       H37-C16=1.0802       H38-O17=0.9651       H39-C22=1.0786       H40-C23=1.0827       
H41-C25=1.0770       H42-O26=0.9652       B43-B89=1.6087       B43-B95=1.6192       B43-N112=1.4012      N44-B89=1.4253       
N44-B101=1.4593      N44-N102=1.4183      B45-N90=1.4100       B45-B101=1.6134      B45-B113=1.6509      N46-B73=1.4905       
N46-B103=1.4576      N46-B105=1.4584      B47-N80=1.4057       B47-B83=1.5735       B47-B109=1.6411      N48-B69=1.3898       
N48-N106=1.4655      N48-B111=1.4254      B49-N56=1.4718       B49-B65=1.5748       B49-N82=1.4262       N50-B51=1.4429       
N50-B63=1.4231       N50-B107=1.4967      B51-N50=1.4429       B51-B55=2.1340       B51-B91=1.7644       B51-B93=1.6493       
N52-B57=1.4397       N52-N96=1.3681       N52-N108=1.4307      B53-N54=1.4038       B53-N64=1.3946       B53-N92=1.4297       
N54-B53=1.4038       N54-B81=1.4486       N54-N94=1.4348       B55-B51=2.1340       B55-B91=1.5156       B55-B105=1.7979      
B55-B107=1.6003      N56-B49=1.4718       N56-B59=1.3860       N56-N70=1.4709       B57-N52=1.4397       B57-N76=1.4569       
B57-B103=1.6054      B57-N108=2.0092      N58-B61=1.4227       N58-N78=1.4214       N58-B81=1.4595       B59-N56=1.3860       
B59-N84=1.4481       B59-N104=1.4614      N60-N62=1.4178       N60-B109=1.4275      N60-N112=1.4046      B61-N58=1.4227       
B61-B79=1.6424       B61-B93=1.6620       N62-N60=1.4178       N62-N66=1.4208       N62-B97=1.4333       B63-N50=1.4231       
B63-B77=1.6639       B63-B87=1.6966       N64-B53=1.3946       N64-B67=1.4348       N64-N92=1.5535       B65-B49=1.5748       
B65-N70=1.4837       B65-N78=1.4222       N66-N62=1.4208       N66-N84=1.3941       N66-N110=1.4868      B67-N64=1.4348       
B67-N82=1.4919       B67-N104=1.3916      N68-B73=1.4136       N68-B89=1.5000       N68-B101=1.4507      B69-N48=1.3898       
B69-N72=1.4712       B69-N86=1.4508       B69-B99=1.9291       N70-N56=1.4709       N70-B65=1.4837       N70-B75=1.4404       
B71-N98=1.4569       B71-N106=1.3895      B71-N110=1.4420      N72-B69=1.4712       N72-B85=1.4200       N72-B99=1.4566       
B73-N46=1.4905       B73-N68=1.4136       B73-N114=1.4512      N74-B85=1.4796       N74-N100=1.4171      N74-B111=1.4004      
B75-N70=1.4404       B75-N102=1.4473      B75-B113=1.7259      N76-B57=1.4569       N76-B77=1.4081       N76-N108=1.4184      
B77-B63=1.6639       B77-N76=1.4081       B77-B85=1.6739       N78-N58=1.4214       N78-B65=1.4222       N78-B113=1.4321      
B79-B61=1.6424       B79-N90=1.4909       B79-B91=1.6061       N80-B47=1.4057       N80-B83=1.4137       N80-N86=1.3702       
B81-N54=1.4486       B81-N58=1.4595       B81-N82=1.4583       N82-B49=1.4262       N82-B67=1.4919       N82-B81=1.4583       
B83-B47=1.5735       B83-N80=1.4137       B83-N88=1.4093       N84-B59=1.4481       N84-N66=1.3941       N84-N98=1.4400       
B85-N72=1.4200       B85-N74=1.4796       B85-B77=1.6739       N86-B69=1.4508       N86-N80=1.3702       N86-B99=1.4637       
B87-B63=1.6966       B87-N94=1.4615       B87-N100=1.4273      N88-B83=1.4093       N88-B95=1.4431       N88-N96=1.4405       
B89-B43=1.6087       B89-N44=1.4253       B89-N68=1.5000       B89-B101=1.9717      N90-B45=1.4100       N90-B79=1.4909       
N90-B105=1.4558      B91-B51=1.7644       B91-B55=1.5156       B91-B79=1.6061       N92-B53=1.4297       N92-N64=1.5535       
N92-N100=1.3895      B93-B51=1.6493       B93-B61=1.6620       B93-N94=1.4030       N94-N54=1.4348       N94-B87=1.4615       
N94-B93=1.4030       B95-B43=1.6192       B95-N88=1.4431       B95-N114=1.4426      N96-N52=1.3681       N96-N88=1.4405       
N96-N114=1.4583      B97-N62=1.4333       B97-N102=1.4411      B97-N112=1.4873      N98-B71=1.4569       N98-N84=1.4400       
N98-N104=1.4219      B99-B69=1.9291       B99-N72=1.4566       B99-N86=1.4637       B99-N108=1.3745      N100-N74=1.4171      
N100-B87=1.4273      N100-N92=1.3895      B101-N44=1.4593      B101-B45=1.6134      B101-N68=1.4507      B101-B89=1.9717      
N102-N44=1.4183      N102-B75=1.4473      N102-B97=1.4411      B103-N46=1.4576      B103-B57=1.6054      B103-B107=1.6243     
N104-B59=1.4614      N104-B67=1.3916      N104-N98=1.4219      B105-N46=1.4584      B105-B55=1.7979      B105-N90=1.4558      
N106-N48=1.4655      N106-B71=1.3895      N106-B111=1.4178     B107-N50=1.4967      B107-B55=1.6003      B107-B103=1.6243     
N108-N52=1.4307      N108-B57=2.0092      N108-N76=1.4184      N108-B99=1.3745      B109-B47=1.6411      B109-N60=1.4275      
B109-N110=1.4627     N110-N66=1.4868      N110-B71=1.4420      N110-B109=1.4627     B111-N48=1.4254      B111-N74=1.4004      
B111-N106=1.4178     N112-B43=1.4012      N112-N60=1.4046      N112-B97=1.4873      B113-B45=1.6509      B113-B75=1.7259      
B113-N78=1.4321      N114-B73=1.4512      N114-B95=1.4426      N114-N96=1.4583      
 B  B  Rav=1.6894 sigma=0.1389  Rmin=1.5156  Rmax=2.1340    24
 C  H  Rav=1.0851 sigma=0.0064  Rmin=1.0763  Rmax=1.0960    14
 C  C  Rav=1.4180 sigma=0.0453  Rmin=1.3556  Rmax=1.5313    22
 N  B  Rav=1.4476 sigma=0.0752  Rmin=1.3745  Rmax=2.0092    67
 N  C  Rav=1.3714 sigma=0.0490  Rmin=1.3038  Rmax=1.4550     5
 N  N  Rav=1.4306 sigma=0.0404  Rmin=1.3681  Rmax=1.5535    21
 O  H  Rav=0.9652 sigma=0.0000  Rmin=0.9651  Rmax=0.9652     2
 O  C  Rav=1.3118 sigma=0.0659  Rmin=1.2187  Rmax=1.3588     3
 
 selected bond angles (degree)
 --------------------
H27-C1-C2=110.25               H28-C1-C2=110.10               H28-C1-H27=108.40              H29-C1-C2=110.83               
H29-C1-H27=108.24              H29-C1-H28=108.95              C3-C2-C1=110.47                H30-C2-C1=108.86               
H30-C2-C3=109.41               H31-C2-C1=109.70               H31-C2-C3=110.43               H31-C2-H30=107.92              
C4-C3-C2=121.13                C21-C3-C2=122.53               C21-C3-C4=116.29               C5-C4-C3=131.51                
C18-C4-C3=119.83               C18-C4-C5=108.66               N6-C5-C4=102.97                H32-C5-C4=113.59               
H32-C5-N6=109.95               H33-C5-C4=113.11               H33-C5-N6=109.86               H33-C5-H32=107.29              
C7-N6-C5=112.46                C11-N6-C5=122.82               C11-N6-C7=124.72               C8-C7-N6=122.08                
C18-C7-N6=107.73               C18-C7-C8=130.19               C9-C8-C7=118.41                H34-C8-C7=119.95               
H34-C8-C9=121.65               C10-C9-C8=119.42               C16-C9-C8=122.20               C16-C9-C10=118.38              
C11-C10-C9=121.40              C13-C10-C9=120.18              C13-C10-C11=118.42             
 
 selected dihedral angles (degree)
 ---------------------------------
C3-C2-C1-H27=302.28           C3-C2-C1-H28=182.72           C3-C2-C1-H29= 62.11           H30-C2-C1-H27= 62.44          
H30-C2-C1-H28=302.88          H30-C2-C1-H29=182.26          H31-C2-C1-H27=180.32          H31-C2-C1-H28= 60.76          
H31-C2-C1-H29=300.15          C4-C3-C2-C1= 97.21            C4-C3-C2-H30=337.38           C4-C3-C2-H31=218.74           
C21-C3-C2-C1=279.84           C21-C3-C2-H30=160.02          C21-C3-C2-H31= 41.37          C5-C4-C3-C2=  3.16            
C5-C4-C3-C21=180.69           C18-C4-C3-C2=182.93           C18-C4-C3-C21=  0.46          N6-C5-C4-C3=179.81            
N6-C5-C4-C18=  0.00           H32-C5-C4-C3=298.66           H32-C5-C4-C18=118.87          H33-C5-C4-C3= 61.29           
H33-C5-C4-C18=241.50          C7-N6-C5-C4=  0.24            C7-N6-C5-H32=238.87           C7-N6-C5-H33=121.01           
C11-N6-C5-C4=180.50           C11-N6-C5-H32= 59.13          C11-N6-C5-H33=301.27          C8-C7-N6-C5=179.48            
C8-C7-N6-C11=359.22           C18-C7-N6-C5=359.60           C18-C7-N6-C11=179.34          C9-C8-C7-N6=  0.00            
C9-C8-C7-C18=179.87           H34-C8-C7-N6=180.07           H34-C8-C7-C18=359.92          C10-C9-C8-C7=  0.56           
C10-C9-C8-H34=180.51          C16-C9-C8-C7=180.63           C16-C9-C8-H34=  0.59          C11-C10-C9-C8=359.55          
C11-C10-C9-C16=179.47         C13-C10-C9-C8=179.72          C13-C10-C9-C16=359.64         
 
 CMA Distance (Angstroems)
 ---------------------------
R(CMA): 11.3589
           -------------------------------------------------
          |                Final Singlepoint                |
           -------------------------------------------------

          ...................................................
          :                      SETUP                      :
          :.................................................:
          :  # basis functions                 408          :
          :  # atomic orbitals                 408          :
          :  # shells                          212          :
          :  # electrons                       416          :
          :  max. iterations                   500          :
          :  Hamiltonian                  GFN2-xTB          :
          :  restarted?                      false          :
          :  GBSA solvation                  false          :
          :  PC potential                    false          :
          :  electronic temp.          300.0000000     K    :
          :  accuracy                    1.0000000          :
          :  -> integral cutoff          0.2500000E+02      :
          :  -> integral neglect         0.1000000E-07      :
          :  -> SCF convergence          0.1000000E-05 Eh   :
          :  -> wf. convergence          0.1000000E-03 e    :
          :  Broyden damping             0.4000000          :
          :  net charge                          0          :
          :  unpaired electrons                  0          :
          ...................................................

 iter      E             dE          RMSdq      gap      omega  full diag
   1   -223.9180481 -0.223918E+03  0.399E-02    0.68       0.0  T
   2   -223.9180493 -0.119077E-05  0.238E-02    0.68       1.0  T
   3   -223.9180295  0.197746E-04  0.103E-02    0.69       1.0  T
   4   -223.9180467 -0.171507E-04  0.433E-03    0.68       2.2  T
   5   -223.9180501 -0.344853E-05  0.176E-03    0.68       5.3  T
   6   -223.9180505 -0.364091E-06  0.826E-04    0.68      11.3  T
   7   -223.9180505 -0.430055E-07  0.459E-04    0.68      20.4  T

   *** convergence criteria satisfied after 7 iterations ***

         #    Occupation            Energy/Eh            Energy/eV
      -------------------------------------------------------------
         1        2.0000           -0.7140169             -19.4294
       ...           ...                  ...                  ...
       202        2.0000           -0.3259718              -8.8701
       203        2.0000           -0.3231735              -8.7940
       204        2.0000           -0.3219725              -8.7613
       205        2.0000           -0.3192629              -8.6876
       206        2.0000           -0.3138152              -8.5393
       207        2.0000           -0.3120786              -8.4921
       208        2.0000           -0.3070095              -8.3542 (HOMO)
       209        0.0000           -0.2819892              -7.6733 (LUMO)
       210        0.0000           -0.2792204              -7.5980
       211                         -0.2732969              -7.4368
       212                         -0.2630806              -7.1588
       213                         -0.2491785              -6.7805
       ...                                ...                  ...
       408                          0.9850842              26.8055
      -------------------------------------------------------------
                  HL-Gap            0.0250204 Eh            0.6808 eV
             Fermi-level           -0.2945218 Eh           -8.0143 eV

 SCC (total)                   0 d,  0 h,  0 min,  0.296 sec
 SCC setup                      ...        0 min,  0.001 sec (  0.338%)
 Dispersion                     ...        0 min,  0.002 sec (  0.676%)
 classical contributions        ...        0 min,  0.000 sec (  0.000%)
 integral evaluation            ...        0 min,  0.013 sec (  4.392%)
 iterations                     ...        0 min,  0.244 sec ( 82.432%)
 molecular gradient             ...        0 min,  0.033 sec ( 11.149%)
 printout                       ...        0 min,  0.003 sec (  1.014%)

         :::::::::::::::::::::::::::::::::::::::::::::::::::::
         ::                     SUMMARY                     ::
         :::::::::::::::::::::::::::::::::::::::::::::::::::::
         :: total energy            -221.456828500797 Eh    ::
         :: gradient norm              0.002737091354 Eh/a0 ::
         :: HOMO-LUMO gap              0.680839534601 eV    ::
         ::.................................................::
         :: SCC energy              -223.904593291924 Eh    ::
         :: -> isotropic ES            0.718135743345 Eh    ::
         :: -> anisotropic ES         -0.023439862967 Eh    ::
         :: -> anisotropic XC          0.088178418176 Eh    ::
         :: -> dispersion             -0.196561328816 Eh    ::
         :: repulsion energy           2.447764791126 Eh    ::
         :: add. restraining           0.000000000000 Eh    ::
         :: total charge              -0.000000000035 e     ::
         :::::::::::::::::::::::::::::::::::::::::::::::::::::

           -------------------------------------------------
          |                Property Printout                |
           -------------------------------------------------

    * Orbital Energies and Occupations

         #    Occupation            Energy/Eh            Energy/eV
      -------------------------------------------------------------
         1        2.0000           -0.7140169             -19.4294
       ...           ...                  ...                  ...
       196        2.0000           -0.3387224              -9.2171
       197        2.0000           -0.3371596              -9.1746
       198        2.0000           -0.3332995              -9.0695
       199        2.0000           -0.3311361              -9.0107
       200        2.0000           -0.3282603              -8.9324
       201        2.0000           -0.3273404              -8.9074
       202        2.0000           -0.3259718              -8.8701
       203        2.0000           -0.3231735              -8.7940
       204        2.0000           -0.3219725              -8.7613
       205        2.0000           -0.3192629              -8.6876
       206        2.0000           -0.3138152              -8.5393
       207        2.0000           -0.3120786              -8.4921
       208        2.0000           -0.3070095              -8.3542 (HOMO)
       209        0.0000           -0.2819892              -7.6733 (LUMO)
       210        0.0000           -0.2792204              -7.5980
       211                         -0.2732969              -7.4368
       212                         -0.2630806              -7.1588
       213                         -0.2491785              -6.7805
       214                         -0.2470607              -6.7229
       215                         -0.2449814              -6.6663
       216                         -0.2438927              -6.6367
       217                         -0.2335037              -6.3540
       218                         -0.2285896              -6.2202
       219                         -0.2276414              -6.1944
       ...                                ...                  ...
       408                          0.9850842              26.8055
      -------------------------------------------------------------
                  HL-Gap            0.0250204 Eh            0.6808 eV
             Fermi-level           -0.2945218 Eh           -8.0143 eV

     #   Z          covCN         q      C6AA      α(0)
     1   6 C        3.754    -0.104    22.540     6.770
     2   6 C        3.805    -0.064    21.722     6.635
     3   6 C        2.967     0.017    27.629     8.622
     4   6 C        3.033    -0.025    28.601     8.772
     5   6 C        3.792     0.001    20.569     6.459
     6   7 N        2.798    -0.059    22.385     7.027
     7   6 C        2.975     0.049    26.890     8.506
     8   6 C        2.910    -0.063    29.555     8.914
     9   6 C        2.987     0.009    27.819     8.652
    10   6 C        2.984    -0.026    28.637     8.778
    11   6 C        2.770     0.257    22.671     7.798
    12   8 O        0.859    -0.446    22.611     6.375
    13   6 C        2.921    -0.047    29.162     8.856
    14   6 C        2.844     0.145    24.835     8.167
    15   6 C        2.915    -0.064    29.602     8.922
    16   6 C        2.920    -0.037    28.925     8.820
    17   8 O        1.660    -0.386    20.577     6.124
    18   6 C        3.027     0.088    26.007     8.365
    19   7 N        1.844    -0.246    27.276     7.740
    20   6 C        2.988     0.088    26.036     8.370
    21   6 C        2.987    -0.014    28.364     8.736
    22   6 C        2.916    -0.036    28.907     8.817
    23   6 C        2.915    -0.068    29.705     8.937
    24   6 C        2.842     0.147    24.795     8.160
    25   6 C        2.925    -0.067    29.679     8.934
    26   8 O        1.660    -0.386    20.586     6.125
    27   1 H        0.925     0.040     2.450     2.448
    28   1 H        0.925     0.048     2.350     2.397
    29   1 H        0.925     0.040     2.455     2.450
    30   1 H        0.924     0.049     2.336     2.390
    31   1 H        0.924     0.045     2.383     2.414
    32   1 H        0.924     0.079     1.987     2.204
    33   1 H        0.924     0.075     2.027     2.226
    34   1 H        0.926     0.060     2.198     2.319
    35   1 H        0.926     0.079     1.986     2.204
    36   1 H        0.925     0.031     2.568     2.506
    37   1 H        0.926     0.042     2.416     2.431
    38   1 H        0.805     0.301     0.719     1.331
    39   1 H        0.926     0.045     2.379     2.412
    40   1 H        0.925     0.031     2.577     2.510
    41   1 H        0.926     0.071     2.077     2.253
    42   1 H        0.805     0.302     0.716     1.329
    43   5 B        2.781     0.077    20.177     7.510
    44   7 N        2.772    -0.227    25.951     7.566
    45   5 B        2.788     0.092    19.928     7.463
    46   7 N        2.523    -0.314    28.122     7.875
    47   5 B        2.779     0.084    20.075     7.492
    48   7 N        2.655    -0.272    27.027     7.721
    49   5 B        2.852     0.241    17.670     7.019
    50   7 N        2.529    -0.273    27.087     7.729
    51   5 B        3.198     0.150    18.931     7.256
    52   7 N        2.980    -0.110    23.395     7.184
    53   5 B        2.644     0.373    16.323     6.813
    54   7 N        2.669    -0.213    25.643     7.521
    55   5 B        3.184     0.022    21.001     7.643
    56   7 N        2.886    -0.222    25.841     7.550
    57   5 B        3.008     0.209    18.079     7.093
    58   7 N        2.660    -0.163    24.535     7.357
    59   5 B        2.901     0.322    16.585     6.796
    60   7 N        3.167    -0.070    22.597     7.060
    61   5 B        2.778     0.094    19.913     7.462
    62   7 N        3.045    -0.118    23.567     7.210
    63   5 B        2.758     0.090    20.009     7.484
    64   7 N        2.634    -0.311    27.998     7.859
    65   5 B        3.039     0.226    17.837     7.045
    66   7 N        2.981    -0.000    21.263     6.849
    67   5 B        2.582     0.325    17.310     7.088
    68   7 N        2.595    -0.359    29.267     8.035
    69   5 B        3.287     0.340    16.340     6.741
    70   7 N        2.785    -0.253    26.555     7.654
    71   5 B        2.559     0.320    17.593     7.184
    72   7 N        2.579    -0.369    29.535     8.071
    73   5 B        2.529     0.301    18.233     7.379
    74   7 N        2.665    -0.205    25.471     7.496
    75   5 B        2.698     0.195    18.511     7.220
    76   7 N        2.844    -0.167    24.613     7.368
    77   5 B        2.758     0.082    20.135     7.508
    78   7 N        2.672    -0.174    24.770     7.392
    79   5 B        2.876     0.110    19.576     7.386
    80   7 N        2.663    -0.145    24.147     7.298
    81   5 B        2.595     0.312    17.386     7.085
    82   7 N        2.519    -0.355    29.183     8.023
    83   5 B        2.683     0.184    18.723     7.269
    84   7 N        3.002    -0.134    23.893     7.260
    85   5 B        2.677     0.210    18.361     7.202
    86   7 N        2.715    -0.250    26.500     7.646
    87   5 B        2.647     0.164    19.163     7.380
    88   7 N        2.825    -0.206    25.475     7.496
    89   5 B        3.321     0.231    17.765     7.029
    90   7 N        2.531    -0.286    27.408     7.775
    91   5 B        2.949     0.035    20.781     7.606
    92   7 N        2.783    -0.186    25.024     7.430
    93   5 B        2.796     0.085    20.040     7.482
    94   7 N        2.673    -0.156    24.377     7.333
    95   5 B        3.020     0.211    18.045     7.086
    96   7 N        3.272     0.015    20.994     6.805
    97   5 B        2.876     0.306    16.795     6.841
    98   7 N        3.149    -0.121    23.615     7.218
    99   5 B        3.264     0.320    16.584     6.792
   100   7 N        2.833    -0.061    22.421     7.033
   101   5 B        3.303     0.231    17.766     7.029
   102   7 N        2.656    -0.179    24.887     7.409
   103   5 B        2.838     0.112    19.570     7.388
   104   7 N        2.829    -0.225    25.905     7.559
   105   5 B        2.861     0.252    17.505     6.985
   106   7 N        2.654    -0.232    26.088     7.586
   107   5 B        3.011     0.114    19.490     7.364
   108   7 N        3.153    -0.086    22.913     7.109
   109   5 B        2.674     0.199    18.537     7.239
   110   7 N        2.699    -0.234    26.130     7.592
   111   5 B        2.584     0.369    16.730     6.964
   112   7 N        2.886    -0.178    24.850     7.404
   113   5 B        2.825     0.106    19.674     7.409
   114   7 N        2.827    -0.253    26.553     7.653

 Mol. C6AA /au·bohr⁶  :     240045.347689
 Mol. C8AA /au·bohr⁸  :    6727208.749249
 Mol. α(0) /au        :        773.060719


Wiberg/Mayer (AO) data.
largest (>0.10) Wiberg bond orders for each atom

 ---------------------------------------------------------------------------
     #   Z sym  total        # sym  WBO       # sym  WBO       # sym  WBO
 ---------------------------------------------------------------------------
     1   6 C    3.994 --     2 C    0.996    27 H    0.988    29 H    0.987
                            28 H    0.985
     2   6 C    3.995 --     3 C    1.015     1 C    0.996    30 H    0.973
                            31 H    0.966
     3   6 C    3.981 --     4 C    1.511    21 C    1.242     2 C    1.015
     4   6 C    3.975 --     3 C    1.511    18 C    1.218     5 C    1.018
     5   6 C    3.967 --     4 C    1.018     6 N    0.978    32 H    0.946
                            33 H    0.945
     6   7 N    3.592 --     7 C    1.146    11 C    1.142     5 C    0.978
                            12 O    0.158
     7   6 C    3.956 --     8 C    1.546     6 N    1.146    18 C    1.079
     8   6 C    3.971 --     7 C    1.546     9 C    1.207    34 H    0.964
     9   6 C    3.990 --    16 C    1.316    10 C    1.285     8 C    1.207
    10   6 C    3.982 --    13 C    1.385     9 C    1.285    11 C    1.053
    11   6 C    3.953 --    12 O    1.648     6 N    1.142    10 C    1.053
    12   8 O    1.991 --    11 C    1.648     6 N    0.158
    13   6 C    3.984 --    14 C    1.398    10 C    1.385    35 H    0.961
                            16 C    0.105
    14   6 C    3.927 --    13 C    1.398    15 C    1.319    17 O    1.076
    15   6 C    3.988 --    16 C    1.511    14 C    1.319    36 H    0.966
    16   6 C    3.978 --    15 C    1.511     9 C    1.316    37 H    0.968
                            13 C    0.105
    17   8 O    2.117 --    14 C    1.076    38 H    0.888
    18   6 C    3.980 --    19 N    1.486     4 C    1.218     7 C    1.079
    19   7 N    3.047 --    18 C    1.486    20 C    1.278
    20   6 C    3.980 --    25 C    1.296    19 N    1.278    21 C    1.225
    21   6 C    3.983 --    22 C    1.294     3 C    1.242    20 C    1.225
    22   6 C    3.987 --    23 C    1.548    21 C    1.294    39 H    0.963
                            25 C    0.110
    23   6 C    3.975 --    22 C    1.548    24 C    1.275    40 H    0.966
    24   6 C    3.936 --    25 C    1.456    23 C    1.275    26 O    1.078
    25   6 C    3.974 --    24 C    1.456    20 C    1.296    41 H    0.963
                            22 C    0.110
    26   8 O    2.122 --    24 C    1.078    42 H    0.888
    27   1 H    0.998 --     1 C    0.988
    28   1 H    0.997 --     1 C    0.985
    29   1 H    0.998 --     1 C    0.987
    30   1 H    0.997 --     2 C    0.973
    31   1 H    0.998 --     2 C    0.966
    32   1 H    0.990 --     5 C    0.946
    33   1 H    0.991 --     5 C    0.945
    34   1 H    0.996 --     8 C    0.964
    35   1 H    0.993 --    13 C    0.961
    36   1 H    0.998 --    15 C    0.966
    37   1 H    0.998 --    16 C    0.968
    38   1 H    0.909 --    17 O    0.888
    39   1 H    0.998 --    22 C    0.963
    40   1 H    0.999 --    23 C    0.966
    41   1 H    0.994 --    25 C    0.963
    42   1 H    0.909 --    26 O    0.888
    43   5 B    3.475 --   112 N    1.284    95 B    1.000    89 B    0.970
    44   7 N    3.397 --    89 B    1.141   102 N    1.006   101 B    1.003
    45   5 B    3.463 --    90 N    1.276   113 B    0.977   101 B    0.957
    46   7 N    3.530 --   105 B    1.152   103 B    1.150    73 B    1.018
    47   5 B    3.463 --    80 N    1.240   109 B    0.996    83 B    0.989
    48   7 N    3.263 --    69 B    1.201   111 B    0.968   106 N    0.887
    49   5 B    3.407 --    82 N    1.176    56 N    1.034    65 B    0.963
    50   7 N    3.568 --    63 B    1.277    51 B    1.158   107 B    0.973
    51   5 B    3.393 --    50 N    1.158    93 B    0.932    91 B    0.640
                            55 B    0.295
    52   7 N    3.324 --    57 B    1.114    96 N    1.043   108 N    0.945
    53   5 B    3.433 --    54 N    1.188    64 N    1.126    92 N    0.961
    54   7 N    3.445 --    53 B    1.188    81 B    1.086    94 N    0.967
    55   5 B    3.457 --    91 B    1.285   107 B    1.004   105 B    0.626
                            51 B    0.295
    56   7 N    3.432 --    59 B    1.238    49 B    1.034    70 N    0.929
    57   5 B    3.390 --    52 N    1.114    76 N    1.038   103 B    1.005
    58   7 N    3.511 --    61 B    1.205    81 B    1.124    78 N    0.999
    59   5 B    3.513 --    56 N    1.238    84 N    1.064   104 N    1.004
    60   7 N    3.377 --   109 B    1.167   112 N    0.994    62 N    0.984
    61   5 B    3.414 --    58 N    1.205    79 B    1.008    93 B    0.926
    62   7 N    3.345 --    97 B    1.147    60 N    0.984    66 N    0.971
    63   5 B    3.464 --    50 N    1.277    77 B    0.978    87 B    0.932
    64   7 N    3.216 --    53 B    1.126    67 B    1.066    92 N    0.792
    65   5 B    3.369 --    78 N    1.150    70 N    0.995    49 B    0.963
    66   7 N    3.097 --    84 N    1.013    62 N    0.971   110 N    0.941
    67   5 B    3.511 --   104 N    1.246    64 N    1.066    82 N    0.990
    68   7 N    3.435 --    73 B    1.202   101 B    1.062    89 B    0.926
    69   5 B    3.481 --    48 N    1.201    86 N    1.042    72 N    0.980
    70   7 N    3.281 --    75 B    1.162    65 B    0.995    56 N    0.929
    71   5 B    3.523 --   106 N    1.208   110 N    1.127    98 N    1.029
    72   7 N    3.430 --    85 B    1.221    99 B    0.993    69 B    0.980
    73   5 B    3.519 --    68 N    1.202   114 N    1.099    46 N    1.018
    74   7 N    3.442 --   111 B    1.261    85 B    0.997   100 N    0.990
    75   5 B    3.447 --    70 N    1.162   102 N    1.130   113 B    0.923
    76   7 N    3.469 --    77 B    1.260    57 B    1.038   108 N    0.984
    77   5 B    3.421 --    76 N    1.260    63 B    0.978    85 B    0.959
    78   7 N    3.510 --   113 B    1.172    65 B    1.150    58 N    0.999
    79   5 B    3.347 --    91 B    1.009    61 B    1.008    90 N    0.963
    80   7 N    3.507 --    47 B    1.240    83 B    1.094    86 N    1.034
    81   5 B    3.515 --    58 N    1.124    82 N    1.104    54 N    1.086
    82   7 N    3.477 --    49 B    1.176    81 B    1.104    67 B    0.990
    83   5 B    3.465 --    88 N    1.180    80 N    1.094    47 B    0.989
    84   7 N    3.249 --    59 B    1.064    66 N    1.013    98 N    0.974
    85   5 B    3.391 --    72 N    1.221    74 N    0.997    77 B    0.959
    86   7 N    3.370 --    69 B    1.042    80 N    1.034    99 B    0.986
    87   5 B    3.453 --   100 N    1.190    94 N    1.079    63 B    0.932
    88   7 N    3.407 --    83 B    1.180    95 B    1.073    96 N    0.959
    89   5 B    3.364 --    44 N    1.141    43 B    0.970    68 N    0.926
                           101 B    0.127
    90   7 N    3.561 --    45 B    1.276   105 B    1.106    79 B    0.963
    91   5 B    3.367 --    55 B    1.285    79 B    1.009    51 B    0.640
                           105 B    0.187
    92   7 N    2.985 --   100 N    1.045    53 B    0.961    64 N    0.792
    93   5 B    3.454 --    94 N    1.265    51 B    0.932    61 B    0.926
    94   7 N    3.480 --    93 B    1.265    87 B    1.079    54 N    0.967
    95   5 B    3.442 --   114 N    1.131    88 N    1.073    43 B    1.000
    96   7 N    3.184 --    52 N    1.043    88 N    0.959   114 N    0.950
    97   5 B    3.524 --   102 N    1.159    62 N    1.147   112 N    0.984
    98   7 N    3.209 --    71 B    1.029   104 N    0.983    84 N    0.974
    99   5 B    3.507 --   108 N    1.264    72 N    0.993    86 N    0.986
   100   7 N    3.439 --    87 B    1.190    92 N    1.045    74 N    0.990
   101   5 B    3.327 --    68 N    1.062    44 N    1.003    45 B    0.957
                            89 B    0.127
   102   7 N    3.493 --    97 B    1.159    75 B    1.130    44 N    1.006
   103   5 B    3.386 --    46 N    1.150    57 B    1.005   107 B    1.002
   104   7 N    3.447 --    67 B    1.246    59 B    1.004    98 N    0.983
   105   5 B    3.444 --    46 N    1.152    90 N    1.106    55 B    0.626
                            91 B    0.187   107 B    0.120
   106   7 N    3.329 --    71 B    1.208   111 B    1.036    48 N    0.887
   107   5 B    3.334 --    55 B    1.004   103 B    1.002    50 N    0.973
                           105 B    0.120
   108   7 N    3.439 --    99 B    1.264    76 N    0.984    52 N    0.945
   109   5 B    3.451 --    60 N    1.167   110 N    1.093    47 B    0.996
   110   7 N    3.381 --    71 B    1.127   109 B    1.093    66 N    0.941
   111   5 B    3.440 --    74 N    1.261   106 N    1.036    48 N    0.968
   112   7 N    3.474 --    43 B    1.284    60 N    0.994    97 B    0.984
   113   5 B    3.360 --    78 N    1.172    45 B    0.977    75 B    0.923
   114   7 N    3.417 --    95 B    1.131    73 B    1.099    96 N    0.950
 ---------------------------------------------------------------------------

Topologies differ in total number of bonds
Writing topology from bond orders to xtbtopo.mol

molecular dipole:
                 x           y           z       tot (Debye)
 q only:        0.748       1.854      -3.292
   full:       -1.148       1.019      -1.288       5.093
molecular quadrupole (traceless):
                xx          xy          yy          xz          yz          zz
 q only:       -6.365      -4.732     -18.089     -12.240     -17.770      24.454
  q+dip:       17.431      -6.347     -10.780     -13.420     -10.320      -6.651
   full:       19.460      -5.448      -5.900      -9.807      -8.580     -13.560

           -------------------------------------------------
          |                Geometry Summary                 |
           -------------------------------------------------

      molecular mass/u    :     1237.8024524
   center of mass at/Å    :        0.0716957      -0.0039555       3.3162401
  moments of inertia/u·Å² :        0.1502422E+05   0.4395598E+05   0.4751125E+05
rotational constants/cm⁻¹ :        0.1122030E-02   0.3835117E-03   0.3548135E-03

 * 136 selected distances

     #   Z          #   Z                                           value/Å
     1   6 C        2   6 C                                       1.5313412
     3   6 C        4   6 C                                       1.3696639
     5   6 C        6   7 N                                       1.4549723
     6   7 N        7   6 C                                       1.3731426
     7   6 C        8   6 C                                       1.3555849
     8   6 C        9   6 C                                       1.4230156
     9   6 C       10   6 C                                       1.4122971
     6   7 N       11   6 C                                       1.3751134
    11   6 C       12   8 O                                       1.2186515
    10   6 C       13   6 C                                       1.3922037
    13   6 C       14   6 C                                       1.3838795
    14   6 C       15   6 C                                       1.4001699
     9   6 C       16   6 C                                       1.4025425
    15   6 C       16   6 C                                       1.3729493
    14   6 C       17   8 O                                       1.3588116
     4   6 C       18   6 C                                       1.4206984
    18   6 C       19   7 N                                       1.3038380
    19   7 N       20   6 C                                       1.3499241
     3   6 C       21   6 C                                       1.4275565
    20   6 C       21   6 C                                       1.4293849
    21   6 C       22   6 C                                       1.4084952
    22   6 C       23   6 C                                       1.3679667
    23   6 C       24   6 C                                       1.4068518
    20   6 C       25   6 C                                       1.4040543
    24   6 C       25   6 C                                       1.3736861
    24   6 C       26   8 O                                       1.3580122
     1   6 C       27   1 H                                       1.0874527
     1   6 C       28   1 H                                       1.0868480
     1   6 C       29   1 H                                       1.0880571
     2   6 C       30   1 H                                       1.0906226
     2   6 C       31   1 H                                       1.0911107
     5   6 C       32   1 H                                       1.0951750
     5   6 C       33   1 H                                       1.0959604
     8   6 C       34   1 H                                       1.0763255
    13   6 C       35   1 H                                       1.0784849
    15   6 C       36   1 H                                       1.0828860
    16   6 C       37   1 H                                       1.0801929
    17   8 O       38   1 H                                       0.9651178 (min)
    22   6 C       39   1 H                                       1.0786245
    23   6 C       40   1 H                                       1.0826693
    25   6 C       41   1 H                                       1.0769785
    26   8 O       42   1 H                                       0.9652007
    50   7 N       51   5 B                                       1.4429019
    53   5 B       54   7 N                                       1.4038142
    49   5 B       56   7 N                                       1.4718046
    52   7 N       57   5 B                                       1.4397373
    56   7 N       59   5 B                                       1.3859793
    58   7 N       61   5 B                                       1.4227388
    60   7 N       62   7 N                                       1.4178383
    50   7 N       63   5 B                                       1.4230939
    53   5 B       64   7 N                                       1.3945658
    49   5 B       65   5 B                                       1.5747883
    62   7 N       66   7 N                                       1.4208272
    64   7 N       67   5 B                                       1.4347985
    48   7 N       69   5 B                                       1.3898026
    65   5 B       70   7 N                                       1.4836803
    69   5 B       72   7 N                                       1.4712026
    46   7 N       73   5 B                                       1.4905428
    68   7 N       73   5 B                                       1.4136337
    70   7 N       75   5 B                                       1.4404326
    57   5 B       76   7 N                                       1.4568824
    63   5 B       77   5 B                                       1.6639238
    76   7 N       77   5 B                                       1.4081193
    65   5 B       78   7 N                                       1.4221639
    61   5 B       79   5 B                                       1.6424050
    47   5 B       80   7 N                                       1.4057118
    54   7 N       81   5 B                                       1.4486313
    58   7 N       81   5 B                                       1.4595065
    49   5 B       82   7 N                                       1.4261520
    67   5 B       82   7 N                                       1.4919470
    81   5 B       82   7 N                                       1.4582997
    47   5 B       83   5 B                                       1.5735033
    80   7 N       83   5 B                                       1.4137452
    59   5 B       84   7 N                                       1.4480532
    66   7 N       84   7 N                                       1.3940849
    72   7 N       85   5 B                                       1.4199826
    74   7 N       85   5 B                                       1.4796114
    77   5 B       85   5 B                                       1.6738857 (max)
    69   5 B       86   7 N                                       1.4507924
    80   7 N       86   7 N                                       1.3702434
    83   5 B       88   7 N                                       1.4093072
    43   5 B       89   5 B                                       1.6086926
    44   7 N       89   5 B                                       1.4252865
    68   7 N       89   5 B                                       1.4999797
    45   5 B       90   7 N                                       1.4099753
    79   5 B       90   7 N                                       1.4908933
    55   5 B       91   5 B                                       1.5155967
    79   5 B       91   5 B                                       1.6061037
    53   5 B       92   7 N                                       1.4296608
    51   5 B       93   5 B                                       1.6492730
    61   5 B       93   5 B                                       1.6620464
    87   5 B       94   7 N                                       1.4615063
    93   5 B       94   7 N                                       1.4029861
    43   5 B       95   5 B                                       1.6192402
    88   7 N       95   5 B                                       1.4431052
    52   7 N       96   7 N                                       1.3680753
    62   7 N       97   5 B                                       1.4333332
    71   5 B       98   7 N                                       1.4568669
    84   7 N       98   7 N                                       1.4400095
    72   7 N       99   5 B                                       1.4565636
    86   7 N       99   5 B                                       1.4636782
    87   5 B      100   7 N                                       1.4272614
    92   7 N      100   7 N                                       1.3895389
    44   7 N      101   5 B                                       1.4593476
    45   5 B      101   5 B                                       1.6134473
    68   7 N      101   5 B                                       1.4506593
    75   5 B      102   7 N                                       1.4473463
    97   5 B      102   7 N                                       1.4411426
    46   7 N      103   5 B                                       1.4575547
    57   5 B      103   5 B                                       1.6054470
    59   5 B      104   7 N                                       1.4613676
    67   5 B      104   7 N                                       1.3915750
    98   7 N      104   7 N                                       1.4218882
    46   7 N      105   5 B                                       1.4584126
    90   7 N      105   5 B                                       1.4558124
    71   5 B      106   7 N                                       1.3894847
    50   7 N      107   5 B                                       1.4966713
    55   5 B      107   5 B                                       1.6003110
   103   5 B      107   5 B                                       1.6242845
    52   7 N      108   7 N                                       1.4306522
    76   7 N      108   7 N                                       1.4183943
    99   5 B      108   7 N                                       1.3744666
    47   5 B      109   5 B                                       1.6411110
    60   7 N      109   5 B                                       1.4275370
    71   5 B      110   7 N                                       1.4420271
   109   5 B      110   7 N                                       1.4627346
    48   7 N      111   5 B                                       1.4254363
    74   7 N      111   5 B                                       1.4003692
   106   7 N      111   5 B                                       1.4177836
    43   5 B      112   7 N                                       1.4011702
    60   7 N      112   7 N                                       1.4045998
    97   5 B      112   7 N                                       1.4873430
    45   5 B      113   5 B                                       1.6508812
    78   7 N      113   5 B                                       1.4321267
    73   5 B      114   7 N                                       1.4511983
    95   5 B      114   7 N                                       1.4426346

 * 8 distinct bonds (by element types)

   Z      Z             #   av. dist./Å        max./Å        min./Å
   5 B    5 B          17     1.6191142     1.6738857     1.5155967
   1 H    6 C          14     1.0850992     1.0959604     1.0763255
   6 C    6 C          18     1.4045745     1.5313412     1.3555849
   5 B    7 N          66     1.4391353     1.4999797     1.3744666
   6 C    7 N           5     1.3713981     1.4549723     1.3038380
   7 N    7 N          11     1.4069229     1.4400095     1.3680753
   1 H    8 O           2     0.9651592     0.9652007     0.9651178
   6 C    8 O           3     1.3118251     1.3588116     1.2186515


optimized geometry written to: xtbopt.xyz


           -------------------------------------------------
          | TOTAL ENERGY             -221.456828500797 Eh   |
          | GRADIENT NORM               0.002737091354 Eh/α |
          | HOMO-LUMO GAP               0.680839534601 eV   |
           -------------------------------------------------

------------------------------------------------------------------------
 * finished run on 2026/08/31 at 22:24:35.245     
------------------------------------------------------------------------
 total:
 * wall-time:     0 d,  0 h,  0 min,  5.569 sec
 *  cpu-time:     0 d,  0 h,  0 min, 48.422 sec
 * ratio c/w:     8.695 speedup
 SCF:
 * wall-time:     0 d,  0 h,  0 min,  0.803 sec
 *  cpu-time:     0 d,  0 h,  0 min,  7.641 sec
 * ratio c/w:     9.515 speedup
 ANC optimizer:
 * wall-time:     0 d,  0 h,  0 min,  4.698 sec
 *  cpu-time:     0 d,  0 h,  0 min, 40.359 sec
 * ratio c/w:     8.591 speedup

normal termination of xtb
