42
SN_38 conformer
C     -3.227177     -1.005891     -2.824724
C     -2.918995      0.355934     -2.219592
C     -2.273190      0.239232     -0.859832
C     -0.889102      0.254638     -0.753703
C      0.179449      0.382714     -1.800825
N      1.413739      0.318199     -1.014611
C      1.145032      0.173204      0.331522
C      2.108306      0.091425      1.252728
C      3.501071      0.160559      0.799243
C      3.794752      0.308674     -0.571542
C      2.676786      0.394663     -1.556815
O      2.890419      0.523979     -2.757430
C      5.119181      0.375316     -1.012188
C      6.147915      0.293734     -0.081574
C      5.878347      0.147186      1.277597
C      4.553089      0.080509      1.718524
O      7.428439      0.362047     -0.544700
C     -0.303973      0.131958      0.500280
N     -0.951380     -0.006771      1.661049
C     -2.291836     -0.032709      1.579109
C     -3.013075      0.081423      0.348335
C     -4.426434      0.029343      0.395820
C     -5.110895     -0.123372      1.602188
C     -4.387209     -0.226963      2.777450
C     -2.998124     -0.182399      2.762113
O     -5.006871     -0.377077      3.982629
H     -2.315933     -1.601779     -2.943908
H     -3.683921     -0.885307     -3.812162
H     -3.920649     -1.577306     -2.199324
H     -2.260935      0.909496     -2.900344
H     -3.829541      0.962253     -2.160270
H      0.166001     -0.447030     -2.514122
H      0.140079      1.344182     -2.321933
H      1.880709     -0.022978      2.306511
H      5.346631      0.489524     -2.068766
H      6.681871      0.083361      2.005375
H      4.351680     -0.033954      2.781284
H      8.040807      0.292920      0.205964
H     -5.018760      0.104025     -0.512401
H     -6.195770     -0.159094      1.599757
H     -2.452281     -0.268357      3.698227
H     -5.968252     -0.391458      3.845059
