      -----------------------------------------------------------      
     |                   =====================                   |     
     |                           x T B                           |     
     |                   =====================                   |     
     |                         S. Grimme                         |     
     |          Mulliken Center for Theoretical Chemistry        |     
     |                    University of Bonn                     |     
      -----------------------------------------------------------      

   * xtb version 6.7.1pre (5071a88) compiled by 'Marcel@Raven' on 2024-07-23

   xtb is free software: you can redistribute it and/or modify it under
   the terms of the GNU Lesser General Public License as published by
   the Free Software Foundation, either version 3 of the License, or
   (at your option) any later version.
   
   xtb is distributed in the hope that it will be useful,
   but WITHOUT ANY WARRANTY; without even the implied warranty of
   MERCHANTABILITY or FITNESS FOR A PARTICULAR PURPOSE.  See the
   GNU Lesser General Public License for more details.
   
   Cite this work as:
   * C. Bannwarth, E. Caldeweyher, S. Ehlert, A. Hansen, P. Pracht,
     J. Seibert, S. Spicher, S. Grimme, WIREs Comput. Mol. Sci., 2020, 11,
     e01493. DOI: 10.1002/wcms.1493
   
   for GFN2-xTB:
   * C. Bannwarth, S. Ehlert and S. Grimme., J. Chem. Theory Comput., 2019,
     15, 1652-1671. DOI: 10.1021/acs.jctc.8b01176
   for GFN1-xTB:
   * S. Grimme, C. Bannwarth, P. Shushkov, J. Chem. Theory Comput., 2017,
     13, 1989-2009. DOI: 10.1021/acs.jctc.7b00118
   for GFN0-xTB:
   * P. Pracht, E. Caldeweyher, S. Ehlert, S. Grimme, ChemRxiv, 2019, preprint.
     DOI: 10.26434/chemrxiv.8326202.v1
   for GFN-FF:
   * S. Spicher and S. Grimme, Angew. Chem. Int. Ed., 2020, 59, 15665-15673.
     DOI: 10.1002/anie.202004239
   
   for ALPB and GBSA implicit solvation:
   * S. Ehlert, M. Stahn, S. Spicher, S. Grimme, J. Chem. Theory Comput.,
     2021, 17, 4250-4261. DOI: 10.1021/acs.jctc.1c00471
   
   for ddCOSMO and CPCM-X implicit solvation:
   * M. Stahn, S. Ehlert, S. Grimme, J. Phys. Chem. A,
     2023, XX, XXXX-XXXX. DOI: 10.1021/acs.jpca.3c04382
   
   for DFT-D4:
   * E. Caldeweyher, C. Bannwarth and S. Grimme, J. Chem. Phys., 2017,
     147, 034112. DOI: 10.1063/1.4993215
   * E. Caldeweyher, S. Ehlert, A. Hansen, H. Neugebauer, S. Spicher,
     C. Bannwarth and S. Grimme, J. Chem. Phys., 2019, 150, 154122.
     DOI: 10.1063/1.5090222
   * E. Caldeweyher, J.-M. Mewes, S. Ehlert and S. Grimme, Phys. Chem. Chem. Phys.
     2020, 22, 8499-8512. DOI: 10.1039/D0CP00502A
   
   for sTDA-xTB:
   * S. Grimme and C. Bannwarth, J. Chem. Phys., 2016, 145, 054103.
     DOI: 10.1063/1.4959605
   
   in the mass-spec context:
   * V. Asgeirsson, C. Bauer and S. Grimme, Chem. Sci., 2017, 8, 4879.
     DOI: 10.1039/c7sc00601b
   * J. Koopman and S. Grimme, ACS Omega 2019, 4, 12, 15120-15133.
     DOI: 10.1021/acsomega.9b02011
   
   for metadynamics refer to:
   * S. Grimme, J. Chem. Theory Comput., 2019, 155, 2847-2862
     DOI: 10.1021/acs.jctc.9b00143
   
   for SPH calculations refer to:
   * S. Spicher and S. Grimme, J. Chem. Theory Comput., 2021, 17, 1701-1714
     DOI: 10.1021/acs.jctc.0c01306
   
   for ONIOM refer to:
   * C. Plett, A. Katbashev, S. Ehlert, S. Grimme, M. Bursch,
     Phys. Chem. Chem. Phys., 2023, 25, 17860-17868. DOI: 10.1039/D3CP02178E
   
   for DIPRO refer to:
   * J. Kohn, N. Gildemeister, S. Grimme, D. Fazzi, A. Hansen,
     J. Chem. Phys., 2023, just accepted.
   
   for PTB refer to:
   * S. Grimme, M. Mueller, A. Hansen, J. Chem. Phys., 2023, 158, 124111.
     DOI: 10.1063/5.0137838
   
   with help from (in alphabetical order)
   P. Atkinson, C. Bannwarth, F. Bohle, G. Brandenburg, E. Caldeweyher
   M. Checinski, S. Dohm, S. Ehlert, S. Ehrlich, I. Gerasimov, C. Hölzer
   A. Katbashev, J. Kohn, J. Koopman, C. Lavigne, S. Lehtola, F. März, M. Müller,
   F. Musil, H. Neugebauer, J. Pisarek, C. Plett, P. Pracht, F. Pultar,
   J. Seibert, P. Shushkov, S. Spicher, M. Stahn, M. Steiner, T. Strunk,
   J. Stückrath, T. Rose, and J. Unsleber
   
 * started run on 2026/08/31 at 21:13:29.495     
   ID    Z sym.   atoms
    1    6 C      1-5, 7-11, 13-16, 18, 20-25
    2    7 N      6, 19
    3    8 O      12, 17, 26
    4    1 H      27-42

           -------------------------------------------------
          |                Calculation Setup                |
           -------------------------------------------------

          program call               : "c:\Users\Andre\Proyectos doctorado\kras-pancreatic-gC3N4-ai\tools\xtb\xtb-6.7.1\bin\xtb.exe" "c:\Users\Andre\Proyectos doctorado\nano-qsar-ai-therapeutics\calculations\tnbc\SN_38\SN_38_drug.xyz" --gfn 2 --sp --chrg 0 --uhf 0 --etemp 300 --iterations 500 --norestart
          coordinate file            : c:\Users\Andre\Proyectos doctorado\nano-qsar-ai-therapeutics\calculations\tnbc\SN_38\SN_38_drug.xyz
          omp threads                :                    16


           -------------------------------------------------
          |                 G F N 2 - x T B                 |
           -------------------------------------------------

        Reference                      10.1021/acs.jctc.8b01176
      * Hamiltonian:
        H0-scaling (s, p, d)           1.850000    2.230000    2.230000
        zeta-weighting                 0.500000
      * Dispersion:
        s8                             2.700000
        a1                             0.520000
        a2                             5.000000
        s9                             5.000000
      * Repulsion:
        kExp                           1.500000    1.000000
        rExp                           1.000000
      * Coulomb:
        alpha                          2.000000
        third order                    shell-resolved
        anisotropic                    true
        a3                             3.000000
        a5                             4.000000
        cn-shift                       1.200000
        cn-exp                         4.000000
        max-rad                        5.000000


          ...................................................
          :                      SETUP                      :
          :.................................................:
          :  # basis functions                 120          :
          :  # atomic orbitals                 120          :
          :  # shells                           68          :
          :  # electrons                       128          :
          :  max. iterations                   500          :
          :  Hamiltonian                  GFN2-xTB          :
          :  restarted?                      false          :
          :  GBSA solvation                  false          :
          :  PC potential                    false          :
          :  electronic temp.          300.0000000     K    :
          :  accuracy                    1.0000000          :
          :  -> integral cutoff          0.2500000E+02      :
          :  -> integral neglect         0.1000000E-07      :
          :  -> SCF convergence          0.1000000E-05 Eh   :
          :  -> wf. convergence          0.1000000E-03 e    :
          :  Broyden damping             0.4000000          :
          :  net charge                          0          :
          :  unpaired electrons                  0          :
          ...................................................

 iter      E             dE          RMSdq      gap      omega  full diag
   1    -72.1731806 -0.721732E+02  0.455E+00    2.20       0.0  T
   2    -72.2621258 -0.889451E-01  0.282E+00    2.07       1.0  T
   3    -72.2536294  0.849635E-02  0.144E+00    2.05       1.0  T
   4    -72.2784170 -0.247876E-01  0.445E-01    1.99       1.0  T
   5    -72.2848591 -0.644208E-02  0.131E-01    2.04       1.0  T
   6    -72.2851636 -0.304535E-03  0.646E-02    2.03       1.0  T
   7    -72.2852342 -0.705341E-04  0.252E-02    2.04       1.0  T
   8    -72.2852397 -0.548999E-05  0.106E-02    2.04       1.5  T
   9    -72.2852415 -0.186574E-05  0.407E-03    2.04       3.8  T
  10    -72.2852416 -0.186519E-07  0.218E-03    2.04       7.1  T
  11    -72.2852417 -0.143804E-06  0.742E-04    2.04      20.8  T
  12    -72.2852417 -0.479297E-08  0.384E-04    2.04      40.2  T

   *** convergence criteria satisfied after 12 iterations ***

         #    Occupation            Energy/Eh            Energy/eV
      -------------------------------------------------------------
         1        2.0000           -0.7189670             -19.5641
       ...           ...                  ...                  ...
        58        2.0000           -0.4101912             -11.1619
        59        2.0000           -0.4086559             -11.1201
        60        2.0000           -0.4051587             -11.0249
        61        2.0000           -0.3859532             -10.5023
        62        2.0000           -0.3855253             -10.4907
        63        2.0000           -0.3729229             -10.1477
        64        2.0000           -0.3655304              -9.9466 (HOMO)
        65                         -0.2907138              -7.9107 (LUMO)
        66                         -0.2559701              -6.9653
        67                         -0.2520125              -6.8576
        68                         -0.2227291              -6.0608
        69                         -0.2091914              -5.6924
       ...                                ...                  ...
       120                          0.7295916              19.8532
      -------------------------------------------------------------
                  HL-Gap            0.0748166 Eh            2.0359 eV
             Fermi-level           -0.3281221 Eh           -8.9287 eV

 SCC (total)                   0 d,  0 h,  0 min,  0.039 sec
 SCC setup                      ...        0 min,  0.001 sec (  2.564%)
 Dispersion                     ...        0 min,  0.001 sec (  2.564%)
 classical contributions        ...        0 min,  0.000 sec (  0.000%)
 integral evaluation            ...        0 min,  0.001 sec (  2.565%)
 iterations                     ...        0 min,  0.032 sec ( 82.051%)
 molecular gradient             ...        0 min,  0.004 sec ( 10.257%)
 printout                       ...        0 min,  0.000 sec (  0.000%)

         :::::::::::::::::::::::::::::::::::::::::::::::::::::
         ::                     SUMMARY                     ::
         :::::::::::::::::::::::::::::::::::::::::::::::::::::
         :: total energy             -71.239082686862 Eh    ::
         :: gradient norm              0.097224979750 Eh/a0 ::
         :: HOMO-LUMO gap              2.035862240225 eV    ::
         ::.................................................::
         :: SCC energy               -72.285626719952 Eh    ::
         :: -> isotropic ES            0.087950733594 Eh    ::
         :: -> anisotropic ES          0.007861191907 Eh    ::
         :: -> anisotropic XC          0.027101045229 Eh    ::
         :: -> dispersion             -0.050606431177 Eh    ::
         :: repulsion energy           1.046544033090 Eh    ::
         :: add. restraining           0.000000000000 Eh    ::
         :: total charge               0.000000000000 e     ::
         :::::::::::::::::::::::::::::::::::::::::::::::::::::

           -------------------------------------------------
          |                Property Printout                |
           -------------------------------------------------

    * Orbital Energies and Occupations

         #    Occupation            Energy/Eh            Energy/eV
      -------------------------------------------------------------
         1        2.0000           -0.7189670             -19.5641
       ...           ...                  ...                  ...
        52        2.0000           -0.4516450             -12.2899
        53        2.0000           -0.4472051             -12.1691
        54        2.0000           -0.4420655             -12.0292
        55        2.0000           -0.4379926             -11.9184
        56        2.0000           -0.4357394             -11.8571
        57        2.0000           -0.4291660             -11.6782
        58        2.0000           -0.4101912             -11.1619
        59        2.0000           -0.4086559             -11.1201
        60        2.0000           -0.4051587             -11.0249
        61        2.0000           -0.3859532             -10.5023
        62        2.0000           -0.3855253             -10.4907
        63        2.0000           -0.3729229             -10.1477
        64        2.0000           -0.3655304              -9.9466 (HOMO)
        65                         -0.2907138              -7.9107 (LUMO)
        66                         -0.2559701              -6.9653
        67                         -0.2520125              -6.8576
        68                         -0.2227291              -6.0608
        69                         -0.2091914              -5.6924
        70                         -0.1891960              -5.1483
        71                         -0.1692900              -4.6066
        72                         -0.1315433              -3.5795
        73                         -0.0770733              -2.0973
        74                         -0.0622063              -1.6927
        75                         -0.0186545              -0.5076
       ...                                ...                  ...
       120                          0.7295916              19.8532
      -------------------------------------------------------------
                  HL-Gap            0.0748166 Eh            2.0359 eV
             Fermi-level           -0.3281221 Eh           -8.9287 eV

     #   Z          covCN         q      C6AA      α(0)
     1   6 C        3.750    -0.095    22.384     6.747
     2   6 C        3.804    -0.058    21.609     6.618
     3   6 C        2.969     0.016    27.652     8.626
     4   6 C        3.032    -0.022    28.518     8.759
     5   6 C        3.792     0.007    20.463     6.442
     6   7 N        2.784    -0.067    22.533     7.050
     7   6 C        2.978     0.053    26.812     8.494
     8   6 C        2.904    -0.061    29.518     8.908
     9   6 C        2.980     0.006    27.886     8.662
    10   6 C        2.975    -0.022    28.541     8.763
    11   6 C        2.763     0.257    22.673     7.798
    12   8 O        0.858    -0.446    22.627     6.378
    13   6 C        2.912    -0.042    29.039     8.836
    14   6 C        2.843     0.147    24.794     8.160
    15   6 C        2.910    -0.066    29.636     8.927
    16   6 C        2.916    -0.036    28.907     8.817
    17   8 O        1.659    -0.387    20.595     6.126
    18   6 C        3.017     0.085    26.094     8.379
    19   7 N        1.845    -0.250    27.371     7.754
    20   6 C        2.976     0.094    25.905     8.349
    21   6 C        2.979    -0.013    28.330     8.731
    22   6 C        2.916    -0.037    28.925     8.819
    23   6 C        2.909    -0.068    29.687     8.934
    24   6 C        2.844     0.149    24.762     8.155
    25   6 C        2.929    -0.065    29.614     8.925
    26   8 O        1.659    -0.387    20.598     6.127
    27   1 H        0.924     0.036     2.498     2.472
    28   1 H        0.924     0.041     2.439     2.443
    29   1 H        0.924     0.039     2.467     2.456
    30   1 H        0.924     0.040     2.452     2.449
    31   1 H        0.924     0.042     2.424     2.435
    32   1 H        0.924     0.072     2.067     2.248
    33   1 H        0.924     0.070     2.087     2.259
    34   1 H        0.925     0.063     2.169     2.303
    35   1 H        0.925     0.080     1.979     2.200
    36   1 H        0.925     0.033     2.538     2.491
    37   1 H        0.925     0.043     2.411     2.428
    38   1 H        0.804     0.301     0.719     1.332
    39   1 H        0.925     0.042     2.417     2.431
    40   1 H        0.925     0.033     2.538     2.491
    41   1 H        0.925     0.071     2.072     2.251
    42   1 H        0.804     0.302     0.715     1.329

 Mol. C6AA /au·bohr⁶  :      24027.517642
 Mol. C8AA /au·bohr⁸  :     594460.562952
 Mol. α(0) /au        :        244.302190


Wiberg/Mayer (AO) data.
largest (>0.10) Wiberg bond orders for each atom

 ---------------------------------------------------------------------------
     #   Z sym  total        # sym  WBO       # sym  WBO       # sym  WBO
 ---------------------------------------------------------------------------
     1   6 C    3.994 --     2 C    1.001    27 H    0.987    29 H    0.987
                            28 H    0.985
     2   6 C    3.995 --     3 C    1.012     1 C    1.001    30 H    0.972
                            31 H    0.967
     3   6 C    3.980 --     4 C    1.474    21 C    1.263     2 C    1.012
                            19 N    0.102
     4   6 C    3.975 --     3 C    1.474    18 C    1.272     5 C    1.013
     5   6 C    3.969 --     4 C    1.013     6 N    0.974    32 H    0.952
                            33 H    0.951
     6   7 N    3.577 --    11 C    1.157     7 C    1.125     5 C    0.974
                            12 O    0.160
     7   6 C    3.957 --     8 C    1.596     6 N    1.125    18 C    1.068
     8   6 C    3.970 --     7 C    1.596     9 C    1.158    34 H    0.964
     9   6 C    3.988 --    16 C    1.349    10 C    1.300     8 C    1.158
    10   6 C    3.982 --    13 C    1.397     9 C    1.300    11 C    1.035
    11   6 C    3.951 --    12 O    1.651     6 N    1.157    10 C    1.035
    12   8 O    1.988 --    11 C    1.651     6 N    0.160
    13   6 C    3.983 --    10 C    1.397    14 C    1.383    35 H    0.961
                            16 C    0.110
    14   6 C    3.930 --    13 C    1.383    15 C    1.346    17 O    1.075
    15   6 C    3.987 --    16 C    1.476    14 C    1.346    36 H    0.966
    16   6 C    3.978 --    15 C    1.476     9 C    1.349    37 H    0.969
                            13 C    0.110
    17   8 O    2.116 --    14 C    1.075    38 H    0.888
    18   6 C    3.980 --    19 N    1.441     4 C    1.272     7 C    1.068
    19   7 N    3.038 --    18 C    1.441    20 C    1.298     3 C    0.102
    20   6 C    3.981 --    25 C    1.317    19 N    1.298    21 C    1.198
    21   6 C    3.983 --    22 C    1.306     3 C    1.263    20 C    1.198
    22   6 C    3.985 --    23 C    1.513    21 C    1.306    39 H    0.966
                            25 C    0.122
    23   6 C    3.976 --    22 C    1.513    24 C    1.312    40 H    0.966
    24   6 C    3.937 --    25 C    1.423    23 C    1.312    26 O    1.076
    25   6 C    3.974 --    24 C    1.423    20 C    1.317    41 H    0.963
                            22 C    0.122
    26   8 O    2.120 --    24 C    1.076    42 H    0.888
    27   1 H    0.999 --     1 C    0.987
    28   1 H    0.997 --     1 C    0.985
    29   1 H    0.998 --     1 C    0.987
    30   1 H    0.998 --     2 C    0.972
    31   1 H    0.998 --     2 C    0.967
    32   1 H    0.992 --     5 C    0.952
    33   1 H    0.992 --     5 C    0.951
    34   1 H    0.996 --     8 C    0.964
    35   1 H    0.993 --    13 C    0.961
    36   1 H    0.998 --    15 C    0.966
    37   1 H    0.998 --    16 C    0.969
    38   1 H    0.909 --    17 O    0.888
    39   1 H    0.998 --    22 C    0.966
    40   1 H    0.998 --    23 C    0.966
    41   1 H    0.994 --    25 C    0.963
    42   1 H    0.908 --    26 O    0.888
 ---------------------------------------------------------------------------

Topologies differ in total number of bonds
Writing topology from bond orders to xtbtopo.mol

molecular dipole:
                 x           y           z       tot (Debye)
 q only:       -1.346      -0.175       0.880
   full:       -1.652      -0.165       0.764       4.645
molecular quadrupole (traceless):
                xx          xy          yy          xz          yz          zz
 q only:       24.753      -1.701      -8.287      21.852       2.140     -16.465
  q+dip:       37.181      -2.399     -15.787      28.946       1.495     -21.394
   full:       33.940      -2.468      -8.894      28.531       2.790     -25.047


           -------------------------------------------------
          | TOTAL ENERGY              -71.239082686862 Eh   |
          | GRADIENT NORM               0.097224979750 Eh/α |
          | HOMO-LUMO GAP               2.035862240225 eV   |
           -------------------------------------------------

------------------------------------------------------------------------
 * finished run on 2026/08/31 at 21:13:29.561     
------------------------------------------------------------------------
 total:
 * wall-time:     0 d,  0 h,  0 min,  0.065 sec
 *  cpu-time:     0 d,  0 h,  0 min,  0.672 sec
 * ratio c/w:    10.337 speedup
 SCF:
 * wall-time:     0 d,  0 h,  0 min,  0.040 sec
 *  cpu-time:     0 d,  0 h,  0 min,  0.484 sec
 * ratio c/w:    12.109 speedup

normal termination of xtb
