      -----------------------------------------------------------      
     |                   =====================                   |     
     |                           x T B                           |     
     |                   =====================                   |     
     |                         S. Grimme                         |     
     |          Mulliken Center for Theoretical Chemistry        |     
     |                    University of Bonn                     |     
      -----------------------------------------------------------      

   * xtb version 6.7.1pre (5071a88) compiled by 'Marcel@Raven' on 2024-07-23

   xtb is free software: you can redistribute it and/or modify it under
   the terms of the GNU Lesser General Public License as published by
   the Free Software Foundation, either version 3 of the License, or
   (at your option) any later version.
   
   xtb is distributed in the hope that it will be useful,
   but WITHOUT ANY WARRANTY; without even the implied warranty of
   MERCHANTABILITY or FITNESS FOR A PARTICULAR PURPOSE.  See the
   GNU Lesser General Public License for more details.
   
   Cite this work as:
   * C. Bannwarth, E. Caldeweyher, S. Ehlert, A. Hansen, P. Pracht,
     J. Seibert, S. Spicher, S. Grimme, WIREs Comput. Mol. Sci., 2020, 11,
     e01493. DOI: 10.1002/wcms.1493
   
   for GFN2-xTB:
   * C. Bannwarth, S. Ehlert and S. Grimme., J. Chem. Theory Comput., 2019,
     15, 1652-1671. DOI: 10.1021/acs.jctc.8b01176
   for GFN1-xTB:
   * S. Grimme, C. Bannwarth, P. Shushkov, J. Chem. Theory Comput., 2017,
     13, 1989-2009. DOI: 10.1021/acs.jctc.7b00118
   for GFN0-xTB:
   * P. Pracht, E. Caldeweyher, S. Ehlert, S. Grimme, ChemRxiv, 2019, preprint.
     DOI: 10.26434/chemrxiv.8326202.v1
   for GFN-FF:
   * S. Spicher and S. Grimme, Angew. Chem. Int. Ed., 2020, 59, 15665-15673.
     DOI: 10.1002/anie.202004239
   
   for ALPB and GBSA implicit solvation:
   * S. Ehlert, M. Stahn, S. Spicher, S. Grimme, J. Chem. Theory Comput.,
     2021, 17, 4250-4261. DOI: 10.1021/acs.jctc.1c00471
   
   for ddCOSMO and CPCM-X implicit solvation:
   * M. Stahn, S. Ehlert, S. Grimme, J. Phys. Chem. A,
     2023, XX, XXXX-XXXX. DOI: 10.1021/acs.jpca.3c04382
   
   for DFT-D4:
   * E. Caldeweyher, C. Bannwarth and S. Grimme, J. Chem. Phys., 2017,
     147, 034112. DOI: 10.1063/1.4993215
   * E. Caldeweyher, S. Ehlert, A. Hansen, H. Neugebauer, S. Spicher,
     C. Bannwarth and S. Grimme, J. Chem. Phys., 2019, 150, 154122.
     DOI: 10.1063/1.5090222
   * E. Caldeweyher, J.-M. Mewes, S. Ehlert and S. Grimme, Phys. Chem. Chem. Phys.
     2020, 22, 8499-8512. DOI: 10.1039/D0CP00502A
   
   for sTDA-xTB:
   * S. Grimme and C. Bannwarth, J. Chem. Phys., 2016, 145, 054103.
     DOI: 10.1063/1.4959605
   
   in the mass-spec context:
   * V. Asgeirsson, C. Bauer and S. Grimme, Chem. Sci., 2017, 8, 4879.
     DOI: 10.1039/c7sc00601b
   * J. Koopman and S. Grimme, ACS Omega 2019, 4, 12, 15120-15133.
     DOI: 10.1021/acsomega.9b02011
   
   for metadynamics refer to:
   * S. Grimme, J. Chem. Theory Comput., 2019, 155, 2847-2862
     DOI: 10.1021/acs.jctc.9b00143
   
   for SPH calculations refer to:
   * S. Spicher and S. Grimme, J. Chem. Theory Comput., 2021, 17, 1701-1714
     DOI: 10.1021/acs.jctc.0c01306
   
   for ONIOM refer to:
   * C. Plett, A. Katbashev, S. Ehlert, S. Grimme, M. Bursch,
     Phys. Chem. Chem. Phys., 2023, 25, 17860-17868. DOI: 10.1039/D3CP02178E
   
   for DIPRO refer to:
   * J. Kohn, N. Gildemeister, S. Grimme, D. Fazzi, A. Hansen,
     J. Chem. Phys., 2023, just accepted.
   
   for PTB refer to:
   * S. Grimme, M. Mueller, A. Hansen, J. Chem. Phys., 2023, 158, 124111.
     DOI: 10.1063/5.0137838
   
   with help from (in alphabetical order)
   P. Atkinson, C. Bannwarth, F. Bohle, G. Brandenburg, E. Caldeweyher
   M. Checinski, S. Dohm, S. Ehlert, S. Ehrlich, I. Gerasimov, C. Hölzer
   A. Katbashev, J. Kohn, J. Koopman, C. Lavigne, S. Lehtola, F. März, M. Müller,
   F. Musil, H. Neugebauer, J. Pisarek, C. Plett, P. Pracht, F. Pultar,
   J. Seibert, P. Shushkov, S. Spicher, M. Stahn, M. Steiner, T. Strunk,
   J. Stückrath, T. Rose, and J. Unsleber
   
 * started run on 2026/08/31 at 22:24:48.033     
   ID    Z sym.   atoms
    1    6 C      1-5, 7-11, 13-16, 18, 20-25
    2    7 N      6, 19, 44, 46, 48, 50, 52, 54, 56, 58, 60, 62, 64, 66, 68,
                  70, 72, 74, 76, 78, 80, 82, 84, 86, 88, 90, 92, 94, 96, 98,
                  100, 102, 104, 106, 108, 110, 112, 114
    3    8 O      12, 17, 26
    4    1 H      27-42
    5    5 B      43, 45, 47, 49, 51, 53, 55, 57, 59, 61, 63, 65, 67, 69, 71,
                  73, 75, 77, 79, 81, 83, 85, 87, 89, 91, 93, 95, 97, 99,
                  101, 103, 105, 107, 109, 111, 113

           -------------------------------------------------
          |                Calculation Setup                |
           -------------------------------------------------

          program call               : "c:\Users\Andre\Proyectos doctorado\kras-pancreatic-gC3N4-ai\tools\xtb\xtb-6.7.1\bin\xtb.exe" "c:\Users\Andre\Proyectos doctorado\nano-qsar-ai-therapeutics\calculations\tnbc\SN_38\SN_38_opt_270deg.xyz" --opt vloose --gfn 2 --chrg 0 --uhf 0 --etemp 300 --iterations 500 --cycles 15 --norestart
          coordinate file            : c:\Users\Andre\Proyectos doctorado\nano-qsar-ai-therapeutics\calculations\tnbc\SN_38\SN_38_opt_270deg.xyz
          omp threads                :                    16


molecular fragmentation (1/2 indicates fragments):
111111111111111111111111111111111111111111222222222222222222222222222222
222222222222222222222222222222222222222222
# atoms in fragment 1/2:    42    72
 fragment masses (1/2) :      344.36      893.44
CMA distance (Bohr)    :  21.858
constraining FC (au)   :  0.0500

           -------------------------------------------------
          |                 G F N 2 - x T B                 |
           -------------------------------------------------

        Reference                      10.1021/acs.jctc.8b01176
      * Hamiltonian:
        H0-scaling (s, p, d)           1.850000    2.230000    2.230000
        zeta-weighting                 0.500000
      * Dispersion:
        s8                             2.700000
        a1                             0.520000
        a2                             5.000000
        s9                             5.000000
      * Repulsion:
        kExp                           1.500000    1.000000
        rExp                           1.000000
      * Coulomb:
        alpha                          2.000000
        third order                    shell-resolved
        anisotropic                    true
        a3                             3.000000
        a5                             4.000000
        cn-shift                       1.200000
        cn-exp                         4.000000
        max-rad                        5.000000


          ...................................................
          :                      SETUP                      :
          :.................................................:
          :  # basis functions                 408          :
          :  # atomic orbitals                 408          :
          :  # shells                          212          :
          :  # electrons                       416          :
          :  max. iterations                   500          :
          :  Hamiltonian                  GFN2-xTB          :
          :  restarted?                      false          :
          :  GBSA solvation                  false          :
          :  PC potential                    false          :
          :  electronic temp.          300.0000000     K    :
          :  accuracy                    1.0000000          :
          :  -> integral cutoff          0.2500000E+02      :
          :  -> integral neglect         0.1000000E-07      :
          :  -> SCF convergence          0.1000000E-05 Eh   :
          :  -> wf. convergence          0.1000000E-03 e    :
          :  Broyden damping             0.4000000          :
          :  net charge                          0          :
          :  unpaired electrons                  0          :
          ...................................................

 iter      E             dE          RMSdq      gap      omega  full diag
   1   -222.9397835 -0.222940E+03  0.114E+01    0.61       0.0  T
   2   -223.3396273 -0.399844E+00  0.692E+00    0.11       1.0  T
   3   -219.2317635  0.410786E+01  0.485E+00    0.03       1.0  T
   4   -220.5364174 -0.130465E+01  0.320E+00    0.22       1.0  T
   5   -220.5139604  0.224570E-01  0.340E+00    0.38       1.0  T
   6   -223.7867348 -0.327277E+01  0.120E+00    1.00       1.0  T
   7   -223.8588787 -0.721439E-01  0.803E-01    0.69       1.0  T
   8   -223.8464546  0.124241E-01  0.717E-01    0.94       1.0  T
   9   -223.8585586 -0.121040E-01  0.540E-01    0.77       1.0  T
  10   -223.8709420 -0.123834E-01  0.207E-01    0.73       1.0  T
  11   -223.8728656 -0.192357E-02  0.849E-02    0.68       1.0  T
  12   -223.8734110 -0.545450E-03  0.479E-02    0.66       1.0  T
  13   -223.8734485 -0.374357E-04  0.399E-02    0.65       1.0  T
  14   -223.8735100 -0.614974E-04  0.310E-02    0.66       1.0  T
  15   -223.8735573 -0.473643E-04  0.257E-02    0.65       1.0  T
  16   -223.8735811 -0.238099E-04  0.215E-02    0.66       1.0  T
  17   -223.8735918 -0.106359E-04  0.183E-02    0.66       1.0  T
  18   -223.8736144 -0.226197E-04  0.104E-02    0.65       1.0  T
  19   -223.8736246 -0.101848E-04  0.420E-03    0.63       2.2  T
  20   -223.8736269 -0.231766E-05  0.171E-03    0.62       5.5  T
  21   -223.8736271 -0.147773E-06  0.109E-03    0.62       8.6  T
  22   -223.8736271 -0.325949E-08  0.648E-04    0.62      14.4  T
  23   -223.8736271 -0.149606E-07  0.376E-04    0.62      24.9  T

   *** convergence criteria satisfied after 23 iterations ***

         #    Occupation            Energy/Eh            Energy/eV
      -------------------------------------------------------------
         1        2.0000           -0.7139889             -19.4286
       ...           ...                  ...                  ...
       202        2.0000           -0.3257581              -8.8643
       203        2.0000           -0.3230655              -8.7911
       204        2.0000           -0.3218499              -8.7580
       205        2.0000           -0.3184501              -8.6655
       206        2.0000           -0.3134438              -8.5292
       207        2.0000           -0.3117799              -8.4840
       208        2.0000           -0.3068568              -8.3500 (HOMO)
       209        0.0000           -0.2841070              -7.7309 (LUMO)
       210        0.0000           -0.2820138              -7.6740
       211                         -0.2738861              -7.4528
       212                         -0.2627509              -7.1498
       213                         -0.2497322              -6.7956
       ...                                ...                  ...
       408                          0.9849871              26.8029
      -------------------------------------------------------------
                  HL-Gap            0.0227498 Eh            0.6191 eV
             Fermi-level           -0.2955285 Eh           -8.0417 eV

 SCC (total)                   0 d,  0 h,  0 min,  0.931 sec
 SCC setup                      ...        0 min,  0.004 sec (  0.430%)
 Dispersion                     ...        0 min,  0.006 sec (  0.644%)
 classical contributions        ...        0 min,  0.001 sec (  0.107%)
 integral evaluation            ...        0 min,  0.011 sec (  1.182%)
 iterations                     ...        0 min,  0.867 sec ( 93.126%)
 molecular gradient             ...        0 min,  0.039 sec (  4.189%)
 printout                       ...        0 min,  0.003 sec (  0.322%)

         :::::::::::::::::::::::::::::::::::::::::::::::::::::
         ::                     SUMMARY                     ::
         :::::::::::::::::::::::::::::::::::::::::::::::::::::
         :: total energy            -221.447664221818 Eh    ::
         :: gradient norm              0.096978170727 Eh/a0 ::
         :: HOMO-LUMO gap              0.619054199757 eV    ::
         ::.................................................::
         :: SCC energy              -223.860225011813 Eh    ::
         :: -> isotropic ES            0.718910861342 Eh    ::
         :: -> anisotropic ES         -0.023287569786 Eh    ::
         :: -> anisotropic XC          0.089642581835 Eh    ::
         :: -> dispersion             -0.195942538575 Eh    ::
         :: repulsion energy           2.412560789995 Eh    ::
         :: add. restraining           0.000000000000 Eh    ::
         :: total charge              -0.000000001169 e     ::
         :::::::::::::::::::::::::::::::::::::::::::::::::::::

      ----------------------------------------------------------- 
     |                   =====================                   |
     |                        A N C O P T                        |
     |                   =====================                   |
     |               Approximate Normal Coordinate               |
     |                Rational Function Optimizer                |
      ----------------------------------------------------------- 
      ----------------------------------------------------------- 
     |                   =====================                   |
     |                        A N C O P T                        |
     |                   =====================                   |
     |               Approximate Normal Coordinate               |
     |                Rational Function Optimizer                |
      ----------------------------------------------------------- 

          ...................................................
          :                      SETUP                      :
          :.................................................:
          :   optimization level            normal          :
          :   max. optcycles                    15          :
          :   ANC micro-cycles                  15          :
          :   degrees of freedom               336          :
          :.................................................:
          :   RF solver                   davidson          :
          :   write xtbopt.log                true          :
          :   linear?                        false          :
          :   energy convergence         0.5000000E-05 Eh   :
          :   grad. convergence          0.1000000E-02 Eh/α :
          :   maxmium RF displ.          1.0000000          :
          :   Hlow (freq-cutoff)         0.1000000E-01      :
          :   Hmax (freq-cutoff)         5.0000000          :
          :   S6 in model hess.         20.0000000          :
          ...................................................

generating ANC from exact Hessian ...
Using Lindh-Hessian (1995)
 Shifting diagonal of input Hessian by   1.008618681667025E-002
 Lowest  eigenvalues of input Hessian
    0.010000    0.010005    0.010017    0.000000    0.000000    0.000000
    0.000000    0.000000    0.010104    0.000000    0.010131    0.010186
    0.010608    0.010928    0.011738    0.012077    0.012735    0.013097
 Highest eigenvalues
    2.154604    2.164178    2.191076    2.260728    2.314980    2.338134
 

........................................................................
.............................. CYCLE    1 ..............................
........................................................................

 iter      E             dE          RMSdq      gap      omega  full diag
   1   -223.8736271 -0.223874E+03  0.185E-04    0.62       0.0  T
   2   -223.8736271 -0.181791E-08  0.216E-04    0.62      43.4  T
   3   -223.8736271 -0.370832E-08  0.121E-04    0.62      77.6  T
     SCC iter.                  ...        0 min,  0.156 sec
     gradient                   ...        0 min,  0.033 sec
 * total energy  :  -221.4476642 Eh     change       -0.2115550E-07 Eh
   gradient norm :     0.0969774 Eh/α   predicted     0.0000000E+00 (-100.00%)
   displ. norm   :     0.2136066 α      lambda       -0.9355788E-02
   maximum displ.:     0.1165943 α      in ANC's #29, #69, #143, ...

........................................................................
.............................. CYCLE    2 ..............................
........................................................................

 iter      E             dE          RMSdq      gap      omega  full diag
   1   -223.9028276 -0.223903E+03  0.933E-02    0.68       0.0  T
   2   -223.9028836 -0.560449E-04  0.575E-02    0.68       1.0  T
   3   -223.9028458  0.377751E-04  0.278E-02    0.68       1.0  T
   4   -223.9029062 -0.603078E-04  0.615E-03    0.68       1.5  T
   5   -223.9029098 -0.359878E-05  0.221E-03    0.68       4.2  T
   6   -223.9029099 -0.114015E-06  0.184E-03    0.68       5.1  T
   7   -223.9029103 -0.471799E-06  0.898E-04    0.68      10.4  T
   8   -223.9029104 -0.441576E-07  0.506E-04    0.68      18.5  T
     SCC iter.                  ...        0 min,  0.313 sec
     gradient                   ...        0 min,  0.036 sec
 * total energy  :  -221.4541563 Eh     change       -0.6492046E-02 Eh
   gradient norm :     0.0436769 Eh/α   predicted    -0.4892647E-02 ( -24.64%)
   displ. norm   :     0.1772694 α      lambda       -0.2832498E-02
   maximum displ.:     0.1077410 α      in ANC's #29, #27, #12, ...

........................................................................
.............................. CYCLE    3 ..............................
........................................................................

 iter      E             dE          RMSdq      gap      omega  full diag
   1   -223.9192884 -0.223919E+03  0.634E-02    0.68       0.0  T
   2   -223.9193186 -0.302131E-04  0.377E-02    0.68       1.0  T
   3   -223.9193030  0.155745E-04  0.208E-02    0.68       1.0  T
   4   -223.9193316 -0.285500E-04  0.472E-03    0.68       2.0  T
   5   -223.9193331 -0.155427E-05  0.322E-03    0.68       2.9  T
   6   -223.9193351 -0.198532E-05  0.989E-04    0.68       9.5  T
   7   -223.9193352 -0.814229E-07  0.501E-04    0.68      18.7  T
   8   -223.9193352 -0.179375E-08  0.259E-04    0.68      36.1  T
     SCC iter.                  ...        0 min,  0.356 sec
     gradient                   ...        0 min,  0.049 sec
 * total energy  :  -221.4557274 Eh     change       -0.1571113E-02 Eh
   gradient norm :     0.0110475 Eh/α   predicted    -0.1460912E-02 (  -7.01%)
   displ. norm   :     0.0831383 α      lambda       -0.2403953E-03
   maximum displ.:     0.0458786 α      in ANC's #12, #29, #27, ...

........................................................................
.............................. CYCLE    4 ..............................
........................................................................

 iter      E             dE          RMSdq      gap      omega  full diag
   1   -223.9193339 -0.223919E+03  0.181E-02    0.68       0.0  T
   2   -223.9193359 -0.201199E-05  0.106E-02    0.68       1.0  T
   3   -223.9193341  0.185391E-05  0.572E-03    0.68       1.6  T
   4   -223.9193356 -0.156522E-05  0.248E-03    0.68       3.8  T
   5   -223.9193365 -0.832849E-06  0.132E-03    0.68       7.1  T
   6   -223.9193368 -0.338095E-06  0.282E-04    0.68      33.2  T
   7   -223.9193368 -0.360663E-08  0.174E-04    0.68      53.7  T
     SCC iter.                  ...        0 min,  0.286 sec
     gradient                   ...        0 min,  0.034 sec
 * total energy  :  -221.4559037 Eh     change       -0.1762903E-03 Eh
   gradient norm :     0.0055446 Eh/α   predicted    -0.1210313E-03 ( -31.35%)
   displ. norm   :     0.1150780 α      lambda       -0.1524771E-03
   maximum displ.:     0.0722148 α      in ANC's #12, #4, #5, ...

........................................................................
.............................. CYCLE    5 ..............................
........................................................................

 iter      E             dE          RMSdq      gap      omega  full diag
   1   -223.9180168 -0.223918E+03  0.181E-02    0.68       0.0  T
   2   -223.9180186 -0.183619E-05  0.109E-02    0.68       1.0  T
   3   -223.9180162  0.241443E-05  0.613E-03    0.68       1.5  T
   4   -223.9180177 -0.149293E-05  0.309E-03    0.68       3.0  T
   5   -223.9180193 -0.158792E-05  0.129E-03    0.68       7.2  T
   6   -223.9180196 -0.301750E-06  0.296E-04    0.68      31.7  T
   7   -223.9180196 -0.326045E-08  0.184E-04    0.68      51.0  T
     SCC iter.                  ...        0 min,  0.245 sec
     gradient                   ...        0 min,  0.032 sec
 * total energy  :  -221.4559955 Eh     change       -0.9177985E-04 Eh
   gradient norm :     0.0024014 Eh/α   predicted    -0.7725958E-04 ( -15.82%)
   displ. norm   :     0.0733439 α      lambda       -0.3439886E-04
   maximum displ.:     0.0450422 α      in ANC's #12, #4, #5, ...

........................................................................
.............................. CYCLE    6 ..............................
........................................................................

 iter      E             dE          RMSdq      gap      omega  full diag
   1   -223.9176503 -0.223918E+03  0.728E-03    0.68       0.0  T
   2   -223.9176504 -0.137998E-06  0.438E-03    0.68       2.1  T
   3   -223.9176496  0.767741E-06  0.269E-03    0.68       3.5  T
   4   -223.9176501 -0.493458E-06  0.141E-03    0.68       6.6  T
   5   -223.9176505 -0.400911E-06  0.339E-04    0.68      27.6  T
   6   -223.9176506 -0.145442E-07  0.132E-04    0.68      71.0  T
     SCC iter.                  ...        0 min,  0.201 sec
     gradient                   ...        0 min,  0.035 sec
 * total energy  :  -221.4560238 Eh     change       -0.2836075E-04 Eh
   gradient norm :     0.0025311 Eh/α   predicted    -0.1729398E-04 ( -39.02%)
   displ. norm   :     0.1426553 α      lambda       -0.5842693E-04
   maximum displ.:     0.0801579 α      in ANC's #12, #4, #5, ...

........................................................................
.............................. CYCLE    7 ..............................
........................................................................

 iter      E             dE          RMSdq      gap      omega  full diag
   1   -223.9173910 -0.223917E+03  0.130E-02    0.68       0.0  T
   2   -223.9173913 -0.228090E-06  0.777E-03    0.68       1.2  T
   3   -223.9173880  0.331203E-05  0.458E-03    0.68       2.0  T
   4   -223.9173905 -0.255837E-05  0.225E-03    0.68       4.2  T
   5   -223.9173915 -0.103553E-05  0.496E-04    0.68      18.9  T
   6   -223.9173916 -0.198104E-07  0.253E-04    0.68      37.0  T
   7   -223.9173916 -0.107264E-09  0.171E-04    0.68      54.6  T
     SCC iter.                  ...        0 min,  0.280 sec
     gradient                   ...        0 min,  0.035 sec
 * total energy  :  -221.4560695 Eh     change       -0.4563134E-04 Eh
   gradient norm :     0.0026446 Eh/α   predicted    -0.2981286E-04 ( -34.67%)
   displ. norm   :     0.1813140 α      lambda       -0.5513860E-04
   maximum displ.:     0.0948760 α      in ANC's #4, #12, #5, ...

........................................................................
.............................. CYCLE    8 ..............................
........................................................................

 iter      E             dE          RMSdq      gap      omega  full diag
   1   -223.9173781 -0.223917E+03  0.163E-02    0.68       0.0  T
   2   -223.9173784 -0.260794E-06  0.967E-03    0.68       1.0  T
   3   -223.9173732  0.524833E-05  0.528E-03    0.68       1.8  T
   4   -223.9173777 -0.454117E-05  0.226E-03    0.68       4.1  T
   5   -223.9173787 -0.101366E-05  0.619E-04    0.68      15.1  T
   6   -223.9173787 -0.285000E-07  0.343E-04    0.68      27.3  T
   7   -223.9173787 -0.459124E-08  0.226E-04    0.68      41.4  T
     SCC iter.                  ...        0 min,  0.246 sec
     gradient                   ...        0 min,  0.033 sec
 * total energy  :  -221.4561109 Eh     change       -0.4148171E-04 Eh
   gradient norm :     0.0028153 Eh/α   predicted    -0.2847614E-04 ( -31.35%)
   displ. norm   :     0.1520670 α      lambda       -0.3835461E-04
   maximum displ.:     0.0866436 α      in ANC's #4, #5, #12, ...

........................................................................
.............................. CYCLE    9 ..............................
........................................................................

 iter      E             dE          RMSdq      gap      omega  full diag
   1   -223.9176107 -0.223918E+03  0.138E-02    0.68       0.0  T
   2   -223.9176109 -0.169041E-06  0.815E-03    0.68       1.1  T
   3   -223.9176075  0.337942E-05  0.423E-03    0.68       2.2  T
   4   -223.9176104 -0.294960E-05  0.177E-03    0.68       5.3  T
   5   -223.9176111 -0.614161E-06  0.505E-04    0.68      18.6  T
   6   -223.9176111 -0.170479E-07  0.298E-04    0.68      31.5  T
     SCC iter.                  ...        0 min,  0.265 sec
     gradient                   ...        0 min,  0.035 sec
 * total energy  :  -221.4561425 Eh     change       -0.3152044E-04 Eh
   gradient norm :     0.0023145 Eh/α   predicted    -0.1962086E-04 ( -37.75%)
   displ. norm   :     0.1448753 α      lambda       -0.3940551E-04
   maximum displ.:     0.0884848 α      in ANC's #4, #5, #8, ...

........................................................................
.............................. CYCLE   10 ..............................
........................................................................

 iter      E             dE          RMSdq      gap      omega  full diag
   1   -223.9180041 -0.223918E+03  0.134E-02    0.68       0.0  T
   2   -223.9180043 -0.190481E-06  0.790E-03    0.68       1.2  T
   3   -223.9180020  0.223225E-05  0.382E-03    0.68       2.5  T
   4   -223.9180038 -0.171760E-05  0.185E-03    0.68       5.1  T
   5   -223.9180044 -0.674310E-06  0.464E-04    0.68      20.2  T
   6   -223.9180045 -0.204051E-07  0.224E-04    0.68      41.9  T
     SCC iter.                  ...        0 min,  0.329 sec
     gradient                   ...        0 min,  0.044 sec
 * total energy  :  -221.4561765 Eh     change       -0.3404804E-04 Eh
   gradient norm :     0.0016007 Eh/α   predicted    -0.2011633E-04 ( -40.92%)
   displ. norm   :     0.2641708 α      lambda       -0.4920859E-04
   maximum displ.:     0.1652120 α      in ANC's #4, #5, #8, ...

........................................................................
.............................. CYCLE   11 ..............................
........................................................................

 iter      E             dE          RMSdq      gap      omega  full diag
   1   -223.9185077 -0.223919E+03  0.242E-02    0.68       0.0  T
   2   -223.9185083 -0.583186E-06  0.143E-02    0.68       1.0  T
   3   -223.9185020  0.624525E-05  0.625E-03    0.68       1.5  T
   4   -223.9185068 -0.475606E-05  0.307E-03    0.68       3.1  T
   5   -223.9185087 -0.191636E-05  0.856E-04    0.68      10.9  T
   6   -223.9185088 -0.606546E-07  0.473E-04    0.68      19.8  T
   7   -223.9185088 -0.132356E-07  0.292E-04    0.68      32.1  T
     SCC iter.                  ...        0 min,  0.367 sec
     gradient                   ...        0 min,  0.029 sec
 * total energy  :  -221.4562369 Eh     change       -0.6040236E-04 Eh
   gradient norm :     0.0029144 Eh/α   predicted    -0.2536809E-04 ( -58.00%)
   displ. norm   :     0.1975106 α      lambda       -0.5299687E-04
   maximum displ.:     0.1238375 α      in ANC's #4, #5, #3, ...

........................................................................
.............................. CYCLE   12 ..............................
........................................................................

 iter      E             dE          RMSdq      gap      omega  full diag
   1   -223.9185615 -0.223919E+03  0.170E-02    0.68       0.0  T
   2   -223.9185617 -0.187131E-06  0.101E-02    0.68       1.0  T
   3   -223.9185591  0.259680E-05  0.370E-03    0.68       2.5  T
   4   -223.9185612 -0.218098E-05  0.169E-03    0.68       5.5  T
   5   -223.9185618 -0.542411E-06  0.584E-04    0.68      16.0  T
   6   -223.9185618 -0.253463E-07  0.340E-04    0.68      27.5  T
     SCC iter.                  ...        0 min,  0.211 sec
     gradient                   ...        0 min,  0.029 sec
 * total energy  :  -221.4562872 Eh     change       -0.5028287E-04 Eh
   gradient norm :     0.0036007 Eh/α   predicted    -0.2753233E-04 ( -45.25%)
   displ. norm   :     0.3224944 α      lambda       -0.9593762E-04
   maximum displ.:     0.2007462 α      in ANC's #4, #5, #3, ...

........................................................................
.............................. CYCLE   13 ..............................
........................................................................

 iter      E             dE          RMSdq      gap      omega  full diag
   1   -223.9184472 -0.223918E+03  0.273E-02    0.69       0.0  T
   2   -223.9184476 -0.375297E-06  0.162E-02    0.68       1.0  T
   3   -223.9184410  0.659458E-05  0.588E-03    0.69       1.6  T
   4   -223.9184469 -0.585365E-05  0.243E-03    0.68       3.9  T
   5   -223.9184479 -0.103471E-05  0.891E-04    0.68      10.5  T
   6   -223.9184480 -0.709750E-07  0.432E-04    0.68      21.7  T
   7   -223.9184480 -0.112111E-07  0.213E-04    0.68      44.0  T
     SCC iter.                  ...        0 min,  0.244 sec
     gradient                   ...        0 min,  0.034 sec
 * total energy  :  -221.4563775 Eh     change       -0.9026176E-04 Eh
   gradient norm :     0.0039073 Eh/α   predicted    -0.5296065E-04 ( -41.33%)
   displ. norm   :     0.4949989 α      lambda       -0.1466395E-03
   maximum displ.:     0.3089309 α      in ANC's #4, #5, #3, ...

........................................................................
.............................. CYCLE   14 ..............................
........................................................................

 iter      E             dE          RMSdq      gap      omega  full diag
   1   -223.9179358 -0.223918E+03  0.404E-02    0.69       0.0  T
   2   -223.9179365 -0.794265E-06  0.240E-02    0.69       1.0  T
   3   -223.9179234  0.131592E-04  0.823E-03    0.69       1.1  T
   4   -223.9179352 -0.118147E-04  0.335E-03    0.69       2.8  T
   5   -223.9179371 -0.190984E-05  0.135E-03    0.69       6.9  T
   6   -223.9179373 -0.142204E-06  0.716E-04    0.69      13.1  T
   7   -223.9179373 -0.395990E-07  0.394E-04    0.69      23.8  T
     SCC iter.                  ...        0 min,  0.241 sec
     gradient                   ...        0 min,  0.036 sec
 * total energy  :  -221.4565126 Eh     change       -0.1351367E-03 Eh
   gradient norm :     0.0036855 Eh/α   predicted    -0.9128650E-04 ( -32.45%)
   displ. norm   :     0.5910714 α      lambda       -0.1648386E-03
   maximum displ.:     0.3725599 α      in ANC's #4, #5, #3, ...

........................................................................
.............................. CYCLE   15 ..............................
........................................................................

 iter      E             dE          RMSdq      gap      omega  full diag
   1   -223.9173128 -0.223917E+03  0.469E-02    0.69       0.0  T
   2   -223.9173138 -0.102086E-05  0.279E-02    0.69       1.0  T
   3   -223.9172912  0.226009E-04  0.107E-02    0.69       1.0  T
   4   -223.9173120 -0.208033E-04  0.402E-03    0.69       2.3  T
   5   -223.9173147 -0.273919E-05  0.156E-03    0.69       6.0  T
   6   -223.9173149 -0.151774E-06  0.871E-04    0.69      10.8  T
   7   -223.9173150 -0.656342E-07  0.466E-04    0.69      20.1  T
     SCC iter.                  ...        0 min,  0.323 sec
     gradient                   ...        0 min,  0.032 sec
 * total energy  :  -221.4566645 Eh     change       -0.1518674E-03 Eh
   gradient norm :     0.0031077 Eh/α   predicted    -0.1112151E-03 ( -26.77%)
   displ. norm   :     0.5976699 α      lambda       -0.1616348E-03
   maximum displ.:     0.3818456 α      in ANC's #4, #5, #3, ...

   *** FAILED TO CONVERGE GEOMETRY OPTIMIZATION IN 15 ITERATIONS ***


 ANCopt (total)                0 d,  0 h,  0 min,  4.988 sec
 optimizer setup                ...        0 min,  0.001 sec (  0.020%)
 model hessian                  ...        0 min,  0.050 sec (  1.002%)
 ANC generation                 ...        0 min,  0.020 sec (  0.401%)
 coordinate transformation      ...        0 min,  0.000 sec (  0.000%)
 single point calculation       ...        0 min,  4.867 sec ( 97.574%)
 optimization log               ...        0 min,  0.028 sec (  0.561%)
 hessian update                 ...        0 min,  0.013 sec (  0.261%)
 rational function              ...        0 min,  0.005 sec (  0.100%)

================
 final structure:
================
114
 xtb: 6.7.1pre (5071a88)
C           -1.04331297849914        3.19312767738736        8.49324320054038
C            0.34760643288407        2.81323580177253        9.00955857094417
C            0.24847243599792        2.19671410476233       10.37448078913943
C            0.24198068748458        0.83708913519242       10.53755673880984
C            0.39129241733058       -0.27889836955920        9.55246938070803
N            0.29423176756702       -1.46612857324350       10.38734277664926
C            0.09936348007062       -1.16198305777875       11.71260193004207
C           -0.03503478234755       -2.12426391915861       12.65806486744949
C            0.03205159308860       -3.48680071393651       12.25254520128131
C            0.25309789518931       -3.79603872211481       10.89215966352469
C            0.39996111437964       -2.74037536160519        9.88222301569719
O            0.59571088037890       -2.92732183729085        8.69394039968791
C            0.33145109302896       -5.12301651452881       10.47937033196114
C            0.18678204154907       -6.15153540435106       11.39424090819632
C           -0.04194756542286       -5.85097907625074       12.74251061913194
C           -0.11514112004963       -4.54526245914867       13.16094055193876
O            0.27008455501315       -7.43389291885113       10.95325003574493
C            0.07314397263325        0.28046856425399       11.83407229982595
N           -0.08304522539038        0.96400567675357       12.93338442968272
C           -0.06558076433215        2.30849367865046       12.81388220124987
C            0.10009499321650        2.97645878645179       11.56080771183502
C            0.11310434222067        4.38470848553915       11.57085811358052
C           -0.03410847568630        5.09177199551555       12.73255932375516
C           -0.20921523994743        4.42791002285480       13.96050212302305
C           -0.22207427360120        3.05457617781949       13.99298416272581
O           -0.36267632738366        5.11545328188724       15.12158656631859
H           -1.68699078218971        2.31708967832608        8.46787497602444
H           -0.97174910800351        3.59431446784743        7.48559227478654
H           -1.50542306918551        3.93711554182315        9.13891938090872
H            0.79528511198073        2.09652651111905        8.32038584767372
H            0.98512862729478        3.69827332949558        9.03583875481881
H           -0.39129421460111       -0.29555163341443        8.78645890045936
H            1.35611594906068       -0.26745279526180        9.03261107426189
H           -0.18887837161836       -1.84960358061716       13.68746093551861
H            0.50421336825052       -5.34326250263510        9.43774894708882
H           -0.16104897208468       -6.65830178760025       13.45439782357725
H           -0.29041233882575       -4.31694499390163       14.20214768141047
H            0.15007519717047       -8.04470552827616       11.69080178334241
H            0.24731562197565        4.92331654648030       10.64597598718670
H           -0.01536326702057        6.17415552726621       12.71721920905016
H           -0.34964303887847        2.53170568588269       14.92584478164689
H           -0.33164816757558        6.06541037328535       14.95373293555695
B            3.45982452287919       -1.41588788004561        1.73501658559143
N            3.46933900655185        1.15767224349046        0.99831989266679
B            2.53968005300019        2.34185533112409       -1.22613321355944
N            2.29275541045866       -0.68662407558366       -2.63756489294088
B            0.68626233446900       -3.49654097665114        2.85824351866459
N           -2.93916470762792       -2.60245528255813        1.84822692301056
B           -1.02707635492851        4.13054169117318        1.83504157351099
N           -0.62251079940241       -0.04603969007420       -3.85827965074564
B           -0.47498322345923        1.37805319147431       -4.03579315667053
N            1.20153953572531       -3.80595666654261       -1.58290044674123
B           -3.83995279186974        2.21708734157833       -0.44921764530724
N           -2.76866875295843        2.75576682056850       -1.17950272003456
B            1.40349766795018        0.73207847754249       -4.82407382533457
N           -0.22555473828131        3.42959013861644        2.85257934293415
B            0.89082373716182       -2.92236582361230       -2.67528555960744
N           -0.48529891216411        3.75808304906950       -0.99939246315052
B           -0.79831317854517        2.25777882080513        3.32424945972155
N            1.65137465769283       -1.19221615012463        3.59842268235319
B           -0.24401082092018        3.43486718433776       -2.36393143026057
N            1.30833048124275        0.15686425834328        3.88603243725383
B           -1.60070399693098       -0.60589141550161       -2.98892626303529
N           -3.82699415853698        1.80972703308806        0.88433809601290
B            0.34819973962550        4.52878542479464        1.17960935668038
N            0.04962685513885        0.08807962830970        4.54197925605790
B           -2.70092301750032        2.27113800773864        1.64343030504441
N            3.77513079521688       -0.14222999307433       -0.68274852655310
B           -2.25641616857052       -3.60305697071770        1.16604253631547
N            1.06739588270651        3.78721732301963        2.24652332307815
B           -1.82215760921550       -0.69903558722757        3.32617065160701
N           -2.44221151199053       -3.59362549566215       -0.29412325850381
B            3.01893677540155       -1.09699191210892       -1.40215813949264
N           -3.15763510762104       -1.24189469819540       -0.27250739271797
B            2.04405133966594        2.96068894250332        1.58390390675674
N           -0.51542115429001       -2.93543337111976       -2.29393713818763
B           -1.67997397292194       -2.14731801230713       -2.36625866477026
N            0.59764766894391        3.97199997614521       -0.10417876792995
B            1.09225971262391        2.90724819742816       -3.15972971783165
N            0.07312466433530       -4.31215054807013        1.89088447522660
B           -1.77698835827893        3.45687225666497       -0.39052939677379
N           -2.00447321940161        3.45061310218046        1.05019380938636
B            1.46063929376427       -4.17086929152559        1.66584469621307
N           -0.79472265424323        1.16213973717845        4.26647904223790
B           -2.67003233378153       -2.40814233554861       -1.04166986140225
N           -1.07893452111521       -4.44907084152586        1.16290050915718
B           -2.50445297070473        0.46602778867447       -2.03335566624819
N            2.34576763701779       -3.86665049301397        0.61120498561288
B            3.91681545972360       -0.18234549815823        0.80938954110606
N            1.92863362423752        1.91697087743127       -2.42326752230363
B            1.00047149483971        2.17395292099766       -4.58552303795492
N           -4.18366484660558        0.84048372081625       -0.27641221747462
B           -1.33737383190677        2.40668308839444       -3.07786970421307
N           -2.35853409958728        1.90317023596899       -2.25830029509918
B            3.07080488388020       -2.62611089685176        0.73217010767443
N            2.32896248335550       -3.68437696608268       -0.81780950038947
B            2.22483014372046        0.61088357386252        2.87578512558706
N           -2.02456994085000        0.69944237827145        3.68083750751452
B           -1.10784756126456       -4.17732417354646       -0.27432090825928
N           -3.21756027741369        0.04007298637762       -0.87308070687722
B            3.44839078396041        1.25252205572439       -0.45857213453208
N            2.59358368285546        1.68145264397947        1.98423281792520
B            1.46736517011687       -1.61298018980187       -3.40310026396815
N           -2.09568821924288        1.82264937613366        2.81340848467705
B            2.04024387859633        0.65697610712418       -3.14508139524461
N           -2.71505042255222       -1.27799936223250        2.43351002755855
B            0.65438028542852       -0.61495660197698       -4.39362810319391
N           -0.17616584026640       -3.77324214591904       -1.20091501779236
B            0.48489268247943       -2.02711146367906        3.56377522872085
N           -0.58537494636372       -1.11366990106056        3.94051892051352
B           -3.22077988913027       -1.41268079365861        1.11645627108805
N            2.67139454253869       -0.79566360311736        2.71456567510035
B            1.88479269033927        3.34413507601624       -0.09044514930365
N            2.87645583764314       -2.34086320091924       -0.66967452488973
 
 Bond Distances (Angstroems)
 ---------------------------
C1-C2=1.5315         C1-H27=1.0874        C1-H28=1.0869        C1-H29=1.0881        C2-C1=1.5315         C2-C3=1.5010         
C2-H30=1.0904        C2-H31=1.0911        C3-C2=1.5010         C3-C4=1.3694         C3-C21=1.4274        C4-C3=1.3694         
C4-C5=1.4960         C4-C18=1.4210        C5-C4=1.4960         C5-N6=1.4546         C5-H32=1.0952        C5-H33=1.0960        
N6-C5=1.4546         N6-C7=1.3736         N6-C11=1.3748        C7-N6=1.3736         C7-C8=1.3557         C7-C18=1.4478        
C8-C7=1.3557         C8-C9=1.4232         C8-H34=1.0765        C9-C8=1.4232         C9-C10=1.4125        C9-C16=1.4026        
C10-C9=1.4125        C10-C11=1.4683       C10-C13=1.3919       C11-N6=1.3748        C11-C10=1.4683       C11-O12=1.2187       
O12-C11=1.2187       C13-C10=1.3919       C13-C14=1.3841       C13-H35=1.0786       C14-C13=1.3841       C14-C15=1.4002       
C14-O17=1.3586       C15-C14=1.4002       C15-C16=1.3731       C15-H36=1.0829       C16-C9=1.4026        C16-C15=1.3731       
C16-H37=1.0803       O17-C14=1.3586       O17-H38=0.9651       C18-C4=1.4210        C18-C7=1.4478        C18-N19=1.3039       
N19-C18=1.3039       N19-C20=1.3499       C20-N19=1.3499       C20-C21=1.4296       C20-C25=1.4041       C21-C3=1.4274        
C21-C20=1.4296       C21-C22=1.4083       C22-C21=1.4083       C22-C23=1.3679       C22-H39=1.0787       C23-C22=1.3679       
C23-C24=1.4068       C23-H40=1.0827       C24-C23=1.4068       C24-C25=1.3738       C24-O26=1.3581       C25-C20=1.4041       
C25-C24=1.3738       C25-H41=1.0770       O26-C24=1.3581       O26-H42=0.9652       H27-C1=1.0874        H28-C1=1.0869        
H29-C1=1.0881        H30-C2=1.0904        H31-C2=1.0911        H32-C5=1.0952        H33-C5=1.0960        H34-C8=1.0765        
H35-C13=1.0786       H36-C15=1.0829       H37-C16=1.0803       H38-O17=0.9651       H39-C22=1.0787       H40-C23=1.0827       
H41-C25=1.0770       H42-O26=0.9652       B43-B89=1.6085       B43-B95=1.6192       B43-N112=1.4021      N44-B89=1.4253       
N44-B101=1.4601      N44-N102=1.4189      B45-N90=1.4096       B45-B101=1.6129      B45-B113=1.6502      N46-B73=1.4906       
N46-B103=1.4579      N46-B105=1.4583      B47-N80=1.4060       B47-B83=1.5736       B47-B109=1.6424      N48-B69=1.3902       
N48-N106=1.4653      N48-B111=1.4249      B49-N56=1.4728       B49-B65=1.5747       B49-N82=1.4260       N50-B51=1.4427       
N50-B63=1.4234       N50-B107=1.4969      B51-N50=1.4427       B51-B55=2.1371       B51-B91=1.7643       B51-B93=1.6491       
N52-B57=1.4390       N52-N96=1.3679       N52-N108=1.4301      B53-N54=1.4040       B53-N64=1.3944       B53-N92=1.4293       
N54-B53=1.4040       N54-B81=1.4483       N54-N94=1.4349       B55-B51=2.1371       B55-B91=1.5160       B55-B105=1.7972      
B55-B107=1.6003      N56-B49=1.4728       N56-B59=1.3870       N56-N70=1.4720       B57-N52=1.4390       B57-N76=1.4571       
B57-B103=1.6052      B57-N108=2.0090      N58-B61=1.4229       N58-N78=1.4212       N58-B81=1.4594       B59-N56=1.3870       
B59-N84=1.4451       B59-N98=2.0148       B59-N104=1.4606      N60-N62=1.4214       N60-B109=1.4349      N60-N112=1.4067      
B61-N58=1.4229       B61-B79=1.6423       B61-B93=1.6620       N62-N60=1.4214       N62-N66=1.4210       N62-B97=1.4376       
B63-N50=1.4234       B63-B77=1.6643       B63-B87=1.6967       N64-B53=1.3944       N64-B67=1.4343       N64-N92=1.5537       
B65-B49=1.5747       B65-N70=1.4851       B65-N78=1.4214       N66-N62=1.4210       N66-N84=1.3937       N66-N110=1.4863      
B67-N64=1.4343       B67-N82=1.4927       B67-N104=1.3915      N68-B73=1.4145       N68-B89=1.4994       N68-B101=1.4499      
B69-N48=1.3902       B69-N72=1.4720       B69-N86=1.4499       B69-B99=1.9297       N70-N56=1.4720       N70-B65=1.4851       
N70-B75=1.4409       B71-N98=1.4569       B71-N106=1.3890      B71-N110=1.4419      N72-B69=1.4720       N72-B85=1.4199       
N72-B99=1.4566       B73-N46=1.4906       B73-N68=1.4145       B73-N114=1.4505      N74-B85=1.4797       N74-N100=1.4169      
N74-B111=1.4008      B75-N70=1.4409       B75-N102=1.4487      B75-B113=1.7251      N76-B57=1.4571       N76-B77=1.4080       
N76-N108=1.4183      B77-B63=1.6643       B77-N76=1.4080       B77-B85=1.6742       N78-N58=1.4212       N78-B65=1.4214       
N78-B113=1.4322      B79-B61=1.6423       B79-N90=1.4908       B79-B91=1.6059       N80-B47=1.4060       N80-B83=1.4127       
N80-N86=1.3697       B81-N54=1.4483       B81-N58=1.4594       B81-N82=1.4586       N82-B49=1.4260       N82-B67=1.4927       
N82-B81=1.4586       B83-B47=1.5736       B83-N80=1.4127       B83-N88=1.4101       N84-B59=1.4451       N84-N66=1.3937       
N84-N98=1.4386       B85-N72=1.4199       B85-N74=1.4797       B85-B77=1.6742       N86-B69=1.4499       N86-N80=1.3697       
N86-B99=1.4630       B87-B63=1.6967       B87-N94=1.4619       B87-N100=1.4270      N88-B83=1.4101       N88-B95=1.4420       
N88-N96=1.4407       B89-B43=1.6085       B89-N44=1.4253       B89-N68=1.4994       B89-B101=1.9713      N90-B45=1.4096       
N90-B79=1.4908       N90-B105=1.4564      B91-B51=1.7643       B91-B55=1.5160       B91-B79=1.6059       N92-B53=1.4293       
N92-N64=1.5537       N92-N100=1.3893      B93-B51=1.6491       B93-B61=1.6620       B93-N94=1.4028       N94-N54=1.4349       
N94-B87=1.4619       N94-B93=1.4028       B95-B43=1.6192       B95-N88=1.4420       B95-N114=1.4437      N96-N52=1.3679       
N96-N88=1.4407       N96-N114=1.4583      B97-N62=1.4376       B97-N102=1.4412      B97-N112=1.4845      N98-B59=2.0148       
N98-B71=1.4569       N98-N84=1.4386       N98-N104=1.4209      B99-B69=1.9297       B99-N72=1.4566       B99-N86=1.4630       
B99-N108=1.3747      N100-N74=1.4169      N100-B87=1.4270      N100-N92=1.3893      B101-N44=1.4601      B101-B45=1.6129      
B101-N68=1.4499      B101-B89=1.9713      N102-N44=1.4189      N102-B75=1.4487      N102-B97=1.4412      B103-N46=1.4579      
B103-B57=1.6052      B103-B107=1.6242     N104-B59=1.4606      N104-B67=1.3915      N104-N98=1.4209      B105-N46=1.4583      
B105-B55=1.7972      B105-N90=1.4564      N106-N48=1.4653      N106-B71=1.3890      N106-B111=1.4172     B107-N50=1.4969      
B107-B55=1.6003      B107-B103=1.6242     N108-N52=1.4301      N108-B57=2.0090      N108-N76=1.4183      N108-B99=1.3747      
B109-B47=1.6424      B109-N60=1.4349      B109-N110=1.4566     N110-N66=1.4863      N110-B71=1.4419      N110-B109=1.4566     
B111-N48=1.4249      B111-N74=1.4008      B111-N106=1.4172     N112-B43=1.4021      N112-N60=1.4067      N112-B97=1.4845      
B113-B45=1.6502      B113-B75=1.7251      B113-N78=1.4322      N114-B73=1.4505      N114-B95=1.4437      N114-N96=1.4583      
 B  B  Rav=1.6894 sigma=0.1393  Rmin=1.5160  Rmax=2.1371    24
 C  H  Rav=1.0851 sigma=0.0063  Rmin=1.0765  Rmax=1.0960    14
 C  C  Rav=1.4180 sigma=0.0453  Rmin=1.3557  Rmax=1.5315    22
 N  B  Rav=1.4560 sigma=0.1011  Rmin=1.3747  Rmax=2.0148    68
 N  C  Rav=1.3714 sigma=0.0489  Rmin=1.3039  Rmax=1.4546     5
 N  N  Rav=1.4308 sigma=0.0404  Rmin=1.3679  Rmax=1.5537    21
 O  H  Rav=0.9652 sigma=0.0000  Rmin=0.9651  Rmax=0.9652     2
 O  C  Rav=1.3118 sigma=0.0658  Rmin=1.2187  Rmax=1.3586     3
 
 selected bond angles (degree)
 --------------------
H27-C1-C2=110.22               H28-C1-C2=110.14               H28-C1-H27=108.34              H29-C1-C2=110.81               
H29-C1-H27=108.26              H29-C1-H28=109.01              C3-C2-C1=110.39                H30-C2-C1=108.83               
H30-C2-C3=109.38               H31-C2-C1=109.73               H31-C2-C3=110.48               H31-C2-H30=107.97              
C4-C3-C2=121.09                C21-C3-C2=122.57               C21-C3-C4=116.29               C5-C4-C3=131.43                
C18-C4-C3=119.88               C18-C4-C5=108.69               N6-C5-C4=102.96                H32-C5-C4=113.61               
H32-C5-N6=109.96               H33-C5-C4=113.10               H33-C5-N6=109.85               H33-C5-H32=107.30              
C7-N6-C5=112.49                C11-N6-C5=122.72               C11-N6-C7=124.79               C8-C7-N6=121.99                
C18-C7-N6=107.71               C18-C7-C8=130.31               C9-C8-C7=118.44                H34-C8-C7=120.00               
H34-C8-C9=121.57               C10-C9-C8=119.43               C16-C9-C8=122.21               C16-C9-C10=118.36              
C11-C10-C9=121.38              C13-C10-C9=120.21              C13-C10-C11=118.41             
 
 selected dihedral angles (degree)
 ---------------------------------
C3-C2-C1-H27=302.24           C3-C2-C1-H28=182.75           C3-C2-C1-H29= 62.05           H30-C2-C1-H27= 62.30          
H30-C2-C1-H28=302.81          H30-C2-C1-H29=182.11          H31-C2-C1-H27=180.24          H31-C2-C1-H28= 60.75          
H31-C2-C1-H29=300.06          C4-C3-C2-C1= 97.31            C4-C3-C2-H30=337.58           C4-C3-C2-H31=218.87           
C21-C3-C2-C1=280.01           C21-C3-C2-H30=160.28          C21-C3-C2-H31= 41.56          C5-C4-C3-C2=  3.63            
C5-C4-C3-C21=181.10           C18-C4-C3-C2=183.46           C18-C4-C3-C21=  0.92          N6-C5-C4-C3=179.83            
N6-C5-C4-C18=  0.00           H32-C5-C4-C3=298.70           H32-C5-C4-C18=118.86          H33-C5-C4-C3= 61.34           
H33-C5-C4-C18=241.50          C7-N6-C5-C4=  0.47            C7-N6-C5-H32=239.08           C7-N6-C5-H33=121.21           
C11-N6-C5-C4=180.96           C11-N6-C5-H32= 59.56          C11-N6-C5-H33=301.69          C8-C7-N6-C5=179.14            
C8-C7-N6-C11=358.65           C18-C7-N6-C5=359.26           C18-C7-N6-C11=178.76          C9-C8-C7-N6=  0.11            
C9-C8-C7-C18=179.97           H34-C8-C7-N6=180.14           H34-C8-C7-C18=  0.00          C10-C9-C8-C7=  0.86           
C10-C9-C8-H34=180.83          C16-C9-C8-C7=180.90           C16-C9-C8-H34=  0.87          C11-C10-C9-C8=359.28          
C11-C10-C9-C16=179.24         C13-C10-C9-C8=179.52          C13-C10-C9-C16=359.49         
 
 CMA Distance (Angstroems)
 ---------------------------
R(CMA): 11.3496
           -------------------------------------------------
          |                Final Singlepoint                |
           -------------------------------------------------

          ...................................................
          :                      SETUP                      :
          :.................................................:
          :  # basis functions                 408          :
          :  # atomic orbitals                 408          :
          :  # shells                          212          :
          :  # electrons                       416          :
          :  max. iterations                   500          :
          :  Hamiltonian                  GFN2-xTB          :
          :  restarted?                      false          :
          :  GBSA solvation                  false          :
          :  PC potential                    false          :
          :  electronic temp.          300.0000000     K    :
          :  accuracy                    1.0000000          :
          :  -> integral cutoff          0.2500000E+02      :
          :  -> integral neglect         0.1000000E-07      :
          :  -> SCF convergence          0.1000000E-05 Eh   :
          :  -> wf. convergence          0.1000000E-03 e    :
          :  Broyden damping             0.4000000          :
          :  net charge                          0          :
          :  unpaired electrons                  0          :
          ...................................................

 iter      E             dE          RMSdq      gap      omega  full diag
   1   -223.9171156 -0.223917E+03  0.454E-02    0.69       0.0  T
   2   -223.9171167 -0.108378E-05  0.270E-02    0.69       1.0  T
   3   -223.9170961  0.205799E-04  0.104E-02    0.69       1.0  T
   4   -223.9171146 -0.185182E-04  0.414E-03    0.69       2.3  T
   5   -223.9171176 -0.296190E-05  0.151E-03    0.69       6.2  T
   6   -223.9171177 -0.146936E-06  0.807E-04    0.69      11.6  T
   7   -223.9171178 -0.506147E-07  0.430E-04    0.69      21.8  T

   *** convergence criteria satisfied after 7 iterations ***

         #    Occupation            Energy/Eh            Energy/eV
      -------------------------------------------------------------
         1        2.0000           -0.7143718             -19.4390
       ...           ...                  ...                  ...
       202        2.0000           -0.3259364              -8.8692
       203        2.0000           -0.3232634              -8.7964
       204        2.0000           -0.3221197              -8.7653
       205        2.0000           -0.3187796              -8.6744
       206        2.0000           -0.3136653              -8.5353
       207        2.0000           -0.3120315              -8.4908
       208        2.0000           -0.3075026              -8.3676 (HOMO)
       209        0.0000           -0.2821599              -7.6780 (LUMO)
       210        0.0000           -0.2794364              -7.6039
       211                         -0.2740589              -7.4575
       212                         -0.2628420              -7.1523
       213                         -0.2500813              -6.8051
       ...                                ...                  ...
       408                          0.9843568              26.7857
      -------------------------------------------------------------
                  HL-Gap            0.0253428 Eh            0.6896 eV
             Fermi-level           -0.2948529 Eh           -8.0234 eV

 SCC (total)                   0 d,  0 h,  0 min,  0.306 sec
 SCC setup                      ...        0 min,  0.001 sec (  0.327%)
 Dispersion                     ...        0 min,  0.001 sec (  0.327%)
 classical contributions        ...        0 min,  0.000 sec (  0.000%)
 integral evaluation            ...        0 min,  0.013 sec (  4.248%)
 iterations                     ...        0 min,  0.257 sec ( 83.987%)
 molecular gradient             ...        0 min,  0.032 sec ( 10.458%)
 printout                       ...        0 min,  0.002 sec (  0.654%)

         :::::::::::::::::::::::::::::::::::::::::::::::::::::
         ::                     SUMMARY                     ::
         :::::::::::::::::::::::::::::::::::::::::::::::::::::
         :: total energy            -221.456816534062 Eh    ::
         :: gradient norm              0.002585645257 Eh/a0 ::
         :: HOMO-LUMO gap              0.689612260484 eV    ::
         ::.................................................::
         :: SCC energy              -223.903708668539 Eh    ::
         :: -> isotropic ES            0.718266957742 Eh    ::
         :: -> anisotropic ES         -0.023603962836 Eh    ::
         :: -> anisotropic XC          0.088242347448 Eh    ::
         :: -> dispersion             -0.196676449596 Eh    ::
         :: repulsion energy           2.446892134478 Eh    ::
         :: add. restraining           0.000000000000 Eh    ::
         :: total charge              -0.000000000026 e     ::
         :::::::::::::::::::::::::::::::::::::::::::::::::::::

           -------------------------------------------------
          |                Property Printout                |
           -------------------------------------------------

    * Orbital Energies and Occupations

         #    Occupation            Energy/Eh            Energy/eV
      -------------------------------------------------------------
         1        2.0000           -0.7143718             -19.4390
       ...           ...                  ...                  ...
       196        2.0000           -0.3384902              -9.2108
       197        2.0000           -0.3373025              -9.1785
       198        2.0000           -0.3329767              -9.0608
       199        2.0000           -0.3311015              -9.0097
       200        2.0000           -0.3287894              -8.9468
       201        2.0000           -0.3266257              -8.8879
       202        2.0000           -0.3259364              -8.8692
       203        2.0000           -0.3232634              -8.7964
       204        2.0000           -0.3221197              -8.7653
       205        2.0000           -0.3187796              -8.6744
       206        2.0000           -0.3136653              -8.5353
       207        2.0000           -0.3120315              -8.4908
       208        2.0000           -0.3075026              -8.3676 (HOMO)
       209        0.0000           -0.2821599              -7.6780 (LUMO)
       210        0.0000           -0.2794364              -7.6039
       211                         -0.2740589              -7.4575
       212                         -0.2628420              -7.1523
       213                         -0.2500813              -6.8051
       214                         -0.2468257              -6.7165
       215                         -0.2451234              -6.6701
       216                         -0.2441022              -6.6424
       217                         -0.2338301              -6.3628
       218                         -0.2284032              -6.2152
       219                         -0.2276573              -6.1949
       ...                                ...                  ...
       408                          0.9843568              26.7857
      -------------------------------------------------------------
                  HL-Gap            0.0253428 Eh            0.6896 eV
             Fermi-level           -0.2948529 Eh           -8.0234 eV

     #   Z          covCN         q      C6AA      α(0)
     1   6 C        3.754    -0.104    22.554     6.772
     2   6 C        3.805    -0.064    21.726     6.636
     3   6 C        2.967     0.017    27.631     8.622
     4   6 C        3.033    -0.025    28.596     8.771
     5   6 C        3.792     0.001    20.570     6.459
     6   7 N        2.798    -0.059    22.384     7.027
     7   6 C        2.974     0.049    26.891     8.506
     8   6 C        2.910    -0.062    29.548     8.913
     9   6 C        2.987     0.009    27.819     8.652
    10   6 C        2.984    -0.026    28.634     8.778
    11   6 C        2.770     0.257    22.669     7.798
    12   8 O        0.859    -0.446    22.616     6.376
    13   6 C        2.921    -0.047    29.160     8.855
    14   6 C        2.844     0.145    24.831     8.167
    15   6 C        2.915    -0.064    29.601     8.922
    16   6 C        2.920    -0.037    28.923     8.819
    17   8 O        1.660    -0.386    20.570     6.123
    18   6 C        3.026     0.089    26.002     8.364
    19   7 N        1.843    -0.246    27.269     7.739
    20   6 C        2.987     0.088    26.035     8.370
    21   6 C        2.987    -0.015    28.366     8.737
    22   6 C        2.916    -0.037    28.911     8.817
    23   6 C        2.915    -0.069    29.708     8.938
    24   6 C        2.842     0.147    24.796     8.161
    25   6 C        2.925    -0.067    29.677     8.934
    26   8 O        1.660    -0.386    20.586     6.125
    27   1 H        0.925     0.041     2.430     2.438
    28   1 H        0.925     0.046     2.364     2.405
    29   1 H        0.925     0.040     2.453     2.449
    30   1 H        0.924     0.048     2.345     2.395
    31   1 H        0.924     0.045     2.387     2.416
    32   1 H        0.924     0.080     1.983     2.202
    33   1 H        0.924     0.075     2.029     2.228
    34   1 H        0.926     0.060     2.199     2.319
    35   1 H        0.926     0.080     1.984     2.203
    36   1 H        0.925     0.031     2.566     2.505
    37   1 H        0.926     0.043     2.416     2.430
    38   1 H        0.805     0.301     0.718     1.331
    39   1 H        0.926     0.045     2.386     2.415
    40   1 H        0.925     0.030     2.580     2.512
    41   1 H        0.926     0.071     2.075     2.253
    42   1 H        0.805     0.302     0.716     1.329
    43   5 B        2.781     0.077    20.188     7.512
    44   7 N        2.772    -0.229    26.010     7.575
    45   5 B        2.788     0.091    19.940     7.465
    46   7 N        2.523    -0.314    28.128     7.876
    47   5 B        2.779     0.088    20.007     7.479
    48   7 N        2.655    -0.269    26.971     7.713
    49   5 B        2.849     0.240    17.676     7.020
    50   7 N        2.528    -0.273    27.090     7.730
    51   5 B        3.193     0.150    18.931     7.257
    52   7 N        2.981    -0.109    23.371     7.180
    53   5 B        2.644     0.373    16.323     6.813
    54   7 N        2.669    -0.213    25.646     7.521
    55   5 B        3.179     0.022    20.998     7.643
    56   7 N        2.886    -0.225    25.913     7.560
    57   5 B        3.009     0.208    18.090     7.095
    58   7 N        2.660    -0.164    24.544     7.358
    59   5 B        2.905     0.320    16.607     6.801
    60   7 N        3.161    -0.076    22.706     7.077
    61   5 B        2.778     0.094    19.912     7.461
    62   7 N        3.040    -0.126    23.731     7.235
    63   5 B        2.757     0.090    20.004     7.484
    64   7 N        2.634    -0.310    27.986     7.857
    65   5 B        3.038     0.226    17.841     7.045
    66   7 N        2.981    -0.000    21.269     6.850
    67   5 B        2.582     0.326    17.306     7.087
    68   7 N        2.595    -0.360    29.287     8.037
    69   5 B        3.287     0.340    16.334     6.740
    70   7 N        2.783    -0.256    26.644     7.666
    71   5 B        2.559     0.321    17.593     7.185
    72   7 N        2.579    -0.368    29.517     8.069
    73   5 B        2.529     0.301    18.225     7.377
    74   7 N        2.665    -0.205    25.467     7.495
    75   5 B        2.699     0.195    18.509     7.220
    76   7 N        2.845    -0.167    24.607     7.368
    77   5 B        2.758     0.082    20.136     7.508
    78   7 N        2.672    -0.174    24.776     7.393
    79   5 B        2.877     0.110    19.580     7.386
    80   7 N        2.663    -0.143    24.099     7.291
    81   5 B        2.595     0.312    17.385     7.085
    82   7 N        2.519    -0.355    29.192     8.024
    83   5 B        2.683     0.184    18.716     7.268
    84   7 N        3.005    -0.133    23.870     7.256
    85   5 B        2.677     0.210    18.365     7.203
    86   7 N        2.716    -0.248    26.441     7.637
    87   5 B        2.647     0.164    19.166     7.380
    88   7 N        2.825    -0.205    25.458     7.494
    89   5 B        3.322     0.230    17.775     7.030
    90   7 N        2.531    -0.286    27.413     7.776
    91   5 B        2.949     0.035    20.783     7.606
    92   7 N        2.783    -0.185    25.007     7.427
    93   5 B        2.796     0.085    20.043     7.482
    94   7 N        2.673    -0.156    24.377     7.333
    95   5 B        3.021     0.211    18.048     7.086
    96   7 N        3.272     0.015    20.993     6.805
    97   5 B        2.872     0.304    16.819     6.846
    98   7 N        3.153    -0.118    23.552     7.208
    99   5 B        3.263     0.320    16.588     6.792
   100   7 N        2.833    -0.061    22.408     7.031
   101   5 B        3.304     0.231    17.766     7.029
   102   7 N        2.656    -0.183    24.961     7.420
   103   5 B        2.839     0.112    19.567     7.387
   104   7 N        2.832    -0.225    25.903     7.559
   105   5 B        2.864     0.252    17.505     6.985
   106   7 N        2.654    -0.230    26.045     7.580
   107   5 B        3.012     0.114    19.491     7.364
   108   7 N        3.153    -0.086    22.902     7.108
   109   5 B        2.673     0.205    18.444     7.221
   110   7 N        2.698    -0.227    25.957     7.567
   111   5 B        2.584     0.369    16.731     6.964
   112   7 N        2.883    -0.179    24.875     7.407
   113   5 B        2.825     0.106    19.680     7.410
   114   7 N        2.827    -0.253    26.555     7.654

 Mol. C6AA /au·bohr⁶  :     240046.323010
 Mol. C8AA /au·bohr⁸  :    6727154.559919
 Mol. α(0) /au        :        773.059840


Wiberg/Mayer (AO) data.
largest (>0.10) Wiberg bond orders for each atom

 ---------------------------------------------------------------------------
     #   Z sym  total        # sym  WBO       # sym  WBO       # sym  WBO
 ---------------------------------------------------------------------------
     1   6 C    3.993 --     2 C    0.996    27 H    0.988    29 H    0.987
                            28 H    0.985
     2   6 C    3.995 --     3 C    1.015     1 C    0.996    30 H    0.973
                            31 H    0.966
     3   6 C    3.981 --     4 C    1.511    21 C    1.242     2 C    1.015
     4   6 C    3.975 --     3 C    1.511    18 C    1.218     5 C    1.018
     5   6 C    3.967 --     4 C    1.018     6 N    0.978    32 H    0.946
                            33 H    0.945
     6   7 N    3.592 --     7 C    1.146    11 C    1.142     5 C    0.978
                            12 O    0.158
     7   6 C    3.956 --     8 C    1.546     6 N    1.146    18 C    1.079
     8   6 C    3.971 --     7 C    1.546     9 C    1.207    34 H    0.964
     9   6 C    3.990 --    16 C    1.316    10 C    1.285     8 C    1.207
    10   6 C    3.982 --    13 C    1.386     9 C    1.285    11 C    1.053
    11   6 C    3.953 --    12 O    1.648     6 N    1.142    10 C    1.053
    12   8 O    1.991 --    11 C    1.648     6 N    0.158
    13   6 C    3.984 --    14 C    1.397    10 C    1.386    35 H    0.961
                            16 C    0.105
    14   6 C    3.927 --    13 C    1.397    15 C    1.319    17 O    1.077
    15   6 C    3.988 --    16 C    1.510    14 C    1.319    36 H    0.966
    16   6 C    3.978 --    15 C    1.510     9 C    1.316    37 H    0.968
                            13 C    0.105
    17   8 O    2.117 --    14 C    1.077    38 H    0.888
    18   6 C    3.980 --    19 N    1.486     4 C    1.218     7 C    1.079
    19   7 N    3.047 --    18 C    1.486    20 C    1.278
    20   6 C    3.980 --    25 C    1.296    19 N    1.278    21 C    1.225
    21   6 C    3.983 --    22 C    1.294     3 C    1.242    20 C    1.225
    22   6 C    3.987 --    23 C    1.548    21 C    1.294    39 H    0.963
                            25 C    0.110
    23   6 C    3.975 --    22 C    1.548    24 C    1.275    40 H    0.966
    24   6 C    3.936 --    25 C    1.456    23 C    1.275    26 O    1.078
    25   6 C    3.974 --    24 C    1.456    20 C    1.296    41 H    0.963
                            22 C    0.110
    26   8 O    2.122 --    24 C    1.078    42 H    0.888
    27   1 H    0.998 --     1 C    0.988
    28   1 H    0.997 --     1 C    0.985
    29   1 H    0.998 --     1 C    0.987
    30   1 H    0.997 --     2 C    0.973
    31   1 H    0.998 --     2 C    0.966
    32   1 H    0.990 --     5 C    0.946
    33   1 H    0.991 --     5 C    0.945
    34   1 H    0.996 --     8 C    0.964
    35   1 H    0.993 --    13 C    0.961
    36   1 H    0.998 --    15 C    0.966
    37   1 H    0.998 --    16 C    0.968
    38   1 H    0.909 --    17 O    0.888
    39   1 H    0.998 --    22 C    0.963
    40   1 H    0.999 --    23 C    0.966
    41   1 H    0.994 --    25 C    0.963
    42   1 H    0.909 --    26 O    0.888
    43   5 B    3.476 --   112 N    1.281    95 B    1.000    89 B    0.970
    44   7 N    3.394 --    89 B    1.141   102 N    1.006   101 B    1.000
    45   5 B    3.464 --    90 N    1.277   113 B    0.978   101 B    0.958
    46   7 N    3.530 --   105 B    1.153   103 B    1.149    73 B    1.018
    47   5 B    3.460 --    80 N    1.240   109 B    0.995    83 B    0.989
    48   7 N    3.264 --    69 B    1.200   111 B    0.969   106 N    0.888
    49   5 B    3.408 --    82 N    1.177    56 N    1.033    65 B    0.963
    50   7 N    3.568 --    63 B    1.276    51 B    1.159   107 B    0.973
    51   5 B    3.393 --    50 N    1.159    93 B    0.932    91 B    0.640
                            55 B    0.293
    52   7 N    3.326 --    57 B    1.116    96 N    1.043   108 N    0.946
    53   5 B    3.433 --    54 N    1.187    64 N    1.126    92 N    0.962
    54   7 N    3.445 --    53 B    1.187    81 B    1.086    94 N    0.967
    55   5 B    3.455 --    91 B    1.284   107 B    1.004   105 B    0.627
                            51 B    0.293
    56   7 N    3.425 --    59 B    1.233    49 B    1.033    70 N    0.928
    57   5 B    3.392 --    52 N    1.116    76 N    1.037   103 B    1.005
    58   7 N    3.510 --    61 B    1.205    81 B    1.124    78 N    0.998
    59   5 B    3.514 --    56 N    1.233    84 N    1.070   104 N    1.003
    60   7 N    3.358 --   109 B    1.147   112 N    0.993    62 N    0.983
    61   5 B    3.413 --    58 N    1.205    79 B    1.008    93 B    0.926
    62   7 N    3.332 --    97 B    1.139    60 N    0.983    66 N    0.972
    63   5 B    3.463 --    50 N    1.276    77 B    0.978    87 B    0.932
    64   7 N    3.217 --    53 B    1.126    67 B    1.067    92 N    0.792
    65   5 B    3.369 --    78 N    1.152    70 N    0.992    49 B    0.963
    66   7 N    3.097 --    84 N    1.012    62 N    0.972   110 N    0.941
    67   5 B    3.511 --   104 N    1.246    64 N    1.067    82 N    0.989
    68   7 N    3.434 --    73 B    1.198   101 B    1.064    89 B    0.927
    69   5 B    3.481 --    48 N    1.200    86 N    1.044    72 N    0.979
    70   7 N    3.276 --    75 B    1.163    65 B    0.992    56 N    0.928
    71   5 B    3.523 --   106 N    1.210   110 N    1.126    98 N    1.029
    72   7 N    3.430 --    85 B    1.222    99 B    0.993    69 B    0.979
    73   5 B    3.519 --    68 N    1.198   114 N    1.102    46 N    1.018
    74   7 N    3.440 --   111 B    1.260    85 B    0.997   100 N    0.990
    75   5 B    3.446 --    70 N    1.163   102 N    1.128   113 B    0.924
    76   7 N    3.469 --    77 B    1.261    57 B    1.037   108 N    0.984
    77   5 B    3.421 --    76 N    1.261    63 B    0.978    85 B    0.959
    78   7 N    3.511 --   113 B    1.170    65 B    1.152    58 N    0.998
    79   5 B    3.347 --    91 B    1.009    61 B    1.008    90 N    0.964
    80   7 N    3.509 --    47 B    1.240    83 B    1.096    86 N    1.035
    81   5 B    3.515 --    58 N    1.124    82 N    1.103    54 N    1.086
    82   7 N    3.476 --    49 B    1.177    81 B    1.103    67 B    0.989
    83   5 B    3.463 --    88 N    1.177    80 N    1.096    47 B    0.989
    84   7 N    3.256 --    59 B    1.070    66 N    1.012    98 N    0.975
    85   5 B    3.391 --    72 N    1.222    74 N    0.997    77 B    0.959
    86   7 N    3.374 --    69 B    1.044    80 N    1.035    99 B    0.987
    87   5 B    3.453 --   100 N    1.191    94 N    1.078    63 B    0.932
    88   7 N    3.407 --    83 B    1.177    95 B    1.076    96 N    0.958
    89   5 B    3.364 --    44 N    1.141    43 B    0.970    68 N    0.927
                           101 B    0.127
    90   7 N    3.561 --    45 B    1.277   105 B    1.104    79 B    0.964
    91   5 B    3.367 --    55 B    1.284    79 B    1.009    51 B    0.640
                           105 B    0.186
    92   7 N    2.986 --   100 N    1.045    53 B    0.962    64 N    0.792
    93   5 B    3.455 --    94 N    1.266    51 B    0.932    61 B    0.926
    94   7 N    3.480 --    93 B    1.266    87 B    1.078    54 N    0.967
    95   5 B    3.442 --   114 N    1.128    88 N    1.076    43 B    1.000
    96   7 N    3.185 --    52 N    1.043    88 N    0.958   114 N    0.950
    97   5 B    3.524 --   102 N    1.160    62 N    1.139   112 N    0.992
    98   7 N    3.211 --    71 B    1.029   104 N    0.984    84 N    0.975
    99   5 B    3.508 --   108 N    1.263    72 N    0.993    86 N    0.987
   100   7 N    3.440 --    87 B    1.191    92 N    1.045    74 N    0.990
   101   5 B    3.327 --    68 N    1.064    44 N    1.000    45 B    0.958
                            89 B    0.127
   102   7 N    3.491 --    97 B    1.160    75 B    1.128    44 N    1.006
   103   5 B    3.385 --    46 N    1.149    57 B    1.005   107 B    1.002
   104   7 N    3.447 --    67 B    1.246    59 B    1.003    98 N    0.984
   105   5 B    3.443 --    46 N    1.153    90 N    1.104    55 B    0.627
                            91 B    0.186   107 B    0.120
   106   7 N    3.332 --    71 B    1.210   111 B    1.037    48 N    0.888
   107   5 B    3.334 --    55 B    1.004   103 B    1.002    50 N    0.973
                           105 B    0.120
   108   7 N    3.439 --    99 B    1.263    76 N    0.984    52 N    0.946
   109   5 B    3.443 --    60 N    1.147   110 N    1.110    47 B    0.995
   110   7 N    3.394 --    71 B    1.126   109 B    1.110    66 N    0.941
   111   5 B    3.439 --    74 N    1.260   106 N    1.037    48 N    0.969
   112   7 N    3.476 --    43 B    1.281    60 N    0.993    97 B    0.992
   113   5 B    3.360 --    78 N    1.170    45 B    0.978    75 B    0.924
   114   7 N    3.417 --    95 B    1.128    73 B    1.102    96 N    0.950
 ---------------------------------------------------------------------------

Topologies differ in total number of bonds
Writing topology from bond orders to xtbtopo.mol

molecular dipole:
                 x           y           z       tot (Debye)
 q only:        1.641       3.049      -3.374
   full:       -0.011       2.462      -1.320       7.100
molecular quadrupole (traceless):
                xx          xy          yy          xz          yz          zz
 q only:      -37.206       1.822      12.450       3.227       4.804      24.756
  q+dip:      -33.018       3.198      39.685       1.383      12.105      -6.667
   full:      -21.018       3.928      34.719       6.900      12.591     -13.701

           -------------------------------------------------
          |                Geometry Summary                 |
           -------------------------------------------------

      molecular mass/u    :     1237.8024524
   center of mass at/Å    :       -0.0022611      -0.1138525       3.3179750
  moments of inertia/u·Å² :        0.1499319E+05   0.4243218E+05   0.4896794E+05
rotational constants/cm⁻¹ :        0.1124353E-02   0.3972842E-03   0.3442586E-03

 * 136 selected distances

     #   Z          #   Z                                           value/Å
     1   6 C        2   6 C                                       1.5315210
     3   6 C        4   6 C                                       1.3693854
     5   6 C        6   7 N                                       1.4546306
     6   7 N        7   6 C                                       1.3736049
     7   6 C        8   6 C                                       1.3557094
     8   6 C        9   6 C                                       1.4231843
     9   6 C       10   6 C                                       1.4124938
     6   7 N       11   6 C                                       1.3747836
    11   6 C       12   8 O                                       1.2187218
    10   6 C       13   6 C                                       1.3919068
    13   6 C       14   6 C                                       1.3841130
    14   6 C       15   6 C                                       1.4001725
     9   6 C       16   6 C                                       1.4025653
    15   6 C       16   6 C                                       1.3730758
    14   6 C       17   8 O                                       1.3586219
     4   6 C       18   6 C                                       1.4210156
    18   6 C       19   7 N                                       1.3038809
    19   7 N       20   6 C                                       1.3499015
     3   6 C       21   6 C                                       1.4273716
    20   6 C       21   6 C                                       1.4296230
    21   6 C       22   6 C                                       1.4083458
    22   6 C       23   6 C                                       1.3679037
    23   6 C       24   6 C                                       1.4068472
    20   6 C       25   6 C                                       1.4040695
    24   6 C       25   6 C                                       1.3737782
    24   6 C       26   8 O                                       1.3580808
     1   6 C       27   1 H                                       1.0873856
     1   6 C       28   1 H                                       1.0869374
     1   6 C       29   1 H                                       1.0881000
     2   6 C       30   1 H                                       1.0904346
     2   6 C       31   1 H                                       1.0910623
     5   6 C       32   1 H                                       1.0952130
     5   6 C       33   1 H                                       1.0960239
     8   6 C       34   1 H                                       1.0764584
    13   6 C       35   1 H                                       1.0785780
    15   6 C       36   1 H                                       1.0829306
    16   6 C       37   1 H                                       1.0802599
    17   8 O       38   1 H                                       0.9651306 (min)
    22   6 C       39   1 H                                       1.0786651
    23   6 C       40   1 H                                       1.0826546
    25   6 C       41   1 H                                       1.0769849
    26   8 O       42   1 H                                       0.9651716
    50   7 N       51   5 B                                       1.4426768
    53   5 B       54   7 N                                       1.4039736
    49   5 B       56   7 N                                       1.4728046
    52   7 N       57   5 B                                       1.4389519
    56   7 N       59   5 B                                       1.3869632
    58   7 N       61   5 B                                       1.4229039
    60   7 N       62   7 N                                       1.4214137
    50   7 N       63   5 B                                       1.4234014
    53   5 B       64   7 N                                       1.3944467
    49   5 B       65   5 B                                       1.5746664
    62   7 N       66   7 N                                       1.4210323
    64   7 N       67   5 B                                       1.4342795
    48   7 N       69   5 B                                       1.3902249
    65   5 B       70   7 N                                       1.4850832
    69   5 B       72   7 N                                       1.4719692
    46   7 N       73   5 B                                       1.4906279
    68   7 N       73   5 B                                       1.4145495
    70   7 N       75   5 B                                       1.4408574
    57   5 B       76   7 N                                       1.4570938
    63   5 B       77   5 B                                       1.6643302
    76   7 N       77   5 B                                       1.4080269
    65   5 B       78   7 N                                       1.4213890
    61   5 B       79   5 B                                       1.6423447
    47   5 B       80   7 N                                       1.4060372
    54   7 N       81   5 B                                       1.4482604
    58   7 N       81   5 B                                       1.4594191
    49   5 B       82   7 N                                       1.4260413
    67   5 B       82   7 N                                       1.4926935
    81   5 B       82   7 N                                       1.4585857
    47   5 B       83   5 B                                       1.5735926
    80   7 N       83   5 B                                       1.4127280
    59   5 B       84   7 N                                       1.4450726
    66   7 N       84   7 N                                       1.3937116
    72   7 N       85   5 B                                       1.4198940
    74   7 N       85   5 B                                       1.4796964
    77   5 B       85   5 B                                       1.6741508 (max)
    69   5 B       86   7 N                                       1.4499009
    80   7 N       86   7 N                                       1.3696527
    83   5 B       88   7 N                                       1.4100591
    43   5 B       89   5 B                                       1.6084941
    44   7 N       89   5 B                                       1.4253343
    68   7 N       89   5 B                                       1.4993866
    45   5 B       90   7 N                                       1.4096225
    79   5 B       90   7 N                                       1.4908211
    55   5 B       91   5 B                                       1.5160273
    79   5 B       91   5 B                                       1.6059371
    53   5 B       92   7 N                                       1.4293487
    51   5 B       93   5 B                                       1.6490648
    61   5 B       93   5 B                                       1.6620209
    87   5 B       94   7 N                                       1.4619409
    93   5 B       94   7 N                                       1.4028499
    43   5 B       95   5 B                                       1.6191595
    88   7 N       95   5 B                                       1.4419606
    52   7 N       96   7 N                                       1.3679286
    62   7 N       97   5 B                                       1.4376040
    71   5 B       98   7 N                                       1.4568803
    84   7 N       98   7 N                                       1.4386068
    72   7 N       99   5 B                                       1.4565795
    86   7 N       99   5 B                                       1.4629723
    87   5 B      100   7 N                                       1.4269541
    92   7 N      100   7 N                                       1.3892548
    44   7 N      101   5 B                                       1.4601267
    45   5 B      101   5 B                                       1.6129329
    68   7 N      101   5 B                                       1.4499475
    75   5 B      102   7 N                                       1.4486873
    97   5 B      102   7 N                                       1.4411673
    46   7 N      103   5 B                                       1.4578921
    57   5 B      103   5 B                                       1.6051808
    59   5 B      104   7 N                                       1.4606432
    67   5 B      104   7 N                                       1.3915102
    98   7 N      104   7 N                                       1.4209452
    46   7 N      105   5 B                                       1.4582856
    90   7 N      105   5 B                                       1.4563857
    71   5 B      106   7 N                                       1.3889924
    50   7 N      107   5 B                                       1.4969020
    55   5 B      107   5 B                                       1.6003013
   103   5 B      107   5 B                                       1.6242356
    52   7 N      108   7 N                                       1.4300544
    76   7 N      108   7 N                                       1.4183495
    99   5 B      108   7 N                                       1.3747327
    47   5 B      109   5 B                                       1.6424215
    60   7 N      109   5 B                                       1.4348976
    71   5 B      110   7 N                                       1.4418659
   109   5 B      110   7 N                                       1.4566346
    48   7 N      111   5 B                                       1.4249067
    74   7 N      111   5 B                                       1.4008482
   106   7 N      111   5 B                                       1.4172270
    43   5 B      112   7 N                                       1.4020759
    60   7 N      112   7 N                                       1.4067331
    97   5 B      112   7 N                                       1.4845157
    45   5 B      113   5 B                                       1.6502212
    78   7 N      113   5 B                                       1.4321821
    73   5 B      114   7 N                                       1.4505341
    95   5 B      114   7 N                                       1.4437128

 * 8 distinct bonds (by element types)

   Z      Z             #   av. dist./Å        max./Å        min./Å
   5 B    5 B          17     1.6191225     1.6741508     1.5160273
   1 H    6 C          14     1.0851206     1.0960239     1.0764584
   6 C    6 C          18     1.4046157     1.5315210     1.3557094
   5 B    7 N          66     1.4391748     1.4993866     1.3747327
   6 C    7 N           5     1.3713603     1.4546306     1.3038809
   7 N    7 N          11     1.4070621     1.4386068     1.3679286
   1 H    8 O           2     0.9651511     0.9651716     0.9651306
   6 C    8 O           3     1.3118082     1.3586219     1.2187218


optimized geometry written to: xtbopt.xyz


           -------------------------------------------------
          | TOTAL ENERGY             -221.456816534062 Eh   |
          | GRADIENT NORM               0.002585645257 Eh/α |
          | HOMO-LUMO GAP               0.689612260484 eV   |
           -------------------------------------------------

------------------------------------------------------------------------
 * finished run on 2026/08/31 at 22:24:54.349     
------------------------------------------------------------------------
 total:
 * wall-time:     0 d,  0 h,  0 min,  6.315 sec
 *  cpu-time:     0 d,  0 h,  0 min, 50.016 sec
 * ratio c/w:     7.920 speedup
 SCF:
 * wall-time:     0 d,  0 h,  0 min,  0.932 sec
 *  cpu-time:     0 d,  0 h,  0 min,  8.359 sec
 * ratio c/w:     8.969 speedup
 ANC optimizer:
 * wall-time:     0 d,  0 h,  0 min,  5.306 sec
 *  cpu-time:     0 d,  0 h,  0 min, 41.219 sec
 * ratio c/w:     7.768 speedup

normal termination of xtb
