72
carrier
B      3.45918000    -1.45456900     1.62803700
N      2.67132400    -0.85552900     2.62113500
B      2.21786300     0.54580300     2.80840700
N      2.58208500     1.63297700     1.93645400
B      2.03465600     2.92232600     1.56172200
B      1.87855700     3.33934800    -0.10642700
N      0.59013500     3.96458300    -0.11022500
B      0.33760200     4.49599400     1.18389400
N      1.05581800     3.73339800     2.23573400
N     -0.23578900     3.36421500     2.83354400
B     -0.80599600     2.18226900     3.28187400
N     -2.10260100     1.75419400     2.76079900
N     -2.02642300     0.61191200     3.60149200
N     -0.79798700     1.06415300     4.19458100
N      0.04325600    -0.01395500     4.45665300
N     -0.58725300    -1.20503300     3.82448800
B      0.48556000    -2.10563400     3.43376400
N      1.65611000    -1.27443300     3.50362200
N      1.30870300     0.06889800     3.81698100
B      0.69053400    -3.56106900     2.70270900
B      1.46587800    -4.21214800     1.49913800
N      2.35272800    -3.88733500     0.45310300
N      2.33521300    -3.67367000    -0.97087600
N      2.87691100    -2.33178300    -0.79356300
B      3.07306300    -2.64548300     0.60111100
B      3.01865800    -1.07367000    -1.50276800
N      3.77272800    -0.13262400    -0.76554100
B      3.44775200     1.25859300    -0.51406500
B      2.53992000     2.36249900    -1.26104700
N      1.92854800     1.95700900    -2.46507700
B      2.04076500     0.71192100    -3.21148300
B      1.40572500     0.81809100    -4.88931100
B      0.65864800    -0.53887500    -4.48693700
B      1.47205400    -1.55500100    -3.51561000
B      0.89832000    -2.87979800    -2.81384900
N     -0.50744700    -2.90014800    -2.43279500
N     -0.16866400    -3.75942100    -1.35647200
B     -1.10174900    -4.18378700    -0.44100700
N     -1.07438800    -4.48433500     0.99123500
N      0.07735000    -4.35923000     1.72128900
B     -2.25338100    -3.63941200     1.00848200
N     -2.43676800    -3.60188000    -0.45077300
B     -2.66624200    -2.40209600    -1.17525600
B     -1.67354800    -2.11288200    -2.49162100
B     -1.59744100    -0.55993400    -3.08468900
B     -2.50371000     0.49137000    -2.10914300
N     -3.21814400     0.04165400    -0.95856600
N     -4.18601600     0.82900500    -0.34753800
N     -3.83249600     1.77684200     0.83162400
B     -2.70883700     2.22675100     1.60124200
N     -2.01352000     3.41851500     1.03155300
B     -1.78403400     3.45238400    -0.40822000
N     -0.49183300     3.76657800    -1.01011900
B     -0.24848400     3.46993700    -2.37986300
B     -1.33888100     2.45365800    -3.11487000
N     -2.35964900     1.93260500    -2.30584100
N     -2.77286400     2.76356200    -1.21183300
B     -3.84450000     2.20944000    -0.49372200
B     -0.47371000     1.44532400    -4.09173000
B      1.00118400     2.25435100    -4.62250700
B      1.09031400     2.95964900    -3.18248900
N     -0.61934700     0.01765100    -3.94190400
B     -1.03820200     4.08509600     1.83123800
N     -3.15796000    -1.25259200    -0.38432100
B     -3.22437300    -1.45141100     1.00032000
N     -2.72091500    -1.34169900     2.32056700
B     -1.82562000    -0.77746000     3.21984000
N     -2.93972400    -2.65477300     1.70947600
N      1.20955900    -3.78679600    -1.73940500
N      2.29306700    -0.64163700    -2.73060300
N      3.45640000     1.12990400     0.94004000
B      3.91232700    -0.20235700     0.72592600
