55
drug
O     -0.13076800    -0.05156000     6.81709700
C      0.40571200     0.16748300     7.90098500
N      1.73767400    -0.12742300     8.16759600
C      2.35323200    -0.09536400     9.50275600
H      2.68990700     0.93429400     9.66892900
H      1.60600200    -0.33866200    10.26435200
C      3.55071200    -1.04650200     9.62954300
H      4.00798800    -0.93895100    10.61891700
H      3.21417400    -2.08584600     9.53205000
N      4.54937000    -0.83062500     8.58212200
C      5.88083700    -1.09006400     8.86458300
C      6.87058200    -0.80692600     7.78854300
H      6.89556000    -1.56501500     7.01230000
C      7.20623100     0.61582300     7.40133000
H      6.72775900     1.42678100     7.93925600
H      7.39390100     0.82504800     6.35484300
C      8.21335500    -0.20628300     8.14508900
H      9.08388000    -0.56383800     7.60789400
H      8.40505600     0.03498000     9.18538800
O      6.27161800    -1.54162400     9.93504700
C      4.05792000    -0.36514100     7.28055900
H      4.63603700    -0.83107600     6.47675100
H      4.23965000     0.71549600     7.24564200
C      2.56371200    -0.64146900     7.07338400
H      2.23330400    -0.21146700     6.12150300
H      2.38612800    -1.72294800     7.02656500
C     -0.43266100     0.74356000     8.96546100
C     -0.13443700     1.98445900     9.51834800
F      0.93867300     2.68054400     9.11698000
C     -0.94976900     2.52556000    10.50672600
H     -0.69779200     3.48885200    10.94040200
C     -2.08480300     1.82932500    10.93010800
H     -2.70665900     2.26323800    11.71154100
C     -2.42479700     0.59403600    10.35320400
C     -3.65158400    -0.14905500    10.83700100
H     -3.32523300    -0.90353700    11.56434800
H     -4.32819700     0.52325100    11.37777100
C     -4.44235700    -0.83829800     9.73292900
C     -5.29503800    -0.03884700     8.81596100
C     -5.43066500     1.35205400     8.90075300
H     -4.90854500     1.93563700     9.65170600
C     -6.25250000     2.03202800     7.99612200
H     -6.35262400     3.11368300     8.06012300
C     -6.94164600     1.33111200     7.00737600
H     -7.57794100     1.86231300     6.30305600
C     -6.81080000    -0.05365100     6.91970400
H     -7.34636500    -0.60199500     6.14699500
C     -5.98683900    -0.73316500     7.82535600
C     -5.84488900    -2.19546100     7.73987600
O     -6.44259600    -2.84852000     6.89189300
N     -5.01334400    -2.77671900     8.66524600
H     -4.90038900    -3.78477100     8.61775100
N     -4.32382100    -2.13106800     9.64280700
C     -1.57952100     0.05017400     9.37253700
H     -1.80239200    -0.91386000     8.91569600
