68
Doxorubicin GFN2 opt
C      -4.97786449     -0.32060000      0.16488657
C      -4.72115741      0.87077226      1.09551409
C      -5.01787325      0.55745989      2.58236101
C      -3.90081159     -0.29177693      3.23469480
C      -2.54942856      0.35733725      2.94643342
C      -2.38488846      0.57735833      1.44633680
O      -3.41853917      1.40721423      0.94503349
O      -1.16846522      1.21243184      1.23432761
C      -0.88302333      1.50299763     -0.12698852
C      -1.11826337      2.99435940     -0.36700871
C      -0.52572740      3.44135358     -1.70594158
C       0.99420897      3.28971920     -1.62082778
C       1.39856765      1.93715785     -1.11496150
C       0.53630423      1.09618505     -0.45233016
C       0.94600107     -0.21465082     -0.09845550
C       2.26908571     -0.62569995     -0.32981609
C       3.17176596      0.26340280     -0.95937504
C       2.73043343      1.52942417     -1.37057317
O       3.52753768      2.39429969     -1.99636215
C       4.54798726     -0.12512928     -1.21273852
O       5.34900629      0.62076952     -1.78820240
C       4.97545447     -1.45638076     -0.74949622
C       4.08363648     -2.33921573     -0.12414672
C       2.67859308     -1.96715659      0.08294271
O       1.86970119     -2.75149034      0.59184611
C       4.56288175     -3.60250469      0.30116891
C       5.90385444     -3.93176613      0.08548915
C       6.76208706     -3.04509175     -0.53587918
C       6.30467530     -1.81115997     -0.95351849
O       3.69071073     -4.42502909      0.90118896
C       4.11267018     -5.69093888      1.34947090
O       0.03746684     -1.02737767      0.42916756
C      -1.09345651      2.54569556     -2.81141639
O      -0.45696635      1.67571852     -3.35976092
C      -2.53089953      2.79709518     -3.19931965
O      -2.93284651      1.94879718     -4.23399616
O      -0.90986367      4.78590447     -1.91859465
N      -3.94140474     -1.65768197      2.71562825
O      -6.28249673     -0.02926227      2.74978354
H      -4.51636381     -1.22425555      0.55372412
H      -6.04810964     -0.47545361      0.05410491
H      -4.56498634     -0.09675884     -0.81599122
H      -5.37382249      1.69745926      0.78836586
H      -5.06418775      1.50926074      3.12330739
H      -4.07247553     -0.27209271      4.32614585
H      -1.72958762     -0.26623372      3.30258621
H      -2.48975790      1.32926423      3.43659377
H      -2.40348292     -0.39279722      0.91740135
H      -1.55389391      0.90595723     -0.76272998
H      -0.62895850      3.55195637      0.43237105
H      -2.18428644      3.21069928     -0.32100759
H       1.38677387      4.06220308     -0.95324994
H       1.45556334      3.43639684     -2.60162216
H       4.41722979      1.95733042     -2.09493827
H       6.28312113     -4.88949725      0.40392680
H       7.79333631     -3.32358734     -0.69223399
H       6.95757851     -1.10364837     -1.44023290
H       3.22808958     -6.14730406      1.79014925
H       4.89510648     -5.60985999      2.11074371
H       4.46716721     -6.31486592      0.52297210
H       0.50390523     -1.89176464      0.62577512
H      -2.64432894      3.84602987     -3.50269978
H      -3.16390436      2.64149565     -2.31485641
H      -2.17385120      1.37381694     -4.43277696
H      -0.37145090      5.15968361     -2.62635603
H      -4.68887364     -2.17535002      3.16662250
H      -3.07104093     -2.13377146      2.92382617
H      -6.28316212     -0.85685366      2.25351470
