72
carrier @complex
B       1.30583417     -3.71126834     -0.85641803
N       1.68349746     -4.22508957      0.44988348
B       0.24241075     -4.42405801      0.49114772
N      -0.04086415     -4.25528313     -0.92879608
N      -4.26298142     -2.02917149      0.34166402
B      -3.89757375     -2.24168360      1.73487732
N      -4.42537933     -1.00012357      2.28720785
B      -4.43777757     -0.68613259      0.86446615
B      -1.04009773     -3.27952951     -1.19995262
N      -2.15761845     -3.16142889     -0.27595226
B      -3.16822969     -2.15836787     -0.56165758
N      -2.87386856     -1.04351003     -1.45267266
B      -1.74501563     -1.19389073     -2.36154303
N      -0.71016212     -2.18223160     -2.10059976
N      -0.34435024      1.76922523     -2.88866495
B      -0.06948329      0.35937254     -3.12658964
N      -1.44068924     -0.11449926     -3.24020411
B      -1.66085740      1.19682835     -2.65157524
B      -2.05031860     -2.31442486      3.34229132
N      -2.70760438     -2.86224734      2.16423760
B      -1.88736856     -3.45513972      1.12640222
N      -0.60192918     -3.97495157      1.52964688
B       0.04674653     -3.41084940      2.70907573
N      -0.79040012     -2.84463323      3.73453130
N       1.26667551     -1.90458589      4.77894990
B       0.78026845     -0.60966794      5.01926677
N      -0.62206170     -0.88165593      5.52350270
B      -0.14828627     -2.45301761      5.02507541
N      -2.44300416      1.43725905     -1.49651431
B      -3.16765409      0.29436065     -0.96802832
N      -3.86326981      0.47683325      0.29547668
B      -3.35841810      1.46174209      1.22929823
N      -2.63249719      2.59533412      0.68775165
B      -1.92659876      2.42875679     -0.57207434
B       2.61799885     -1.68729027     -0.54859147
N       1.68457938     -2.44358159     -1.36308265
B       0.67118233     -1.72560768     -2.11292633
N       0.98197174     -0.36503143     -2.51914732
B       1.91105626      0.40709720     -1.71490807
N       2.91455791     -0.32633277     -0.96665773
N      -3.22039742      1.12129967      2.64111615
B      -3.46215260     -0.26246537      3.01982834
N      -2.48829288     -0.99001435      3.83475366
B      -1.53832024     -0.21656003      4.57061742
N      -1.25935738      1.15998806      4.21935968
B      -2.24324624      1.86865676      3.40707717
B      -0.58046292      3.49767965      2.79418825
N      -0.72097329      4.07462945      1.46781817
B      -2.03197348      3.46561875      1.62679275
N      -1.98508726      3.22160250      3.06261009
N       1.59682523      1.78387713     -1.35835997
B       0.27621985      2.28020526     -1.71413364
N      -0.56578036      2.92247919     -0.71314156
B       0.08698631      3.44250020      0.47852816
N       1.40484144      2.96453381      0.86882220
B       2.21666924      2.32033708     -0.15618309
B       1.91892265     -2.04815605      3.52986290
N       1.47058968     -3.09617582      2.63778849
B       2.13325592     -3.21934481      1.35305564
N       2.91321700     -2.11115734      0.80986128
B       3.36370658     -1.09114883      1.74207688
N       2.70404494     -0.92675468      3.02799556
N       0.48835418      2.66028382      3.19519162
B       0.14351340      1.53764470      4.03433261
N       1.16515085      0.56153561      4.33089722
B       2.26666219      0.40229059      3.39231914
N       2.60876951      1.54311520      2.56168991
B       1.57332322      2.50418585      2.23695526
N       4.13255856     -0.00187796      1.23783452
B       3.71604826      0.43574844     -0.08543290
N       3.50898189      1.84746418      0.20631592
B       3.57489097      1.30335757      1.55425833
