111
Eribulin GFN2 opt
C       3.02705342     -5.23380483      0.09613094
C       3.05495726     -5.18298729      1.62631121
C       1.65175552     -5.13924172      2.24492438
C       0.92383586     -3.81550849      1.93158185
C      -0.14820309     -4.01235002      0.85148060
C      -0.72647947     -2.70762512      0.30483059
C      -1.80508951     -2.03795250      1.16842055
C      -1.41728908     -0.80168442      1.94225001
C      -0.24207766     -0.50431531      2.46224392
C      -2.64478197      0.05962218      1.97552972
C      -3.39243419     -0.35620976      0.70456195
O      -2.86495656     -1.62658982      0.31045442
C      -4.90541047     -0.48157530      0.88811285
C      -5.61095187      0.84138082      1.18652673
C      -5.75720883      1.76715740     -0.02925230
C      -6.78836099      2.89249823      0.19913233
C      -7.16013380      3.25408671     -1.23509018
C      -6.89585178      1.94006455     -2.01642951
O      -6.29984555      1.04103873     -1.10615539
C      -5.91806476      2.39993051     -3.12378248
C      -5.21293710      3.55253243     -2.38763742
O      -6.26767653      4.22962176     -1.75044948
C      -4.11023428      3.01093602     -1.45373361
O      -4.47366393      2.29932626     -0.27876974
C      -3.21137017      2.14503992     -2.36022107
C      -4.01515899      0.96289292     -2.91831019
O      -5.09732512      1.43749218     -3.71287165
C      -3.10840405      0.10838453     -3.79859486
C      -1.88060825     -0.29256482     -2.98467561
C      -1.19196001      0.95831249     -2.43396953
O      -2.08701829      1.72203832     -1.63521712
C       0.00640549      0.60604486     -1.55232717
C       1.23397759      0.24919648     -2.36351102
O       1.41717206      0.68252726     -3.47404776
C       2.21484565     -0.70566836     -1.71559674
C       2.62363743     -0.36431123     -0.28162058
C       3.73680357     -1.30552550      0.21122896
C       3.74305780     -1.44732883      1.74448191
C       3.01653302     -2.71560389      2.21816982
C       3.83771690     -3.98443568      2.10390264
C       5.11138303     -4.07673195      2.44649237
O       1.81957375     -2.82109869      1.46877260
O       4.93741005     -0.74027083     -0.27370103
C       4.81460124      0.66932151     -0.38918544
C       3.31790589      1.00910865     -0.18564356
O       3.12312432      1.62118187      1.07434800
C       1.93443736      2.35801845      1.19253998
C       5.75864509      1.38329570      0.58081671
C       5.86304125      2.87446973      0.26539827
C       6.81612523      3.58263680      1.23718221
N       6.96748105      4.96497152      0.80002665
O       6.32087140      3.04391438     -1.05600243
H       2.57308740     -4.33522503     -0.31075083
H       2.46367720     -6.10188620     -0.24116996
H       4.04296990     -5.30894601     -0.28553813
H       3.55439618     -6.09126499      1.98148424
H       1.75600889     -5.25422837      3.32627362
H       1.05992855     -5.97854455      1.87753613
H       0.43835569     -3.44615731      2.85398417
H       0.30618720     -4.55022517      0.01921413
H      -0.94380177     -4.63629902      1.26247027
H      -1.20524730     -2.92033066     -0.65315919
H       0.09844666     -2.01936910      0.13221307
H      -2.20351213     -2.78261877      1.88347248
H       0.60413932     -1.15963414      2.38185304
H      -0.09340264      0.41489127      3.00437944
H      -3.23531944     -0.17690966      2.86621989
H      -2.41142085      1.12157618      1.97978715
H      -3.17481135      0.36125064     -0.09292810
H      -5.09719905     -1.17510454      1.71131206
H      -5.32992555     -0.91536542     -0.01783663
H      -6.61659640      0.62012163      1.54594628
H      -5.07442204      1.39676709      1.95504236
H      -6.35419795      3.73994931      0.72274237
H      -7.64986324      2.51083037      0.74413977
H      -8.17234535      3.64662204     -1.34135438
H      -7.78706571      1.45585107     -2.41848843
H      -6.50961891      2.81343037     -3.94967505
H      -4.74549935      4.26555780     -3.07211598
H      -3.51692124      3.85296013     -1.07276400
H      -2.88741110      2.77108429     -3.21328622
H      -4.38712739      0.35468261     -2.08619066
H      -3.65549036     -0.76897049     -4.14273119
H      -2.81418974      0.69208445     -4.67345138
H      -2.18866276     -0.92350153     -2.14761902
H      -1.17527915     -0.84458338     -3.60665920
H      -0.84733555      1.58177487     -3.27585460
H      -0.26362692     -0.19085907     -0.86299807
H       0.24600001      1.49300308     -0.96136083
H       3.10616720     -0.75729984     -2.34482149
H       1.74100563     -1.69184581     -1.71333926
H       1.76294697     -0.40723031      0.38441588
H       3.67086510     -2.30048929     -0.23673820
H       4.77943777     -1.48583306      2.07332711
H       3.28050231     -0.56606284      2.18879446
H       2.75793123     -2.58723299      3.28824881
H       5.63670595     -5.01449746      2.37835388
H       5.68706398     -3.24067425      2.80179398
H       5.12052656      0.93919315     -1.40710277
H       2.97248287      1.68890420     -0.97633375
H       1.98371959      2.85972641      2.15815306
H       1.85293737      3.11063325      0.39800163
H       1.04578523      1.71666133      1.16748330
H       6.74116922      0.92421911      0.46769419
H       5.41085003      1.24723435      1.60323166
H       4.86432341      3.33230738      0.36422883
H       7.79903535      3.10745249      1.18034329
H       6.43511470      3.47794515      2.26420264
H       7.67265771      5.44163904      1.34989992
H       6.09158454      5.46556465      0.91606118
H       6.74542857      3.91361269     -1.08518689
