72
carrier @complex
B       0.63479218     -2.07538373     -0.50861761
N       1.27207758     -2.84506636      0.54850297
B      -0.12939671     -3.13579010      0.81116654
N      -0.69137252     -2.67451376     -0.45131154
N      -4.61205994     -1.03084963      2.07538402
B      -3.97483316     -1.52020190      3.29037664
N      -4.39445478     -0.46424209      4.20074657
B      -4.68431682      0.15585319      2.91603720
B      -1.73493096     -1.71812388     -0.28809006
N      -2.64799199     -1.87734214      0.83394894
B      -3.70827478     -0.89139380      0.98215667
N      -3.61519671      0.40393762      0.32418698
B      -2.68610583      0.52702467     -0.78936508
N      -1.60809253     -0.43522039     -0.96440291
N      -1.46121157      3.61032590     -0.88834683
B      -1.21988981      2.30499463     -1.48385212
N      -2.58073278      1.78749132     -1.44613683
B      -2.69453825      2.92164349     -0.53914133
B      -1.85708180     -1.82206136      4.45030484
N      -2.72372366     -2.17630735      3.33508453
B      -2.10692711     -2.46304123      2.05334377
N      -0.75985913     -3.00139635      2.06890996
B       0.11215510     -2.65100620      3.18248633
N      -0.51673953     -2.36696382      4.45613025
N       1.75567492     -1.57592063      5.30841336
B       1.42796662     -0.35101177      6.13359747
N       0.01193553     -0.82924460      6.42574091
B       0.34882382     -1.85486829      5.46111481
N      -3.24130829      2.85840164      0.76240203
B      -3.82187677      1.58628771      1.14961378
N      -4.25831304      1.44617048      2.52627661
B      -3.57009749      2.22396804      3.54574928
N      -2.99489160      3.49096157      3.14798721
B      -2.55202244      3.64227430      1.77821030
B       1.95625399     -0.09576771     -0.00459366
N       0.88932174     -0.71058152     -0.77893826
B      -0.26312713      0.09664617     -1.13338309
N      -0.05798728      1.52622963     -1.27587638
B       1.00192948      2.15624029     -0.50438905
N       2.14727268      1.33506208     -0.15834319
N      -3.15324795      1.59354137      4.78617779
B      -3.29841626      0.15174973      4.87998271
N      -2.18395544     -0.68243522      5.29002528
B      -1.07124984     -0.03537573      5.97717694
N      -0.90439064      1.40831225      5.94177347
B      -2.02691567      2.20792820      5.48217747
B      -0.49367387      4.17233957      5.13387043
N      -0.97010488      4.87484714      3.87829348
B      -2.18244169      4.13167980      4.12169855
N      -1.87725784      3.61677653      5.43927430
N       0.74810465      3.39901588      0.20412595
B      -0.62507820      3.87856998      0.23870770
N      -1.25664242      4.23311418      1.49651301
B      -0.38595236      4.50302104      2.64138717
N       0.99715351      4.05366385      2.63532799
B       1.58758590      3.69134934      1.36161979
B       2.10761504     -1.38630585      3.95077263
N       1.47877577     -2.23058266      2.93395385
B       1.87643731     -2.02853709      1.55297492
N       2.52530935     -0.79453638      1.13447432
B       3.14389799      0.02039970      2.17505582
N       2.77751323     -0.15236229      3.56564745
N       0.59055545      3.20149386      4.97893062
B       0.42605583      1.88416788      5.54496602
N       1.51926221      0.95082878      5.44543682
B       2.37764010      1.04293189      4.29952152
N       2.52374685      2.35369294      3.68701771
B       1.42655566      3.30093508      3.81074535
N       3.78250926      1.23588104      1.78520882
B       3.09638168      1.93110659      0.70862475
N       2.93815541      3.23126844      1.34102775
B       3.26907949      2.40219338      2.49349837
