140
Drug@B36N36 complex
C      7.935371      1.842178      2.784317
O      6.608177      1.681233      2.303398
C      6.417840      1.309674      1.000720
C      7.476640      1.064472      0.113836
C      7.230848      0.685703     -1.205455
C      5.922813      0.547171     -1.652861
C      4.854500      0.788201     -0.778727
C      3.482607      0.629512     -1.291936
O      3.288551      0.299076     -2.459317
C      2.327559      0.865141     -0.408941
C      1.015003      0.711563     -0.893332
O      0.767046      0.343398     -2.194470
C     -0.102432      0.930994     -0.067261
C      0.107008      1.301039      1.275107
C      1.425009      1.463929      1.743279
O      1.564553      1.855339      3.052830
C      2.537800      1.243379      0.911480
C      3.915088      1.414624      1.430039
O      4.033302      1.762587      2.601010
C      5.087547      1.169272      0.545901
C     -1.048697      1.580726      2.221079
C     -2.439768      1.197102      1.693698
O     -2.694139     -0.194840      1.956217
C     -3.492551      2.032985      2.449809
O     -3.848826      3.146490      2.050780
C     -4.114641      1.423004      3.707189
O     -3.249493      0.613880      4.480747
C     -2.551555      1.488120      0.189984
C     -1.499534      0.719046     -0.610632
O     -1.774798     -0.685353     -0.484313
C     -2.209189     -1.269909     -1.717725
C     -2.203266     -2.790804     -1.514302
C     -3.599973     -3.273046     -1.155455
N     -3.604705     -4.722925     -0.904827
C     -4.601615     -2.915794     -2.278445
O     -5.919269     -2.896172     -1.698120
C     -4.289112     -1.545046     -2.915265
C     -3.646180     -1.648192     -4.297603
O     -3.500540     -0.746585     -2.028751
H      8.487391      0.897676      2.741458
H      7.876068      2.145027      3.834151
H      8.459425      2.633815      2.238988
H      8.513964      1.159747      0.421489
H      8.061423      0.498632     -1.882937
H      5.740341      0.250643     -2.684785
H      1.628730      0.228832     -2.658524
H      2.525694      1.929513      3.258984
H     -1.022818      2.655844      2.444625
H     -0.864637      1.039674      3.158059
H     -2.335276     -0.697896      1.192384
H     -4.460433      2.240672      4.346925
H     -4.982760      0.827128      3.408516
H     -2.985267     -0.125288      3.893141
H     -2.435055      2.563206     -0.000173
H     -3.551797      1.199873     -0.157037
H     -1.554637      1.059235     -1.652951
H     -1.499442     -1.010250     -2.511433
H     -1.880436     -3.281171     -2.441447
H     -1.475365     -3.075354     -0.744119
H     -3.917887     -2.791151     -0.221076
H     -4.573928     -5.017442     -0.759156
H     -3.115094     -4.920841     -0.032682
H     -4.626758     -3.689325     -3.055000
H     -5.948503     -2.145137     -1.077848
H     -5.228810     -0.994737     -3.046465
H     -2.717321     -2.224683     -4.285147
H     -4.328729     -2.126542     -5.007215
H     -3.395067     -0.650869     -4.674408
B      2.101200      0.000000      3.345000
B     -2.101200      0.000000      3.345000
B      0.000000      2.101200      3.345000
B      0.000000     -2.101200      3.345000
B      3.345000      2.101200      0.000000
B      3.345000     -2.101200      0.000000
B      3.345000      0.000000      2.101200
B      3.345000      0.000000     -2.101200
B     -3.345000      2.101200      0.000000
B     -3.345000     -2.101200      0.000000
B     -3.345000      0.000000      2.101200
B     -3.345000      0.000000     -2.101200
B      2.101200      0.000000     -3.345000
B     -2.101200      0.000000     -3.345000
B      0.000000      2.101200     -3.345000
B      0.000000     -2.101200     -3.345000
B      0.000000      3.345000      2.101200
B      0.000000      3.345000     -2.101200
B      0.000000     -3.345000      2.101200
B      0.000000     -3.345000     -2.101200
B      2.101200      3.345000      0.000000
B     -2.101200      3.345000      0.000000
B      2.101200     -3.345000      0.000000
B     -2.101200     -3.345000      0.000000
B      1.480000      1.480000      3.580000
B     -1.480000      1.480000      3.580000
B      1.480000     -1.480000      3.580000
B     -1.480000     -1.480000      3.580000
B      3.580000      1.480000      1.480000
B      3.580000     -1.480000      1.480000
B      3.580000      1.480000     -1.480000
B      3.580000     -1.480000     -1.480000
B     -3.580000      1.480000      1.480000
B     -3.580000     -1.480000      1.480000
B     -3.580000      1.480000     -1.480000
B     -3.580000     -1.480000     -1.480000
N      2.101200      0.000000      3.920000
N     -2.101200      0.000000      3.920000
N      0.000000      2.101200      3.920000
N      0.000000     -2.101200      3.920000
N      3.920000      2.101200      0.000000
N      3.920000     -2.101200      0.000000
N      3.920000      0.000000      2.101200
N      3.920000      0.000000     -2.101200
N     -3.920000      2.101200      0.000000
N     -3.920000     -2.101200      0.000000
N     -3.920000      0.000000      2.101200
N     -3.920000      0.000000     -2.101200
N      2.101200      0.000000     -3.920000
N     -2.101200      0.000000     -3.920000
N      0.000000      2.101200     -3.920000
N      0.000000     -2.101200     -3.920000
N      0.000000      3.920000      2.101200
N      0.000000      3.920000     -2.101200
N      0.000000     -3.920000      2.101200
N      0.000000     -3.920000     -2.101200
N      2.101200      3.920000      0.000000
N     -2.101200      3.920000      0.000000
N      2.101200     -3.920000      0.000000
N     -2.101200     -3.920000      0.000000
N      1.480000      1.480000      4.220000
N     -1.480000      1.480000      4.220000
N      1.480000     -1.480000      4.220000
N     -1.480000     -1.480000      4.220000
N      4.220000      1.480000      1.480000
N      4.220000     -1.480000      1.480000
N      4.220000      1.480000     -1.480000
N      4.220000     -1.480000     -1.480000
N     -4.220000      1.480000      1.480000
N     -4.220000     -1.480000      1.480000
N     -4.220000      1.480000     -1.480000
N     -4.220000     -1.480000     -1.480000
