140
Drug@B36N36 clean complex
C      7.935371      1.842178     15.448185
O      6.608177      1.681233     14.967266
C      6.417840      1.309674     13.664588
C      7.476640      1.064472     12.777704
C      7.230848      0.685703     11.458413
C      5.922813      0.547171     11.011007
C      4.854500      0.788201     11.885141
C      3.482607      0.629512     11.371932
O      3.288551      0.299076     10.204551
C      2.327559      0.865141     12.254927
C      1.015003      0.711563     11.770536
O      0.767046      0.343398     10.469398
C     -0.102432      0.930994     12.596607
C      0.107008      1.301039     13.938975
C      1.425009      1.463929     14.407147
O      1.564553      1.855339     15.716698
C      2.537800      1.243379     13.575348
C      3.915088      1.414624     14.093907
O      4.033302      1.762587     15.264878
C      5.087547      1.169272     13.209769
C     -1.048697      1.580726     14.884947
C     -2.439768      1.197102     14.357566
O     -2.694139     -0.194840     14.620085
C     -3.492551      2.032985     15.113677
O     -3.848826      3.146490     14.714648
C     -4.114641      1.423004     16.371057
O     -3.249493      0.613880     17.144615
C     -2.551555      1.488120     12.853852
C     -1.499534      0.719046     12.053236
O     -1.774798     -0.685353     12.179555
C     -2.209189     -1.269909     10.946143
C     -2.203266     -2.790804     11.149566
C     -3.599973     -3.273046     11.508413
N     -3.604705     -4.722925     11.759041
C     -4.601615     -2.915794     10.385423
O     -5.919269     -2.896172     10.965748
C     -4.289112     -1.545046      9.748603
C     -3.646180     -1.648192      8.366265
O     -3.500540     -0.746585     10.635117
H      8.487391      0.897676     15.405326
H      7.876068      2.145027     16.498019
H      8.459425      2.633815     14.902856
H      8.513964      1.159747     13.085357
H      8.061423      0.498632     10.780931
H      5.740341      0.250643      9.979083
H      1.628730      0.228832     10.005344
H      2.525694      1.929513     15.922852
H     -1.022818      2.655844     15.108493
H     -0.864637      1.039674     15.821927
H     -2.335276     -0.697896     13.856252
H     -4.460433      2.240672     17.010793
H     -4.982760      0.827128     16.072384
H     -2.985267     -0.125288     16.557009
H     -2.435055      2.563206     12.663695
H     -3.551797      1.199873     12.506831
H     -1.554637      1.059235     11.010917
H     -1.499442     -1.010250     10.152435
H     -1.880436     -3.281171     10.222421
H     -1.475365     -3.075354     11.919749
H     -3.917887     -2.791151     12.442792
H     -4.573928     -5.017442     11.904712
H     -3.115094     -4.920841     12.631186
H     -4.626758     -3.689325      9.608868
H     -5.948503     -2.145137     11.586020
H     -5.228810     -0.994737      9.617403
H     -2.717321     -2.224683      8.378721
H     -4.328729     -2.126542      7.656653
H     -3.395067     -0.650869      7.989460
B      3.459180     -1.454569      1.628037
N      3.456400      1.129904      0.940040
B      2.539920      2.362499     -1.261047
N      2.293067     -0.641637     -2.730603
B      0.690534     -3.561069      2.702709
N     -2.939724     -2.654773      1.709476
B     -1.038202      4.085096      1.831238
N     -0.619347      0.017651     -3.941904
B     -0.473710      1.445324     -4.091730
N      1.209559     -3.786796     -1.739405
B     -3.844500      2.209440     -0.493722
N     -2.772864      2.763562     -1.211833
B      1.405725      0.818091     -4.889311
N     -0.235789      3.364215      2.833544
B      0.898320     -2.879798     -2.813849
N     -0.491833      3.766578     -1.010119
B     -0.805996      2.182269      3.281874
N      1.656110     -1.274433      3.503622
B     -0.248484      3.469937     -2.379863
N      1.308703      0.068898      3.816981
B     -1.597441     -0.559934     -3.084689
N     -3.832496      1.776842      0.831624
B      0.337602      4.495994      1.183894
N      0.043256     -0.013955      4.456653
B     -2.708837      2.226751      1.601242
N      3.772728     -0.132624     -0.765541
B     -2.253381     -3.639412      1.008482
N      1.055818      3.733398      2.235734
B     -1.825620     -0.777460      3.219840
N     -2.436768     -3.601880     -0.450773
B      3.018658     -1.073670     -1.502768
N     -3.157960     -1.252592     -0.384321
B      2.034656      2.922326      1.561722
N     -0.507447     -2.900148     -2.432795
B     -1.673548     -2.112882     -2.491621
N      0.590135      3.964583     -0.110225
B      1.090314      2.959649     -3.182489
N      0.077350     -4.359230      1.721289
B     -1.784034      3.452384     -0.408220
N     -2.013520      3.418515      1.031553
B      1.465878     -4.212148      1.499138
N     -0.797987      1.064153      4.194581
B     -2.666242     -2.402096     -1.175256
N     -1.074388     -4.484335      0.991235
B     -2.503710      0.491370     -2.109143
N      2.352728     -3.887335      0.453103
B      3.912327     -0.202357      0.725926
N      1.928548      1.957009     -2.465077
B      1.001184      2.254351     -4.622507
N     -4.186016      0.829005     -0.347538
B     -1.338881      2.453658     -3.114870
N     -2.359649      1.932605     -2.305841
B      3.073063     -2.645483      0.601111
N      2.335213     -3.673670     -0.970876
B      2.217863      0.545803      2.808407
N     -2.026423      0.611912      3.601492
B     -1.101749     -4.183787     -0.441007
N     -3.218144      0.041654     -0.958566
B      3.447752      1.258593     -0.514065
N      2.582085      1.632977      1.936454
B      1.472054     -1.555001     -3.515610
N     -2.102601      1.754194      2.760799
B      2.040765      0.711921     -3.211483
N     -2.720915     -1.341699      2.320567
B      0.658648     -0.538875     -4.486937
N     -0.168664     -3.759421     -1.356472
B      0.485560     -2.105634      3.433764
N     -0.587253     -1.205033      3.824488
B     -3.224373     -1.451411      1.000320
N      2.671324     -0.855529      2.621135
B      1.878557      3.339348     -0.106427
N      2.876911     -2.331783     -0.793563
