72
carrier @complex
B       0.12945501     -3.84173507      0.06900909
N       0.53389119     -3.99546238      1.45725637
B      -0.90359088     -3.82335327      1.61175915
N      -1.30136862     -4.05248767      0.22727891
N      -4.78893455     -0.60472781      0.83850611
B      -4.31792965     -0.44611064      2.20901997
N      -4.51020652      0.99270700      2.34112058
B      -4.60266496      0.83653006      0.89741231
B      -2.09364322     -3.00042868     -0.31481113
N      -3.05338801     -2.34182464      0.55595068
B      -3.84946474     -1.26399083     -0.00652010
N      -3.42823530     -0.59086354     -1.22858311
B      -2.46576162     -1.28058633     -2.07501737
N      -1.64321521     -2.35576159     -1.54187357
N      -0.53820417      0.94300316     -3.61253623
B      -0.59793457     -0.49195735     -3.37404084
N      -2.04278785     -0.63927603     -3.27616839
B      -1.90944825      0.80397434     -3.14468012
B      -2.35771538     -0.44088799      3.66856479
N      -3.25471611     -1.17461217      2.77853071
B      -2.69632560     -2.23219676      1.96703942
N      -1.51841437     -2.89720157      2.47983869
B      -0.63382134     -2.14968963      3.37547315
N      -1.22175195     -1.13587983      4.20770977
N       1.14002078     -0.41048058      4.79353442
B       0.93630594      0.99398564      4.59052475
N      -0.41282317      1.11679899      5.09205263
B      -0.35284223     -0.41459471      5.17615533
N      -2.48744818      1.57432828     -2.10892118
B      -3.36970725      0.86257473     -1.19967182
N      -3.86485984      1.59159253     -0.04680461
B      -3.05231560      2.66728282      0.49534284
N      -2.17556441      3.36909808     -0.42686522
B      -1.66871672      2.65228207     -1.58203179
B       1.86493570     -2.19449503     -0.36161300
N       0.70926719     -2.92962809     -0.84635556
B      -0.20642621     -2.26406201     -1.75313655
N       0.33850162     -1.21828135     -2.60284530
B       1.49407056     -0.47387291     -2.13327190
N       2.39780442     -1.15169562     -1.22392211
N      -2.83734723      2.77036819      1.92761792
B      -3.31864669      1.66727598      2.75019158
N      -2.44654436      1.01482018      3.69953753
B      -1.24292600      1.71587134      4.11933476
N      -0.73181798      2.83503797      3.32530617
B      -1.63163585      3.45541742      2.37396186
B       0.24794302      4.37101290      1.18019027
N       0.08221209      4.52536824     -0.25920081
B      -1.29826247      4.31685472      0.15196243
N      -1.14197059      4.53870431      1.58117662
N       1.52367592      0.97704420     -2.24823621
B       0.30547089      1.63468705     -2.69515440
N      -0.26054530      2.74102127     -1.93762671
B       0.61846352      3.43828520     -1.00832653
N       1.84402281      2.81217763     -0.53732702
B       2.37475864      1.70183286     -1.31406975
B       1.56922770     -1.06697605      3.62639429
N       0.80814973     -2.21762722      3.15215777
B       1.27895032     -2.88309205      1.95506551
N       2.21358234     -2.22643499      1.04679244
B       2.97166371     -1.09731662      1.56862628
N       2.52136181     -0.38798043      2.74757913
N       1.16331364      3.48820578      1.79381971
B       0.67864534      2.79088359      2.97902469
N       1.52839890      1.77487423      3.55286633
B       2.42502879      1.05837269      2.67340143
N       2.90974372      1.75832234      1.48888835
B       2.06374303      2.77990741      0.90378659
N       3.90151738     -0.44745009      0.70031255
B       3.43551370     -0.36187049     -0.67412390
N       3.57297313      1.07474056     -0.86737469
B       3.67096470      0.98533445      0.58409383
