      -----------------------------------------------------------      
     |                   =====================                   |     
     |                           x T B                           |     
     |                   =====================                   |     
     |                         S. Grimme                         |     
     |          Mulliken Center for Theoretical Chemistry        |     
     |                    University of Bonn                     |     
      -----------------------------------------------------------      

   * xtb version 6.7.1pre (5071a88) compiled by 'Marcel@Raven' on 2024-07-23

   xtb is free software: you can redistribute it and/or modify it under
   the terms of the GNU Lesser General Public License as published by
   the Free Software Foundation, either version 3 of the License, or
   (at your option) any later version.
   
   xtb is distributed in the hope that it will be useful,
   but WITHOUT ANY WARRANTY; without even the implied warranty of
   MERCHANTABILITY or FITNESS FOR A PARTICULAR PURPOSE.  See the
   GNU Lesser General Public License for more details.
   
   Cite this work as:
   * C. Bannwarth, E. Caldeweyher, S. Ehlert, A. Hansen, P. Pracht,
     J. Seibert, S. Spicher, S. Grimme, WIREs Comput. Mol. Sci., 2020, 11,
     e01493. DOI: 10.1002/wcms.1493
   
   for GFN2-xTB:
   * C. Bannwarth, S. Ehlert and S. Grimme., J. Chem. Theory Comput., 2019,
     15, 1652-1671. DOI: 10.1021/acs.jctc.8b01176
   for GFN1-xTB:
   * S. Grimme, C. Bannwarth, P. Shushkov, J. Chem. Theory Comput., 2017,
     13, 1989-2009. DOI: 10.1021/acs.jctc.7b00118
   for GFN0-xTB:
   * P. Pracht, E. Caldeweyher, S. Ehlert, S. Grimme, ChemRxiv, 2019, preprint.
     DOI: 10.26434/chemrxiv.8326202.v1
   for GFN-FF:
   * S. Spicher and S. Grimme, Angew. Chem. Int. Ed., 2020, 59, 15665-15673.
     DOI: 10.1002/anie.202004239
   
   for ALPB and GBSA implicit solvation:
   * S. Ehlert, M. Stahn, S. Spicher, S. Grimme, J. Chem. Theory Comput.,
     2021, 17, 4250-4261. DOI: 10.1021/acs.jctc.1c00471
   
   for ddCOSMO and CPCM-X implicit solvation:
   * M. Stahn, S. Ehlert, S. Grimme, J. Phys. Chem. A,
     2023, XX, XXXX-XXXX. DOI: 10.1021/acs.jpca.3c04382
   
   for DFT-D4:
   * E. Caldeweyher, C. Bannwarth and S. Grimme, J. Chem. Phys., 2017,
     147, 034112. DOI: 10.1063/1.4993215
   * E. Caldeweyher, S. Ehlert, A. Hansen, H. Neugebauer, S. Spicher,
     C. Bannwarth and S. Grimme, J. Chem. Phys., 2019, 150, 154122.
     DOI: 10.1063/1.5090222
   * E. Caldeweyher, J.-M. Mewes, S. Ehlert and S. Grimme, Phys. Chem. Chem. Phys.
     2020, 22, 8499-8512. DOI: 10.1039/D0CP00502A
   
   for sTDA-xTB:
   * S. Grimme and C. Bannwarth, J. Chem. Phys., 2016, 145, 054103.
     DOI: 10.1063/1.4959605
   
   in the mass-spec context:
   * V. Asgeirsson, C. Bauer and S. Grimme, Chem. Sci., 2017, 8, 4879.
     DOI: 10.1039/c7sc00601b
   * J. Koopman and S. Grimme, ACS Omega 2019, 4, 12, 15120-15133.
     DOI: 10.1021/acsomega.9b02011
   
   for metadynamics refer to:
   * S. Grimme, J. Chem. Theory Comput., 2019, 155, 2847-2862
     DOI: 10.1021/acs.jctc.9b00143
   
   for SPH calculations refer to:
   * S. Spicher and S. Grimme, J. Chem. Theory Comput., 2021, 17, 1701-1714
     DOI: 10.1021/acs.jctc.0c01306
   
   for ONIOM refer to:
   * C. Plett, A. Katbashev, S. Ehlert, S. Grimme, M. Bursch,
     Phys. Chem. Chem. Phys., 2023, 25, 17860-17868. DOI: 10.1039/D3CP02178E
   
   for DIPRO refer to:
   * J. Kohn, N. Gildemeister, S. Grimme, D. Fazzi, A. Hansen,
     J. Chem. Phys., 2023, just accepted.
   
   for PTB refer to:
   * S. Grimme, M. Mueller, A. Hansen, J. Chem. Phys., 2023, 158, 124111.
     DOI: 10.1063/5.0137838
   
   with help from (in alphabetical order)
   P. Atkinson, C. Bannwarth, F. Bohle, G. Brandenburg, E. Caldeweyher
   M. Checinski, S. Dohm, S. Ehlert, S. Ehrlich, I. Gerasimov, C. Hölzer
   A. Katbashev, J. Kohn, J. Koopman, C. Lavigne, S. Lehtola, F. März, M. Müller,
   F. Musil, H. Neugebauer, J. Pisarek, C. Plett, P. Pracht, F. Pultar,
   J. Seibert, P. Shushkov, S. Spicher, M. Stahn, M. Steiner, T. Strunk,
   J. Stückrath, T. Rose, and J. Unsleber
   
 * started run on 2026/08/31 at 18:25:03.616     
   ID    Z sym.   atoms
    1    9 F      1, 3, 14, 25
    2    6 C      2, 4-13, 15-17, 19, 20, 24
    3    7 N      18, 22, 23
    4    8 O      21
    5    1 H      26-36

           -------------------------------------------------
          |                Calculation Setup                |
           -------------------------------------------------

          program call               : "c:\Users\Andre\Proyectos doctorado\kras-pancreatic-gC3N4-ai\tools\xtb\xtb-6.7.1\bin\xtb.exe" "c:\Users\Andre\Proyectos doctorado\nano-qsar-ai-therapeutics\calculations\tnbc\Talazoparib\Talazoparib_drug.xyz" --gfn 2 --sp --chrg 0 --uhf 0 --iterations 500 --norestart
          coordinate file            : c:\Users\Andre\Proyectos doctorado\nano-qsar-ai-therapeutics\calculations\tnbc\Talazoparib\Talazoparib_drug.xyz
          omp threads                :                    16


           -------------------------------------------------
          |                 G F N 2 - x T B                 |
           -------------------------------------------------

        Reference                      10.1021/acs.jctc.8b01176
      * Hamiltonian:
        H0-scaling (s, p, d)           1.850000    2.230000    2.230000
        zeta-weighting                 0.500000
      * Dispersion:
        s8                             2.700000
        a1                             0.520000
        a2                             5.000000
        s9                             5.000000
      * Repulsion:
        kExp                           1.500000    1.000000
        rExp                           1.000000
      * Coulomb:
        alpha                          2.000000
        third order                    shell-resolved
        anisotropic                    true
        a3                             3.000000
        a5                             4.000000
        cn-shift                       1.200000
        cn-exp                         4.000000
        max-rad                        5.000000


          ...................................................
          :                      SETUP                      :
          :.................................................:
          :  # basis functions                 111          :
          :  # atomic orbitals                 111          :
          :  # shells                           61          :
          :  # electrons                       128          :
          :  max. iterations                   500          :
          :  Hamiltonian                  GFN2-xTB          :
          :  restarted?                      false          :
          :  GBSA solvation                  false          :
          :  PC potential                    false          :
          :  electronic temp.          300.0000000     K    :
          :  accuracy                    1.0000000          :
          :  -> integral cutoff          0.2500000E+02      :
          :  -> integral neglect         0.1000000E-07      :
          :  -> SCF convergence          0.1000000E-05 Eh   :
          :  -> wf. convergence          0.1000000E-03 e    :
          :  Broyden damping             0.4000000          :
          :  net charge                          0          :
          :  unpaired electrons                  0          :
          ...................................................

 iter      E             dE          RMSdq      gap      omega  full diag
   1    -74.4521572 -0.744522E+02  0.454E+00    2.69       0.0  T
   2    -74.5707602 -0.118603E+00  0.277E+00    2.71       1.0  T
   3    -74.5625310  0.822925E-02  0.153E+00    2.49       1.0  T
   4    -74.5828362 -0.203052E-01  0.698E-01    2.53       1.0  T
   5    -74.5979709 -0.151347E-01  0.113E-01    2.43       1.0  T
   6    -74.5980877 -0.116754E-03  0.602E-02    2.44       1.0  T
   7    -74.5981542 -0.665316E-04  0.246E-02    2.45       1.0  T
   8    -74.5981615 -0.730588E-05  0.101E-02    2.45       1.6  T
   9    -74.5981628 -0.132467E-05  0.411E-03    2.45       4.1  T
  10    -74.5981630 -0.123186E-06  0.138E-03    2.45      12.1  T
  11    -74.5981630 -0.136728E-07  0.548E-04    2.45      30.4  T
  12    -74.5981630 -0.292880E-08  0.257E-04    2.45      64.8  T

   *** convergence criteria satisfied after 12 iterations ***

         #    Occupation            Energy/Eh            Energy/eV
      -------------------------------------------------------------
         1        2.0000           -0.8758771             -23.8338
       ...           ...                  ...                  ...
        58        2.0000           -0.4461754             -12.1411
        59        2.0000           -0.4452837             -12.1168
        60        2.0000           -0.4429731             -12.0539
        61        2.0000           -0.4276599             -11.6372
        62        2.0000           -0.4214315             -11.4677
        63        2.0000           -0.4186690             -11.3926
        64        2.0000           -0.3864457             -10.5157 (HOMO)
        65                         -0.2964297              -8.0663 (LUMO)
        66                         -0.2767667              -7.5312
        67                         -0.2691394              -7.3237
        68                         -0.2565893              -6.9821
        69                         -0.2376620              -6.4671
       ...                                ...                  ...
       111                          0.6057150              16.4823
      -------------------------------------------------------------
                  HL-Gap            0.0900160 Eh            2.4495 eV
             Fermi-level           -0.3414377 Eh           -9.2910 eV

 SCC (total)                   0 d,  0 h,  0 min,  0.033 sec
 SCC setup                      ...        0 min,  0.000 sec (  0.000%)
 Dispersion                     ...        0 min,  0.000 sec (  0.000%)
 classical contributions        ...        0 min,  0.000 sec (  0.000%)
 integral evaluation            ...        0 min,  0.003 sec (  9.090%)
 iterations                     ...        0 min,  0.025 sec ( 75.758%)
 molecular gradient             ...        0 min,  0.005 sec ( 15.152%)
 printout                       ...        0 min,  0.000 sec (  0.000%)

         :::::::::::::::::::::::::::::::::::::::::::::::::::::
         ::                     SUMMARY                     ::
         :::::::::::::::::::::::::::::::::::::::::::::::::::::
         :: total energy             -73.784407676789 Eh    ::
         :: gradient norm              0.082932478447 Eh/a0 ::
         :: HOMO-LUMO gap              2.449458887958 eV    ::
         ::.................................................::
         :: SCC energy               -74.597726034430 Eh    ::
         :: -> isotropic ES            0.096644020577 Eh    ::
         :: -> anisotropic ES          0.000994981597 Eh    ::
         :: -> anisotropic XC          0.009615351172 Eh    ::
         :: -> dispersion             -0.042696429338 Eh    ::
         :: repulsion energy           0.813318357641 Eh    ::
         :: add. restraining           0.000000000000 Eh    ::
         :: total charge               0.000000000000 e     ::
         :::::::::::::::::::::::::::::::::::::::::::::::::::::

           -------------------------------------------------
          |                Property Printout                |
           -------------------------------------------------

    * Orbital Energies and Occupations

         #    Occupation            Energy/Eh            Energy/eV
      -------------------------------------------------------------
         1        2.0000           -0.8758771             -23.8338
       ...           ...                  ...                  ...
        52        2.0000           -0.4833851             -13.1536
        53        2.0000           -0.4819072             -13.1134
        54        2.0000           -0.4731216             -12.8743
        55        2.0000           -0.4635088             -12.6127
        56        2.0000           -0.4625419             -12.5864
        57        2.0000           -0.4492531             -12.2248
        58        2.0000           -0.4461754             -12.1411
        59        2.0000           -0.4452837             -12.1168
        60        2.0000           -0.4429731             -12.0539
        61        2.0000           -0.4276599             -11.6372
        62        2.0000           -0.4214315             -11.4677
        63        2.0000           -0.4186690             -11.3926
        64        2.0000           -0.3864457             -10.5157 (HOMO)
        65                         -0.2964297              -8.0663 (LUMO)
        66                         -0.2767667              -7.5312
        67                         -0.2691394              -7.3237
        68                         -0.2565893              -6.9821
        69                         -0.2376620              -6.4671
        70                         -0.2371404              -6.4529
        71                         -0.1531584              -4.1677
        72                         -0.1251708              -3.4061
        73                         -0.0569054              -1.5485
        74                         -0.0153252              -0.4170
        75                          0.0014651               0.0399
       ...                                ...                  ...
       111                          0.6057150              16.4823
      -------------------------------------------------------------
                  HL-Gap            0.0900160 Eh            2.4495 eV
             Fermi-level           -0.3414377 Eh           -9.2910 eV

     #   Z          covCN         q      C6AA      α(0)
     1   9 F        0.788    -0.206    11.302     3.971
     2   6 C        3.331     0.478    17.462     6.629
     3   9 F        0.788    -0.207    11.307     3.972
     4   6 C        2.961    -0.022    28.541     8.763
     5   6 C        2.912    -0.021    28.531     8.759
     6   6 C        2.911    -0.029    28.732     8.789
     7   6 C        2.963     0.026    27.417     8.589
     8   6 C        2.913    -0.030    28.754     8.793
     9   6 C        2.912    -0.020    28.501     8.754
    10   6 C        3.860    -0.027    21.008     6.518
    11   6 C        2.967    -0.013    28.346     8.733
    12   6 C        2.913    -0.059    29.455     8.899
    13   6 C        2.773     0.161    24.501     8.107
    14   9 F        0.787    -0.221    11.454     3.998
    15   6 C        2.911    -0.051    29.275     8.872
    16   6 C        2.917    -0.057    29.406     8.892
    17   6 C        2.902     0.062    26.602     8.457
    18   7 N        2.689    -0.194    25.202     7.456
    19   6 C        3.831     0.025    20.127     6.383
    20   6 C        2.813     0.261    22.617     7.792
    21   8 O        0.856    -0.390    21.490     6.215
    22   7 N        2.920    -0.082    22.834     7.097
    23   7 N        1.917    -0.170    25.487     7.485
    24   6 C        3.082     0.084    26.049     8.367
    25   9 F        0.788    -0.208    11.314     3.973
    26   1 H        0.925     0.063     2.165     2.301
    27   1 H        0.925     0.050     2.316     2.380
    28   1 H        0.925     0.062     2.178     2.308
    29   1 H        0.925     0.065     2.140     2.288
    30   1 H        0.923     0.078     1.995     2.209
    31   1 H        0.925     0.057     2.235     2.338
    32   1 H        0.925     0.062     2.178     2.308
    33   1 H        0.925     0.047     2.356     2.400
    34   1 H        0.860     0.171     1.264     1.761
    35   1 H        0.924     0.060     2.197     2.318
    36   1 H        0.860     0.194     1.140     1.672

 Mol. C6AA /au·bohr⁶  :      18147.562956
 Mol. C8AA /au·bohr⁸  :     441670.816762
 Mol. α(0) /au        :        208.547103


Wiberg/Mayer (AO) data.
largest (>0.10) Wiberg bond orders for each atom

 ---------------------------------------------------------------------------
     #   Z sym  total        # sym  WBO       # sym  WBO       # sym  WBO
 ---------------------------------------------------------------------------
     1   9 F    1.070 --     2 C    0.946
     2   6 C    3.824 --     4 C    0.954     1 F    0.946     3 F    0.946
                            25 F    0.940
     3   9 F    1.069 --     2 C    0.946
     4   6 C    3.969 --     5 C    1.410     9 C    1.408     2 C    0.954
                             7 C    0.104
     5   6 C    3.987 --     6 C    1.445     4 C    1.410    26 H    0.967
                             8 C    0.110
     6   6 C    3.990 --     5 C    1.445     7 C    1.411    27 H    0.967
                             9 C    0.108
     7   6 C    3.983 --     6 C    1.411     8 C    1.406    10 C    0.962
                             4 C    0.104
     8   6 C    3.987 --     9 C    1.449     7 C    1.406    28 H    0.966
                             5 C    0.110
     9   6 C    3.987 --     8 C    1.449     4 C    1.408    29 H    0.967
                             6 C    0.108
    10   6 C    3.991 --    24 C    0.999    11 C    0.980     7 C    0.962
                            30 H    0.941
    11   6 C    3.980 --    12 C    1.418    17 C    1.335    10 C    0.980
                            15 C    0.102
    12   6 C    3.987 --    11 C    1.418    13 C    1.396    31 H    0.966
                            16 C    0.106
    13   6 C    3.884 --    12 C    1.396    15 C    1.383    14 F    0.962
    14   9 F    1.090 --    13 C    0.962
    15   6 C    3.987 --    16 C    1.455    13 C    1.383    32 H    0.967
                            11 C    0.102
    16   6 C    3.984 --    15 C    1.455    17 C    1.354    33 H    0.967
                            12 C    0.106
    17   6 C    3.969 --    16 C    1.354    11 C    1.335    18 N    1.122
    18   7 N    3.267 --    17 C    1.122    19 C    0.980    34 H    0.939
    19   6 C    3.984 --    24 C    0.991    18 N    0.980    20 C    0.949
                            35 H    0.918
    20   6 C    3.951 --    21 O    1.734    22 N    1.179    19 C    0.949
    21   8 O    2.053 --    20 C    1.734    22 N    0.177
    22   7 N    3.510 --    20 C    1.179    23 N    1.095    36 H    0.932
                            21 O    0.177
    23   7 N    3.007 --    24 C    1.753    22 N    1.095
    24   6 C    3.973 --    23 N    1.753    10 C    0.999    19 C    0.991
    25   9 F    1.071 --     2 C    0.940
    26   1 H    0.996 --     5 C    0.967
    27   1 H    0.997 --     6 C    0.967
    28   1 H    0.996 --     8 C    0.966
    29   1 H    0.995 --     9 C    0.967
    30   1 H    0.993 --    10 C    0.941
    31   1 H    0.996 --    12 C    0.966
    32   1 H    0.995 --    15 C    0.967
    33   1 H    0.997 --    16 C    0.967
    34   1 H    0.970 --    18 N    0.939
    35   1 H    0.995 --    19 C    0.918
    36   1 H    0.962 --    22 N    0.932
 ---------------------------------------------------------------------------

Topologies differ in total number of bonds
Writing topology from bond orders to xtbtopo.mol

molecular dipole:
                 x           y           z       tot (Debye)
 q only:       -1.092      -0.689       0.217
   full:       -1.084      -0.411      -0.042       2.949
molecular quadrupole (traceless):
                xx          xy          yy          xz          yz          zz
 q only:      -17.446      -9.051      21.933      -0.798      -9.041      -4.487
  q+dip:      -15.869     -11.886      23.748      -0.307     -11.342      -7.879
   full:      -16.821     -10.203      22.199      -1.491     -10.330      -5.379


           -------------------------------------------------
          | TOTAL ENERGY              -73.784407676789 Eh   |
          | GRADIENT NORM               0.082932478447 Eh/α |
          | HOMO-LUMO GAP               2.449458887958 eV   |
           -------------------------------------------------

------------------------------------------------------------------------
 * finished run on 2026/08/31 at 18:25:03.679     
------------------------------------------------------------------------
 total:
 * wall-time:     0 d,  0 h,  0 min,  0.062 sec
 *  cpu-time:     0 d,  0 h,  0 min,  0.547 sec
 * ratio c/w:     8.821 speedup
 SCF:
 * wall-time:     0 d,  0 h,  0 min,  0.033 sec
 *  cpu-time:     0 d,  0 h,  0 min,  0.359 sec
 * ratio c/w:    10.890 speedup

normal termination of xtb
