      -----------------------------------------------------------      
     |                   =====================                   |     
     |                           x T B                           |     
     |                   =====================                   |     
     |                         S. Grimme                         |     
     |          Mulliken Center for Theoretical Chemistry        |     
     |                    University of Bonn                     |     
      -----------------------------------------------------------      

   * xtb version 6.7.1pre (5071a88) compiled by 'Marcel@Raven' on 2024-07-23

   xtb is free software: you can redistribute it and/or modify it under
   the terms of the GNU Lesser General Public License as published by
   the Free Software Foundation, either version 3 of the License, or
   (at your option) any later version.
   
   xtb is distributed in the hope that it will be useful,
   but WITHOUT ANY WARRANTY; without even the implied warranty of
   MERCHANTABILITY or FITNESS FOR A PARTICULAR PURPOSE.  See the
   GNU Lesser General Public License for more details.
   
   Cite this work as:
   * C. Bannwarth, E. Caldeweyher, S. Ehlert, A. Hansen, P. Pracht,
     J. Seibert, S. Spicher, S. Grimme, WIREs Comput. Mol. Sci., 2020, 11,
     e01493. DOI: 10.1002/wcms.1493
   
   for GFN2-xTB:
   * C. Bannwarth, S. Ehlert and S. Grimme., J. Chem. Theory Comput., 2019,
     15, 1652-1671. DOI: 10.1021/acs.jctc.8b01176
   for GFN1-xTB:
   * S. Grimme, C. Bannwarth, P. Shushkov, J. Chem. Theory Comput., 2017,
     13, 1989-2009. DOI: 10.1021/acs.jctc.7b00118
   for GFN0-xTB:
   * P. Pracht, E. Caldeweyher, S. Ehlert, S. Grimme, ChemRxiv, 2019, preprint.
     DOI: 10.26434/chemrxiv.8326202.v1
   for GFN-FF:
   * S. Spicher and S. Grimme, Angew. Chem. Int. Ed., 2020, 59, 15665-15673.
     DOI: 10.1002/anie.202004239
   
   for ALPB and GBSA implicit solvation:
   * S. Ehlert, M. Stahn, S. Spicher, S. Grimme, J. Chem. Theory Comput.,
     2021, 17, 4250-4261. DOI: 10.1021/acs.jctc.1c00471
   
   for ddCOSMO and CPCM-X implicit solvation:
   * M. Stahn, S. Ehlert, S. Grimme, J. Phys. Chem. A,
     2023, XX, XXXX-XXXX. DOI: 10.1021/acs.jpca.3c04382
   
   for DFT-D4:
   * E. Caldeweyher, C. Bannwarth and S. Grimme, J. Chem. Phys., 2017,
     147, 034112. DOI: 10.1063/1.4993215
   * E. Caldeweyher, S. Ehlert, A. Hansen, H. Neugebauer, S. Spicher,
     C. Bannwarth and S. Grimme, J. Chem. Phys., 2019, 150, 154122.
     DOI: 10.1063/1.5090222
   * E. Caldeweyher, J.-M. Mewes, S. Ehlert and S. Grimme, Phys. Chem. Chem. Phys.
     2020, 22, 8499-8512. DOI: 10.1039/D0CP00502A
   
   for sTDA-xTB:
   * S. Grimme and C. Bannwarth, J. Chem. Phys., 2016, 145, 054103.
     DOI: 10.1063/1.4959605
   
   in the mass-spec context:
   * V. Asgeirsson, C. Bauer and S. Grimme, Chem. Sci., 2017, 8, 4879.
     DOI: 10.1039/c7sc00601b
   * J. Koopman and S. Grimme, ACS Omega 2019, 4, 12, 15120-15133.
     DOI: 10.1021/acsomega.9b02011
   
   for metadynamics refer to:
   * S. Grimme, J. Chem. Theory Comput., 2019, 155, 2847-2862
     DOI: 10.1021/acs.jctc.9b00143
   
   for SPH calculations refer to:
   * S. Spicher and S. Grimme, J. Chem. Theory Comput., 2021, 17, 1701-1714
     DOI: 10.1021/acs.jctc.0c01306
   
   for ONIOM refer to:
   * C. Plett, A. Katbashev, S. Ehlert, S. Grimme, M. Bursch,
     Phys. Chem. Chem. Phys., 2023, 25, 17860-17868. DOI: 10.1039/D3CP02178E
   
   for DIPRO refer to:
   * J. Kohn, N. Gildemeister, S. Grimme, D. Fazzi, A. Hansen,
     J. Chem. Phys., 2023, just accepted.
   
   for PTB refer to:
   * S. Grimme, M. Mueller, A. Hansen, J. Chem. Phys., 2023, 158, 124111.
     DOI: 10.1063/5.0137838
   
   with help from (in alphabetical order)
   P. Atkinson, C. Bannwarth, F. Bohle, G. Brandenburg, E. Caldeweyher
   M. Checinski, S. Dohm, S. Ehlert, S. Ehrlich, I. Gerasimov, C. Hölzer
   A. Katbashev, J. Kohn, J. Koopman, C. Lavigne, S. Lehtola, F. März, M. Müller,
   F. Musil, H. Neugebauer, J. Pisarek, C. Plett, P. Pracht, F. Pultar,
   J. Seibert, P. Shushkov, S. Spicher, M. Stahn, M. Steiner, T. Strunk,
   J. Stückrath, T. Rose, and J. Unsleber
   
 * started run on 2026/08/31 at 21:07:50.894     
   ID    Z sym.   atoms
    1    9 F      1, 3, 14, 25
    2    6 C      2, 4-13, 15-17, 19, 20, 24
    3    7 N      18, 22, 23, 38, 40, 42, 44, 46, 48, 50, 52, 54, 56, 58, 60,
                  62, 64, 66, 68, 70, 72, 74, 76, 78, 80, 82, 84, 86, 88, 90,
                  92, 94, 96, 98, 100, 102, 104, 106, 108
    4    8 O      21
    5    1 H      26-36
    6    5 B      37, 39, 41, 43, 45, 47, 49, 51, 53, 55, 57, 59, 61, 63, 65,
                  67, 69, 71, 73, 75, 77, 79, 81, 83, 85, 87, 89, 91, 93, 95,
                  97, 99, 101, 103, 105, 107

           -------------------------------------------------
          |                Calculation Setup                |
           -------------------------------------------------

          program call               : "c:\Users\Andre\Proyectos doctorado\kras-pancreatic-gC3N4-ai\tools\xtb\xtb-6.7.1\bin\xtb.exe" "c:\Users\Andre\Proyectos doctorado\nano-qsar-ai-therapeutics\calculations\tnbc\Talazoparib\Talazoparib_B36N36_relaxed_complex.xyz" --gfn 2 --opt normal --chrg 0 --uhf 0 --iterations 50 --norestart
          coordinate file            : c:\Users\Andre\Proyectos doctorado\nano-qsar-ai-therapeutics\calculations\tnbc\Talazoparib\Talazoparib_B36N36_relaxed_complex.xyz
          omp threads                :                    16


molecular fragmentation (1/2 indicates fragments):
111111111111111111111111111111111111222222222222222222222222222222222222
222222222222222222222222222222222222
# atoms in fragment 1/2:    36    72
 fragment masses (1/2) :      349.28      893.44
CMA distance (Bohr)    :  16.120
constraining FC (au)   :  0.0500

           -------------------------------------------------
          |                 G F N 2 - x T B                 |
           -------------------------------------------------

        Reference                      10.1021/acs.jctc.8b01176
      * Hamiltonian:
        H0-scaling (s, p, d)           1.850000    2.230000    2.230000
        zeta-weighting                 0.500000
      * Dispersion:
        s8                             2.700000
        a1                             0.520000
        a2                             5.000000
        s9                             5.000000
      * Repulsion:
        kExp                           1.500000    1.000000
        rExp                           1.000000
      * Coulomb:
        alpha                          2.000000
        third order                    shell-resolved
        anisotropic                    true
        a3                             3.000000
        a5                             4.000000
        cn-shift                       1.200000
        cn-exp                         4.000000
        max-rad                        5.000000


          ...................................................
          :                      SETUP                      :
          :.................................................:
          :  # basis functions                 399          :
          :  # atomic orbitals                 399          :
          :  # shells                          205          :
          :  # electrons                       416          :
          :  max. iterations                    50          :
          :  Hamiltonian                  GFN2-xTB          :
          :  restarted?                      false          :
          :  GBSA solvation                  false          :
          :  PC potential                    false          :
          :  electronic temp.          300.0000000     K    :
          :  accuracy                    1.0000000          :
          :  -> integral cutoff          0.2500000E+02      :
          :  -> integral neglect         0.1000000E-07      :
          :  -> SCF convergence          0.1000000E-05 Eh   :
          :  -> wf. convergence          0.1000000E-03 e    :
          :  Broyden damping             0.4000000          :
          :  net charge                          0          :
          :  unpaired electrons                  0          :
          ...................................................

 iter      E             dE          RMSdq      gap      omega  full diag
   1   -225.2405439 -0.225241E+03  0.117E+01    0.61       0.0  T
   2   -225.6900840 -0.449540E+00  0.709E+00    0.42       1.0  T
   3   -222.6372499  0.305283E+01  0.467E+00    0.11       1.0  T
   4   -224.6117326 -0.197448E+01  0.260E+00    0.24       1.0  T
   5   -225.1160551 -0.504322E+00  0.194E+00    0.23       1.0  T
   6   -226.1361830 -0.102013E+01  0.967E-01    0.75       1.0  T
   7   -226.1911475 -0.549645E-01  0.639E-01    0.80       1.0  T
   8   -226.1919809 -0.833465E-03  0.507E-01    0.82       1.0  T
   9   -226.1971915 -0.521053E-02  0.287E-01    0.80       1.0  T
  10   -226.1972129 -0.214360E-04  0.116E-01    0.67       1.0  T
  11   -226.1992228 -0.200986E-02  0.638E-02    0.76       1.0  T
  12   -226.1996603 -0.437519E-03  0.412E-02    0.76       1.0  T
  13   -226.1997325 -0.722208E-04  0.323E-02    0.77       1.0  T
  14   -226.1997902 -0.576834E-04  0.216E-02    0.78       1.0  T
  15   -226.1998196 -0.294384E-04  0.923E-03    0.79       1.0  T
  16   -226.1998251 -0.546600E-05  0.493E-03    0.79       2.0  T
  17   -226.1998263 -0.121501E-05  0.225E-03    0.79       4.3  T
  18   -226.1998265 -0.167197E-06  0.807E-04    0.79      11.9  T
  19   -226.1998265 -0.153422E-07  0.403E-04    0.79      23.9  T

   *** convergence criteria satisfied after 19 iterations ***

         #    Occupation            Energy/Eh            Energy/eV
      -------------------------------------------------------------
         1        2.0000           -0.8664153             -23.5764
       ...           ...                  ...                  ...
       202        2.0000           -0.3291223              -8.9559
       203        2.0000           -0.3269195              -8.8959
       204        2.0000           -0.3256144              -8.8604
       205        2.0000           -0.3229402              -8.7877
       206        2.0000           -0.3174182              -8.6374
       207        2.0000           -0.3157918              -8.5931
       208        2.0000           -0.3143753              -8.5546 (HOMO)
       209        0.0000           -0.2852280              -7.7614 (LUMO)
       210                         -0.2785059              -7.5785
       211                         -0.2775402              -7.5523
       212                         -0.2660442              -7.2394
       213                         -0.2620091              -7.1296
       ...                                ...                  ...
       399                          0.9818544              26.7176
      -------------------------------------------------------------
                  HL-Gap            0.0291473 Eh            0.7931 eV
             Fermi-level           -0.2996902 Eh           -8.1550 eV

 SCC (total)                   0 d,  0 h,  0 min,  0.663 sec
 SCC setup                      ...        0 min,  0.000 sec (  0.000%)
 Dispersion                     ...        0 min,  0.004 sec (  0.603%)
 classical contributions        ...        0 min,  0.001 sec (  0.151%)
 integral evaluation            ...        0 min,  0.012 sec (  1.810%)
 iterations                     ...        0 min,  0.611 sec ( 92.157%)
 molecular gradient             ...        0 min,  0.032 sec (  4.827%)
 printout                       ...        0 min,  0.003 sec (  0.452%)

         :::::::::::::::::::::::::::::::::::::::::::::::::::::
         ::                     SUMMARY                     ::
         :::::::::::::::::::::::::::::::::::::::::::::::::::::
         :: total energy            -224.003696624022 Eh    ::
         :: gradient norm              0.080862852924 Eh/a0 ::
         :: HOMO-LUMO gap              0.793137325357 eV    ::
         ::.................................................::
         :: SCC energy              -226.183032909630 Eh    ::
         :: -> isotropic ES            0.728050808355 Eh    ::
         :: -> anisotropic ES         -0.035055525982 Eh    ::
         :: -> anisotropic XC          0.072534454984 Eh    ::
         :: -> dispersion             -0.197644765719 Eh    ::
         :: repulsion energy           2.179336285608 Eh    ::
         :: add. restraining           0.000000000000 Eh    ::
         :: total charge               0.000000000523 e     ::
         :::::::::::::::::::::::::::::::::::::::::::::::::::::

      ----------------------------------------------------------- 
     |                   =====================                   |
     |                        A N C O P T                        |
     |                   =====================                   |
     |               Approximate Normal Coordinate               |
     |                Rational Function Optimizer                |
      ----------------------------------------------------------- 
      ----------------------------------------------------------- 
     |                   =====================                   |
     |                        A N C O P T                        |
     |                   =====================                   |
     |               Approximate Normal Coordinate               |
     |                Rational Function Optimizer                |
      ----------------------------------------------------------- 

          ...................................................
          :                      SETUP                      :
          :.................................................:
          :   optimization level            normal          :
          :   max. optcycles                   324          :
          :   ANC micro-cycles                  20          :
          :   degrees of freedom               318          :
          :.................................................:
          :   RF solver                   davidson          :
          :   write xtbopt.log                true          :
          :   linear?                        false          :
          :   energy convergence         0.5000000E-05 Eh   :
          :   grad. convergence          0.1000000E-02 Eh/α :
          :   maxmium RF displ.          1.0000000          :
          :   Hlow (freq-cutoff)         0.1000000E-01      :
          :   Hmax (freq-cutoff)         5.0000000          :
          :   S6 in model hess.         20.0000000          :
          ...................................................

generating ANC from exact Hessian ...
Using Lindh-Hessian (1995)
 Shifting diagonal of input Hessian by   1.008217295042886E-002
 Lowest  eigenvalues of input Hessian
    0.010000    0.000000    0.000000    0.000000    0.000000    0.000000
    0.000000    0.010118    0.010151    0.010235    0.010306    0.010628
    0.011068    0.011237    0.011709    0.012763    0.014086    0.015825
 Highest eigenvalues
    2.083503    2.087640    2.154601    2.260840    2.315359    2.343141
 

........................................................................
.............................. CYCLE    1 ..............................
........................................................................

 iter      E             dE          RMSdq      gap      omega  full diag
   1   -226.1998265 -0.226200E+03  0.238E-04    0.79       0.0  T
   2   -226.1998265  0.428059E-09  0.285E-04    0.79      33.7  T
   3   -226.1998265 -0.996363E-08  0.124E-04    0.79      77.4  T
     SCC iter.                  ...        0 min,  0.104 sec
     gradient                   ...        0 min,  0.027 sec
 * total energy  :  -224.0036966 Eh     change       -0.2549285E-07 Eh
   gradient norm :     0.0808637 Eh/α   predicted     0.0000000E+00 (-100.00%)
   displ. norm   :     0.2992773 α      lambda       -0.1308621E-01
   maximum displ.:     0.0932177 α      in ANC's #39, #115, #43, ...

........................................................................
.............................. CYCLE    2 ..............................
........................................................................

 iter      E             dE          RMSdq      gap      omega  full diag
   1   -226.2551890 -0.226255E+03  0.126E-01    0.80       0.0  T
   2   -226.2552949 -0.105814E-03  0.755E-02    0.79       1.0  T
   3   -226.2552292  0.656777E-04  0.423E-02    0.79       1.0  T
   4   -226.2553412 -0.111973E-03  0.962E-03    0.79       1.0  T
   5   -226.2553497 -0.854886E-05  0.429E-03    0.79       2.2  T
   6   -226.2553501 -0.379930E-06  0.348E-03    0.79       2.8  T
   7   -226.2553518 -0.173221E-05  0.144E-03    0.79       6.7  T
   8   -226.2553520 -0.216828E-06  0.553E-04    0.79      17.4  T
   9   -226.2553520 -0.162167E-07  0.359E-04    0.79      26.8  T
     SCC iter.                  ...        0 min,  0.259 sec
     gradient                   ...        0 min,  0.027 sec
 * total energy  :  -224.0124990 Eh     change       -0.8802377E-02 Eh
   gradient norm :     0.0306268 Eh/α   predicted    -0.7131039E-02 ( -18.99%)
   displ. norm   :     0.2751646 α      lambda       -0.3579119E-02
   maximum displ.:     0.1076901 α      in ANC's #14, #26, #7, ...

........................................................................
.............................. CYCLE    3 ..............................
........................................................................

 iter      E             dE          RMSdq      gap      omega  full diag
   1   -226.2801509 -0.226280E+03  0.810E-02    0.80       0.0  T
   2   -226.2802285 -0.776040E-04  0.490E-02    0.79       1.0  T
   3   -226.2802223  0.614587E-05  0.280E-02    0.79       1.0  T
   4   -226.2802593 -0.369563E-04  0.653E-03    0.79       1.5  T
   5   -226.2802628 -0.353890E-05  0.311E-03    0.79       3.1  T
   6   -226.2802635 -0.626205E-06  0.207E-03    0.79       4.7  T
   7   -226.2802639 -0.424009E-06  0.120E-03    0.79       8.0  T
   8   -226.2802641 -0.166247E-06  0.472E-04    0.79      20.4  T
   9   -226.2802641 -0.251545E-07  0.271E-04    0.79      35.5  T
     SCC iter.                  ...        0 min,  0.337 sec
     gradient                   ...        0 min,  0.029 sec
 * total energy  :  -224.0147825 Eh     change       -0.2283436E-02 Eh
   gradient norm :     0.0127612 Eh/α   predicted    -0.1926153E-02 ( -15.65%)
   displ. norm   :     0.2325791 α      lambda       -0.1084776E-02
   maximum displ.:     0.1036976 α      in ANC's #14, #7, #25, ...

........................................................................
.............................. CYCLE    4 ..............................
........................................................................

 iter      E             dE          RMSdq      gap      omega  full diag
   1   -226.2836972 -0.226284E+03  0.549E-02    0.80       0.0  T
   2   -226.2837230 -0.258315E-04  0.322E-02    0.79       1.0  T
   3   -226.2837130  0.100839E-04  0.180E-02    0.79       1.0  T
   4   -226.2837343 -0.213047E-04  0.372E-03    0.79       2.6  T
   5   -226.2837351 -0.868500E-06  0.229E-03    0.79       4.2  T
   6   -226.2837357 -0.568897E-06  0.127E-03    0.79       7.6  T
   7   -226.2837359 -0.169947E-06  0.641E-04    0.79      15.0  T
   8   -226.2837359 -0.400209E-07  0.281E-04    0.79      34.2  T
     SCC iter.                  ...        0 min,  0.221 sec
     gradient                   ...        0 min,  0.034 sec
 * total energy  :  -224.0155920 Eh     change       -0.8095062E-03 Eh
   gradient norm :     0.0103709 Eh/α   predicted    -0.5717293E-03 ( -29.37%)
   displ. norm   :     0.3048570 α      lambda       -0.9082776E-03
   maximum displ.:     0.1544123 α      in ANC's #7, #14, #25, ...

........................................................................
.............................. CYCLE    5 ..............................
........................................................................

 iter      E             dE          RMSdq      gap      omega  full diag
   1   -226.2821321 -0.226282E+03  0.646E-02    0.80       0.0  T
   2   -226.2821574 -0.253404E-04  0.374E-02    0.79       1.0  T
   3   -226.2821354  0.220258E-04  0.199E-02    0.80       1.0  T
   4   -226.2821677 -0.322666E-04  0.449E-03    0.79       2.1  T
   5   -226.2821689 -0.129487E-05  0.306E-03    0.79       3.1  T
   6   -226.2821700 -0.109789E-05  0.161E-03    0.79       6.0  T
   7   -226.2821702 -0.161594E-06  0.980E-04    0.79       9.8  T
   8   -226.2821703 -0.127348E-06  0.438E-04    0.79      22.0  T
     SCC iter.                  ...        0 min,  0.281 sec
     gradient                   ...        0 min,  0.031 sec
 * total energy  :  -224.0162281 Eh     change       -0.6361225E-03 Eh
   gradient norm :     0.0082017 Eh/α   predicted    -0.4963487E-03 ( -21.97%)
   displ. norm   :     0.2678514 α      lambda       -0.4601408E-03
   maximum displ.:     0.1569690 α      in ANC's #7, #4, #12, ...

........................................................................
.............................. CYCLE    6 ..............................
........................................................................

 iter      E             dE          RMSdq      gap      omega  full diag
   1   -226.2804612 -0.226280E+03  0.505E-02    0.80       0.0  T
   2   -226.2804748 -0.135428E-04  0.294E-02    0.79       1.0  T
   3   -226.2804579  0.168513E-04  0.145E-02    0.80       1.0  T
   4   -226.2804778 -0.198801E-04  0.428E-03    0.79       2.2  T
   5   -226.2804800 -0.218924E-05  0.238E-03    0.80       4.0  T
   6   -226.2804808 -0.796530E-06  0.109E-03    0.80       8.8  T
   7   -226.2804808 -0.643075E-07  0.644E-04    0.80      15.0  T
   8   -226.2804809 -0.529930E-07  0.255E-04    0.80      37.7  T
     SCC iter.                  ...        0 min,  0.246 sec
     gradient                   ...        0 min,  0.028 sec
 * total energy  :  -224.0165538 Eh     change       -0.3257521E-03 Eh
   gradient norm :     0.0062117 Eh/α   predicted    -0.2467206E-03 ( -24.26%)
   displ. norm   :     0.2351742 α      lambda       -0.2590578E-03
   maximum displ.:     0.1424797 α      in ANC's #7, #4, #5, ...

........................................................................
.............................. CYCLE    7 ..............................
........................................................................

 iter      E             dE          RMSdq      gap      omega  full diag
   1   -226.2802037 -0.226280E+03  0.404E-02    0.80       0.0  T
   2   -226.2802105 -0.682594E-05  0.239E-02    0.80       1.0  T
   3   -226.2801955  0.150888E-04  0.118E-02    0.80       1.0  T
   4   -226.2802107 -0.152548E-04  0.416E-03    0.80       2.3  T
   5   -226.2802133 -0.262524E-05  0.211E-03    0.80       4.6  T
   6   -226.2802140 -0.695250E-06  0.937E-04    0.80      10.3  T
   7   -226.2802140 -0.207112E-07  0.707E-04    0.80      13.6  T
     SCC iter.                  ...        0 min,  0.206 sec
     gradient                   ...        0 min,  0.030 sec
 * total energy  :  -224.0167421 Eh     change       -0.1882220E-03 Eh
   gradient norm :     0.0044791 Eh/α   predicted    -0.1367007E-03 ( -27.37%)
   displ. norm   :     0.2247930 α      lambda       -0.1759820E-03
   maximum displ.:     0.1280867 α      in ANC's #7, #4, #5, ...

........................................................................
.............................. CYCLE    8 ..............................
........................................................................

 iter      E             dE          RMSdq      gap      omega  full diag
   1   -226.2809405 -0.226281E+03  0.349E-02    0.80       0.0  T
   2   -226.2809438 -0.334325E-05  0.207E-02    0.80       1.0  T
   3   -226.2809292  0.146494E-04  0.105E-02    0.80       1.0  T
   4   -226.2809433 -0.141698E-04  0.370E-03    0.80       2.6  T
   5   -226.2809459 -0.251319E-05  0.142E-03    0.80       6.8  T
   6   -226.2809462 -0.293940E-06  0.536E-04    0.80      18.0  T
   7   -226.2809462 -0.539490E-08  0.317E-04    0.80      30.4  T
     SCC iter.                  ...        0 min,  0.205 sec
     gradient                   ...        0 min,  0.028 sec
 * total energy  :  -224.0168762 Eh     change       -0.1341828E-03 Eh
   gradient norm :     0.0037146 Eh/α   predicted    -0.9243773E-04 ( -31.11%)
   displ. norm   :     0.2603648 α      lambda       -0.1619674E-03
   maximum displ.:     0.1350586 α      in ANC's #7, #4, #5, ...

........................................................................
.............................. CYCLE    9 ..............................
........................................................................

 iter      E             dE          RMSdq      gap      omega  full diag
   1   -226.2819168 -0.226282E+03  0.368E-02    0.80       0.0  T
   2   -226.2819191 -0.235426E-05  0.217E-02    0.80       1.0  T
   3   -226.2819058  0.133546E-04  0.966E-03    0.80       1.0  T
   4   -226.2819191 -0.133548E-04  0.298E-03    0.80       3.2  T
   5   -226.2819207 -0.154197E-05  0.124E-03    0.80       7.7  T
   6   -226.2819209 -0.217039E-06  0.512E-04    0.80      18.8  T
   7   -226.2819209 -0.288404E-08  0.343E-04    0.80      28.0  T
     SCC iter.                  ...        0 min,  0.228 sec
     gradient                   ...        0 min,  0.026 sec
 * total energy  :  -224.0170063 Eh     change       -0.1300983E-03 Eh
   gradient norm :     0.0043357 Eh/α   predicted    -0.8647719E-04 ( -33.53%)
   displ. norm   :     0.3488423 α      lambda       -0.1969172E-03
   maximum displ.:     0.1669186 α      in ANC's #7, #4, #5, ...

........................................................................
.............................. CYCLE   10 ..............................
........................................................................

 iter      E             dE          RMSdq      gap      omega  full diag
   1   -226.2827192 -0.226283E+03  0.460E-02    0.80       0.0  T
   2   -226.2827216 -0.235449E-05  0.271E-02    0.80       1.0  T
   3   -226.2827056  0.160094E-04  0.990E-03    0.80       1.0  T
   4   -226.2827206 -0.150347E-04  0.355E-03    0.80       2.7  T
   5   -226.2827230 -0.237943E-05  0.143E-03    0.80       6.7  T
   6   -226.2827232 -0.260224E-06  0.739E-04    0.80      13.0  T
   7   -226.2827232 -0.214276E-07  0.544E-04    0.80      17.7  T
     SCC iter.                  ...        0 min,  0.207 sec
     gradient                   ...        0 min,  0.032 sec
 * total energy  :  -224.0171730 Eh     change       -0.1666322E-03 Eh
   gradient norm :     0.0056189 Eh/α   predicted    -0.1104660E-03 ( -33.71%)
   displ. norm   :     0.4900348 α      lambda       -0.2775663E-03
   maximum displ.:     0.2200509 α      in ANC's #7, #4, #5, ...

........................................................................
.............................. CYCLE   11 ..............................
........................................................................

 iter      E             dE          RMSdq      gap      omega  full diag
   1   -226.2828660 -0.226283E+03  0.630E-02    0.80       0.0  T
   2   -226.2828696 -0.357941E-05  0.371E-02    0.80       1.0  T
   3   -226.2828523  0.173466E-04  0.106E-02    0.80       1.0  T
   4   -226.2828691 -0.168260E-04  0.378E-03    0.80       2.5  T
   5   -226.2828715 -0.239916E-05  0.155E-03    0.80       6.2  T
   6   -226.2828717 -0.251000E-06  0.785E-04    0.80      12.3  T
   7   -226.2828718 -0.683107E-08  0.519E-04    0.80      18.5  T
     SCC iter.                  ...        0 min,  0.225 sec
     gradient                   ...        0 min,  0.032 sec
 * total energy  :  -224.0174157 Eh     change       -0.2427301E-03 Eh
   gradient norm :     0.0066301 Eh/α   predicted    -0.1721100E-03 ( -29.09%)
   displ. norm   :     0.6179848 α      lambda       -0.3697610E-03
   maximum displ.:     0.2749154 α      in ANC's #4, #7, #5, ...

........................................................................
.............................. CYCLE   12 ..............................
........................................................................

 iter      E             dE          RMSdq      gap      omega  full diag
   1   -226.2822381 -0.226282E+03  0.793E-02    0.80       0.0  T
   2   -226.2822437 -0.552680E-05  0.466E-02    0.80       1.0  T
   3   -226.2822233  0.204039E-04  0.121E-02    0.80       1.0  T
   4   -226.2822439 -0.206034E-04  0.401E-03    0.80       2.4  T
   5   -226.2822462 -0.228896E-05  0.204E-03    0.80       4.7  T
   6   -226.2822466 -0.402369E-06  0.116E-03    0.80       8.3  T
   7   -226.2822466 -0.714519E-07  0.785E-04    0.80      12.3  T
   8   -226.2822467 -0.967866E-07  0.256E-04    0.80      37.6  T
     SCC iter.                  ...        0 min,  0.226 sec
     gradient                   ...        0 min,  0.029 sec
 * total energy  :  -224.0177393 Eh     change       -0.3235823E-03 Eh
   gradient norm :     0.0066267 Eh/α   predicted    -0.2554889E-03 ( -21.04%)
   displ. norm   :     0.6606064 α      lambda       -0.4102285E-03
   maximum displ.:     0.3026612 α      in ANC's #4, #5, #7, ...

........................................................................
.............................. CYCLE   13 ..............................
........................................................................

 iter      E             dE          RMSdq      gap      omega  full diag
   1   -226.2815686 -0.226282E+03  0.852E-02    0.80       0.0  T
   2   -226.2815761 -0.752688E-05  0.501E-02    0.80       1.0  T
   3   -226.2815586  0.175203E-04  0.121E-02    0.80       1.0  T
   4   -226.2815781 -0.194805E-04  0.349E-03    0.80       2.8  T
   5   -226.2815793 -0.121600E-05  0.172E-03    0.80       5.6  T
   6   -226.2815792  0.694928E-07  0.149E-03    0.80       6.4  T
   7   -226.2815795 -0.272677E-06  0.636E-04    0.80      15.1  T
   8   -226.2815795 -0.650617E-07  0.216E-04    0.80      44.6  T
     SCC iter.                  ...        0 min,  0.267 sec
     gradient                   ...        0 min,  0.028 sec
 * total energy  :  -224.0180828 Eh     change       -0.3435516E-03 Eh
   gradient norm :     0.0060327 Eh/α   predicted    -0.2946299E-03 ( -14.24%)
   displ. norm   :     0.6305222 α      lambda       -0.3532581E-03
   maximum displ.:     0.3016041 α      in ANC's #4, #5, #7, ...

........................................................................
.............................. CYCLE   14 ..............................
........................................................................

 iter      E             dE          RMSdq      gap      omega  full diag
   1   -226.2812729 -0.226281E+03  0.793E-02    0.80       0.0  T
   2   -226.2812799 -0.696894E-05  0.465E-02    0.80       1.0  T
   3   -226.2812704  0.948987E-05  0.922E-03    0.80       1.0  T
   4   -226.2812811 -0.107110E-04  0.310E-03    0.80       3.1  T
   5   -226.2812822 -0.108858E-05  0.145E-03    0.80       6.6  T
   6   -226.2812821  0.656855E-07  0.117E-03    0.80       8.2  T
   7   -226.2812823 -0.168889E-06  0.604E-04    0.80      15.9  T
   8   -226.2812824 -0.606825E-07  0.176E-04    0.80      54.7  T
     SCC iter.                  ...        0 min,  0.228 sec
     gradient                   ...        0 min,  0.026 sec
 * total energy  :  -224.0183706 Eh     change       -0.2877286E-03 Eh
   gradient norm :     0.0064121 Eh/α   predicted    -0.2468507E-03 ( -14.21%)
   displ. norm   :     0.5653013 α      lambda       -0.2967905E-03
   maximum displ.:     0.2860979 α      in ANC's #4, #5, #7, ...

........................................................................
.............................. CYCLE   15 ..............................
........................................................................

 iter      E             dE          RMSdq      gap      omega  full diag
   1   -226.2821745 -0.226282E+03  0.688E-02    0.80       0.0  T
   2   -226.2821793 -0.481085E-05  0.403E-02    0.80       1.0  T
   3   -226.2821731  0.624702E-05  0.758E-03    0.80       1.3  T
   4   -226.2821791 -0.600234E-05  0.333E-03    0.80       2.9  T
   5   -226.2821804 -0.126501E-05  0.203E-03    0.80       4.7  T
   6   -226.2821809 -0.496806E-06  0.100E-03    0.80       9.6  T
   7   -226.2821810 -0.926604E-07  0.431E-04    0.80      22.4  T
   8   -226.2821810 -0.256673E-07  0.135E-04    0.80      71.2  T
     SCC iter.                  ...        0 min,  0.213 sec
     gradient                   ...        0 min,  0.026 sec
 * total energy  :  -224.0186183 Eh     change       -0.2477425E-03 Eh
   gradient norm :     0.0065972 Eh/α   predicted    -0.1958200E-03 ( -20.96%)
   displ. norm   :     0.5445324 α      lambda       -0.3020457E-03
   maximum displ.:     0.2924576 α      in ANC's #4, #5, #2, ...

........................................................................
.............................. CYCLE   16 ..............................
........................................................................

 iter      E             dE          RMSdq      gap      omega  full diag
   1   -226.2842342 -0.226284E+03  0.660E-02    0.80       0.0  T
   2   -226.2842391 -0.493319E-05  0.386E-02    0.80       1.0  T
   3   -226.2842255  0.136353E-04  0.106E-02    0.80       1.0  T
   4   -226.2842365 -0.110834E-04  0.497E-03    0.80       1.9  T
   5   -226.2842404 -0.383807E-05  0.230E-03    0.80       4.2  T
   6   -226.2842411 -0.756501E-06  0.887E-04    0.80      10.8  T
   7   -226.2842412 -0.233779E-07  0.491E-04    0.80      19.6  T
     SCC iter.                  ...        0 min,  0.187 sec
     gradient                   ...        0 min,  0.027 sec
 * total energy  :  -224.0188740 Eh     change       -0.2557029E-03 Eh
   gradient norm :     0.0060158 Eh/α   predicted    -0.1958046E-03 ( -23.42%)
   displ. norm   :     0.5898500 α      lambda       -0.3139760E-03
   maximum displ.:     0.3268238 α      in ANC's #4, #5, #2, ...

........................................................................
.............................. CYCLE   17 ..............................
........................................................................

 iter      E             dE          RMSdq      gap      omega  full diag
   1   -226.2850981 -0.226285E+03  0.726E-02    0.80       0.0  T
   2   -226.2851052 -0.707577E-05  0.424E-02    0.80       1.0  T
   3   -226.2850838  0.213975E-04  0.129E-02    0.80       1.0  T
   4   -226.2851000 -0.162452E-04  0.645E-03    0.80       1.5  T
   5   -226.2851069 -0.687051E-05  0.273E-03    0.80       3.5  T
   6   -226.2851080 -0.112112E-05  0.104E-03    0.80       9.2  T
   7   -226.2851081 -0.228639E-07  0.635E-04    0.80      15.2  T
   8   -226.2851081 -0.519470E-07  0.248E-04    0.80      38.8  T
     SCC iter.                  ...        0 min,  0.248 sec
     gradient                   ...        0 min,  0.033 sec
 * total energy  :  -224.0191429 Eh     change       -0.2688565E-03 Eh
   gradient norm :     0.0054754 Eh/α   predicted    -0.2116108E-03 ( -21.29%)
   displ. norm   :     0.5800791 α      lambda       -0.3202313E-03
   maximum displ.:     0.3435366 α      in ANC's #4, #2, #5, ...

........................................................................
.............................. CYCLE   18 ..............................
........................................................................

 iter      E             dE          RMSdq      gap      omega  full diag
   1   -226.2885033 -0.226289E+03  0.742E-02    0.80       0.0  T
   2   -226.2885133 -0.993947E-05  0.434E-02    0.80       1.0  T
   3   -226.2884884  0.248661E-04  0.143E-02    0.80       1.0  T
   4   -226.2885036 -0.151698E-04  0.832E-03    0.80       1.2  T
   5   -226.2885152 -0.116566E-04  0.298E-03    0.80       3.2  T
   6   -226.2885166 -0.135578E-05  0.111E-03    0.80       8.7  T
   7   -226.2885166 -0.419727E-07  0.606E-04    0.80      15.9  T
   8   -226.2885167 -0.385178E-07  0.226E-04    0.80      42.5  T
     SCC iter.                  ...        0 min,  0.237 sec
     gradient                   ...        0 min,  0.027 sec
 * total energy  :  -224.0194030 Eh     change       -0.2600914E-03 Eh
   gradient norm :     0.0054031 Eh/α   predicted    -0.2139948E-03 ( -17.72%)
   displ. norm   :     0.7091542 α      lambda       -0.3235178E-03
   maximum displ.:     0.3957923 α      in ANC's #4, #2, #5, ...

........................................................................
.............................. CYCLE   19 ..............................
........................................................................

 iter      E             dE          RMSdq      gap      omega  full diag
   1   -226.2828825 -0.226283E+03  0.887E-02    0.80       0.0  T
   2   -226.2828915 -0.902148E-05  0.519E-02    0.80       1.0  T
   3   -226.2828670  0.244861E-04  0.135E-02    0.80       1.0  T
   4   -226.2828855 -0.184559E-04  0.702E-03    0.80       1.4  T
   5   -226.2828937 -0.828358E-05  0.282E-03    0.80       3.4  T
   6   -226.2828949 -0.113364E-05  0.126E-03    0.80       7.6  T
   7   -226.2828950 -0.777888E-07  0.690E-04    0.80      13.9  T
   8   -226.2828950 -0.557341E-07  0.258E-04    0.80      37.3  T
     SCC iter.                  ...        0 min,  0.222 sec
     gradient                   ...        0 min,  0.027 sec
 * total energy  :  -224.0196348 Eh     change       -0.2318660E-03 Eh
   gradient norm :     0.0077875 Eh/α   predicted    -0.2431129E-03 (   4.85%)
   displ. norm   :     0.4915242 α      lambda       -0.2951558E-03
   maximum displ.:     0.3074139 α      in ANC's #4, #2, #5, ...

........................................................................
.............................. CYCLE   20 ..............................
........................................................................

 iter      E             dE          RMSdq      gap      omega  full diag
   1   -226.2857392 -0.226286E+03  0.627E-02    0.80       0.0  T
   2   -226.2857454 -0.626218E-05  0.367E-02    0.80       1.0  T
   3   -226.2857299  0.155800E-04  0.115E-02    0.80       1.0  T
   4   -226.2857411 -0.112203E-04  0.605E-03    0.80       1.6  T
   5   -226.2857469 -0.578165E-05  0.220E-03    0.80       4.4  T
   6   -226.2857475 -0.628099E-06  0.109E-03    0.80       8.8  T
   7   -226.2857476 -0.644402E-07  0.665E-04    0.80      14.5  T
   8   -226.2857476 -0.554521E-07  0.271E-04    0.80      35.5  T
     SCC iter.                  ...        0 min,  0.250 sec
     gradient                   ...        0 min,  0.036 sec
 * total energy  :  -224.0198731 Eh     change       -0.2382641E-03 Eh
   gradient norm :     0.0064159 Eh/α   predicted    -0.1832360E-03 ( -23.10%)
   displ. norm   :     0.5632196 α      lambda       -0.2795400E-03
   maximum displ.:     0.3490705 α      in ANC's #4, #2, #5, ...
 * RMSD in coord.:     0.7246230 α      energy gain  -0.1617647E-01 Eh

generating ANC from exact Hessian ...
Using Lindh-Hessian (1995)
 Shifting diagonal of input Hessian by   1.007967845248786E-002
 Lowest  eigenvalues of input Hessian
    0.010000    0.010031    0.000000    0.000000    0.000000    0.000000
    0.000000    0.000000    0.010115    0.010224    0.010323    0.010571
    0.010924    0.011523    0.011652    0.012504    0.014148    0.015412
 Highest eigenvalues
    2.083962    2.152611    2.168153    2.265721    2.346735    2.436706
 

........................................................................
.............................. CYCLE   21 ..............................
........................................................................

 iter      E             dE          RMSdq      gap      omega  full diag
   1   -226.2873307 -0.226287E+03  0.699E-02    0.80       0.0  T
   2   -226.2873359 -0.512620E-05  0.409E-02    0.80       1.0  T
   3   -226.2873206  0.152344E-04  0.114E-02    0.80       1.0  T
   4   -226.2873343 -0.136575E-04  0.475E-03    0.80       2.0  T
   5   -226.2873375 -0.316741E-05  0.217E-03    0.80       4.4  T
   6   -226.2873380 -0.580356E-06  0.108E-03    0.80       8.9  T
   7   -226.2873381 -0.753193E-07  0.610E-04    0.80      15.8  T
   8   -226.2873382 -0.465993E-07  0.251E-04    0.80      38.3  T
     SCC iter.                  ...        0 min,  0.343 sec
     gradient                   ...        0 min,  0.040 sec
 * total energy  :  -224.0201137 Eh     change       -0.2406517E-03 Eh
   gradient norm :     0.0055937 Eh/α   predicted     0.0000000E+00 (-100.00%)
   displ. norm   :     0.0678910 α      lambda       -0.8485225E-04
   maximum displ.:     0.0389543 α      in ANC's #6, #5, #3, ...

........................................................................
.............................. CYCLE   22 ..............................
........................................................................

 iter      E             dE          RMSdq      gap      omega  full diag
   1   -226.2880490 -0.226288E+03  0.154E-02    0.80       0.0  T
   2   -226.2880501 -0.103319E-05  0.903E-03    0.80       1.1  T
   3   -226.2880482  0.186705E-05  0.408E-03    0.80       2.4  T
   4   -226.2880489 -0.742514E-06  0.270E-03    0.80       3.6  T
   5   -226.2880503 -0.135190E-05  0.843E-04    0.80      11.4  T
   6   -226.2880504 -0.112773E-06  0.302E-04    0.80      31.9  T
   7   -226.2880504 -0.481737E-08  0.181E-04    0.80      53.2  T
     SCC iter.                  ...        0 min,  0.244 sec
     gradient                   ...        0 min,  0.031 sec
 * total energy  :  -224.0202016 Eh     change       -0.8786651E-04 Eh
   gradient norm :     0.0033564 Eh/α   predicted    -0.5033150E-04 ( -42.72%)
   displ. norm   :     0.2540501 α      lambda       -0.2755295E-03
   maximum displ.:     0.1459874 α      in ANC's #6, #5, #3, ...

........................................................................
.............................. CYCLE   23 ..............................
........................................................................

 iter      E             dE          RMSdq      gap      omega  full diag
   1   -226.2888862 -0.226289E+03  0.509E-02    0.80       0.0  T
   2   -226.2888964 -0.101473E-04  0.297E-02    0.80       1.0  T
   3   -226.2888774  0.189924E-04  0.132E-02    0.80       1.0  T
   4   -226.2888894 -0.120348E-04  0.741E-03    0.80       1.3  T
   5   -226.2888989 -0.946159E-05  0.282E-03    0.80       3.4  T
   6   -226.2889002 -0.131011E-05  0.990E-04    0.80       9.7  T
   7   -226.2889002 -0.527510E-07  0.570E-04    0.80      16.9  T
   8   -226.2889003 -0.285216E-07  0.238E-04    0.80      40.4  T
     SCC iter.                  ...        0 min,  0.237 sec
     gradient                   ...        0 min,  0.027 sec
 * total energy  :  -224.0203968 Eh     change       -0.1952230E-03 Eh
   gradient norm :     0.0038126 Eh/α   predicted    -0.1466615E-03 ( -24.87%)
   displ. norm   :     0.2426563 α      lambda       -0.1503364E-03
   maximum displ.:     0.1420825 α      in ANC's #5, #6, #3, ...

........................................................................
.............................. CYCLE   24 ..............................
........................................................................

 iter      E             dE          RMSdq      gap      omega  full diag
   1   -226.2886791 -0.226289E+03  0.423E-02    0.80       0.0  T
   2   -226.2886847 -0.558925E-05  0.249E-02    0.80       1.0  T
   3   -226.2886711  0.136593E-04  0.108E-02    0.80       1.0  T
   4   -226.2886813 -0.102395E-04  0.555E-03    0.80       1.7  T
   5   -226.2886864 -0.514280E-05  0.217E-03    0.80       4.4  T
   6   -226.2886872 -0.736414E-06  0.810E-04    0.80      11.9  T
   7   -226.2886872 -0.370395E-07  0.447E-04    0.80      21.5  T
     SCC iter.                  ...        0 min,  0.290 sec
     gradient                   ...        0 min,  0.034 sec
 * total energy  :  -224.0205161 Eh     change       -0.1192570E-03 Eh
   gradient norm :     0.0052550 Eh/α   predicted    -0.7959480E-04 ( -33.26%)
   displ. norm   :     0.2579816 α      lambda       -0.1469411E-03
   maximum displ.:     0.1555750 α      in ANC's #5, #6, #3, ...

........................................................................
.............................. CYCLE   25 ..............................
........................................................................

 iter      E             dE          RMSdq      gap      omega  full diag
   1   -226.2883095 -0.226288E+03  0.386E-02    0.80       0.0  T
   2   -226.2883132 -0.365287E-05  0.228E-02    0.80       1.0  T
   3   -226.2883039  0.927739E-05  0.896E-03    0.80       1.1  T
   4   -226.2883131 -0.925947E-05  0.314E-03    0.80       3.1  T
   5   -226.2883146 -0.144163E-05  0.142E-03    0.80       6.8  T
   6   -226.2883148 -0.242499E-06  0.726E-04    0.80      13.2  T
   7   -226.2883148 -0.180945E-07  0.493E-04    0.80      19.5  T
     SCC iter.                  ...        0 min,  0.245 sec
     gradient                   ...        0 min,  0.026 sec
 * total energy  :  -224.0206445 Eh     change       -0.1283577E-03 Eh
   gradient norm :     0.0049431 Eh/α   predicted    -0.7836054E-04 ( -38.95%)
   displ. norm   :     0.3288108 α      lambda       -0.1940818E-03
   maximum displ.:     0.2019092 α      in ANC's #5, #6, #3, ...

........................................................................
.............................. CYCLE   26 ..............................
........................................................................

 iter      E             dE          RMSdq      gap      omega  full diag
   1   -226.2878162 -0.226288E+03  0.437E-02    0.80       0.0  T
   2   -226.2878195 -0.321643E-05  0.259E-02    0.80       1.0  T
   3   -226.2878049  0.146118E-04  0.101E-02    0.80       1.0  T
   4   -226.2878168 -0.119565E-04  0.466E-03    0.80       2.1  T
   5   -226.2878209 -0.405799E-05  0.166E-03    0.80       5.8  T
   6   -226.2878212 -0.316074E-06  0.911E-04    0.80      10.6  T
   7   -226.2878212 -0.490681E-07  0.596E-04    0.80      16.2  T
     SCC iter.                  ...        0 min,  0.202 sec
     gradient                   ...        0 min,  0.027 sec
 * total energy  :  -224.0208120 Eh     change       -0.1675473E-03 Eh
   gradient norm :     0.0037585 Eh/α   predicted    -0.1075337E-03 ( -35.82%)
   displ. norm   :     0.3967319 α      lambda       -0.2127313E-03
   maximum displ.:     0.2477908 α      in ANC's #5, #6, #3, ...

........................................................................
.............................. CYCLE   27 ..............................
........................................................................

 iter      E             dE          RMSdq      gap      omega  full diag
   1   -226.2871930 -0.226287E+03  0.490E-02    0.80       0.0  T
   2   -226.2871961 -0.310543E-05  0.290E-02    0.80       1.0  T
   3   -226.2871726  0.234869E-04  0.118E-02    0.80       1.0  T
   4   -226.2871906 -0.179999E-04  0.600E-03    0.80       1.6  T
   5   -226.2871976 -0.702721E-05  0.178E-03    0.80       5.4  T
   6   -226.2871979 -0.312844E-06  0.105E-03    0.80       9.2  T
   7   -226.2871980 -0.865558E-07  0.601E-04    0.80      16.0  T
   8   -226.2871981 -0.513628E-07  0.168E-04    0.80      57.3  T
     SCC iter.                  ...        0 min,  0.235 sec
     gradient                   ...        0 min,  0.029 sec
 * total energy  :  -224.0209940 Eh     change       -0.1820196E-03 Eh
   gradient norm :     0.0039834 Eh/α   predicted    -0.1231076E-03 ( -32.37%)
   displ. norm   :     0.4211603 α      lambda       -0.2078522E-03
   maximum displ.:     0.2669065 α      in ANC's #5, #6, #3, ...

........................................................................
.............................. CYCLE   28 ..............................
........................................................................

 iter      E             dE          RMSdq      gap      omega  full diag
   1   -226.2867797 -0.226287E+03  0.493E-02    0.80       0.0  T
   2   -226.2867824 -0.275155E-05  0.291E-02    0.80       1.0  T
   3   -226.2867612  0.212439E-04  0.111E-02    0.80       1.0  T
   4   -226.2867771 -0.158715E-04  0.588E-03    0.80       1.6  T
   5   -226.2867836 -0.652936E-05  0.171E-03    0.80       5.6  T
   6   -226.2867839 -0.328208E-06  0.926E-04    0.80      10.4  T
   7   -226.2867840 -0.445498E-07  0.579E-04    0.80      16.6  T
     SCC iter.                  ...        0 min,  0.206 sec
     gradient                   ...        0 min,  0.028 sec
 * total energy  :  -224.0211777 Eh     change       -0.1837048E-03 Eh
   gradient norm :     0.0052299 Eh/α   predicted    -0.1223615E-03 ( -33.39%)
   displ. norm   :     0.4546657 α      lambda       -0.2343887E-03
   maximum displ.:     0.2916028 α      in ANC's #5, #6, #3, ...

........................................................................
.............................. CYCLE   29 ..............................
........................................................................

 iter      E             dE          RMSdq      gap      omega  full diag
   1   -226.2868520 -0.226287E+03  0.527E-02    0.80       0.0  T
   2   -226.2868547 -0.263092E-05  0.311E-02    0.80       1.0  T
   3   -226.2868316  0.230633E-04  0.112E-02    0.80       1.0  T
   4   -226.2868491 -0.174914E-04  0.596E-03    0.80       1.6  T
   5   -226.2868558 -0.668543E-05  0.165E-03    0.80       5.8  T
   6   -226.2868561 -0.266320E-06  0.948E-04    0.80      10.2  T
   7   -226.2868561 -0.463031E-07  0.584E-04    0.80      16.5  T
     SCC iter.                  ...        0 min,  0.239 sec
     gradient                   ...        0 min,  0.034 sec
 * total energy  :  -224.0213915 Eh     change       -0.2138043E-03 Eh
   gradient norm :     0.0059410 Eh/α   predicted    -0.1414265E-03 ( -33.85%)
   displ. norm   :     0.5224374 α      lambda       -0.2953292E-03
   maximum displ.:     0.3404948 α      in ANC's #5, #6, #3, ...

........................................................................
.............................. CYCLE   30 ..............................
........................................................................

 iter      E             dE          RMSdq      gap      omega  full diag
   1   -226.2873986 -0.226287E+03  0.608E-02    0.80       0.0  T
   2   -226.2874022 -0.356812E-05  0.359E-02    0.80       1.0  T
   3   -226.2873853  0.168480E-04  0.100E-02    0.80       1.0  T
   4   -226.2873953 -0.994443E-05  0.653E-03    0.80       1.5  T
   5   -226.2874032 -0.797067E-05  0.178E-03    0.80       5.4  T
   6   -226.2874035 -0.299049E-06  0.990E-04    0.80       9.7  T
   7   -226.2874036 -0.315917E-07  0.633E-04    0.80      15.2  T
     SCC iter.                  ...        0 min,  0.203 sec
     gradient                   ...        0 min,  0.028 sec
 * total energy  :  -224.0216602 Eh     change       -0.2686864E-03 Eh
   gradient norm :     0.0056490 Eh/α   predicted    -0.1879790E-03 ( -30.04%)
   displ. norm   :     0.5906142 α      lambda       -0.3392189E-03
   maximum displ.:     0.3923382 α      in ANC's #5, #3, #6, ...

........................................................................
.............................. CYCLE   31 ..............................
........................................................................

 iter      E             dE          RMSdq      gap      omega  full diag
   1   -226.2880759 -0.226288E+03  0.683E-02    0.80       0.0  T
   2   -226.2880807 -0.478958E-05  0.403E-02    0.80       1.0  T
   3   -226.2880712  0.952448E-05  0.853E-03    0.80       1.1  T
   4   -226.2880772 -0.604409E-05  0.523E-03    0.80       1.8  T
   5   -226.2880816 -0.437801E-05  0.217E-03    0.80       4.4  T
   6   -226.2880822 -0.557800E-06  0.107E-03    0.80       9.0  T
   7   -226.2880822 -0.522609E-07  0.636E-04    0.80      15.1  T
   8   -226.2880823 -0.629992E-07  0.221E-04    0.80      43.5  T
     SCC iter.                  ...        0 min,  0.234 sec
     gradient                   ...        0 min,  0.030 sec
 * total energy  :  -224.0219614 Eh     change       -0.3012289E-03 Eh
   gradient norm :     0.0044687 Eh/α   predicted    -0.2287770E-03 ( -24.05%)
   displ. norm   :     0.6086654 α      lambda       -0.3172800E-03
   maximum displ.:     0.4113061 α      in ANC's #5, #3, #6, ...

........................................................................
.............................. CYCLE   32 ..............................
........................................................................

 iter      E             dE          RMSdq      gap      omega  full diag
   1   -226.2886033 -0.226289E+03  0.671E-02    0.80       0.0  T
   2   -226.2886081 -0.487534E-05  0.396E-02    0.80       1.0  T
   3   -226.2886005  0.765432E-05  0.823E-03    0.80       1.2  T
   4   -226.2886076 -0.708885E-05  0.361E-03    0.80       2.7  T
   5   -226.2886089 -0.136729E-05  0.225E-03    0.80       4.3  T
   6   -226.2886096 -0.638464E-06  0.113E-03    0.80       8.5  T
   7   -226.2886097 -0.118436E-06  0.504E-04    0.80      19.1  T
   8   -226.2886097 -0.322636E-07  0.180E-04    0.80      53.5  T
     SCC iter.                  ...        0 min,  0.232 sec
     gradient                   ...        0 min,  0.028 sec
 * total energy  :  -224.0222376 Eh     change       -0.2762045E-03 Eh
   gradient norm :     0.0035711 Eh/α   predicted    -0.2174150E-03 ( -21.28%)
   displ. norm   :     0.5673050 α      lambda       -0.2596157E-03
   maximum displ.:     0.3880721 α      in ANC's #5, #3, #6, ...

........................................................................
.............................. CYCLE   33 ..............................
........................................................................

 iter      E             dE          RMSdq      gap      omega  full diag
   1   -226.2891983 -0.226289E+03  0.581E-02    0.80       0.0  T
   2   -226.2892018 -0.346070E-05  0.342E-02    0.80       1.0  T
   3   -226.2891890  0.128132E-04  0.939E-03    0.80       1.0  T
   4   -226.2891969 -0.791973E-05  0.572E-03    0.80       1.7  T
   5   -226.2892027 -0.578498E-05  0.209E-03    0.80       4.6  T
   6   -226.2892032 -0.557162E-06  0.821E-04    0.80      11.7  T
   7   -226.2892032 -0.213733E-07  0.392E-04    0.80      24.6  T
     SCC iter.                  ...        0 min,  0.304 sec
     gradient                   ...        0 min,  0.028 sec
 * total energy  :  -224.0224664 Eh     change       -0.2287295E-03 Eh
   gradient norm :     0.0037424 Eh/α   predicted    -0.1715889E-03 ( -24.98%)
   displ. norm   :     0.5044049 α      lambda       -0.2230607E-03
   maximum displ.:     0.3482744 α      in ANC's #5, #3, #6, ...

........................................................................
.............................. CYCLE   34 ..............................
........................................................................

 iter      E             dE          RMSdq      gap      omega  full diag
   1   -226.2901101 -0.226290E+03  0.476E-02    0.80       0.0  T
   2   -226.2901122 -0.208707E-05  0.281E-02    0.80       1.0  T
   3   -226.2900931  0.191221E-04  0.107E-02    0.80       1.0  T
   4   -226.2901074 -0.143260E-04  0.563E-03    0.79       1.7  T
   5   -226.2901133 -0.588891E-05  0.174E-03    0.80       5.5  T
   6   -226.2901136 -0.346955E-06  0.744E-04    0.80      12.9  T
   7   -226.2901136  0.460318E-09  0.489E-04    0.80      19.7  T
     SCC iter.                  ...        0 min,  0.218 sec
     gradient                   ...        0 min,  0.029 sec
 * total energy  :  -224.0226690 Eh     change       -0.2026012E-03 Eh
   gradient norm :     0.0041718 Eh/α   predicted    -0.1399068E-03 ( -30.94%)
   displ. norm   :     0.5057197 α      lambda       -0.2358555E-03
   maximum displ.:     0.3497370 α      in ANC's #5, #3, #6, ...

........................................................................
.............................. CYCLE   35 ..............................
........................................................................

 iter      E             dE          RMSdq      gap      omega  full diag
   1   -226.2908214 -0.226291E+03  0.462E-02    0.80       0.0  T
   2   -226.2908234 -0.206991E-05  0.273E-02    0.79       1.0  T
   3   -226.2908019  0.215397E-04  0.114E-02    0.80       1.0  T
   4   -226.2908188 -0.168492E-04  0.567E-03    0.79       1.7  T
   5   -226.2908247 -0.597366E-05  0.179E-03    0.80       5.4  T
   6   -226.2908251 -0.368474E-06  0.769E-04    0.80      12.5  T
   7   -226.2908251  0.120781E-08  0.530E-04    0.80      18.1  T
     SCC iter.                  ...        0 min,  0.276 sec
     gradient                   ...        0 min,  0.043 sec
 * total energy  :  -224.0228864 Eh     change       -0.2174679E-03 Eh
   gradient norm :     0.0043592 Eh/α   predicted    -0.1480911E-03 ( -31.90%)
   displ. norm   :     0.5626278 α      lambda       -0.2775360E-03
   maximum displ.:     0.3886700 α      in ANC's #5, #3, #6, ...

........................................................................
.............................. CYCLE   36 ..............................
........................................................................

 iter      E             dE          RMSdq      gap      omega  full diag
   1   -226.2911870 -0.226291E+03  0.529E-02    0.79       0.0  T
   2   -226.2911904 -0.339803E-05  0.312E-02    0.79       1.0  T
   3   -226.2911683  0.221716E-04  0.120E-02    0.80       1.0  T
   4   -226.2911851 -0.168346E-04  0.614E-03    0.79       1.6  T
   5   -226.2911919 -0.681331E-05  0.224E-03    0.79       4.3  T
   6   -226.2911926 -0.651350E-06  0.888E-04    0.79      10.8  T
   7   -226.2911926 -0.298635E-08  0.597E-04    0.79      16.1  T
     SCC iter.                  ...        0 min,  0.308 sec
     gradient                   ...        0 min,  0.046 sec
 * total energy  :  -224.0231385 Eh     change       -0.2520494E-03 Eh
   gradient norm :     0.0041822 Eh/α   predicted    -0.1826988E-03 ( -27.51%)
   displ. norm   :     0.6239356 α      lambda       -0.3035619E-03
   maximum displ.:     0.4298382 α      in ANC's #5, #3, #8, ...

........................................................................
.............................. CYCLE   37 ..............................
........................................................................

 iter      E             dE          RMSdq      gap      omega  full diag
   1   -226.2912241 -0.226291E+03  0.622E-02    0.79       0.0  T
   2   -226.2912294 -0.527856E-05  0.367E-02    0.79       1.0  T
   3   -226.2912116  0.177450E-04  0.115E-02    0.80       1.0  T
   4   -226.2912272 -0.155941E-04  0.495E-03    0.79       1.9  T
   5   -226.2912306 -0.337585E-05  0.277E-03    0.79       3.5  T
   6   -226.2912318 -0.116008E-05  0.106E-03    0.79       9.1  T
   7   -226.2912318 -0.306500E-07  0.683E-04    0.79      14.1  T
   8   -226.2912318 -0.582206E-07  0.268E-04    0.79      35.9  T
     SCC iter.                  ...        0 min,  0.249 sec
     gradient                   ...        0 min,  0.048 sec
 * total energy  :  -224.0234030 Eh     change       -0.2645519E-03 Eh
   gradient norm :     0.0039237 Eh/α   predicted    -0.2108711E-03 ( -20.29%)
   displ. norm   :     0.6417078 α      lambda       -0.2825216E-03
   maximum displ.:     0.4381972 α      in ANC's #5, #3, #8, ...

........................................................................
.............................. CYCLE   38 ..............................
........................................................................

 iter      E             dE          RMSdq      gap      omega  full diag
   1   -226.2910492 -0.226291E+03  0.688E-02    0.79       0.0  T
   2   -226.2910552 -0.598647E-05  0.405E-02    0.79       1.0  T
   3   -226.2910416  0.136092E-04  0.107E-02    0.79       1.0  T
   4   -226.2910563 -0.147101E-04  0.325E-03    0.79       3.0  T
   5   -226.2910573 -0.952979E-06  0.170E-03    0.79       5.6  T
   6   -226.2910573 -0.227610E-07  0.142E-03    0.79       6.8  T
   7   -226.2910576 -0.261027E-06  0.582E-04    0.79      16.5  T
   8   -226.2910576 -0.509166E-07  0.173E-04    0.79      55.6  T
     SCC iter.                  ...        0 min,  0.248 sec
     gradient                   ...        0 min,  0.031 sec
 * total energy  :  -224.0236354 Eh     change       -0.2323369E-03 Eh
   gradient norm :     0.0040110 Eh/α   predicted    -0.1994339E-03 ( -14.16%)
   displ. norm   :     0.5771761 α      lambda       -0.2272525E-03
   maximum displ.:     0.3829730 α      in ANC's #5, #3, #8, ...

........................................................................
.............................. CYCLE   39 ..............................
........................................................................

 iter      E             dE          RMSdq      gap      omega  full diag
   1   -226.2911893 -0.226291E+03  0.686E-02    0.79       0.0  T
   2   -226.2911939 -0.467895E-05  0.404E-02    0.80       1.0  T
   3   -226.2911757  0.181856E-04  0.111E-02    0.79       1.0  T
   4   -226.2911885 -0.127293E-04  0.635E-03    0.80       1.5  T
   5   -226.2911953 -0.680202E-05  0.218E-03    0.79       4.4  T
   6   -226.2911959 -0.621199E-06  0.939E-04    0.80      10.2  T
   7   -226.2911959 -0.398136E-07  0.477E-04    0.79      20.2  T
     SCC iter.                  ...        0 min,  0.200 sec
     gradient                   ...        0 min,  0.028 sec
 * total energy  :  -224.0238178 Eh     change       -0.1823957E-03 Eh
   gradient norm :     0.0044513 Eh/α   predicted    -0.1514807E-03 ( -16.95%)
   displ. norm   :     0.4947620 α      lambda       -0.2076588E-03
   maximum displ.:     0.3037804 α      in ANC's #5, #3, #8, ...

........................................................................
.............................. CYCLE   40 ..............................
........................................................................

 iter      E             dE          RMSdq      gap      omega  full diag
   1   -226.2914595 -0.226291E+03  0.683E-02    0.80       0.0  T
   2   -226.2914627 -0.319208E-05  0.403E-02    0.80       1.0  T
   3   -226.2914256  0.370373E-04  0.142E-02    0.79       1.0  T
   4   -226.2914552 -0.296037E-04  0.711E-03    0.80       1.4  T
   5   -226.2914646 -0.934668E-05  0.183E-03    0.80       5.3  T
   6   -226.2914649 -0.358429E-06  0.908E-04    0.80      10.6  T
   7   -226.2914650 -0.181448E-07  0.578E-04    0.80      16.7  T
     SCC iter.                  ...        0 min,  0.214 sec
     gradient                   ...        0 min,  0.049 sec
 * total energy  :  -224.0239918 Eh     change       -0.1740546E-03 Eh
   gradient norm :     0.0049403 Eh/α   predicted    -0.1292470E-03 ( -25.74%)
   displ. norm   :     0.5161047 α      lambda       -0.2681628E-03
   maximum displ.:     0.2693116 α      in ANC's #5, #3, #13, ...

........................................................................
.............................. CYCLE   41 ..............................
........................................................................

 iter      E             dE          RMSdq      gap      omega  full diag
   1   -226.2914807 -0.226291E+03  0.838E-02    0.80       0.0  T
   2   -226.2914846 -0.389890E-05  0.495E-02    0.80       1.0  T
   3   -226.2914033  0.812687E-04  0.206E-02    0.79       1.0  T
   4   -226.2914744 -0.710948E-04  0.873E-03    0.80       1.1  T
   5   -226.2914885 -0.140276E-04  0.237E-03    0.80       4.1  T
   6   -226.2914891 -0.662464E-06  0.115E-03    0.80       8.4  T
   7   -226.2914891 -0.952662E-08  0.805E-04    0.80      12.0  T
   8   -226.2914892 -0.999156E-07  0.272E-04    0.80      35.4  T
     SCC iter.                  ...        0 min,  0.259 sec
     gradient                   ...        0 min,  0.029 sec
 * total energy  :  -224.0242176 Eh     change       -0.2257181E-03 Eh
   gradient norm :     0.0057523 Eh/α   predicted    -0.1698006E-03 ( -24.77%)
   displ. norm   :     0.5464311 α      lambda       -0.3150040E-03
   maximum displ.:     0.2672828 α      in ANC's #13, #3, #5, ...

........................................................................
.............................. CYCLE   42 ..............................
........................................................................

 iter      E             dE          RMSdq      gap      omega  full diag
   1   -226.2902961 -0.226290E+03  0.971E-02    0.80       0.0  T
   2   -226.2903029 -0.679523E-05  0.575E-02    0.80       1.0  T
   3   -226.2902021  0.100811E-03  0.233E-02    0.79       1.0  T
   4   -226.2902884 -0.862451E-04  0.104E-02    0.80       1.0  T
   5   -226.2903084 -0.200359E-04  0.321E-03    0.80       3.0  T
   6   -226.2903097 -0.133898E-05  0.144E-03    0.80       6.7  T
   7   -226.2903098 -0.293335E-07  0.970E-04    0.80       9.9  T
   8   -226.2903099 -0.132512E-06  0.382E-04    0.80      25.2  T
     SCC iter.                  ...        0 min,  0.278 sec
     gradient                   ...        0 min,  0.035 sec
 * total energy  :  -224.0244641 Eh     change       -0.2465962E-03 Eh
   gradient norm :     0.0067148 Eh/α   predicted    -0.2045339E-03 ( -17.06%)
   displ. norm   :     0.4768256 α      lambda       -0.2759134E-03
   maximum displ.:     0.2376153 α      in ANC's #13, #3, #6, ...
 * RMSD in coord.:     0.8639583 α      energy gain  -0.4591053E-02 Eh

generating ANC from exact Hessian ...
Using Lindh-Hessian (1995)
 Shifting diagonal of input Hessian by   1.007605974255932E-002
 Lowest  eigenvalues of input Hessian
    0.010000    0.010029    0.000000    0.000000    0.000000    0.000000
    0.000000    0.000000    0.010136    0.010252    0.010493    0.011001
    0.011166    0.011647    0.011841    0.012532    0.014495    0.015442
 Highest eigenvalues
    2.083218    2.154878    2.158053    2.267042    2.330593    2.436813
 

........................................................................
.............................. CYCLE   43 ..............................
........................................................................

 iter      E             dE          RMSdq      gap      omega  full diag
   1   -226.2900695 -0.226290E+03  0.868E-02    0.80       0.0  T
   2   -226.2900768 -0.724567E-05  0.515E-02    0.80       1.0  T
   3   -226.2900198  0.570200E-04  0.182E-02    0.80       1.0  T
   4   -226.2900703 -0.504934E-04  0.767E-03    0.80       1.3  T
   5   -226.2900806 -0.102957E-04  0.333E-03    0.80       2.9  T
   6   -226.2900821 -0.150419E-05  0.153E-03    0.80       6.3  T
   7   -226.2900822 -0.117751E-06  0.951E-04    0.80      10.1  T
   8   -226.2900823 -0.122125E-06  0.394E-04    0.80      24.4  T
     SCC iter.                  ...        0 min,  0.239 sec
     gradient                   ...        0 min,  0.027 sec
 * total energy  :  -224.0246596 Eh     change       -0.1955015E-03 Eh
   gradient norm :     0.0067198 Eh/α   predicted     0.0000000E+00 (-100.00%)
   displ. norm   :     0.0492334 α      lambda       -0.1161493E-03
   maximum displ.:     0.0261468 α      in ANC's #13, #19, #8, ...

........................................................................
.............................. CYCLE   44 ..............................
........................................................................

 iter      E             dE          RMSdq      gap      omega  full diag
   1   -226.2921874 -0.226292E+03  0.145E-02    0.80       0.0  T
   2   -226.2921878 -0.390409E-06  0.874E-03    0.80       1.1  T
   3   -226.2921792  0.855355E-05  0.725E-03    0.80       1.3  T
   4   -226.2921865 -0.727796E-05  0.324E-03    0.80       3.0  T
   5   -226.2921884 -0.189249E-05  0.722E-04    0.80      13.3  T
   6   -226.2921885 -0.658399E-07  0.306E-04    0.80      31.4  T
   7   -226.2921885 -0.257114E-08  0.184E-04    0.80      52.3  T
     SCC iter.                  ...        0 min,  0.262 sec
     gradient                   ...        0 min,  0.029 sec
 * total energy  :  -224.0247517 Eh     change       -0.9203773E-04 Eh
   gradient norm :     0.0036407 Eh/α   predicted    -0.5890469E-04 ( -36.00%)
   displ. norm   :     0.1113918 α      lambda       -0.1390360E-03
   maximum displ.:     0.0646041 α      in ANC's #13, #8, #5, ...

........................................................................
.............................. CYCLE   45 ..............................
........................................................................

 iter      E             dE          RMSdq      gap      omega  full diag
   1   -226.2938562 -0.226294E+03  0.283E-02    0.80       0.0  T
   2   -226.2938572 -0.100472E-05  0.170E-02    0.80       1.0  T
   3   -226.2938195  0.376779E-04  0.152E-02    0.80       1.0  T
   4   -226.2938542 -0.347115E-04  0.565E-03    0.80       1.7  T
   5   -226.2938597 -0.544824E-05  0.150E-03    0.80       6.4  T
   6   -226.2938600 -0.295699E-06  0.700E-04    0.80      13.7  T
   7   -226.2938600 -0.204625E-07  0.451E-04    0.80      21.3  T
     SCC iter.                  ...        0 min,  0.213 sec
     gradient                   ...        0 min,  0.033 sec
 * total energy  :  -224.0248418 Eh     change       -0.9009362E-04 Eh
   gradient norm :     0.0025451 Eh/α   predicted    -0.7038145E-04 ( -21.88%)
   displ. norm   :     0.0971597 α      lambda       -0.5738333E-04
   maximum displ.:     0.0623706 α      in ANC's #13, #5, #8, ...

........................................................................
.............................. CYCLE   46 ..............................
........................................................................

 iter      E             dE          RMSdq      gap      omega  full diag
   1   -226.2937989 -0.226294E+03  0.196E-02    0.80       0.0  T
   2   -226.2937994 -0.542990E-06  0.119E-02    0.80       1.0  T
   3   -226.2937812  0.182884E-04  0.106E-02    0.80       1.0  T
   4   -226.2937983 -0.171301E-04  0.374E-03    0.80       2.6  T
   5   -226.2938006 -0.232838E-05  0.107E-03    0.80       9.0  T
   6   -226.2938008 -0.147083E-06  0.538E-04    0.80      17.9  T
   7   -226.2938008 -0.186887E-07  0.328E-04    0.80      29.3  T
     SCC iter.                  ...        0 min,  0.209 sec
     gradient                   ...        0 min,  0.026 sec
 * total energy  :  -224.0248879 Eh     change       -0.4609994E-04 Eh
   gradient norm :     0.0030120 Eh/α   predicted    -0.2904112E-04 ( -37.00%)
   displ. norm   :     0.2095213 α      lambda       -0.1036411E-03
   maximum displ.:     0.1388229 α      in ANC's #13, #5, #8, ...

........................................................................
.............................. CYCLE   47 ..............................
........................................................................

 iter      E             dE          RMSdq      gap      omega  full diag
   1   -226.2928627 -0.226293E+03  0.352E-02    0.80       0.0  T
   2   -226.2928652 -0.252376E-05  0.214E-02    0.80       1.0  T
   3   -226.2928165  0.487529E-04  0.175E-02    0.80       1.0  T
   4   -226.2928610 -0.445066E-04  0.673E-03    0.80       1.4  T
   5   -226.2928686 -0.759318E-05  0.195E-03    0.80       4.9  T
   6   -226.2928691 -0.479317E-06  0.977E-04    0.80       9.8  T
   7   -226.2928691 -0.549907E-07  0.610E-04    0.80      15.8  T
     SCC iter.                  ...        0 min,  0.202 sec
     gradient                   ...        0 min,  0.033 sec
 * total energy  :  -224.0249590 Eh     change       -0.7108724E-04 Eh
   gradient norm :     0.0044100 Eh/α   predicted    -0.5410143E-04 ( -23.89%)
   displ. norm   :     0.1604282 α      lambda       -0.7069403E-04
   maximum displ.:     0.1034480 α      in ANC's #13, #5, #8, ...

........................................................................
.............................. CYCLE   48 ..............................
........................................................................

 iter      E             dE          RMSdq      gap      omega  full diag
   1   -226.2921610 -0.226292E+03  0.227E-02    0.80       0.0  T
   2   -226.2921622 -0.124090E-05  0.138E-02    0.80       1.0  T
   3   -226.2921508  0.114548E-04  0.864E-03    0.80       1.1  T
   4   -226.2921609 -0.101626E-04  0.370E-03    0.80       2.6  T
   5   -226.2921632 -0.227312E-05  0.114E-03    0.80       8.4  T
   6   -226.2921633 -0.129114E-06  0.675E-04    0.80      14.2  T
   7   -226.2921634 -0.402072E-07  0.376E-04    0.80      25.6  T
     SCC iter.                  ...        0 min,  0.356 sec
     gradient                   ...        0 min,  0.029 sec
 * total energy  :  -224.0250143 Eh     change       -0.5533551E-04 Eh
   gradient norm :     0.0053650 Eh/α   predicted    -0.3627588E-04 ( -34.44%)
   displ. norm   :     0.2297075 α      lambda       -0.1334012E-03
   maximum displ.:     0.1339890 α      in ANC's #13, #5, #6, ...

........................................................................
.............................. CYCLE   49 ..............................
........................................................................

 iter      E             dE          RMSdq      gap      omega  full diag
   1   -226.2916318 -0.226292E+03  0.313E-02    0.80       0.0  T
   2   -226.2916339 -0.210929E-05  0.188E-02    0.80       1.0  T
   3   -226.2916271  0.681111E-05  0.697E-03    0.80       1.4  T
   4   -226.2916335 -0.637704E-05  0.304E-03    0.80       3.2  T
   5   -226.2916351 -0.159590E-05  0.128E-03    0.80       7.5  T
   6   -226.2916352 -0.145178E-06  0.766E-04    0.80      12.6  T
   7   -226.2916352 -0.187099E-07  0.560E-04    0.80      17.2  T
     SCC iter.                  ...        0 min,  0.217 sec
     gradient                   ...        0 min,  0.029 sec
 * total energy  :  -224.0251108 Eh     change       -0.9651186E-04 Eh
   gradient norm :     0.0059306 Eh/α   predicted    -0.7023136E-04 ( -27.23%)
   displ. norm   :     0.2044548 α      lambda       -0.1197292E-03
   maximum displ.:     0.1029092 α      in ANC's #13, #5, #6, ...

........................................................................
.............................. CYCLE   50 ..............................
........................................................................

 iter      E             dE          RMSdq      gap      omega  full diag
   1   -226.2921364 -0.226292E+03  0.295E-02    0.80       0.0  T
   2   -226.2921380 -0.164293E-05  0.176E-02    0.80       1.0  T
   3   -226.2921228  0.152340E-04  0.932E-03    0.80       1.0  T
   4   -226.2921351 -0.123371E-04  0.466E-03    0.80       2.1  T
   5   -226.2921391 -0.396903E-05  0.117E-03    0.80       8.2  T
   6   -226.2921392 -0.137775E-06  0.609E-04    0.80      15.8  T
   7   -226.2921392 -0.396008E-08  0.396E-04    0.80      24.3  T
     SCC iter.                  ...        0 min,  0.276 sec
     gradient                   ...        0 min,  0.038 sec
 * total energy  :  -224.0252013 Eh     change       -0.9050969E-04 Eh
   gradient norm :     0.0053410 Eh/α   predicted    -0.6237094E-04 ( -31.09%)
   displ. norm   :     0.3663058 α      lambda       -0.1448177E-03
   maximum displ.:     0.2021409 α      in ANC's #13, #5, #6, ...

........................................................................
.............................. CYCLE   51 ..............................
........................................................................

 iter      E             dE          RMSdq      gap      omega  full diag
   1   -226.2921139 -0.226292E+03  0.475E-02    0.80       0.0  T
   2   -226.2921185 -0.466690E-05  0.284E-02    0.80       1.0  T
   3   -226.2920982  0.203329E-04  0.111E-02    0.80       1.0  T
   4   -226.2921136 -0.154182E-04  0.631E-03    0.80       1.5  T
   5   -226.2921209 -0.729285E-05  0.196E-03    0.80       4.9  T
   6   -226.2921213 -0.371181E-06  0.106E-03    0.80       9.1  T
   7   -226.2921213 -0.179878E-07  0.710E-04    0.80      13.5  T
   8   -226.2921214 -0.831858E-07  0.206E-04    0.80      46.7  T
     SCC iter.                  ...        0 min,  0.257 sec
     gradient                   ...        0 min,  0.033 sec
 * total energy  :  -224.0253019 Eh     change       -0.1005775E-03 Eh
   gradient norm :     0.0076275 Eh/α   predicted    -0.8215119E-04 ( -18.32%)
   displ. norm   :     0.3532911 α      lambda       -0.2455339E-03
   maximum displ.:     0.1630663 α      in ANC's #5, #6, #7, ...

........................................................................
.............................. CYCLE   52 ..............................
........................................................................

 iter      E             dE          RMSdq      gap      omega  full diag
   1   -226.2945286 -0.226295E+03  0.559E-02    0.80       0.0  T
   2   -226.2945343 -0.567336E-05  0.332E-02    0.80       1.0  T
   3   -226.2944479  0.863883E-04  0.227E-02    0.79       1.0  T
   4   -226.2945203 -0.723963E-04  0.103E-02    0.80       1.0  T
   5   -226.2945391 -0.187802E-04  0.247E-03    0.80       3.9  T
   6   -226.2945399 -0.820754E-06  0.106E-03    0.80       9.1  T
   7   -226.2945399 -0.246667E-07  0.673E-04    0.80      14.3  T
   8   -226.2945400 -0.499702E-07  0.305E-04    0.80      31.6  T
     SCC iter.                  ...        0 min,  0.295 sec
     gradient                   ...        0 min,  0.030 sec
 * total energy  :  -224.0254276 Eh     change       -0.1257363E-03 Eh
   gradient norm :     0.0057722 Eh/α   predicted    -0.1381455E-03 (   9.87%)
   displ. norm   :     0.4328845 α      lambda       -0.1708280E-03
   maximum displ.:     0.2269053 α      in ANC's #13, #5, #6, ...

........................................................................
.............................. CYCLE   53 ..............................
........................................................................

 iter      E             dE          RMSdq      gap      omega  full diag
   1   -226.2926917 -0.226293E+03  0.582E-02    0.80       0.0  T
   2   -226.2927000 -0.839065E-05  0.347E-02    0.80       1.0  T
   3   -226.2926886  0.114633E-04  0.995E-03    0.80       1.0  T
   4   -226.2926981 -0.947039E-05  0.537E-03    0.80       1.8  T
   5   -226.2927025 -0.449053E-05  0.242E-03    0.80       4.0  T
   6   -226.2927033 -0.708352E-06  0.127E-03    0.80       7.6  T
   7   -226.2927033 -0.914515E-07  0.674E-04    0.80      14.3  T
   8   -226.2927034 -0.670156E-07  0.227E-04    0.80      42.4  T
     SCC iter.                  ...        0 min,  0.234 sec
     gradient                   ...        0 min,  0.030 sec
 * total energy  :  -224.0255220 Eh     change       -0.9440941E-04 Eh
   gradient norm :     0.0081656 Eh/α   predicted    -0.1014411E-03 (   7.45%)
   displ. norm   :     0.1230053 α      lambda       -0.1514207E-03
   maximum displ.:     0.0508631 α      in ANC's #5, #6, #7, ...

........................................................................
.............................. CYCLE   54 ..............................
........................................................................

 iter      E             dE          RMSdq      gap      omega  full diag
   1   -226.2937043 -0.226294E+03  0.272E-02    0.80       0.0  T
   2   -226.2937058 -0.149742E-05  0.161E-02    0.80       1.0  T
   3   -226.2936946  0.111957E-04  0.820E-03    0.80       1.2  T
   4   -226.2937028 -0.819518E-05  0.445E-03    0.80       2.2  T
   5   -226.2937066 -0.378789E-05  0.114E-03    0.80       8.4  T
   6   -226.2937067 -0.155643E-06  0.530E-04    0.80      18.2  T
   7   -226.2937067 -0.119771E-07  0.340E-04    0.80      28.3  T
     SCC iter.                  ...        0 min,  0.202 sec
     gradient                   ...        0 min,  0.032 sec
 * total energy  :  -224.0256327 Eh     change       -0.1106094E-03 Eh
   gradient norm :     0.0042764 Eh/α   predicted    -0.7688762E-04 ( -30.49%)
   displ. norm   :     0.3436955 α      lambda       -0.1220302E-03
   maximum displ.:     0.1580984 α      in ANC's #5, #6, #13, ...

........................................................................
.............................. CYCLE   55 ..............................
........................................................................

 iter      E             dE          RMSdq      gap      omega  full diag
   1   -226.2930648 -0.226293E+03  0.552E-02    0.80       0.0  T
   2   -226.2930679 -0.313357E-05  0.325E-02    0.80       1.0  T
   3   -226.2930582  0.967483E-05  0.832E-03    0.80       1.2  T
   4   -226.2930682 -0.994308E-05  0.294E-03    0.80       3.3  T
   5   -226.2930692 -0.102504E-05  0.170E-03    0.80       5.7  T
   6   -226.2930695 -0.315393E-06  0.966E-04    0.80      10.0  T
   7   -226.2930696 -0.729407E-07  0.567E-04    0.80      17.0  T
     SCC iter.                  ...        0 min,  0.212 sec
     gradient                   ...        0 min,  0.028 sec
 * total energy  :  -224.0257168 Eh     change       -0.8415056E-04 Eh
   gradient norm :     0.0036041 Eh/α   predicted    -0.6822345E-04 ( -18.93%)
   displ. norm   :     0.2268625 α      lambda       -0.7549635E-04
   maximum displ.:     0.1040563 α      in ANC's #5, #6, #3, ...

........................................................................
.............................. CYCLE   56 ..............................
........................................................................

 iter      E             dE          RMSdq      gap      omega  full diag
   1   -226.2937832 -0.226294E+03  0.396E-02    0.80       0.0  T
   2   -226.2937853 -0.215274E-05  0.233E-02    0.80       1.0  T
   3   -226.2937800  0.529489E-05  0.619E-03    0.80       1.6  T
   4   -226.2937845 -0.450889E-05  0.293E-03    0.80       3.3  T
   5   -226.2937860 -0.144445E-05  0.953E-04    0.80      10.1  T
   6   -226.2937861 -0.766085E-07  0.553E-04    0.80      17.4  T
   7   -226.2937861 -0.248113E-07  0.270E-04    0.80      35.6  T
     SCC iter.                  ...        0 min,  0.289 sec
     gradient                   ...        0 min,  0.029 sec
 * total energy  :  -224.0257689 Eh     change       -0.5205497E-04 Eh
   gradient norm :     0.0032931 Eh/α   predicted    -0.3969320E-04 ( -23.75%)
   displ. norm   :     0.4045202 α      lambda       -0.7733565E-04
   maximum displ.:     0.1903259 α      in ANC's #5, #13, #6, ...

........................................................................
.............................. CYCLE   57 ..............................
........................................................................

 iter      E             dE          RMSdq      gap      omega  full diag
   1   -226.2924471 -0.226292E+03  0.644E-02    0.80       0.0  T
   2   -226.2924513 -0.419587E-05  0.380E-02    0.80       1.0  T
   3   -226.2924409  0.103922E-04  0.875E-03    0.80       1.1  T
   4   -226.2924511 -0.101907E-04  0.374E-03    0.80       2.6  T
   5   -226.2924528 -0.174828E-05  0.190E-03    0.80       5.1  T
   6   -226.2924531 -0.301310E-06  0.123E-03    0.80       7.8  T
   7   -226.2924533 -0.165312E-06  0.522E-04    0.80      18.4  T
   8   -226.2924533 -0.352165E-07  0.153E-04    0.80      62.9  T
     SCC iter.                  ...        0 min,  0.238 sec
     gradient                   ...        0 min,  0.031 sec
 * total energy  :  -224.0258095 Eh     change       -0.4067935E-04 Eh
   gradient norm :     0.0035277 Eh/α   predicted    -0.4499750E-04 (  10.62%)
   displ. norm   :     0.1065345 α      lambda       -0.6407199E-04
   maximum displ.:     0.0544032 α      in ANC's #9, #5, #3, ...

........................................................................
.............................. CYCLE   58 ..............................
........................................................................

 iter      E             dE          RMSdq      gap      omega  full diag
   1   -226.2946573 -0.226295E+03  0.244E-02    0.80       0.0  T
   2   -226.2946583 -0.975405E-06  0.144E-02    0.80       1.0  T
   3   -226.2946559  0.241477E-05  0.445E-03    0.80       2.2  T
   4   -226.2946583 -0.244131E-05  0.149E-03    0.80       6.5  T
   5   -226.2946586 -0.314137E-06  0.534E-04    0.80      18.0  T
   6   -226.2946586 -0.241474E-08  0.405E-04    0.80      23.8  T
     SCC iter.                  ...        0 min,  0.191 sec
     gradient                   ...        0 min,  0.031 sec
 * total energy  :  -224.0258499 Eh     change       -0.4039546E-04 Eh
   gradient norm :     0.0027549 Eh/α   predicted    -0.3240065E-04 ( -19.79%)
   displ. norm   :     0.1581546 α      lambda       -0.3686539E-04
   maximum displ.:     0.0730485 α      in ANC's #5, #9, #13, ...

........................................................................
.............................. CYCLE   59 ..............................
........................................................................

 iter      E             dE          RMSdq      gap      omega  full diag
   1   -226.2948526 -0.226295E+03  0.316E-02    0.80       0.0  T
   2   -226.2948533 -0.669044E-06  0.186E-02    0.80       1.0  T
   3   -226.2948477  0.556474E-05  0.588E-03    0.80       1.6  T
   4   -226.2948523 -0.457086E-05  0.278E-03    0.80       3.5  T
   5   -226.2948536 -0.132088E-05  0.103E-03    0.80       9.4  T
   6   -226.2948538 -0.137467E-06  0.410E-04    0.80      23.5  T
   7   -226.2948538 -0.557327E-08  0.221E-04    0.80      43.5  T
     SCC iter.                  ...        0 min,  0.207 sec
     gradient                   ...        0 min,  0.030 sec
 * total energy  :  -224.0258810 Eh     change       -0.3111143E-04 Eh
   gradient norm :     0.0023806 Eh/α   predicted    -0.1889698E-04 ( -39.26%)
   displ. norm   :     0.3282425 α      lambda       -0.8259068E-04
   maximum displ.:     0.1475446 α      in ANC's #9, #5, #13, ...

........................................................................
.............................. CYCLE   60 ..............................
........................................................................

 iter      E             dE          RMSdq      gap      omega  full diag
   1   -226.2942496 -0.226294E+03  0.670E-02    0.80       0.0  T
   2   -226.2942526 -0.297571E-05  0.394E-02    0.80       1.0  T
   3   -226.2942361  0.164732E-04  0.106E-02    0.80       1.0  T
   4   -226.2942511 -0.149885E-04  0.432E-03    0.80       2.2  T
   5   -226.2942536 -0.251847E-05  0.225E-03    0.80       4.3  T
   6   -226.2942543 -0.708750E-06  0.894E-04    0.80      10.8  T
   7   -226.2942544 -0.452065E-07  0.455E-04    0.80      21.1  T
     SCC iter.                  ...        0 min,  0.227 sec
     gradient                   ...        0 min,  0.027 sec
 * total energy  :  -224.0259432 Eh     change       -0.6212115E-04 Eh
   gradient norm :     0.0024681 Eh/α   predicted    -0.4574800E-04 ( -26.36%)
   displ. norm   :     0.3394027 α      lambda       -0.6495097E-04
   maximum displ.:     0.1523778 α      in ANC's #9, #5, #13, ...

........................................................................
.............................. CYCLE   61 ..............................
........................................................................

 iter      E             dE          RMSdq      gap      omega  full diag
   1   -226.2929820 -0.226293E+03  0.680E-02    0.80       0.0  T
   2   -226.2929846 -0.259326E-05  0.400E-02    0.80       1.0  T
   3   -226.2929681  0.165287E-04  0.104E-02    0.80       1.0  T
   4   -226.2929828 -0.147615E-04  0.440E-03    0.80       2.2  T
   5   -226.2929856 -0.280507E-05  0.212E-03    0.80       4.5  T
   6   -226.2929862 -0.589958E-06  0.876E-04    0.80      11.0  T
   7   -226.2929863 -0.372906E-07  0.467E-04    0.80      20.6  T
     SCC iter.                  ...        0 min,  0.205 sec
     gradient                   ...        0 min,  0.028 sec
 * total energy  :  -224.0259911 Eh     change       -0.4796027E-04 Eh
   gradient norm :     0.0033121 Eh/α   predicted    -0.3621717E-04 ( -24.49%)
   displ. norm   :     0.2644618 α      lambda       -0.5789612E-04
   maximum displ.:     0.1173714 α      in ANC's #9, #5, #4, ...

........................................................................
.............................. CYCLE   62 ..............................
........................................................................

 iter      E             dE          RMSdq      gap      omega  full diag
   1   -226.2933470 -0.226293E+03  0.503E-02    0.80       0.0  T
   2   -226.2933483 -0.136878E-05  0.296E-02    0.80       1.0  T
   3   -226.2933396  0.870741E-05  0.756E-03    0.80       1.3  T
   4   -226.2933474 -0.777770E-05  0.320E-03    0.80       3.0  T
   5   -226.2933489 -0.154186E-05  0.145E-03    0.80       6.6  T
   6   -226.2933492 -0.215485E-06  0.728E-04    0.80      13.2  T
   7   -226.2933492 -0.310961E-07  0.438E-04    0.80      22.0  T
     SCC iter.                  ...        0 min,  0.199 sec
     gradient                   ...        0 min,  0.029 sec
 * total energy  :  -224.0260355 Eh     change       -0.4441470E-04 Eh
   gradient norm :     0.0034737 Eh/α   predicted    -0.3097426E-04 ( -30.26%)
   displ. norm   :     0.3386516 α      lambda       -0.6485681E-04
   maximum displ.:     0.1536775 α      in ANC's #5, #9, #4, ...

........................................................................
.............................. CYCLE   63 ..............................
........................................................................

 iter      E             dE          RMSdq      gap      omega  full diag
   1   -226.2926272 -0.226293E+03  0.631E-02    0.80       0.0  T
   2   -226.2926291 -0.191060E-05  0.371E-02    0.80       1.0  T
   3   -226.2926228  0.630234E-05  0.657E-03    0.80       1.5  T
   4   -226.2926289 -0.611673E-05  0.263E-03    0.80       3.7  T
   5   -226.2926298 -0.933019E-06  0.142E-03    0.80       6.8  T
   6   -226.2926300 -0.165691E-06  0.790E-04    0.80      12.2  T
   7   -226.2926300 -0.341773E-07  0.477E-04    0.80      20.2  T
     SCC iter.                  ...        0 min,  0.209 sec
     gradient                   ...        0 min,  0.031 sec
 * total energy  :  -224.0260875 Eh     change       -0.5193833E-04 Eh
   gradient norm :     0.0032208 Eh/α   predicted    -0.3615077E-04 ( -30.40%)
   displ. norm   :     0.3104708 α      lambda       -0.9289393E-04
   maximum displ.:     0.1434649 α      in ANC's #4, #5, #9, ...

........................................................................
.............................. CYCLE   64 ..............................
........................................................................

 iter      E             dE          RMSdq      gap      omega  full diag
   1   -226.2953549 -0.226295E+03  0.528E-02    0.80       0.0  T
   2   -226.2953568 -0.190422E-05  0.311E-02    0.80       1.0  T
   3   -226.2953462  0.105756E-04  0.825E-03    0.80       1.2  T
   4   -226.2953553 -0.906835E-05  0.363E-03    0.80       2.6  T
   5   -226.2953575 -0.223666E-05  0.162E-03    0.80       5.9  T
   6   -226.2953578 -0.280960E-06  0.935E-04    0.80      10.3  T
   7   -226.2953578 -0.516311E-07  0.541E-04    0.80      17.8  T
     SCC iter.                  ...        0 min,  0.206 sec
     gradient                   ...        0 min,  0.035 sec
 * total energy  :  -224.0261466 Eh     change       -0.5906715E-04 Eh
   gradient norm :     0.0034474 Eh/α   predicted    -0.5092533E-04 ( -13.78%)
   displ. norm   :     0.5023800 α      lambda       -0.8599340E-04
   maximum displ.:     0.2422441 α      in ANC's #5, #4, #3, ...

........................................................................
.............................. CYCLE   65 ..............................
........................................................................

 iter      E             dE          RMSdq      gap      omega  full diag
   1   -226.2917123 -0.226292E+03  0.906E-02    0.80       0.0  T
   2   -226.2917169 -0.454829E-05  0.533E-02    0.80       1.0  T
   3   -226.2917007  0.162030E-04  0.105E-02    0.80       1.0  T
   4   -226.2917161 -0.153699E-04  0.416E-03    0.80       2.3  T
   5   -226.2917186 -0.251471E-05  0.224E-03    0.80       4.3  T
   6   -226.2917191 -0.531881E-06  0.128E-03    0.80       7.5  T
   7   -226.2917192 -0.100107E-06  0.786E-04    0.80      12.2  T
   8   -226.2917193 -0.979615E-07  0.269E-04    0.80      35.8  T
     SCC iter.                  ...        0 min,  0.284 sec
     gradient                   ...        0 min,  0.034 sec
 * total energy  :  -224.0261989 Eh     change       -0.5238485E-04 Eh
   gradient norm :     0.0047196 Eh/α   predicted    -0.5385414E-04 (   2.80%)
   displ. norm   :     0.1868475 α      lambda       -0.6885444E-04
   maximum displ.:     0.0931355 α      in ANC's #5, #4, #3, ...

........................................................................
.............................. CYCLE   66 ..............................
........................................................................

 iter      E             dE          RMSdq      gap      omega  full diag
   1   -226.2931836 -0.226293E+03  0.289E-02    0.80       0.0  T
   2   -226.2931845 -0.859566E-06  0.170E-02    0.80       1.0  T
   3   -226.2931770  0.747677E-05  0.696E-03    0.80       1.4  T
   4   -226.2931836 -0.654204E-05  0.290E-03    0.80       3.3  T
   5   -226.2931850 -0.141125E-05  0.129E-03    0.80       7.5  T
   6   -226.2931852 -0.234242E-06  0.546E-04    0.80      17.6  T
   7   -226.2931852 -0.878569E-08  0.337E-04    0.80      28.6  T
     SCC iter.                  ...        0 min,  0.220 sec
     gradient                   ...        0 min,  0.027 sec
 * total energy  :  -224.0262579 Eh     change       -0.5897814E-04 Eh
   gradient norm :     0.0041325 Eh/α   predicted    -0.3563193E-04 ( -39.58%)
   displ. norm   :     0.4703945 α      lambda       -0.1579626E-03
   maximum displ.:     0.2438306 α      in ANC's #4, #5, #3, ...
 * RMSD in coord.:     0.5099977 α      energy gain  -0.1793766E-02 Eh

generating ANC from exact Hessian ...
Using Lindh-Hessian (1995)
 Shifting diagonal of input Hessian by   1.007904087733605E-002
 Lowest  eigenvalues of input Hessian
    0.010000    0.010019    0.000000    0.010058    0.000000    0.000000
    0.000000    0.000000    0.000000    0.010198    0.010580    0.010843
    0.011120    0.011513    0.011937    0.012581    0.014459    0.015305
 Highest eigenvalues
    2.083785    2.154941    2.155845    2.265877    2.331356    2.439291
 

........................................................................
.............................. CYCLE   67 ..............................
........................................................................

 iter      E             dE          RMSdq      gap      omega  full diag
   1   -226.2951098 -0.226295E+03  0.707E-02    0.80       0.0  T
   2   -226.2951148 -0.498815E-05  0.414E-02    0.80       1.0  T
   3   -226.2950836  0.312052E-04  0.146E-02    0.80       1.0  T
   4   -226.2951134 -0.297915E-04  0.507E-03    0.80       1.9  T
   5   -226.2951171 -0.373598E-05  0.280E-03    0.80       3.4  T
   6   -226.2951182 -0.108473E-05  0.133E-03    0.80       7.3  T
   7   -226.2951183 -0.777374E-07  0.843E-04    0.80      11.4  T
   8   -226.2951184 -0.107455E-06  0.293E-04    0.80      32.8  T
     SCC iter.                  ...        0 min,  0.233 sec
     gradient                   ...        0 min,  0.030 sec
 * total energy  :  -224.0263807 Eh     change       -0.1227726E-03 Eh
   gradient norm :     0.0044439 Eh/α   predicted     0.0000000E+00 (-100.00%)
   displ. norm   :     0.0464996 α      lambda       -0.5163369E-04
   maximum displ.:     0.0216317 α      in ANC's #4, #7, #3, ...

........................................................................
.............................. CYCLE   68 ..............................
........................................................................

 iter      E             dE          RMSdq      gap      omega  full diag
   1   -226.2953168 -0.226295E+03  0.844E-03    0.80       0.0  T
   2   -226.2953171 -0.335435E-06  0.499E-03    0.80       1.9  T
   3   -226.2953168  0.308894E-06  0.208E-03    0.80       4.6  T
   4   -226.2953169 -0.995080E-07  0.128E-03    0.80       7.5  T
   5   -226.2953171 -0.256235E-06  0.542E-04    0.80      17.7  T
   6   -226.2953172 -0.450383E-07  0.180E-04    0.80      53.5  T
     SCC iter.                  ...        0 min,  0.230 sec
     gradient                   ...        0 min,  0.036 sec
 * total energy  :  -224.0264279 Eh     change       -0.4717342E-04 Eh
   gradient norm :     0.0025809 Eh/α   predicted    -0.2763957E-04 ( -41.41%)
   displ. norm   :     0.1811678 α      lambda       -0.1397782E-03
   maximum displ.:     0.0833514 α      in ANC's #4, #7, #5, ...

........................................................................
.............................. CYCLE   69 ..............................
........................................................................

 iter      E             dE          RMSdq      gap      omega  full diag
   1   -226.2953288 -0.226295E+03  0.282E-02    0.80       0.0  T
   2   -226.2953318 -0.293992E-05  0.167E-02    0.80       1.0  T
   3   -226.2953275  0.425903E-05  0.674E-03    0.80       1.4  T
   4   -226.2953291 -0.156227E-05  0.437E-03    0.80       2.2  T
   5   -226.2953323 -0.325384E-05  0.170E-03    0.80       5.7  T
   6   -226.2953327 -0.403390E-06  0.650E-04    0.80      14.8  T
   7   -226.2953327 -0.205086E-07  0.344E-04    0.80      27.9  T
     SCC iter.                  ...        0 min,  0.296 sec
     gradient                   ...        0 min,  0.041 sec
 * total energy  :  -224.0265200 Eh     change       -0.9214451E-04 Eh
   gradient norm :     0.0032927 Eh/α   predicted    -0.7218480E-04 ( -21.66%)
   displ. norm   :     0.1579272 α      lambda       -0.6697907E-04
   maximum displ.:     0.0740241 α      in ANC's #4, #7, #5, ...

........................................................................
.............................. CYCLE   70 ..............................
........................................................................

 iter      E             dE          RMSdq      gap      omega  full diag
   1   -226.2950577 -0.226295E+03  0.212E-02    0.80       0.0  T
   2   -226.2950589 -0.111842E-05  0.125E-02    0.80       1.0  T
   3   -226.2950571  0.173570E-05  0.424E-03    0.80       2.3  T
   4   -226.2950588 -0.171378E-05  0.175E-03    0.80       5.5  T
   5   -226.2950591 -0.311933E-06  0.107E-03    0.80       9.0  T
   6   -226.2950593 -0.134691E-06  0.581E-04    0.80      16.6  T
   7   -226.2950593 -0.344441E-07  0.293E-04    0.80      32.8  T
     SCC iter.                  ...        0 min,  0.246 sec
     gradient                   ...        0 min,  0.028 sec
 * total energy  :  -224.0265762 Eh     change       -0.5621020E-04 Eh
   gradient norm :     0.0048503 Eh/α   predicted    -0.3443222E-04 ( -38.74%)
   displ. norm   :     0.2893867 α      lambda       -0.1286173E-03
   maximum displ.:     0.1352921 α      in ANC's #4, #7, #5, ...

........................................................................
.............................. CYCLE   71 ..............................
........................................................................

 iter      E             dE          RMSdq      gap      omega  full diag
   1   -226.2944290 -0.226294E+03  0.364E-02    0.80       0.0  T
   2   -226.2944317 -0.268870E-05  0.214E-02    0.80       1.0  T
   3   -226.2944262  0.551002E-05  0.714E-03    0.80       1.3  T
   4   -226.2944321 -0.592765E-05  0.254E-03    0.80       3.8  T
   5   -226.2944328 -0.654270E-06  0.146E-03    0.80       6.6  T
   6   -226.2944330 -0.183215E-06  0.802E-04    0.80      12.0  T
   7   -226.2944330 -0.636182E-07  0.389E-04    0.80      24.7  T
     SCC iter.                  ...        0 min,  0.232 sec
     gradient                   ...        0 min,  0.043 sec
 * total energy  :  -224.0266859 Eh     change       -0.1096518E-03 Eh
   gradient norm :     0.0055332 Eh/α   predicted    -0.6969580E-04 ( -36.44%)
   displ. norm   :     0.4418613 α      lambda       -0.1945056E-03
   maximum displ.:     0.2081834 α      in ANC's #4, #7, #5, ...

........................................................................
.............................. CYCLE   72 ..............................
........................................................................

 iter      E             dE          RMSdq      gap      omega  full diag
   1   -226.2933879 -0.226293E+03  0.529E-02    0.80       0.0  T
   2   -226.2933932 -0.531066E-05  0.311E-02    0.80       1.0  T
   3   -226.2933793  0.139530E-04  0.108E-02    0.80       1.0  T
   4   -226.2933929 -0.136249E-04  0.446E-03    0.80       2.2  T
   5   -226.2933951 -0.218623E-05  0.259E-03    0.80       3.7  T
   6   -226.2933959 -0.783063E-06  0.128E-03    0.80       7.5  T
   7   -226.2933960 -0.109193E-06  0.694E-04    0.80      13.9  T
   8   -226.2933961 -0.749707E-07  0.281E-04    0.80      34.3  T
     SCC iter.                  ...        0 min,  0.284 sec
     gradient                   ...        0 min,  0.028 sec
 * total energy  :  -224.0268431 Eh     change       -0.1572604E-03 Eh
   gradient norm :     0.0053639 Eh/α   predicted    -0.1162495E-03 ( -26.08%)
   displ. norm   :     0.4607528 α      lambda       -0.1893620E-03
   maximum displ.:     0.2197946 α      in ANC's #4, #5, #7, ...

........................................................................
.............................. CYCLE   73 ..............................
........................................................................

 iter      E             dE          RMSdq      gap      omega  full diag
   1   -226.2928594 -0.226293E+03  0.531E-02    0.80       0.0  T
   2   -226.2928643 -0.497829E-05  0.311E-02    0.80       1.0  T
   3   -226.2928379  0.264365E-04  0.137E-02    0.80       1.0  T
   4   -226.2928590 -0.211158E-04  0.685E-03    0.80       1.4  T
   5   -226.2928667 -0.773458E-05  0.241E-03    0.80       4.0  T
   6   -226.2928674 -0.669630E-06  0.116E-03    0.80       8.3  T
   7   -226.2928675 -0.611855E-07  0.636E-04    0.80      15.1  T
   8   -226.2928675 -0.583968E-07  0.278E-04    0.80      34.6  T
     SCC iter.                  ...        0 min,  0.242 sec
     gradient                   ...        0 min,  0.033 sec
 * total energy  :  -224.0269964 Eh     change       -0.1532675E-03 Eh
   gradient norm :     0.0051113 Eh/α   predicted    -0.1147919E-03 ( -25.10%)
   displ. norm   :     0.4552683 α      lambda       -0.1963541E-03
   maximum displ.:     0.2193868 α      in ANC's #4, #5, #2, ...

........................................................................
.............................. CYCLE   74 ..............................
........................................................................

 iter      E             dE          RMSdq      gap      omega  full diag
   1   -226.2934341 -0.226293E+03  0.516E-02    0.80       0.0  T
   2   -226.2934387 -0.465134E-05  0.303E-02    0.80       1.0  T
   3   -226.2933941  0.445696E-04  0.168E-02    0.80       1.0  T
   4   -226.2934300 -0.358160E-04  0.818E-03    0.80       1.2  T
   5   -226.2934419 -0.119612E-04  0.215E-03    0.80       4.5  T
   6   -226.2934424 -0.470537E-06  0.110E-03    0.80       8.7  T
   7   -226.2934424 -0.601865E-07  0.572E-04    0.80      16.8  T
   8   -226.2934425 -0.431609E-07  0.259E-04    0.80      37.2  T
     SCC iter.                  ...        0 min,  0.271 sec
     gradient                   ...        0 min,  0.032 sec
 * total energy  :  -224.0271613 Eh     change       -0.1649108E-03 Eh
   gradient norm :     0.0053092 Eh/α   predicted    -0.1185754E-03 ( -28.10%)
   displ. norm   :     0.5427119 α      lambda       -0.2419078E-03
   maximum displ.:     0.2626104 α      in ANC's #4, #5, #2, ...

........................................................................
.............................. CYCLE   75 ..............................
........................................................................

 iter      E             dE          RMSdq      gap      omega  full diag
   1   -226.2940564 -0.226294E+03  0.620E-02    0.80       0.0  T
   2   -226.2940628 -0.633300E-05  0.365E-02    0.80       1.0  T
   3   -226.2939877  0.750579E-04  0.216E-02    0.79       1.0  T
   4   -226.2940484 -0.606879E-04  0.104E-02    0.80       1.0  T
   5   -226.2940678 -0.194428E-04  0.255E-03    0.80       3.8  T
   6   -226.2940685 -0.658448E-06  0.131E-03    0.80       7.3  T
   7   -226.2940686 -0.787726E-07  0.687E-04    0.80      14.0  T
   8   -226.2940686 -0.609914E-07  0.307E-04    0.80      31.3  T
     SCC iter.                  ...        0 min,  0.259 sec
     gradient                   ...        0 min,  0.030 sec
 * total energy  :  -224.0273749 Eh     change       -0.2136449E-03 Eh
   gradient norm :     0.0060046 Eh/α   predicted    -0.1565849E-03 ( -26.71%)
   displ. norm   :     0.6054981 α      lambda       -0.3194033E-03
   maximum displ.:     0.2917180 α      in ANC's #4, #5, #2, ...

........................................................................
.............................. CYCLE   76 ..............................
........................................................................

 iter      E             dE          RMSdq      gap      omega  full diag
   1   -226.2956264 -0.226296E+03  0.726E-02    0.80       0.0  T
   2   -226.2956356 -0.923801E-05  0.429E-02    0.80       1.0  T
   3   -226.2955241  0.111527E-03  0.263E-02    0.79       1.0  T
   4   -226.2956093 -0.852140E-04  0.135E-02    0.80       1.0  T
   5   -226.2956429 -0.336372E-04  0.308E-03    0.80       3.1  T
   6   -226.2956440 -0.105527E-05  0.147E-03    0.80       6.5  T
   7   -226.2956441 -0.863298E-07  0.762E-04    0.80      12.6  T
   8   -226.2956441 -0.699202E-07  0.294E-04    0.80      32.8  T
     SCC iter.                  ...        0 min,  0.281 sec
     gradient                   ...        0 min,  0.027 sec
 * total energy  :  -224.0276467 Eh     change       -0.2717052E-03 Eh
   gradient norm :     0.0066530 Eh/α   predicted    -0.2182638E-03 ( -19.67%)
   displ. norm   :     0.6926855 α      lambda       -0.3285761E-03
   maximum displ.:     0.3353953 α      in ANC's #4, #5, #2, ...

........................................................................
.............................. CYCLE   77 ..............................
........................................................................

 iter      E             dE          RMSdq      gap      omega  full diag
   1   -226.2940691 -0.226294E+03  0.806E-02    0.80       0.0  T
   2   -226.2940801 -0.110030E-04  0.474E-02    0.80       1.0  T
   3   -226.2939812  0.989168E-04  0.252E-02    0.79       1.0  T
   4   -226.2940545 -0.733461E-04  0.133E-02    0.80       1.0  T
   5   -226.2940872 -0.327075E-04  0.329E-03    0.80       2.9  T
   6   -226.2940884 -0.115405E-05  0.160E-03    0.80       6.0  T
   7   -226.2940885 -0.109377E-06  0.819E-04    0.80      11.7  T
   8   -226.2940886 -0.852836E-07  0.300E-04    0.80      32.1  T
     SCC iter.                  ...        0 min,  0.234 sec
     gradient                   ...        0 min,  0.029 sec
 * total energy  :  -224.0279188 Eh     change       -0.2721471E-03 Eh
   gradient norm :     0.0061813 Eh/α   predicted    -0.2431262E-03 ( -10.66%)
   displ. norm   :     0.5798426 α      lambda       -0.3681720E-03
   maximum displ.:     0.2804092 α      in ANC's #5, #4, #2, ...

........................................................................
.............................. CYCLE   78 ..............................
........................................................................

 iter      E             dE          RMSdq      gap      omega  full diag
   1   -226.2982232 -0.226298E+03  0.733E-02    0.79       0.0  T
   2   -226.2982350 -0.117730E-04  0.432E-02    0.80       1.0  T
   3   -226.2981805  0.544953E-04  0.201E-02    0.79       1.0  T
   4   -226.2982134 -0.329214E-04  0.119E-02    0.80       1.0  T
   5   -226.2982393 -0.258726E-04  0.363E-03    0.80       2.6  T
   6   -226.2982410 -0.176217E-05  0.145E-03    0.80       6.6  T
   7   -226.2982411 -0.878163E-07  0.781E-04    0.80      12.3  T
   8   -226.2982412 -0.679188E-07  0.268E-04    0.80      35.8  T
     SCC iter.                  ...        0 min,  0.235 sec
     gradient                   ...        0 min,  0.029 sec
 * total energy  :  -224.0281585 Eh     change       -0.2396937E-03 Eh
   gradient norm :     0.0081348 Eh/α   predicted    -0.2459878E-03 (   2.63%)
   displ. norm   :     0.6305642 α      lambda       -0.3004693E-03
   maximum displ.:     0.3072197 α      in ANC's #4, #5, #2, ...

........................................................................
.............................. CYCLE   79 ..............................
........................................................................

 iter      E             dE          RMSdq      gap      omega  full diag
   1   -226.2936779 -0.226294E+03  0.706E-02    0.79       0.0  T
   2   -226.2936869 -0.901946E-05  0.412E-02    0.80       1.0  T
   3   -226.2936614  0.254795E-04  0.149E-02    0.79       1.0  T
   4   -226.2936841 -0.226504E-04  0.636E-03    0.80       1.5  T
   5   -226.2936898 -0.574400E-05  0.328E-03    0.79       2.9  T
   6   -226.2936913 -0.146216E-05  0.130E-03    0.80       7.4  T
   7   -226.2936914 -0.808990E-07  0.684E-04    0.80      14.1  T
   8   -226.2936915 -0.649393E-07  0.217E-04    0.80      44.3  T
     SCC iter.                  ...        0 min,  0.261 sec
     gradient                   ...        0 min,  0.045 sec
 * total energy  :  -224.0283959 Eh     change       -0.2374313E-03 Eh
   gradient norm :     0.0071193 Eh/α   predicted    -0.2099762E-03 ( -11.56%)
   displ. norm   :     0.4611975 α      lambda       -0.3240411E-03
   maximum displ.:     0.2315172 α      in ANC's #5, #4, #2, ...

........................................................................
.............................. CYCLE   80 ..............................
........................................................................

 iter      E             dE          RMSdq      gap      omega  full diag
   1   -226.2942940 -0.226294E+03  0.546E-02    0.79       0.0  T
   2   -226.2943001 -0.609458E-05  0.322E-02    0.79       1.0  T
   3   -226.2942573  0.427959E-04  0.175E-02    0.80       1.0  T
   4   -226.2942867 -0.293829E-04  0.983E-03    0.79       1.0  T
   5   -226.2943043 -0.175521E-04  0.218E-03    0.80       4.4  T
   6   -226.2943047 -0.430211E-06  0.111E-03    0.80       8.6  T
   7   -226.2943047 -0.393855E-07  0.722E-04    0.80      13.3  T
   8   -226.2943048 -0.712506E-07  0.290E-04    0.80      33.1  T
     SCC iter.                  ...        0 min,  0.280 sec
     gradient                   ...        0 min,  0.030 sec
 * total energy  :  -224.0286491 Eh     change       -0.2531332E-03 Eh
   gradient norm :     0.0065214 Eh/α   predicted    -0.1964863E-03 ( -22.38%)
   displ. norm   :     0.5090394 α      lambda       -0.3358366E-03
   maximum displ.:     0.2563376 α      in ANC's #5, #4, #2, ...

........................................................................
.............................. CYCLE   81 ..............................
........................................................................

 iter      E             dE          RMSdq      gap      omega  full diag
   1   -226.2944776 -0.226294E+03  0.640E-02    0.80       0.0  T
   2   -226.2944843 -0.674259E-05  0.378E-02    0.79       1.0  T
   3   -226.2943926  0.916825E-04  0.243E-02    0.80       1.0  T
   4   -226.2944625 -0.699064E-04  0.126E-02    0.79       1.0  T
   5   -226.2944913 -0.288105E-04  0.257E-03    0.80       3.7  T
   6   -226.2944919 -0.608893E-06  0.132E-03    0.80       7.3  T
   7   -226.2944920 -0.434232E-07  0.841E-04    0.80      11.4  T
   8   -226.2944921 -0.961398E-07  0.353E-04    0.80      27.3  T
     SCC iter.                  ...        0 min,  0.232 sec
     gradient                   ...        0 min,  0.030 sec
 * total energy  :  -224.0288906 Eh     change       -0.2415186E-03 Eh
   gradient norm :     0.0056318 Eh/α   predicted    -0.2114332E-03 ( -12.46%)
   displ. norm   :     0.4602501 α      lambda       -0.1924455E-03
   maximum displ.:     0.2423687 α      in ANC's #5, #4, #2, ...

........................................................................
.............................. CYCLE   82 ..............................
........................................................................

 iter      E             dE          RMSdq      gap      omega  full diag
   1   -226.2955126 -0.226296E+03  0.516E-02    0.80       0.0  T
   2   -226.2955184 -0.579109E-05  0.305E-02    0.80       1.0  T
   3   -226.2954662  0.521339E-04  0.185E-02    0.80       1.0  T
   4   -226.2955030 -0.367979E-04  0.104E-02    0.79       1.0  T
   5   -226.2955225 -0.194828E-04  0.222E-03    0.80       4.3  T
   6   -226.2955231 -0.568122E-06  0.106E-03    0.80       9.1  T
   7   -226.2955231 -0.933065E-08  0.707E-04    0.80      13.6  T
   8   -226.2955232 -0.738303E-07  0.268E-04    0.80      35.9  T
     SCC iter.                  ...        0 min,  0.237 sec
     gradient                   ...        0 min,  0.030 sec
 * total energy  :  -224.0290321 Eh     change       -0.1415408E-03 Eh
   gradient norm :     0.0044505 Eh/α   predicted    -0.1166112E-03 ( -17.61%)
   displ. norm   :     0.4872968 α      lambda       -0.1415994E-03
   maximum displ.:     0.2571493 α      in ANC's #5, #4, #2, ...

........................................................................
.............................. CYCLE   83 ..............................
........................................................................

 iter      E             dE          RMSdq      gap      omega  full diag
   1   -226.2944259 -0.226294E+03  0.505E-02    0.80       0.0  T
   2   -226.2944308 -0.489032E-05  0.295E-02    0.80       1.0  T
   3   -226.2944111  0.197050E-04  0.121E-02    0.80       1.0  T
   4   -226.2944252 -0.141511E-04  0.667E-03    0.80       1.4  T
   5   -226.2944327 -0.752552E-05  0.208E-03    0.80       4.6  T
   6   -226.2944332 -0.498004E-06  0.101E-03    0.80       9.5  T
   7   -226.2944333 -0.379466E-07  0.607E-04    0.80      15.8  T
   8   -226.2944333 -0.546518E-07  0.229E-04    0.80      42.1  T
     SCC iter.                  ...        0 min,  0.306 sec
     gradient                   ...        0 min,  0.032 sec
 * total energy  :  -224.0291367 Eh     change       -0.1046028E-03 Eh
   gradient norm :     0.0044567 Eh/α   predicted    -0.8761447E-04 ( -16.24%)
   displ. norm   :     0.3536515 α      lambda       -0.1588183E-03
   maximum displ.:     0.1973720 α      in ANC's #5, #2, #4, ...

........................................................................
.............................. CYCLE   84 ..............................
........................................................................

 iter      E             dE          RMSdq      gap      omega  full diag
   1   -226.3002067 -0.226300E+03  0.394E-02    0.80       0.0  T
   2   -226.3002118 -0.512720E-05  0.233E-02    0.80       1.0  T
   3   -226.3001875  0.243339E-04  0.134E-02    0.80       1.0  T
   4   -226.3002014 -0.139101E-04  0.847E-03    0.79       1.1  T
   5   -226.3002142 -0.127257E-04  0.214E-03    0.80       4.5  T
   6   -226.3002148 -0.606123E-06  0.930E-04    0.80      10.3  T
   7   -226.3002148 -0.946415E-08  0.638E-04    0.80      15.1  T
     SCC iter.                  ...        0 min,  0.191 sec
     gradient                   ...        0 min,  0.030 sec
 * total energy  :  -224.0292093 Eh     change       -0.7254794E-04 Eh
   gradient norm :     0.0048348 Eh/α   predicted    -0.8936278E-04 (  23.18%)
   displ. norm   :     0.3834261 α      lambda       -0.1079837E-03
   maximum displ.:     0.1988311 α      in ANC's #5, #4, #2, ...

........................................................................
.............................. CYCLE   85 ..............................
........................................................................

 iter      E             dE          RMSdq      gap      omega  full diag
   1   -226.2968810 -0.226297E+03  0.391E-02    0.80       0.0  T
   2   -226.2968835 -0.246409E-05  0.230E-02    0.80       1.0  T
   3   -226.2968668  0.167064E-04  0.108E-02    0.79       1.0  T
   4   -226.2968789 -0.121515E-04  0.564E-03    0.80       1.7  T
   5   -226.2968848 -0.586934E-05  0.162E-03    0.80       5.9  T
   6   -226.2968851 -0.301853E-06  0.712E-04    0.80      13.5  T
   7   -226.2968851 -0.195393E-07  0.423E-04    0.80      22.8  T
     SCC iter.                  ...        0 min,  0.214 sec
     gradient                   ...        0 min,  0.027 sec
 * total energy  :  -224.0292736 Eh     change       -0.6433641E-04 Eh
   gradient norm :     0.0039821 Eh/α   predicted    -0.6193019E-04 (  -3.74%)
   displ. norm   :     0.1644668 α      lambda       -0.6133758E-04
   maximum displ.:     0.0856045 α      in ANC's #4, #5, #2, ...

........................................................................
.............................. CYCLE   86 ..............................
........................................................................

 iter      E             dE          RMSdq      gap      omega  full diag
   1   -226.2968684 -0.226297E+03  0.178E-02    0.80       0.0  T
   2   -226.2968691 -0.673868E-06  0.106E-02    0.80       1.0  T
   3   -226.2968588  0.103135E-04  0.798E-03    0.79       1.2  T
   4   -226.2968672 -0.846390E-05  0.374E-03    0.80       2.6  T
   5   -226.2968698 -0.250642E-05  0.104E-03    0.80       9.3  T
   6   -226.2968699 -0.152422E-06  0.365E-04    0.80      26.4  T
   7   -226.2968699 -0.937234E-09  0.229E-04    0.80      42.0  T
     SCC iter.                  ...        0 min,  0.205 sec
     gradient                   ...        0 min,  0.030 sec
 * total energy  :  -224.0293244 Eh     change       -0.5079248E-04 Eh
   gradient norm :     0.0033052 Eh/α   predicted    -0.3150056E-04 ( -37.98%)
   displ. norm   :     0.3316978 α      lambda       -0.1541586E-03
   maximum displ.:     0.1598591 α      in ANC's #4, #5, #9, ...

........................................................................
.............................. CYCLE   87 ..............................
........................................................................

 iter      E             dE          RMSdq      gap      omega  full diag
   1   -226.2981576 -0.226298E+03  0.424E-02    0.79       0.0  T
   2   -226.2981586 -0.100232E-05  0.253E-02    0.79       1.0  T
   3   -226.2980700  0.886005E-04  0.234E-02    0.79       1.0  T
   4   -226.2981515 -0.814777E-04  0.890E-03    0.80       1.1  T
   5   -226.2981654 -0.139382E-04  0.231E-03    0.79       4.2  T
   6   -226.2981661 -0.703287E-06  0.970E-04    0.79       9.9  T
   7   -226.2981662 -0.312864E-07  0.526E-04    0.79      18.3  T
     SCC iter.                  ...        0 min,  0.217 sec
     gradient                   ...        0 min,  0.039 sec
 * total energy  :  -224.0294343 Eh     change       -0.1098593E-03 Eh
   gradient norm :     0.0039582 Eh/α   predicted    -0.8556176E-04 ( -22.12%)
   displ. norm   :     0.3652842 α      lambda       -0.9770047E-04
   maximum displ.:     0.1866001 α      in ANC's #4, #5, #2, ...

........................................................................
.............................. CYCLE   88 ..............................
........................................................................

 iter      E             dE          RMSdq      gap      omega  full diag
   1   -226.2978220 -0.226298E+03  0.385E-02    0.79       0.0  T
   2   -226.2978239 -0.192416E-05  0.229E-02    0.79       1.0  T
   3   -226.2977683  0.556035E-04  0.188E-02    0.79       1.0  T
   4   -226.2978169 -0.485951E-04  0.802E-03    0.80       1.2  T
   5   -226.2978284 -0.115458E-04  0.215E-03    0.79       4.5  T
   6   -226.2978291 -0.636717E-06  0.884E-04    0.79      10.9  T
   7   -226.2978291 -0.216271E-07  0.498E-04    0.79      19.3  T
     SCC iter.                  ...        0 min,  0.281 sec
     gradient                   ...        0 min,  0.029 sec
 * total energy  :  -224.0295092 Eh     change       -0.7493362E-04 Eh
   gradient norm :     0.0039582 Eh/α   predicted    -0.5537424E-04 ( -26.10%)
   displ. norm   :     0.3703387 α      lambda       -0.9075849E-04
   maximum displ.:     0.1890995 α      in ANC's #4, #5, #2, ...

........................................................................
.............................. CYCLE   89 ..............................
........................................................................

 iter      E             dE          RMSdq      gap      omega  full diag
   1   -226.2975649 -0.226298E+03  0.380E-02    0.79       0.0  T
   2   -226.2975676 -0.275502E-05  0.227E-02    0.79       1.0  T
   3   -226.2975239  0.437062E-04  0.170E-02    0.79       1.0  T
   4   -226.2975600 -0.360449E-04  0.807E-03    0.79       1.2  T
   5   -226.2975718 -0.118075E-04  0.226E-03    0.79       4.3  T
   6   -226.2975725 -0.721233E-06  0.881E-04    0.79      10.9  T
   7   -226.2975725 -0.194601E-07  0.492E-04    0.79      19.6  T
     SCC iter.                  ...        0 min,  0.205 sec
     gradient                   ...        0 min,  0.034 sec
 * total energy  :  -224.0295760 Eh     change       -0.6684507E-04 Eh
   gradient norm :     0.0034795 Eh/α   predicted    -0.5160801E-04 ( -22.79%)
   displ. norm   :     0.3024261 α      lambda       -0.6661252E-04
   maximum displ.:     0.1583954 α      in ANC's #4, #5, #2, ...

........................................................................
.............................. CYCLE   90 ..............................
........................................................................

 iter      E             dE          RMSdq      gap      omega  full diag
   1   -226.2970552 -0.226297E+03  0.300E-02    0.79       0.0  T
   2   -226.2970573 -0.209838E-05  0.180E-02    0.79       1.0  T
   3   -226.2970393  0.179284E-04  0.111E-02    0.79       1.0  T
   4   -226.2970545 -0.152227E-04  0.515E-03    0.79       1.9  T
   5   -226.2970591 -0.459086E-05  0.193E-03    0.79       5.0  T
   6   -226.2970597 -0.558146E-06  0.693E-04    0.79      13.9  T
   7   -226.2970597 -0.832881E-08  0.430E-04    0.79      22.4  T
     SCC iter.                  ...        0 min,  0.211 sec
     gradient                   ...        0 min,  0.029 sec
 * total energy  :  -224.0296250 Eh     change       -0.4892168E-04 Eh
   gradient norm :     0.0028757 Eh/α   predicted    -0.3635626E-04 ( -25.68%)
   displ. norm   :     0.2216280 α      lambda       -0.5617676E-04
   maximum displ.:     0.1182268 α      in ANC's #4, #2, #9, ...

........................................................................
.............................. CYCLE   91 ..............................
........................................................................

 iter      E             dE          RMSdq      gap      omega  full diag
   1   -226.2974000 -0.226297E+03  0.235E-02    0.79       0.0  T
   2   -226.2974016 -0.160063E-05  0.142E-02    0.79       1.0  T
   3   -226.2973944  0.719598E-05  0.770E-03    0.79       1.2  T
   4   -226.2974018 -0.745031E-05  0.247E-03    0.79       3.9  T
   5   -226.2974027 -0.841031E-06  0.124E-03    0.79       7.8  T
   6   -226.2974029 -0.228102E-06  0.517E-04    0.79      18.6  T
   7   -226.2974029 -0.127597E-07  0.292E-04    0.79      33.0  T
     SCC iter.                  ...        0 min,  0.235 sec
     gradient                   ...        0 min,  0.029 sec
 * total energy  :  -224.0296661 Eh     change       -0.4111531E-04 Eh
   gradient norm :     0.0029444 Eh/α   predicted    -0.2947271E-04 ( -28.32%)
   displ. norm   :     0.2071968 α      lambda       -0.5149988E-04
   maximum displ.:     0.1175849 α      in ANC's #4, #2, #3, ...

........................................................................
.............................. CYCLE   92 ..............................
........................................................................

 iter      E             dE          RMSdq      gap      omega  full diag
   1   -226.2973428 -0.226297E+03  0.233E-02    0.79       0.0  T
   2   -226.2973444 -0.157676E-05  0.140E-02    0.79       1.0  T
   3   -226.2973337  0.106544E-04  0.887E-03    0.80       1.1  T
   4   -226.2973413 -0.754364E-05  0.486E-03    0.79       2.0  T
   5   -226.2973453 -0.400402E-05  0.149E-03    0.79       6.5  T
   6   -226.2973456 -0.312868E-06  0.614E-04    0.79      15.7  T
   7   -226.2973456 -0.119595E-07  0.419E-04    0.79      23.0  T
     SCC iter.                  ...        0 min,  0.240 sec
     gradient                   ...        0 min,  0.027 sec
 * total energy  :  -224.0297043 Eh     change       -0.3827343E-04 Eh
   gradient norm :     0.0029931 Eh/α   predicted    -0.2685761E-04 ( -29.83%)
   displ. norm   :     0.2173767 α      lambda       -0.5315278E-04
   maximum displ.:     0.1229498 α      in ANC's #4, #2, #9, ...
 * RMSD in coord.:     0.8617994 α      energy gain  -0.3446434E-02 Eh

generating ANC from exact Hessian ...
Using Lindh-Hessian (1995)
 Shifting diagonal of input Hessian by   1.008115979896083E-002
 Lowest  eigenvalues of input Hessian
    0.010000    0.010016    0.000000    0.000000    0.000000    0.000000
    0.000000    0.000000    0.010123    0.010227    0.010666    0.010894
    0.011261    0.011651    0.012027    0.012888    0.014710    0.015482
 Highest eigenvalues
    2.084749    2.153366    2.156007    2.263001    2.325009    2.444518
 

........................................................................
.............................. CYCLE   93 ..............................
........................................................................

 iter      E             dE          RMSdq      gap      omega  full diag
   1   -226.2980892 -0.226298E+03  0.273E-02    0.79       0.0  T
   2   -226.2980911 -0.190474E-05  0.163E-02    0.79       1.0  T
   3   -226.2980695  0.216088E-04  0.120E-02    0.80       1.0  T
   4   -226.2980867 -0.172042E-04  0.587E-03    0.79       1.6  T
   5   -226.2980926 -0.596366E-05  0.154E-03    0.79       6.3  T
   6   -226.2980929 -0.265281E-06  0.776E-04    0.79      12.4  T
   7   -226.2980929 -0.349409E-07  0.491E-04    0.79      19.6  T
     SCC iter.                  ...        0 min,  0.215 sec
     gradient                   ...        0 min,  0.032 sec
 * total energy  :  -224.0297434 Eh     change       -0.3902700E-04 Eh
   gradient norm :     0.0029686 Eh/α   predicted     0.0000000E+00 (-100.00%)
   displ. norm   :     0.0329253 α      lambda       -0.2540327E-04
   maximum displ.:     0.0174484 α      in ANC's #3, #6, #7, ...

........................................................................
.............................. CYCLE   94 ..............................
........................................................................

 iter      E             dE          RMSdq      gap      omega  full diag
   1   -226.2979078 -0.226298E+03  0.643E-03    0.79       0.0  T
   2   -226.2979080 -0.182641E-06  0.389E-03    0.79       2.5  T
   3   -226.2979070  0.989902E-06  0.301E-03    0.79       3.2  T
   4   -226.2979075 -0.516413E-06  0.188E-03    0.79       5.1  T
   5   -226.2979082 -0.637617E-06  0.474E-04    0.79      20.3  T
   6   -226.2979082 -0.318889E-07  0.160E-04    0.79      60.0  T
     SCC iter.                  ...        0 min,  0.172 sec
     gradient                   ...        0 min,  0.028 sec
 * total energy  :  -224.0297664 Eh     change       -0.2303406E-04 Eh
   gradient norm :     0.0017966 Eh/α   predicted    -0.1336283E-04 ( -41.99%)
   displ. norm   :     0.1830070 α      lambda       -0.6597669E-04
   maximum displ.:     0.0967165 α      in ANC's #3, #6, #7, ...

........................................................................
.............................. CYCLE   95 ..............................
........................................................................

 iter      E             dE          RMSdq      gap      omega  full diag
   1   -226.2975661 -0.226298E+03  0.320E-02    0.79       0.0  T
   2   -226.2975698 -0.365665E-05  0.191E-02    0.79       1.0  T
   3   -226.2975425  0.273179E-04  0.146E-02    0.80       1.0  T
   4   -226.2975584 -0.159555E-04  0.879E-03    0.79       1.1  T
   5   -226.2975729 -0.144633E-04  0.205E-03    0.79       4.7  T
   6   -226.2975735 -0.584352E-06  0.717E-04    0.79      13.4  T
   7   -226.2975735 -0.999145E-08  0.443E-04    0.79      21.7  T
     SCC iter.                  ...        0 min,  0.200 sec
     gradient                   ...        0 min,  0.028 sec
 * total energy  :  -224.0298123 Eh     change       -0.4584163E-04 Eh
   gradient norm :     0.0034499 Eh/α   predicted    -0.3347979E-04 ( -26.97%)
   displ. norm   :     0.0374291 α      lambda       -0.1797003E-04
   maximum displ.:     0.0219612 α      in ANC's #3, #6, #7, ...

........................................................................
.............................. CYCLE   96 ..............................
........................................................................

 iter      E             dE          RMSdq      gap      omega  full diag
   1   -226.2978583 -0.226298E+03  0.603E-03    0.79       0.0  T
   2   -226.2978583 -0.906403E-07  0.357E-03    0.79       2.7  T
   3   -226.2978579  0.443834E-06  0.188E-03    0.79       5.1  T
   4   -226.2978583 -0.387350E-06  0.767E-04    0.79      12.6  T
   5   -226.2978584 -0.103235E-06  0.304E-04    0.79      31.6  T
     SCC iter.                  ...        0 min,  0.155 sec
     gradient                   ...        0 min,  0.081 sec
 * total energy  :  -224.0298289 Eh     change       -0.1664176E-04 Eh
   gradient norm :     0.0026791 Eh/α   predicted    -0.8997850E-05 ( -45.93%)
   displ. norm   :     0.1747743 α      lambda       -0.6950046E-04
   maximum displ.:     0.0983816 α      in ANC's #3, #7, #6, ...

........................................................................
.............................. CYCLE   97 ..............................
........................................................................

 iter      E             dE          RMSdq      gap      omega  full diag
   1   -226.2985629 -0.226299E+03  0.271E-02    0.79       0.0  T
   2   -226.2985646 -0.171137E-05  0.160E-02    0.79       1.0  T
   3   -226.2985589  0.578770E-05  0.705E-03    0.79       1.4  T
   4   -226.2985632 -0.431277E-05  0.349E-03    0.79       2.8  T
   5   -226.2985651 -0.191655E-05  0.152E-03    0.79       6.3  T
   6   -226.2985654 -0.354735E-06  0.542E-04    0.79      17.7  T
   7   -226.2985654 -0.989175E-08  0.331E-04    0.79      29.1  T
     SCC iter.                  ...        0 min,  0.237 sec
     gradient                   ...        0 min,  0.029 sec
 * total energy  :  -224.0298780 Eh     change       -0.4911823E-04 Eh
   gradient norm :     0.0013439 Eh/α   predicted    -0.3581191E-04 ( -27.09%)
   displ. norm   :     0.2647371 α      lambda       -0.3390283E-04
   maximum displ.:     0.1496216 α      in ANC's #3, #7, #6, ...

........................................................................
.............................. CYCLE   98 ..............................
........................................................................

 iter      E             dE          RMSdq      gap      omega  full diag
   1   -226.2986751 -0.226299E+03  0.390E-02    0.79       0.0  T
   2   -226.2986775 -0.241598E-05  0.230E-02    0.79       1.0  T
   3   -226.2986696  0.792544E-05  0.800E-03    0.79       1.2  T
   4   -226.2986761 -0.653209E-05  0.370E-03    0.79       2.6  T
   5   -226.2986782 -0.203349E-05  0.178E-03    0.79       5.4  T
   6   -226.2986786 -0.434602E-06  0.773E-04    0.79      12.4  T
   7   -226.2986786 -0.308749E-07  0.417E-04    0.79      23.1  T
     SCC iter.                  ...        0 min,  0.216 sec
     gradient                   ...        0 min,  0.034 sec
 * total energy  :  -224.0299118 Eh     change       -0.3379314E-04 Eh
   gradient norm :     0.0029063 Eh/α   predicted    -0.1747989E-04 ( -48.27%)
   displ. norm   :     0.1164320 α      lambda       -0.2115982E-04
   maximum displ.:     0.0668082 α      in ANC's #3, #7, #6, ...

........................................................................
.............................. CYCLE   99 ..............................
........................................................................

 iter      E             dE          RMSdq      gap      omega  full diag
   1   -226.2987156 -0.226299E+03  0.162E-02    0.79       0.0  T
   2   -226.2987159 -0.357313E-06  0.955E-03    0.79       1.0  T
   3   -226.2987149  0.985034E-06  0.283E-03    0.79       3.4  T
   4   -226.2987158 -0.871553E-06  0.118E-03    0.79       8.1  T
   5   -226.2987160 -0.224844E-06  0.547E-04    0.79      17.6  T
   6   -226.2987161 -0.321126E-07  0.282E-04    0.79      34.1  T
     SCC iter.                  ...        0 min,  0.177 sec
     gradient                   ...        0 min,  0.034 sec
 * total energy  :  -224.0299306 Eh     change       -0.1876704E-04 Eh
   gradient norm :     0.0022948 Eh/α   predicted    -0.1072532E-04 ( -42.85%)
   displ. norm   :     0.1919340 α      lambda       -0.3718172E-04
   maximum displ.:     0.1113694 α      in ANC's #3, #7, #4, ...

........................................................................
.............................. CYCLE  100 ..............................
........................................................................

 iter      E             dE          RMSdq      gap      omega  full diag
   1   -226.2986974 -0.226299E+03  0.266E-02    0.79       0.0  T
   2   -226.2986984 -0.990280E-06  0.158E-02    0.79       1.0  T
   3   -226.2986964  0.201820E-05  0.424E-03    0.79       2.3  T
   4   -226.2986983 -0.190640E-05  0.176E-03    0.79       5.5  T
   5   -226.2986987 -0.328019E-06  0.100E-03    0.79       9.6  T
   6   -226.2986988 -0.114357E-06  0.521E-04    0.79      18.5  T
   7   -226.2986988 -0.160689E-07  0.312E-04    0.79      30.8  T
     SCC iter.                  ...        0 min,  0.225 sec
     gradient                   ...        0 min,  0.038 sec
 * total energy  :  -224.0299593 Eh     change       -0.2872979E-04 Eh
   gradient norm :     0.0010695 Eh/α   predicted    -0.1927793E-04 ( -32.90%)
   displ. norm   :     0.2729742 α      lambda       -0.2580490E-04
   maximum displ.:     0.1631267 α      in ANC's #3, #4, #7, ...

........................................................................
.............................. CYCLE  101 ..............................
........................................................................

 iter      E             dE          RMSdq      gap      omega  full diag
   1   -226.2985024 -0.226299E+03  0.377E-02    0.79       0.0  T
   2   -226.2985043 -0.188126E-05  0.224E-02    0.79       1.0  T
   3   -226.2984996  0.471737E-05  0.623E-03    0.79       1.5  T
   4   -226.2985039 -0.428902E-05  0.255E-03    0.79       3.8  T
   5   -226.2985047 -0.805332E-06  0.144E-03    0.79       6.7  T
   6   -226.2985050 -0.274550E-06  0.753E-04    0.79      12.8  T
   7   -226.2985050 -0.400717E-07  0.456E-04    0.79      21.1  T
     SCC iter.                  ...        0 min,  0.240 sec
     gradient                   ...        0 min,  0.030 sec
 * total energy  :  -224.0299838 Eh     change       -0.2445549E-04 Eh
   gradient norm :     0.0019209 Eh/α   predicted    -0.1333031E-04 ( -45.49%)
   displ. norm   :     0.1158346 α      lambda       -0.1288319E-04
   maximum displ.:     0.0734476 α      in ANC's #3, #4, #7, ...

........................................................................
.............................. CYCLE  102 ..............................
........................................................................

 iter      E             dE          RMSdq      gap      omega  full diag
   1   -226.2987598 -0.226299E+03  0.172E-02    0.80       0.0  T
   2   -226.2987603 -0.481698E-06  0.104E-02    0.79       1.0  T
   3   -226.2987570  0.328151E-05  0.466E-03    0.79       2.1  T
   4   -226.2987598 -0.275904E-05  0.204E-03    0.79       4.7  T
   5   -226.2987605 -0.772747E-06  0.699E-04    0.79      13.8  T
   6   -226.2987606 -0.648861E-07  0.325E-04    0.79      29.6  T
     SCC iter.                  ...        0 min,  0.173 sec
     gradient                   ...        0 min,  0.026 sec
 * total energy  :  -224.0299999 Eh     change       -0.1617283E-04 Eh
   gradient norm :     0.0017603 Eh/α   predicted    -0.6480652E-05 ( -59.93%)
   displ. norm   :     0.1642423 α      lambda       -0.2378242E-04
   maximum displ.:     0.1037175 α      in ANC's #3, #4, #1, ...

........................................................................
.............................. CYCLE  103 ..............................
........................................................................

 iter      E             dE          RMSdq      gap      omega  full diag
   1   -226.2991153 -0.226299E+03  0.249E-02    0.80       0.0  T
   2   -226.2991172 -0.186894E-05  0.149E-02    0.79       1.0  T
   3   -226.2991109  0.632125E-05  0.756E-03    0.80       1.3  T
   4   -226.2991168 -0.589420E-05  0.286E-03    0.80       3.4  T
   5   -226.2991181 -0.133871E-05  0.121E-03    0.79       7.9  T
   6   -226.2991183 -0.219041E-06  0.558E-04    0.80      17.2  T
   7   -226.2991183 -0.916788E-08  0.414E-04    0.79      23.3  T
     SCC iter.                  ...        0 min,  0.202 sec
     gradient                   ...        0 min,  0.032 sec
 * total energy  :  -224.0300260 Eh     change       -0.2609807E-04 Eh
   gradient norm :     0.0011171 Eh/α   predicted    -0.1203825E-04 ( -53.87%)
   displ. norm   :     0.1714181 α      lambda       -0.1670119E-04
   maximum displ.:     0.1098112 α      in ANC's #3, #4, #1, ...

........................................................................
.............................. CYCLE  104 ..............................
........................................................................

 iter      E             dE          RMSdq      gap      omega  full diag
   1   -226.2986224 -0.226299E+03  0.251E-02    0.80       0.0  T
   2   -226.2986235 -0.111921E-05  0.151E-02    0.79       1.0  T
   3   -226.2986129  0.105835E-04  0.853E-03    0.80       1.1  T
   4   -226.2986222 -0.924072E-05  0.370E-03    0.79       2.6  T
   5   -226.2986245 -0.233337E-05  0.123E-03    0.80       7.8  T
   6   -226.2986247 -0.173730E-06  0.637E-04    0.80      15.1  T
   7   -226.2986247 -0.147987E-07  0.456E-04    0.80      21.1  T
     SCC iter.                  ...        0 min,  0.237 sec
     gradient                   ...        0 min,  0.029 sec
 * total energy  :  -224.0300444 Eh     change       -0.1834397E-04 Eh
   gradient norm :     0.0012421 Eh/α   predicted    -0.8463545E-05 ( -53.86%)
   displ. norm   :     0.1344681 α      lambda       -0.1054001E-04
   maximum displ.:     0.0883172 α      in ANC's #3, #4, #1, ...

........................................................................
.............................. CYCLE  105 ..............................
........................................................................

 iter      E             dE          RMSdq      gap      omega  full diag
   1   -226.2987340 -0.226299E+03  0.187E-02    0.80       0.0  T
   2   -226.2987345 -0.498186E-06  0.112E-02    0.80       1.0  T
   3   -226.2987291  0.540634E-05  0.591E-03    0.80       1.6  T
   4   -226.2987342 -0.505383E-05  0.216E-03    0.80       4.4  T
   5   -226.2987350 -0.862438E-06  0.780E-04    0.80      12.3  T
   6   -226.2987351 -0.707840E-07  0.379E-04    0.80      25.4  T
     SCC iter.                  ...        0 min,  0.268 sec
     gradient                   ...        0 min,  0.029 sec
 * total energy  :  -224.0300575 Eh     change       -0.1314656E-04 Eh
   gradient norm :     0.0010792 Eh/α   predicted    -0.5313596E-05 ( -59.58%)
   displ. norm   :     0.1344475 α      lambda       -0.1132671E-04
   maximum displ.:     0.0888357 α      in ANC's #3, #4, #1, ...

........................................................................
.............................. CYCLE  106 ..............................
........................................................................

 iter      E             dE          RMSdq      gap      omega  full diag
   1   -226.2987008 -0.226299E+03  0.185E-02    0.80       0.0  T
   2   -226.2987010 -0.233168E-06  0.112E-02    0.80       1.0  T
   3   -226.2986911  0.985302E-05  0.736E-03    0.79       1.3  T
   4   -226.2986998 -0.867291E-05  0.302E-03    0.80       3.2  T
   5   -226.2987015 -0.169411E-05  0.915E-04    0.80      10.5  T
   6   -226.2987016 -0.972501E-07  0.407E-04    0.80      23.7  T
   7   -226.2987016 -0.486096E-08  0.290E-04    0.80      33.2  T
     SCC iter.                  ...        0 min,  0.255 sec
     gradient                   ...        0 min,  0.031 sec
 * total energy  :  -224.0300719 Eh     change       -0.1438039E-04 Eh
   gradient norm :     0.0007897 Eh/α   predicted    -0.5709816E-05 ( -60.29%)
   displ. norm   :     0.1655510 α      lambda       -0.1298450E-04
   maximum displ.:     0.1083493 α      in ANC's #3, #4, #1, ...

........................................................................
.............................. CYCLE  107 ..............................
........................................................................

 iter      E             dE          RMSdq      gap      omega  full diag
   1   -226.2987466 -0.226299E+03  0.224E-02    0.80       0.0  T
   2   -226.2987469 -0.354943E-06  0.135E-02    0.80       1.0  T
   3   -226.2987350  0.119231E-04  0.797E-03    0.79       1.2  T
   4   -226.2987455 -0.104674E-04  0.330E-03    0.80       2.9  T
   5   -226.2987475 -0.197765E-05  0.112E-03    0.80       8.6  T
   6   -226.2987476 -0.153924E-06  0.483E-04    0.80      19.9  T
   7   -226.2987476 -0.737532E-08  0.344E-04    0.80      28.0  T
     SCC iter.                  ...        0 min,  0.217 sec
     gradient                   ...        0 min,  0.028 sec
 * total energy  :  -224.0300879 Eh     change       -0.1602515E-04 Eh
   gradient norm :     0.0008546 Eh/α   predicted    -0.6573984E-05 ( -58.98%)
   displ. norm   :     0.1798337 α      lambda       -0.1246579E-04
   maximum displ.:     0.1161105 α      in ANC's #3, #4, #1, ...

........................................................................
.............................. CYCLE  108 ..............................
........................................................................

 iter      E             dE          RMSdq      gap      omega  full diag
   1   -226.2987368 -0.226299E+03  0.235E-02    0.80       0.0  T
   2   -226.2987370 -0.273577E-06  0.141E-02    0.80       1.0  T
   3   -226.2987245  0.124885E-04  0.811E-03    0.79       1.2  T
   4   -226.2987359 -0.113695E-04  0.301E-03    0.80       3.2  T
   5   -226.2987375 -0.158962E-05  0.102E-03    0.80       9.4  T
   6   -226.2987376 -0.115894E-06  0.458E-04    0.80      21.0  T
   7   -226.2987376 -0.628589E-08  0.327E-04    0.80      29.5  T
     SCC iter.                  ...        0 min,  0.198 sec
     gradient                   ...        0 min,  0.028 sec
 * total energy  :  -224.0301038 Eh     change       -0.1583391E-04 Eh
   gradient norm :     0.0011404 Eh/α   predicted    -0.6324844E-05 ( -60.06%)
   displ. norm   :     0.2103873 α      lambda       -0.1449390E-04
   maximum displ.:     0.1335570 α      in ANC's #3, #4, #1, ...

........................................................................
.............................. CYCLE  109 ..............................
........................................................................

 iter      E             dE          RMSdq      gap      omega  full diag
   1   -226.2987301 -0.226299E+03  0.266E-02    0.80       0.0  T
   2   -226.2987305 -0.379772E-06  0.160E-02    0.80       1.0  T
   3   -226.2987208  0.962864E-05  0.714E-03    0.79       1.3  T
   4   -226.2987292 -0.839794E-05  0.301E-03    0.80       3.2  T
   5   -226.2987308 -0.159747E-05  0.105E-03    0.80       9.2  T
   6   -226.2987309 -0.108310E-06  0.496E-04    0.80      19.4  T
   7   -226.2987309 -0.108169E-07  0.332E-04    0.80      29.0  T
     SCC iter.                  ...        0 min,  0.209 sec
     gradient                   ...        0 min,  0.032 sec
 * total energy  :  -224.0301227 Eh     change       -0.1896033E-04 Eh
   gradient norm :     0.0013448 Eh/α   predicted    -0.7391327E-05 ( -61.02%)
   displ. norm   :     0.2923462 α      lambda       -0.2063766E-04
   maximum displ.:     0.1830012 α      in ANC's #3, #4, #1, ...

........................................................................
.............................. CYCLE  110 ..............................
........................................................................

 iter      E             dE          RMSdq      gap      omega  full diag
   1   -226.2987111 -0.226299E+03  0.365E-02    0.80       0.0  T
   2   -226.2987120 -0.862051E-06  0.218E-02    0.80       1.0  T
   3   -226.2987037  0.832281E-05  0.708E-03    0.80       1.4  T
   4   -226.2987101 -0.643108E-05  0.364E-03    0.80       2.6  T
   5   -226.2987123 -0.224881E-05  0.139E-03    0.80       6.9  T
   6   -226.2987126 -0.210603E-06  0.616E-04    0.80      15.6  T
   7   -226.2987126 -0.189809E-07  0.374E-04    0.80      25.8  T
     SCC iter.                  ...        0 min,  0.208 sec
     gradient                   ...        0 min,  0.028 sec
 * total energy  :  -224.0301494 Eh     change       -0.2672584E-04 Eh
   gradient norm :     0.0014079 Eh/α   predicted    -0.1071195E-04 ( -59.92%)
   displ. norm   :     0.4148888 α      lambda       -0.2719934E-04
   maximum displ.:     0.2573612 α      in ANC's #3, #4, #1, ...

........................................................................
.............................. CYCLE  111 ..............................
........................................................................

 iter      E             dE          RMSdq      gap      omega  full diag
   1   -226.2984233 -0.226298E+03  0.519E-02    0.80       0.0  T
   2   -226.2984254 -0.204488E-05  0.310E-02    0.80       1.0  T
   3   -226.2984184  0.701694E-05  0.728E-03    0.80       1.3  T
   4   -226.2984252 -0.686783E-05  0.286E-03    0.80       3.4  T
   5   -226.2984261 -0.848874E-06  0.150E-03    0.80       6.4  T
   6   -226.2984263 -0.182389E-06  0.874E-04    0.80      11.0  T
   7   -226.2984263 -0.912825E-07  0.341E-04    0.80      28.2  T
     SCC iter.                  ...        0 min,  0.206 sec
     gradient                   ...        0 min,  0.032 sec
 * total energy  :  -224.0301830 Eh     change       -0.3351042E-04 Eh
   gradient norm :     0.0013769 Eh/α   predicted    -0.1464289E-04 ( -56.30%)
   displ. norm   :     0.4811072 α      lambda       -0.2538620E-04
   maximum displ.:     0.2964730 α      in ANC's #3, #4, #1, ...

........................................................................
.............................. CYCLE  112 ..............................
........................................................................

 iter      E             dE          RMSdq      gap      omega  full diag
   1   -226.2983026 -0.226298E+03  0.607E-02    0.80       0.0  T
   2   -226.2983055 -0.288946E-05  0.362E-02    0.80       1.0  T
   3   -226.2982907  0.148260E-04  0.101E-02    0.80       1.0  T
   4   -226.2983034 -0.127418E-04  0.470E-03    0.79       2.0  T
   5   -226.2983062 -0.274495E-05  0.248E-03    0.80       3.9  T
   6   -226.2983069 -0.769310E-06  0.122E-03    0.80       7.9  T
   7   -226.2983071 -0.155805E-06  0.510E-04    0.80      18.9  T
   8   -226.2983071 -0.346567E-07  0.176E-04    0.80      54.6  T
     SCC iter.                  ...        0 min,  0.253 sec
     gradient                   ...        0 min,  0.030 sec
 * total energy  :  -224.0302116 Eh     change       -0.2868039E-04 Eh
   gradient norm :     0.0012588 Eh/α   predicted    -0.1400424E-04 ( -51.17%)
   displ. norm   :     0.4076060 α      lambda       -0.1533110E-04
   maximum displ.:     0.2502752 α      in ANC's #3, #4, #1, ...

........................................................................
.............................. CYCLE  113 ..............................
........................................................................

 iter      E             dE          RMSdq      gap      omega  full diag
   1   -226.2984440 -0.226298E+03  0.519E-02    0.80       0.0  T
   2   -226.2984460 -0.203556E-05  0.309E-02    0.80       1.0  T
   3   -226.2984233  0.227301E-04  0.116E-02    0.80       1.0  T
   4   -226.2984415 -0.182039E-04  0.573E-03    0.79       1.7  T
   5   -226.2984471 -0.554715E-05  0.205E-03    0.80       4.7  T
   6   -226.2984476 -0.508450E-06  0.949E-04    0.80      10.1  T
   7   -226.2984476 -0.669601E-07  0.420E-04    0.80      22.9  T
     SCC iter.                  ...        0 min,  0.288 sec
     gradient                   ...        0 min,  0.044 sec
 * total energy  :  -224.0302272 Eh     change       -0.1555897E-04 Eh
   gradient norm :     0.0010606 Eh/α   predicted    -0.8235026E-05 ( -47.07%)
   displ. norm   :     0.2387964 α      lambda       -0.6811908E-05
   maximum displ.:     0.1458862 α      in ANC's #3, #4, #1, ...

........................................................................
.............................. CYCLE  114 ..............................
........................................................................

 iter      E             dE          RMSdq      gap      omega  full diag
   1   -226.2990877 -0.226299E+03  0.316E-02    0.80       0.0  T
   2   -226.2990884 -0.688002E-06  0.189E-02    0.80       1.0  T
   3   -226.2990750  0.133655E-04  0.859E-03    0.80       1.1  T
   4   -226.2990865 -0.114584E-04  0.378E-03    0.80       2.5  T
   5   -226.2990890 -0.247635E-05  0.121E-03    0.80       8.0  T
   6   -226.2990891 -0.167464E-06  0.602E-04    0.80      16.0  T
   7   -226.2990892 -0.265816E-07  0.268E-04    0.80      35.9  T
     SCC iter.                  ...        0 min,  0.287 sec
     gradient                   ...        0 min,  0.025 sec
 * total energy  :  -224.0302339 Eh     change       -0.6739467E-05 Eh
   gradient norm :     0.0006677 Eh/α   predicted    -0.3496593E-05 ( -48.12%)
   displ. norm   :     0.1242156 α      lambda       -0.3673284E-05
   maximum displ.:     0.0747556 α      in ANC's #3, #4, #1, ...

........................................................................
.............................. CYCLE  115 ..............................
........................................................................

 iter      E             dE          RMSdq      gap      omega  full diag
   1   -226.2994660 -0.226299E+03  0.171E-02    0.80       0.0  T
   2   -226.2994662 -0.187089E-06  0.102E-02    0.80       1.0  T
   3   -226.2994603  0.585649E-05  0.554E-03    0.80       1.7  T
   4   -226.2994657 -0.535097E-05  0.209E-03    0.80       4.6  T
   5   -226.2994664 -0.764914E-06  0.723E-04    0.80      13.3  T
   6   -226.2994665 -0.560637E-07  0.394E-04    0.80      24.4  T
     SCC iter.                  ...        0 min,  0.173 sec
     gradient                   ...        0 min,  0.028 sec
 * total energy  :  -224.0302379 Eh     change       -0.3935106E-05 Eh
   gradient norm :     0.0004679 Eh/α   predicted    -0.1850780E-05 ( -52.97%)
   displ. norm   :     0.0807517 α      lambda       -0.3076160E-05
   maximum displ.:     0.0448110 α      in ANC's #3, #1, #4, ...

   *** GEOMETRY OPTIMIZATION CONVERGED AFTER 115 ITERATIONS ***

------------------------------------------------------------------------
 total energy gain   :        -0.0265412 Eh      -16.6549 kcal/mol
 total RMSD          :         2.0878455 a0        1.1048 Å
 total power (kW/mol):        -0.6059480 (step)   -2.0877 (real)
------------------------------------------------------------------------

 ANCopt (total)                0 d,  0 h,  0 min, 33.379 sec
 optimizer setup                ...        0 min,  0.001 sec (  0.003%)
 model hessian                  ...        0 min,  0.272 sec (  0.815%)
 ANC generation                 ...        0 min,  0.064 sec (  0.192%)
 coordinate transformation      ...        0 min,  0.016 sec (  0.048%)
 single point calculation       ...        0 min, 32.746 sec ( 98.104%)
 optimization log               ...        0 min,  0.165 sec (  0.494%)
 hessian update                 ...        0 min,  0.063 sec (  0.189%)
 rational function              ...        0 min,  0.031 sec (  0.093%)

================
 final structure:
================
108
 xtb: 6.7.1pre (5071a88)
F            4.75526293114184        2.67145502958230        6.65645598366768
C            3.86193098336957        2.24597935836591        5.73102076923345
F            3.47276148070962        3.34532107821743        5.07619178491791
C            2.73994259449846        1.48069326163909        6.36490461555860
C            1.50875255342909        2.07856430555532        6.58965870149379
C            0.52070952774803        1.37342835670287        7.25328252131563
C            0.75234313540158        0.07728709556172        7.69307227445448
C            1.97875186142201       -0.52111136639340        7.43356332569691
C            2.97414776968960        0.17424435934646        6.77699661844676
C           -0.30796657987859       -0.69910175294785        8.45359567346265
C           -1.11572675534678        0.19947674690382        9.36986483650056
C           -0.46424057920239        0.79042721942068       10.44192028780577
C           -1.15960324245367        1.60650641530346       11.31084504837953
F           -0.50253422146244        2.17775697631618       12.34779174973085
C           -2.51123681104138        1.85138992738046       11.14669681047198
C           -3.16227996449646        1.26911081479123       10.08064748409475
C           -2.48553564271556        0.44273798184729        9.17639587627706
N           -3.18823231428824       -0.15565469244231        8.15934308993193
C           -2.47130837312611       -0.70375193814069        7.04114902966320
C           -3.15737311160397       -1.85839644003117        6.29899748661016
O           -4.24578431754910       -1.89562631190099        5.78600697519066
N           -2.23267755822333       -2.86103132547928        6.33024863594859
N           -1.11763811195541       -2.58117788054399        7.07137985869096
C           -1.21533321009794       -1.38322072168415        7.49929726378579
F            4.57853653387538        1.51064710325196        4.86338455728527
H            1.32634655420862        3.08463448425110        6.24728946249608
H           -0.43132007757441        1.84450776466010        7.44120145679838
H            2.15455052727473       -1.53743492615740        7.74935261750555
H            3.93000409535939       -0.28726818508923        6.58369506823394
H            0.20083757011117       -1.46388461331719        9.04978253719745
H            0.58899409429008        0.61730679163660       10.59823308408654
H           -3.03369230718255        2.48901193818625       11.84116992048924
H           -4.21700680514648        1.44697380093005        9.93321819260428
H           -4.11588441479306        0.18876261467824        7.96556633214219
H           -2.22718714079820        0.06132732089962        6.28548617814275
H           -2.31090100984619       -3.76066491571730        5.88385801733959
B            3.50913728848484       -1.87544074496049        1.96124537655135
N            3.57504703246999        0.74357700804090        1.47006346699631
B            2.80197241834664        2.19462962036246       -0.63938431752530
N            2.48368923351465       -0.68315169151993       -2.34986097816950
B            0.65124897888232       -3.97016020753045        2.79644272983089
N           -2.91398788486813       -2.86472798136677        1.78683151999569
B           -0.81257043749804        3.77422860572137        2.49102467133421
N           -0.37038237182189        0.16205489698268       -3.57601737326386
B           -0.17162294267315        1.59096258914275       -3.60565304090731
N            1.28131003536736       -3.86109931021727       -1.63794907228418
B           -3.61269297187722        2.18368816067000       -0.04410820411843
N           -2.50457775959962        2.75613156758960       -0.68807363871545
B            1.70252489827989        0.96943240561102       -4.40409867819674
N           -0.06403959729830        2.95083685149783        3.46150464606068
B            1.02685075917789       -2.86232446804387       -2.64410841498497
N           -0.20129454667641        3.66863024182163       -0.35163254207272
B           -0.68024802048574        1.75520949499980        3.78780713420826
N            1.66591769140803       -1.79098543809131        3.80996983776767
B            0.06985787554985        3.46957243051612       -1.73403378579529
N            1.35096010546310       -0.46482027013325        4.22160720839590
B           -1.38793126060953       -0.44816988433960       -2.79072135437312
N           -3.64604502836287        1.64553273753550        1.24239573738795
B            0.59202898577875        4.19428101948169        1.91456457437180
N            0.06474567952018       -0.55681036573413        4.81241857796132
B           -2.53168447118807        1.99558967125371        2.06906105320964
N            3.92453633699952       -0.37975382250829       -0.31769720766410
B           -2.24738694634874       -3.81693876082019        1.02644573616942
N            1.24914052544035        3.32073494446095        2.91697090114079
B           -1.78964976652361       -1.15352071442288        3.46322212132877
N           -2.38984253229793       -3.65828977477044       -0.42812222873552
B            3.16290179897491       -1.23368005197837       -1.14286072112814
N           -3.04377580673890       -1.29899710523862       -0.19328470646755
B            2.21901502273630        2.53431744791442        2.20766926228624
N           -0.38869713250163       -2.86702262217199       -2.30015254009151
B           -1.52791148390942       -2.03965191834552       -2.32463120631469
N            0.86188352448953        3.76064310898497        0.58734935207573
B            1.41522437424237        2.97931967354767       -2.53787149639164
N            0.03919053141713       -4.66504453701739        1.73911203845352
B           -1.51684559729235        3.34857237146103        0.18959440076570
N           -1.78327171711243        3.20399825179518        1.61769033987566
B            1.43774842423423       -4.54683885937630        1.56262264465344
N           -0.73856397193446        0.57214736982478        4.63069364746262
B           -2.56518925810522       -2.39895001021613       -1.06055121509037
N           -1.09476505657570       -4.69615855907321        0.97282211166693
B           -2.28560516092630        0.55323501806165       -1.75639622081797
N            2.36024171418054       -4.16943979987508        0.56755558672788
B            4.01974139854016       -0.57186257607668        1.16822132143314
N            2.20471883072386        1.89807744136844       -1.88265855454822
B            1.34176317763629        2.39247240943676       -4.03091408749169
N           -4.00196879176285        0.80880567658355       -0.01456626108457
B           -1.03031707738837        2.54897802289902       -2.57340674670264
N           -2.08815739462072        1.99956231554527       -1.83375403280675
B            3.11436906041103       -2.96665189371377        0.83146029144487
N            2.38754263505931       -3.84383535136694       -0.83414453014843
B            2.29402623676198        0.05886591076771        3.26401673301094
N           -1.96725794300263        0.20889267752280        3.96017920222710
B           -1.07446898456952       -4.28377453561186       -0.43243138055695
N           -3.04570347752404        0.03815585060742       -0.66358891311537
B            3.64961048329997        1.00183548554908        0.03759348840365
N            2.70078574930118        1.19613067579317        2.48446190493592
B            1.65893794148020       -1.50565843246841       -3.22528688466209
N           -1.97016121965831        1.41354670475419        3.20354416407129
B            2.29233380774559        0.71313535331494       -2.72454210664792
N           -2.66940538712817       -1.61362889634611        2.50033874440332
B            0.90341821953015       -0.39097315359899       -4.13282502868605
N           -0.10526475784162       -3.81915557582314       -1.28818206336297
B            0.47382122312494       -2.57361539143922        3.63957508122185
N           -0.58566619089213       -1.67041580977625        4.06942054845894
B           -3.15669386700138       -1.60459835151011        1.16826339602593
N            2.71432503419689       -1.33310449353347        2.98287594185691
B            2.12908209688171        3.09295147525375        0.57366649217549
N            2.96358902140203       -2.53871080285753       -0.53746557911443
 
 Bond Distances (Angstroems)
 ---------------------------
F1-C2=1.3548         C2-F1=1.3548         C2-F3=1.3375         C2-C4=1.4988         C2-F25=1.3443        F3-C2=1.3375         
C4-C2=1.4988         C4-C5=1.3870         C4-C9=1.3898         C5-C4=1.3870         C5-C6=1.3834         C5-H26=1.0783        
C6-C5=1.3834         C6-C7=1.3882         C6-H27=1.0787        C7-C6=1.3882         C7-C8=1.3891         C7-C10=1.5184        
C8-C7=1.3891         C8-C9=1.3804         C8-H28=1.0787        C9-C4=1.3898         C9-C8=1.3804         C9-H29=1.0789        
C10-C7=1.5184        C10-C11=1.5164       C10-C24=1.4839       C10-H30=1.0951       C11-C10=1.5164       C11-C12=1.3867       
C11-C17=1.4046       C12-C11=1.3867       C12-C13=1.3801       C12-H31=1.0788       C13-C12=1.3801       C13-F14=1.3540       
C13-C15=1.3834       F14-C13=1.3540       C15-C13=1.3834       C15-C16=1.3782       C15-H32=1.0779       C16-C15=1.3782       
C16-C17=1.3995       C16-H33=1.0797       C17-C11=1.4046       C17-C16=1.3995       C17-N18=1.3734       N18-C17=1.3734       
N18-C19=1.4369       N18-H34=1.0083       C19-N18=1.4369       C19-C20=1.5345       C19-C24=1.4997       C19-H35=1.1027       
C20-C19=1.5345       C20-O21=1.2038       C20-N22=1.3643       O21-C20=1.2038       N22-C20=1.3643       N22-N23=1.3678       
N22-H36=1.0073       N23-N22=1.3678       N23-C24=1.2758       C24-C10=1.4839       C24-C19=1.4997       C24-N23=1.2758       
F25-C2=1.3443        H26-C5=1.0783        H27-C6=1.0787        H28-C8=1.0787        H29-C9=1.0789        H30-C10=1.0951       
H31-C12=1.0788       H32-C15=1.0779       H33-C16=1.0797       H34-N18=1.0083       H35-C19=1.1027       H36-N22=1.0073       
B37-B83=1.6090       B37-B89=1.6196       B37-N106=1.4034      N38-B83=1.4210       N38-B95=1.4575       N38-N96=1.4136       
B39-N84=1.4108       B39-B95=1.6123       B39-B107=1.6527      N40-B67=1.4904       N40-B97=1.4571       N40-B99=1.4583       
B41-N74=1.4055       B41-B77=1.5727       B41-B103=1.6409      N42-B63=1.3890       N42-N100=1.4609      N42-B105=1.4246      
B43-N50=1.4765       B43-B59=1.5753       B43-N76=1.4248       N44-B45=1.4430       N44-B57=1.4228       N44-B101=1.4961      
B45-N44=1.4430       B45-B49=2.1298       B45-B85=1.7645       B45-B87=1.6494       N46-B51=1.4404       N46-N90=1.3675       
N46-N102=1.4306      B47-N48=1.4037       B47-N58=1.3949       B47-N86=1.4292       N48-B47=1.4037       N48-B75=1.4481       
N48-N88=1.4347       B49-B45=2.1298       B49-B85=1.5147       B49-B99=1.7985       B49-B101=1.6009      N50-B43=1.4765       
N50-B53=1.3841       N50-N64=1.4689       B51-N46=1.4404       B51-N70=1.4567       B51-B97=1.6056       B51-N102=2.0089      
N52-B55=1.4227       N52-N72=1.4214       N52-B75=1.4581       B53-N50=1.3841       B53-N78=1.4538       B53-N98=1.4567       
N54-N56=1.4239       N54-B103=1.4362      N54-N106=1.4117      B55-N52=1.4227       B55-B73=1.6421       B55-B87=1.6621       
N56-N54=1.4239       N56-N60=1.4184       N56-B91=1.4424       B57-N44=1.4228       B57-B71=1.6642       B57-B81=1.6966       
N58-B47=1.3949       N58-B61=1.4310       N58-N86=1.5514       B59-B43=1.5753       B59-N64=1.4831       B59-N72=1.4221       
N60-N56=1.4184       N60-N78=1.3975       N60-N104=1.4884      B61-N58=1.4310       B61-N76=1.4913       B61-N98=1.3932       
N62-B67=1.4107       N62-B83=1.5013       N62-B95=1.4528       B63-N42=1.3890       B63-N66=1.4701       B63-N80=1.4507       
B63-B93=1.9292       N64-N50=1.4689       N64-B59=1.4831       N64-B69=1.4360       B65-N92=1.4611       B65-N100=1.3830      
B65-N104=1.4437      N66-B63=1.4701       N66-B79=1.4201       N66-B93=1.4565       B67-N40=1.4904       B67-N62=1.4107       
B67-N108=1.4524      N68-B79=1.4802       N68-N94=1.4175       N68-B105=1.4000      B69-N64=1.4360       B69-N96=1.4490       
B69-B107=1.7292      N70-B51=1.4567       N70-B71=1.4082       N70-N102=1.4181      B71-B57=1.6642       B71-N70=1.4082       
B71-B79=1.6742       N72-N52=1.4214       N72-B59=1.4221       N72-B107=1.4324      B73-B55=1.6421       B73-N84=1.4905       
B73-B85=1.6059       N74-B41=1.4055       N74-B77=1.4146       N74-N80=1.3689       B75-N48=1.4481       B75-N52=1.4581       
B75-N76=1.4599       N76-B43=1.4248       N76-B61=1.4913       N76-B75=1.4599       B77-B41=1.5727       B77-N74=1.4146       
B77-N82=1.4084       N78-B53=1.4538       N78-N60=1.3975       N78-N92=1.4461       B79-N66=1.4201       B79-N68=1.4802       
B79-B71=1.6742       N80-B63=1.4507       N80-N74=1.3689       N80-B93=1.4647       B81-B57=1.6966       B81-N88=1.4618       
B81-N94=1.4273       N82-B77=1.4084       N82-B89=1.4440       N82-N90=1.4393       B83-B37=1.6090       B83-N38=1.4210       
B83-N62=1.5013       B83-B95=1.9728       N84-B39=1.4108       N84-B73=1.4905       N84-B99=1.4562       B85-B45=1.7645       
B85-B49=1.5147       B85-B73=1.6059       N86-B47=1.4292       N86-N58=1.5514       N86-N94=1.3891       B87-B45=1.6494       
B87-B55=1.6621       B87-N88=1.4028       N88-N48=1.4347       N88-B81=1.4618       N88-B87=1.4028       B89-B37=1.6196       
B89-N82=1.4440       B89-N108=1.4422      N90-N46=1.3675       N90-N82=1.4393       N90-N108=1.4571      B91-N56=1.4424       
B91-N96=1.4375       B91-N106=1.4810      N92-B65=1.4611       N92-N78=1.4461       N92-N98=1.4226       B93-B63=1.9292       
B93-N66=1.4565       B93-N80=1.4647       B93-N102=1.3739      N94-N68=1.4175       N94-B81=1.4273       N94-N86=1.3891       
B95-N38=1.4575       B95-B39=1.6123       B95-N62=1.4528       B95-B83=1.9728       N96-N38=1.4136       N96-B69=1.4490       
N96-B91=1.4375       B97-N40=1.4571       B97-B51=1.6056       B97-B101=1.6239      N98-B53=1.4567       N98-B61=1.3932       
N98-N92=1.4226       B99-N40=1.4583       B99-B49=1.7985       B99-N84=1.4562       N100-N42=1.4609      N100-B65=1.3830      
N100-B105=1.4184     B101-N44=1.4961      B101-B49=1.6009      B101-B97=1.6239      N102-N46=1.4306      N102-B51=2.0089      
N102-N70=1.4181      N102-B93=1.3739      B103-B41=1.6409      B103-N54=1.4362      B103-N104=1.4571     N104-N60=1.4884      
N104-B65=1.4437      N104-B103=1.4571     B105-N42=1.4246      B105-N68=1.4000      B105-N100=1.4184     N106-B37=1.4034      
N106-N54=1.4117      N106-B91=1.4810      B107-B39=1.6527      B107-B69=1.7292      B107-N72=1.4324      N108-B67=1.4524      
N108-B89=1.4422      N108-N90=1.4571      
 B  B  Rav=1.6894 sigma=0.1385  Rmin=1.5147  Rmax=2.1298    24
 C  H  Rav=1.0832 sigma=0.0086  Rmin=1.0779  Rmax=1.1027     9
 C  C  Rav=1.4279 sigma=0.0582  Rmin=1.3782  Rmax=1.5345    18
 N  H  Rav=1.0078 sigma=0.0005  Rmin=1.0073  Rmax=1.0083     2
 N  B  Rav=1.4476 sigma=0.0752  Rmin=1.3739  Rmax=2.0089    67
 N  C  Rav=1.3626 sigma=0.0574  Rmin=1.2758  Rmax=1.4369     4
 N  N  Rav=1.4280 sigma=0.0410  Rmin=1.3675  Rmax=1.5514    22
 O  C  Rav=1.2038 sigma=0.0000  Rmin=1.2038  Rmax=1.2038     1
 F  C  Rav=1.3476 sigma=0.0072  Rmin=1.3375  Rmax=1.3548     4
 
 selected bond angles (degree)
 --------------------
F3-C2-F1=105.56                C4-C2-F1=111.41                C4-C2-F3=114.14                F25-C2-F1=105.14               
F25-C2-F3=106.78               F25-C2-C4=113.12               C5-C4-C2=120.86                C9-C4-C2=118.64                
C9-C4-C5=120.45                C6-C5-C4=119.47                H26-C5-C4=120.06               H26-C5-C6=120.47               
C7-C6-C5=120.58                H27-C6-C5=119.43               H27-C6-C7=119.99               C8-C7-C6=119.36                
C10-C7-C6=121.30               C10-C7-C8=119.33               C9-C8-C7=120.57                H28-C8-C7=119.68               
H28-C8-C9=119.76               C8-C9-C4=119.54                H29-C9-C4=119.89               H29-C9-C8=120.57               
C11-C10-C7=111.82              C24-C10-C7=109.91              C24-C10-C11=109.64             H30-C10-C7=107.78              
H30-C10-C11=109.41             H30-C10-C24=108.19             
 
 selected dihedral angles (degree)
 ---------------------------------
C5-C4-C2-F1=100.96            C5-C4-C2-F3=341.53            C5-C4-C2-F25=219.16           C9-C4-C2-F1=283.69            
C9-C4-C2-F3=164.26            C9-C4-C2-F25= 41.89           C6-C5-C4-C2=184.10            C6-C5-C4-C9=  1.32            
H26-C5-C4-C2=  4.18           H26-C5-C4-C9=181.40           C7-C6-C5-C4=359.97            C7-C6-C5-H26=179.89           
H27-C6-C5-C4=179.06           H27-C6-C5-H26=358.98          C8-C7-C6-C5=358.51            C8-C7-C6-H27=179.43           
C10-C7-C6-C5=178.44           C10-C7-C6-H27=359.36          C9-C8-C7-C6=  1.75            C9-C8-C7-C10=181.81           
H28-C8-C7-C6=181.66           H28-C8-C7-C10=  1.72          C8-C9-C4-C2=176.21            C8-C9-C4-C5=358.93            
H29-C9-C4-C2=356.32           H29-C9-C4-C5=179.04           C4-C9-C8-C7=359.52            C4-C9-C8-H28=179.61           
H29-C9-C8-C7=179.42           H29-C9-C8-H28=359.50          C11-C10-C7-C6=324.26          C11-C10-C7-C8=144.20          
C24-C10-C7-C6= 86.27          C24-C10-C7-C8=266.20          H30-C10-C7-C6=203.97          H30-C10-C7-C8= 23.91          
 
 CMA Distance (Angstroems)
 ---------------------------
R(CMA):  7.3250
           -------------------------------------------------
          |                Final Singlepoint                |
           -------------------------------------------------

          ...................................................
          :                      SETUP                      :
          :.................................................:
          :  # basis functions                 399          :
          :  # atomic orbitals                 399          :
          :  # shells                          205          :
          :  # electrons                       416          :
          :  max. iterations                    50          :
          :  Hamiltonian                  GFN2-xTB          :
          :  restarted?                      false          :
          :  GBSA solvation                  false          :
          :  PC potential                    false          :
          :  electronic temp.          300.0000000     K    :
          :  accuracy                    1.0000000          :
          :  -> integral cutoff          0.2500000E+02      :
          :  -> integral neglect         0.1000000E-07      :
          :  -> SCF convergence          0.1000000E-05 Eh   :
          :  -> wf. convergence          0.1000000E-03 e    :
          :  Broyden damping             0.4000000          :
          :  net charge                          0          :
          :  unpaired electrons                  0          :
          ...................................................

 iter      E             dE          RMSdq      gap      omega  full diag
   1   -226.2994665 -0.226299E+03  0.217E-04    0.80       0.0  T
   2   -226.2994665  0.129270E-07  0.324E-04    0.80      29.7  T
   3   -226.2994665 -0.208949E-07  0.546E-05    0.80     176.3  T

   *** convergence criteria satisfied after 3 iterations ***

         #    Occupation            Energy/Eh            Energy/eV
      -------------------------------------------------------------
         1        2.0000           -0.8659554             -23.5638
       ...           ...                  ...                  ...
       202        2.0000           -0.3329326              -9.0596
       203        2.0000           -0.3307792              -9.0010
       204        2.0000           -0.3295331              -8.9671
       205        2.0000           -0.3263708              -8.8810
       206        2.0000           -0.3207465              -8.7280
       207        2.0000           -0.3191379              -8.6842
       208        2.0000           -0.3176632              -8.6441 (HOMO)
       209        0.0000           -0.2884047              -7.8479 (LUMO)
       210                         -0.2800534              -7.6206
       211                         -0.2694582              -7.3323
       212                         -0.2617295              -7.1220
       213                         -0.2569016              -6.9906
       ...                                ...                  ...
       399                          0.9804853              26.6804
      -------------------------------------------------------------
                  HL-Gap            0.0292585 Eh            0.7962 eV
             Fermi-level           -0.3029277 Eh           -8.2431 eV

 SCC (total)                   0 d,  0 h,  0 min,  0.131 sec
 SCC setup                      ...        0 min,  0.002 sec (  1.527%)
 Dispersion                     ...        0 min,  0.001 sec (  0.763%)
 classical contributions        ...        0 min,  0.000 sec (  0.000%)
 integral evaluation            ...        0 min,  0.010 sec (  7.634%)
 iterations                     ...        0 min,  0.087 sec ( 66.412%)
 molecular gradient             ...        0 min,  0.029 sec ( 22.137%)
 printout                       ...        0 min,  0.002 sec (  1.527%)

         :::::::::::::::::::::::::::::::::::::::::::::::::::::
         ::                     SUMMARY                     ::
         :::::::::::::::::::::::::::::::::::::::::::::::::::::
         :: total energy            -224.030237886901 Eh    ::
         :: gradient norm              0.000521037062 Eh/a0 ::
         :: HOMO-LUMO gap              0.796163448879 eV    ::
         ::.................................................::
         :: SCC energy              -226.280556933202 Eh    ::
         :: -> isotropic ES            0.725218827797 Eh    ::
         :: -> anisotropic ES         -0.035896268249 Eh    ::
         :: -> anisotropic XC          0.069595408998 Eh    ::
         :: -> dispersion             -0.211110777984 Eh    ::
         :: repulsion energy           2.250319046301 Eh    ::
         :: add. restraining           0.000000000000 Eh    ::
         :: total charge               0.000000000426 e     ::
         :::::::::::::::::::::::::::::::::::::::::::::::::::::

           -------------------------------------------------
          |                Property Printout                |
           -------------------------------------------------

    * Orbital Energies and Occupations

         #    Occupation            Energy/Eh            Energy/eV
      -------------------------------------------------------------
         1        2.0000           -0.8659554             -23.5638
       ...           ...                  ...                  ...
       196        2.0000           -0.3462452              -9.4218
       197        2.0000           -0.3443514              -9.3703
       198        2.0000           -0.3402879              -9.2597
       199        2.0000           -0.3381579              -9.2017
       200        2.0000           -0.3362804              -9.1507
       201        2.0000           -0.3345188              -9.1027
       202        2.0000           -0.3329326              -9.0596
       203        2.0000           -0.3307792              -9.0010
       204        2.0000           -0.3295331              -8.9671
       205        2.0000           -0.3263708              -8.8810
       206        2.0000           -0.3207465              -8.7280
       207        2.0000           -0.3191379              -8.6842
       208        2.0000           -0.3176632              -8.6441 (HOMO)
       209        0.0000           -0.2884047              -7.8479 (LUMO)
       210                         -0.2800534              -7.6206
       211                         -0.2694582              -7.3323
       212                         -0.2617295              -7.1220
       213                         -0.2569016              -6.9906
       214                         -0.2507184              -6.8224
       215                         -0.2479813              -6.7479
       216                         -0.2416650              -6.5760
       217                         -0.2409112              -6.5555
       218                         -0.2370807              -6.4513
       219                         -0.2348577              -6.3908
       ...                                ...                  ...
       399                          0.9804853              26.6804
      -------------------------------------------------------------
                  HL-Gap            0.0292585 Eh            0.7962 eV
             Fermi-level           -0.3029277 Eh           -8.2431 eV

     #   Z          covCN         q      C6AA      α(0)
     1   9 F        0.791    -0.214    11.385     3.986
     2   6 C        3.337     0.485    17.286     6.583
     3   9 F        0.791    -0.205    11.283     3.968
     4   6 C        2.978    -0.029    28.725     8.791
     5   6 C        2.919    -0.028    28.692     8.784
     6   6 C        2.924    -0.030    28.759     8.794
     7   6 C        2.977     0.031    27.313     8.573
     8   6 C        2.925    -0.030    28.758     8.794
     9   6 C        2.921    -0.024    28.596     8.769
    10   6 C        3.868    -0.029    21.052     6.525
    11   6 C        2.982    -0.015    28.370     8.737
    12   6 C        2.922    -0.059    29.476     8.903
    13   6 C        2.784     0.154    24.650     8.132
    14   9 F        0.786    -0.236    11.609     4.025
    15   6 C        2.915    -0.052    29.285     8.874
    16   6 C        2.930    -0.064    29.588     8.921
    17   6 C        2.910     0.064    26.566     8.452
    18   7 N        2.695    -0.173    24.748     7.388
    19   6 C        3.846     0.007    20.435     6.430
    20   6 C        2.804     0.261    22.601     7.788
    21   8 O        0.857    -0.399    21.668     6.241
    22   7 N        2.912    -0.079    22.764     7.086
    23   7 N        1.937    -0.174    25.553     7.496
    24   6 C        3.055     0.090    25.939     8.352
    25   9 F        0.791    -0.213    11.372     3.983
    26   1 H        0.926     0.070     2.085     2.258
    27   1 H        0.926     0.057     2.240     2.341
    28   1 H        0.926     0.064     2.151     2.294
    29   1 H        0.926     0.065     2.145     2.290
    30   1 H        0.924     0.080     1.983     2.202
    31   1 H        0.926     0.057     2.239     2.340
    32   1 H        0.926     0.059     2.212     2.326
    33   1 H        0.926     0.042     2.423     2.434
    34   1 H        0.860     0.170     1.271     1.766
    35   1 H        0.923     0.089     1.888     2.149
    36   1 H        0.860     0.195     1.132     1.666
    37   5 B        2.781     0.079    20.149     7.505
    38   7 N        2.783    -0.217    25.725     7.533
    39   5 B        2.787     0.094    19.902     7.458
    40   7 N        2.524    -0.312    28.077     7.869
    41   5 B        2.780     0.081    20.115     7.499
    42   7 N        2.655    -0.265    26.865     7.698
    43   5 B        2.858     0.243    17.629     7.010
    44   7 N        2.529    -0.271    27.040     7.723
    45   5 B        3.206     0.151    18.922     7.255
    46   7 N        2.979    -0.109    23.378     7.181
    47   5 B        2.645     0.373    16.316     6.811
    48   7 N        2.669    -0.211    25.588     7.513
    49   5 B        3.191     0.023    20.972     7.638
    50   7 N        2.874    -0.230    26.027     7.577
    51   5 B        3.009     0.209    18.069     7.091
    52   7 N        2.660    -0.161    24.496     7.351
    53   5 B        2.897     0.325    16.540     6.788
    54   7 N        3.154    -0.083    22.851     7.100
    55   5 B        2.779     0.094    19.901     7.459
    56   7 N        3.034    -0.138    23.972     7.272
    57   5 B        2.758     0.090    20.006     7.484
    58   7 N        2.635    -0.307    27.895     7.844
    59   5 B        3.028     0.228    17.809     7.039
    60   7 N        2.980    -0.015    21.545     6.894
    61   5 B        2.583     0.328    17.270     7.078
    62   7 N        2.601    -0.357    29.212     8.027
    63   5 B        3.286     0.339    16.352     6.744
    64   7 N        2.793    -0.247    26.431     7.636
    65   5 B        2.556     0.326    17.561     7.185
    66   7 N        2.578    -0.366    29.447     8.059
    67   5 B        2.530     0.300    18.246     7.381
    68   7 N        2.665    -0.203    25.419     7.488
    69   5 B        2.700     0.201    18.418     7.201
    70   7 N        2.843    -0.166    24.582     7.364
    71   5 B        2.758     0.082    20.126     7.506
    72   7 N        2.672    -0.173    24.745     7.388
    73   5 B        2.876     0.111    19.561     7.383
    74   7 N        2.663    -0.143    24.107     7.292
    75   5 B        2.594     0.312    17.393     7.087
    76   7 N        2.520    -0.354    29.153     8.019
    77   5 B        2.684     0.184    18.715     7.267
    78   7 N        2.992    -0.155    24.338     7.327
    79   5 B        2.677     0.210    18.359     7.202
    80   7 N        2.715    -0.248    26.449     7.638
    81   5 B        2.647     0.164    19.169     7.381
    82   7 N        2.827    -0.204    25.435     7.490
    83   5 B        3.319     0.230    17.774     7.030
    84   7 N        2.531    -0.284    27.368     7.769
    85   5 B        2.952     0.037    20.752     7.600
    86   7 N        2.784    -0.181    24.917     7.414
    87   5 B        2.796     0.085    20.033     7.481
    88   7 N        2.674    -0.155    24.345     7.328
    89   5 B        3.022     0.210    18.057     7.088
    90   7 N        3.273     0.017    20.951     6.798
    91   5 B        2.871     0.310    16.749     6.832
    92   7 N        3.143    -0.132    23.850     7.253
    93   5 B        3.263     0.320    16.588     6.792
    94   7 N        2.833    -0.060    22.405     7.030
    95   5 B        3.301     0.231    17.766     7.029
    96   7 N        2.656    -0.182    24.954     7.419
    97   5 B        2.836     0.112    19.564     7.387
    98   7 N        2.825    -0.225    25.912     7.560
    99   5 B        2.856     0.252    17.508     6.986
   100   7 N        2.655    -0.227    25.965     7.568
   101   5 B        3.006     0.116    19.467     7.360
   102   7 N        3.153    -0.085    22.884     7.105
   103   5 B        2.674     0.205    18.445     7.221
   104   7 N        2.693    -0.245    26.377     7.628
   105   5 B        2.584     0.372    16.700     6.959
   106   7 N        2.878    -0.179    24.874     7.407
   107   5 B        2.824     0.109    19.624     7.400
   108   7 N        2.829    -0.251    26.513     7.648

 Mol. C6AA /au·bohr⁶  :     220530.420630
 Mol. C8AA /au·bohr⁸  :    6184505.636307
 Mol. α(0) /au        :        737.266445


Wiberg/Mayer (AO) data.
largest (>0.10) Wiberg bond orders for each atom

 ---------------------------------------------------------------------------
     #   Z sym  total        # sym  WBO       # sym  WBO       # sym  WBO
 ---------------------------------------------------------------------------
     1   9 F    1.060 --     2 C    0.931
     2   6 C    3.820 --     3 F    0.954     4 C    0.954    25 F    0.943
                             1 F    0.931
     3   9 F    1.077 --     2 C    0.954
     4   6 C    3.969 --     5 C    1.415     9 C    1.401     2 C    0.954
                             7 C    0.103
     5   6 C    3.987 --     6 C    1.441     4 C    1.415    26 H    0.965
                             8 C    0.108
     6   6 C    3.990 --     5 C    1.441     7 C    1.414    27 H    0.965
                             9 C    0.108
     7   6 C    3.985 --     6 C    1.414     8 C    1.404    10 C    0.960
                             4 C    0.103
     8   6 C    3.988 --     9 C    1.454     7 C    1.404    28 H    0.965
                             5 C    0.108
     9   6 C    3.988 --     8 C    1.454     4 C    1.401    29 H    0.966
                             6 C    0.108
    10   6 C    3.992 --    24 C    1.001    11 C    0.980     7 C    0.960
                            30 H    0.942
    11   6 C    3.982 --    12 C    1.425    17 C    1.320    10 C    0.980
    12   6 C    3.989 --    11 C    1.425    13 C    1.400    31 H    0.966
                            16 C    0.102
    13   6 C    3.879 --    12 C    1.400    15 C    1.378    14 F    0.947
    14   9 F    1.068 --    13 C    0.947
    15   6 C    3.989 --    16 C    1.468    13 C    1.378    32 H    0.967
    16   6 C    3.984 --    15 C    1.468    17 C    1.332    33 H    0.967
                            12 C    0.102
    17   6 C    3.972 --    16 C    1.332    11 C    1.320    18 N    1.160
    18   7 N    3.332 --    17 C    1.160    19 C    0.993    34 H    0.939
    19   6 C    3.979 --    18 N    0.993    24 C    0.989    20 C    0.932
                            35 H    0.896
    20   6 C    3.950 --    21 O    1.725    22 N    1.199    19 C    0.932
    21   8 O    2.051 --    20 C    1.725    22 N    0.177
    22   7 N    3.518 --    20 C    1.199    23 N    1.089    36 H    0.930
                            21 O    0.177
    23   7 N    3.010 --    24 C    1.761    22 N    1.089
    24   6 C    3.975 --    23 N    1.761    10 C    1.001    19 C    0.989
    25   9 F    1.067 --     2 C    0.943
    26   1 H    0.995 --     5 C    0.965
    27   1 H    0.996 --     6 C    0.965
    28   1 H    0.995 --     8 C    0.965
    29   1 H    0.995 --     9 C    0.966
    30   1 H    0.993 --    10 C    0.942
    31   1 H    0.996 --    12 C    0.966
    32   1 H    0.995 --    15 C    0.967
    33   1 H    0.998 --    16 C    0.967
    34   1 H    0.970 --    18 N    0.939
    35   1 H    0.990 --    19 C    0.896
    36   1 H    0.961 --    22 N    0.930
    37   5 B    3.472 --   106 N    1.276    89 B    1.000    83 B    0.969
    38   7 N    3.412 --    83 B    1.148    96 N    1.010    95 B    1.004
    39   5 B    3.466 --    84 N    1.275   107 B    0.977    95 B    0.960
    40   7 N    3.531 --    99 B    1.153    97 B    1.151    67 B    1.016
    41   5 B    3.469 --    74 N    1.244   103 B    0.995    77 B    0.990
    42   7 N    3.269 --    63 B    1.200   105 B    0.970   100 N    0.890
    43   5 B    3.403 --    76 N    1.183    50 N    1.021    59 B    0.964
    44   7 N    3.569 --    57 B    1.278    45 B    1.157   101 B    0.974
    45   5 B    3.394 --    44 N    1.157    87 B    0.932    85 B    0.639
                            49 B    0.298
    46   7 N    3.322 --    51 B    1.113    90 N    1.043   102 N    0.945
    47   5 B    3.432 --    48 N    1.189    58 N    1.122    86 N    0.963
    48   7 N    3.448 --    47 B    1.189    75 B    1.088    88 N    0.966
    49   5 B    3.458 --    85 B    1.286   101 B    1.001    99 B    0.624
                            45 B    0.298
    50   7 N    3.422 --    53 B    1.244    43 B    1.021    64 N    0.929
    51   5 B    3.389 --    46 N    1.113    70 N    1.038    97 B    1.005
    52   7 N    3.511 --    55 B    1.203    75 B    1.128    72 N    0.998
    53   5 B    3.510 --    50 N    1.244    78 N    1.042    98 N    1.017
    54   7 N    3.346 --   103 B    1.147   106 N    0.987    56 N    0.981
    55   5 B    3.412 --    52 N    1.203    73 B    1.007    87 B    0.928
    56   7 N    3.311 --    91 B    1.119    54 N    0.981    60 N    0.975
    57   5 B    3.465 --    44 N    1.278    71 B    0.978    81 B    0.932
    58   7 N    3.224 --    47 B    1.122    61 B    1.077    86 N    0.794
    59   5 B    3.371 --    72 N    1.153    64 N    0.994    43 B    0.964
    60   7 N    3.095 --    78 N    1.008    56 N    0.975   104 N    0.938
    61   5 B    3.508 --    98 N    1.233    58 N    1.077    76 N    0.991
    62   7 N    3.434 --    67 B    1.211    95 B    1.055    83 B    0.922
    63   5 B    3.483 --    42 N    1.200    80 N    1.042    66 N    0.983
    64   7 N    3.289 --    69 B    1.171    59 B    0.994    50 N    0.929
    65   5 B    3.519 --   100 N    1.228   104 N    1.116    92 N    1.014
    66   7 N    3.433 --    79 B    1.221    93 B    0.992    63 B    0.983
    67   5 B    3.521 --    62 N    1.211   108 N    1.094    40 N    1.016
    68   7 N    3.443 --   105 B    1.265    79 B    0.996    94 N    0.990
    69   5 B    3.440 --    64 N    1.171    96 N    1.120   107 B    0.919
    70   7 N    3.470 --    71 B    1.261    51 B    1.038   102 N    0.984
    71   5 B    3.421 --    70 N    1.261    57 B    0.978    79 B    0.959
    72   7 N    3.512 --   107 B    1.172    59 B    1.153    52 N    0.998
    73   5 B    3.347 --    85 B    1.008    55 B    1.007    84 N    0.964
    74   7 N    3.510 --    41 B    1.244    77 B    1.089    80 N    1.037
    75   5 B    3.515 --    52 N    1.128    76 N    1.097    48 N    1.088
    76   7 N    3.478 --    43 B    1.183    75 B    1.097    61 B    0.991
    77   5 B    3.465 --    82 N    1.183    74 N    1.089    41 B    0.990
    78   7 N    3.232 --    53 B    1.042    60 N    1.008    92 N    0.972
    79   5 B    3.390 --    66 N    1.221    68 N    0.996    71 B    0.959
    80   7 N    3.372 --    63 B    1.042    74 N    1.037    93 B    0.983
    81   5 B    3.453 --    94 N    1.190    88 N    1.079    57 B    0.932
    82   7 N    3.408 --    77 B    1.183    89 B    1.070    90 N    0.960
    83   5 B    3.366 --    38 N    1.148    37 B    0.969    62 N    0.922
                            95 B    0.128
    84   7 N    3.562 --    39 B    1.275    99 B    1.106    73 B    0.964
    85   5 B    3.369 --    49 B    1.286    73 B    1.008    45 B    0.639
                            99 B    0.189
    86   7 N    2.989 --    94 N    1.045    47 B    0.963    58 N    0.794
    87   5 B    3.454 --    88 N    1.266    45 B    0.932    55 B    0.928
    88   7 N    3.481 --    87 B    1.266    81 B    1.079    48 N    0.966
    89   5 B    3.446 --   108 N    1.135    82 N    1.070    37 B    1.000
    90   7 N    3.188 --    46 N    1.043    82 N    0.960   108 N    0.951
    91   5 B    3.520 --    96 N    1.167    56 N    1.119   106 N    1.003
    92   7 N    3.192 --    65 B    1.014    98 N    0.982    78 N    0.972
    93   5 B    3.508 --   102 N    1.267    66 N    0.992    80 N    0.983
    94   7 N    3.439 --    81 B    1.190    86 N    1.045    68 N    0.990
    95   5 B    3.326 --    62 N    1.055    38 N    1.004    39 B    0.960
                            83 B    0.128
    96   7 N    3.495 --    91 B    1.167    69 B    1.120    38 N    1.010
    97   5 B    3.386 --    40 N    1.151    51 B    1.005   101 B    1.002
    98   7 N    3.444 --    61 B    1.233    53 B    1.017    92 N    0.982
    99   5 B    3.445 --    40 N    1.153    84 N    1.106    49 B    0.624
                            85 B    0.189   101 B    0.117
   100   7 N    3.343 --    65 B    1.228   105 B    1.028    42 N    0.890
   101   5 B    3.331 --    97 B    1.002    49 B    1.001    44 N    0.974
                            99 B    0.117
   102   7 N    3.442 --    93 B    1.267    70 N    0.984    46 N    0.945
   103   5 B    3.440 --    54 N    1.147   104 N    1.105    41 B    0.995
   104   7 N    3.377 --    65 B    1.116   103 B    1.105    60 N    0.938
   105   5 B    3.437 --    68 N    1.265   100 N    1.028    42 N    0.970
   106   7 N    3.472 --    37 B    1.276    91 B    1.003    54 N    0.987
   107   5 B    3.356 --    72 N    1.172    39 B    0.977    69 B    0.919
   108   7 N    3.419 --    89 B    1.135    67 B    1.094    90 N    0.951
 ---------------------------------------------------------------------------

Topologies differ in total number of bonds
Writing topology from bond orders to xtbtopo.mol

molecular dipole:
                 x           y           z       tot (Debye)
 q only:        1.320       1.244      -4.536
   full:       -0.536       0.602      -2.777       7.349
molecular quadrupole (traceless):
                xx          xy          yy          xz          yz          zz
 q only:      -16.568     -21.755      23.839      -9.243     -36.268      -7.271
  q+dip:       -1.829     -24.249      40.039     -14.867     -23.108     -38.210
   full:        1.218     -22.186      37.147     -10.163     -23.155     -38.365

           -------------------------------------------------
          |                Geometry Summary                 |
           -------------------------------------------------

      molecular mass/u    :     1242.7213111
   center of mass at/Å    :        0.0974799      -0.0136471       2.4910320
  moments of inertia/u·Å² :        0.1349043E+05   0.2613872E+05   0.2777783E+05
rotational constants/cm⁻¹ :        0.1249600E-02   0.6449294E-03   0.6068736E-03

 * 128 selected distances

     #   Z          #   Z                                           value/Å
     1   9 F        2   6 C                                       1.3548071
     2   6 C        3   9 F                                       1.3374627
     4   6 C        5   6 C                                       1.3870088
     5   6 C        6   6 C                                       1.3834170
     6   6 C        7   6 C                                       1.3881829
     7   6 C        8   6 C                                       1.3890660
     4   6 C        9   6 C                                       1.3897773
     8   6 C        9   6 C                                       1.3803669
    11   6 C       12   6 C                                       1.3867083
    12   6 C       13   6 C                                       1.3800526
    13   6 C       15   6 C                                       1.3834111
    15   6 C       16   6 C                                       1.3781755
    11   6 C       17   6 C                                       1.4046291
    16   6 C       17   6 C                                       1.3994807
    17   6 C       18   7 N                                       1.3734093
    18   7 N       19   6 C                                       1.4369234
    20   6 C       21   8 O                                       1.2038208
    20   6 C       22   7 N                                       1.3643004
    22   7 N       23   7 N                                       1.3678109
    10   6 C       24   6 C                                       1.4839201
    19   6 C       24   6 C                                       1.4996839
    23   7 N       24   6 C                                       1.2758367
     2   6 C       25   9 F                                       1.3442581
     5   6 C       26   1 H                                       1.0782699
     6   6 C       27   1 H                                       1.0786983
     8   6 C       28   1 H                                       1.0786760
     9   6 C       29   1 H                                       1.0788980
    10   6 C       30   1 H                                       1.0950861
    12   6 C       31   1 H                                       1.0787529
    15   6 C       32   1 H                                       1.0778751
    16   6 C       33   1 H                                       1.0797312
    18   7 N       34   1 H                                       1.0083210
    19   6 C       35   1 H                                       1.1027094
    22   7 N       36   1 H                                       1.0073352 (min)
    44   7 N       45   5 B                                       1.4429696
    47   5 B       48   7 N                                       1.4036747
    43   5 B       50   7 N                                       1.4765176
    46   7 N       51   5 B                                       1.4403672
    50   7 N       53   5 B                                       1.3840922
    52   7 N       55   5 B                                       1.4227372
    54   7 N       56   7 N                                       1.4238532
    44   7 N       57   5 B                                       1.4228388
    47   5 B       58   7 N                                       1.3949252
    43   5 B       59   5 B                                       1.5753255
    56   7 N       60   7 N                                       1.4184034
    58   7 N       61   5 B                                       1.4309840
    42   7 N       63   5 B                                       1.3889741
    59   5 B       64   7 N                                       1.4831376
    63   5 B       66   7 N                                       1.4701127
    40   7 N       67   5 B                                       1.4903896
    62   7 N       67   5 B                                       1.4107347
    64   7 N       69   5 B                                       1.4360426
    51   5 B       70   7 N                                       1.4567443
    57   5 B       71   5 B                                       1.6642266
    70   7 N       71   5 B                                       1.4081730
    59   5 B       72   7 N                                       1.4220984
    55   5 B       73   5 B                                       1.6421067
    41   5 B       74   7 N                                       1.4054993
    48   7 N       75   5 B                                       1.4480685
    52   7 N       75   5 B                                       1.4580942
    43   5 B       76   7 N                                       1.4248287
    61   5 B       76   7 N                                       1.4913447
    75   5 B       76   7 N                                       1.4599120
    41   5 B       77   5 B                                       1.5727212
    74   7 N       77   5 B                                       1.4145973
    53   5 B       78   7 N                                       1.4537864
    60   7 N       78   7 N                                       1.3974535
    66   7 N       79   5 B                                       1.4200880
    68   7 N       79   5 B                                       1.4802341
    71   5 B       79   5 B                                       1.6741980 (max)
    63   5 B       80   7 N                                       1.4506690
    74   7 N       80   7 N                                       1.3689499
    77   5 B       82   7 N                                       1.4083972
    37   5 B       83   5 B                                       1.6090122
    38   7 N       83   5 B                                       1.4210009
    62   7 N       83   5 B                                       1.5013075
    39   5 B       84   7 N                                       1.4108105
    73   5 B       84   7 N                                       1.4905337
    49   5 B       85   5 B                                       1.5147472
    73   5 B       85   5 B                                       1.6059150
    47   5 B       86   7 N                                       1.4292343
    45   5 B       87   5 B                                       1.6494490
    55   5 B       87   5 B                                       1.6620549
    81   5 B       88   7 N                                       1.4617910
    87   5 B       88   7 N                                       1.4028436
    37   5 B       89   5 B                                       1.6195674
    82   7 N       89   5 B                                       1.4439712
    46   7 N       90   7 N                                       1.3675345
    56   7 N       91   5 B                                       1.4424288
    65   5 B       92   7 N                                       1.4610550
    66   7 N       93   5 B                                       1.4565225
    80   7 N       93   5 B                                       1.4646536
    81   5 B       94   7 N                                       1.4273346
    86   7 N       94   7 N                                       1.3890915
    38   7 N       95   5 B                                       1.4574731
    39   5 B       95   5 B                                       1.6123113
    62   7 N       95   5 B                                       1.4527922
    38   7 N       96   7 N                                       1.4135566
    69   5 B       96   7 N                                       1.4489518
    91   5 B       96   7 N                                       1.4375432
    40   7 N       97   5 B                                       1.4570871
    51   5 B       97   5 B                                       1.6055671
    53   5 B       98   7 N                                       1.4566994
    61   5 B       98   7 N                                       1.3932461
    92   7 N       98   7 N                                       1.4225669
    40   7 N       99   5 B                                       1.4582938
    84   7 N       99   5 B                                       1.4562048
    65   5 B      100   7 N                                       1.3830453
    44   7 N      101   5 B                                       1.4961428
    49   5 B      101   5 B                                       1.6008949
    97   5 B      101   5 B                                       1.6238717
    46   7 N      102   7 N                                       1.4306244
    70   7 N      102   7 N                                       1.4180887
    93   5 B      102   7 N                                       1.3738767
    41   5 B      103   5 B                                       1.6409420
    54   7 N      103   5 B                                       1.4361888
    65   5 B      104   7 N                                       1.4436876
   103   5 B      104   7 N                                       1.4570692
    42   7 N      105   5 B                                       1.4245911
    68   7 N      105   5 B                                       1.3999844
   100   7 N      105   5 B                                       1.4184346
    37   5 B      106   7 N                                       1.4034189
    54   7 N      106   7 N                                       1.4117003
    91   5 B      106   7 N                                       1.4809704
    39   5 B      107   5 B                                       1.6526513
    72   7 N      107   5 B                                       1.4324077
    67   5 B      108   7 N                                       1.4523548
    89   5 B      108   7 N                                       1.4421604

 * 9 distinct bonds (by element types)

   Z      Z             #   av. dist./Å        max./Å        min./Å
   5 B    5 B          17     1.6191507     1.6741980     1.5147472
   1 H    6 C           9     1.0831885     1.1027094     1.0778751
   6 C    6 C          14     1.4024200     1.4996839     1.3781755
   1 H    7 N           2     1.0078281     1.0083210     1.0073352
   5 B    7 N          66     1.4390476     1.5013075     1.3738767
   6 C    7 N           4     1.3626175     1.4369234     1.2758367
   7 N    7 N          12     1.4024695     1.4306244     1.3675345
   6 C    8 O           1     1.2038208     1.2038208     1.2038208
   6 C    9 F           3     1.3455093     1.3548071     1.3374627


optimized geometry written to: xtbopt.xyz


           -------------------------------------------------
          | TOTAL ENERGY             -224.030237886901 Eh   |
          | GRADIENT NORM               0.000521037062 Eh/α |
          | HOMO-LUMO GAP               0.796163448879 eV   |
           -------------------------------------------------

------------------------------------------------------------------------
 * finished run on 2026/08/31 at 21:08:25.144     
------------------------------------------------------------------------
 total:
 * wall-time:     0 d,  0 h,  0 min, 34.248 sec
 *  cpu-time:     0 d,  0 h,  5 min, 38.172 sec
 * ratio c/w:     9.874 speedup
 SCF:
 * wall-time:     0 d,  0 h,  0 min,  0.666 sec
 *  cpu-time:     0 d,  0 h,  0 min,  6.391 sec
 * ratio c/w:     9.596 speedup
 ANC optimizer:
 * wall-time:     0 d,  0 h,  0 min, 33.521 sec
 *  cpu-time:     0 d,  0 h,  5 min, 31.078 sec
 * ratio c/w:     9.877 speedup

normal termination of xtb
