      -----------------------------------------------------------      
     |                   =====================                   |     
     |                           x T B                           |     
     |                   =====================                   |     
     |                         S. Grimme                         |     
     |          Mulliken Center for Theoretical Chemistry        |     
     |                    University of Bonn                     |     
      -----------------------------------------------------------      

   * xtb version 6.7.1pre (5071a88) compiled by 'Marcel@Raven' on 2024-07-23

   xtb is free software: you can redistribute it and/or modify it under
   the terms of the GNU Lesser General Public License as published by
   the Free Software Foundation, either version 3 of the License, or
   (at your option) any later version.
   
   xtb is distributed in the hope that it will be useful,
   but WITHOUT ANY WARRANTY; without even the implied warranty of
   MERCHANTABILITY or FITNESS FOR A PARTICULAR PURPOSE.  See the
   GNU Lesser General Public License for more details.
   
   Cite this work as:
   * C. Bannwarth, E. Caldeweyher, S. Ehlert, A. Hansen, P. Pracht,
     J. Seibert, S. Spicher, S. Grimme, WIREs Comput. Mol. Sci., 2020, 11,
     e01493. DOI: 10.1002/wcms.1493
   
   for GFN2-xTB:
   * C. Bannwarth, S. Ehlert and S. Grimme., J. Chem. Theory Comput., 2019,
     15, 1652-1671. DOI: 10.1021/acs.jctc.8b01176
   for GFN1-xTB:
   * S. Grimme, C. Bannwarth, P. Shushkov, J. Chem. Theory Comput., 2017,
     13, 1989-2009. DOI: 10.1021/acs.jctc.7b00118
   for GFN0-xTB:
   * P. Pracht, E. Caldeweyher, S. Ehlert, S. Grimme, ChemRxiv, 2019, preprint.
     DOI: 10.26434/chemrxiv.8326202.v1
   for GFN-FF:
   * S. Spicher and S. Grimme, Angew. Chem. Int. Ed., 2020, 59, 15665-15673.
     DOI: 10.1002/anie.202004239
   
   for ALPB and GBSA implicit solvation:
   * S. Ehlert, M. Stahn, S. Spicher, S. Grimme, J. Chem. Theory Comput.,
     2021, 17, 4250-4261. DOI: 10.1021/acs.jctc.1c00471
   
   for ddCOSMO and CPCM-X implicit solvation:
   * M. Stahn, S. Ehlert, S. Grimme, J. Phys. Chem. A,
     2023, XX, XXXX-XXXX. DOI: 10.1021/acs.jpca.3c04382
   
   for DFT-D4:
   * E. Caldeweyher, C. Bannwarth and S. Grimme, J. Chem. Phys., 2017,
     147, 034112. DOI: 10.1063/1.4993215
   * E. Caldeweyher, S. Ehlert, A. Hansen, H. Neugebauer, S. Spicher,
     C. Bannwarth and S. Grimme, J. Chem. Phys., 2019, 150, 154122.
     DOI: 10.1063/1.5090222
   * E. Caldeweyher, J.-M. Mewes, S. Ehlert and S. Grimme, Phys. Chem. Chem. Phys.
     2020, 22, 8499-8512. DOI: 10.1039/D0CP00502A
   
   for sTDA-xTB:
   * S. Grimme and C. Bannwarth, J. Chem. Phys., 2016, 145, 054103.
     DOI: 10.1063/1.4959605
   
   in the mass-spec context:
   * V. Asgeirsson, C. Bauer and S. Grimme, Chem. Sci., 2017, 8, 4879.
     DOI: 10.1039/c7sc00601b
   * J. Koopman and S. Grimme, ACS Omega 2019, 4, 12, 15120-15133.
     DOI: 10.1021/acsomega.9b02011
   
   for metadynamics refer to:
   * S. Grimme, J. Chem. Theory Comput., 2019, 155, 2847-2862
     DOI: 10.1021/acs.jctc.9b00143
   
   for SPH calculations refer to:
   * S. Spicher and S. Grimme, J. Chem. Theory Comput., 2021, 17, 1701-1714
     DOI: 10.1021/acs.jctc.0c01306
   
   for ONIOM refer to:
   * C. Plett, A. Katbashev, S. Ehlert, S. Grimme, M. Bursch,
     Phys. Chem. Chem. Phys., 2023, 25, 17860-17868. DOI: 10.1039/D3CP02178E
   
   for DIPRO refer to:
   * J. Kohn, N. Gildemeister, S. Grimme, D. Fazzi, A. Hansen,
     J. Chem. Phys., 2023, just accepted.
   
   for PTB refer to:
   * S. Grimme, M. Mueller, A. Hansen, J. Chem. Phys., 2023, 158, 124111.
     DOI: 10.1063/5.0137838
   
   with help from (in alphabetical order)
   P. Atkinson, C. Bannwarth, F. Bohle, G. Brandenburg, E. Caldeweyher
   M. Checinski, S. Dohm, S. Ehlert, S. Ehrlich, I. Gerasimov, C. Hölzer
   A. Katbashev, J. Kohn, J. Koopman, C. Lavigne, S. Lehtola, F. März, M. Müller,
   F. Musil, H. Neugebauer, J. Pisarek, C. Plett, P. Pracht, F. Pultar,
   J. Seibert, P. Shushkov, S. Spicher, M. Stahn, M. Steiner, T. Strunk,
   J. Stückrath, T. Rose, and J. Unsleber
   
 * started run on 2026/08/31 at 22:23:10.983     
   ID    Z sym.   atoms
    1    9 F      1, 3, 14, 25
    2    6 C      2, 4-13, 15-17, 19, 20, 24
    3    7 N      18, 22, 23, 38, 40, 42, 44, 46, 48, 50, 52, 54, 56, 58, 60,
                  62, 64, 66, 68, 70, 72, 74, 76, 78, 80, 82, 84, 86, 88, 90,
                  92, 94, 96, 98, 100, 102, 104, 106, 108
    4    8 O      21
    5    1 H      26-36
    6    5 B      37, 39, 41, 43, 45, 47, 49, 51, 53, 55, 57, 59, 61, 63, 65,
                  67, 69, 71, 73, 75, 77, 79, 81, 83, 85, 87, 89, 91, 93, 95,
                  97, 99, 101, 103, 105, 107

           -------------------------------------------------
          |                Calculation Setup                |
           -------------------------------------------------

          program call               : "c:\Users\Andre\Proyectos doctorado\kras-pancreatic-gC3N4-ai\tools\xtb\xtb-6.7.1\bin\xtb.exe" "c:\Users\Andre\Proyectos doctorado\nano-qsar-ai-therapeutics\calculations\tnbc\Talazoparib\Talazoparib_opt_180deg.xyz" --opt vloose --gfn 2 --chrg 0 --uhf 0 --etemp 300 --iterations 500 --cycles 15 --norestart
          coordinate file            : c:\Users\Andre\Proyectos doctorado\nano-qsar-ai-therapeutics\calculations\tnbc\Talazoparib\Talazoparib_opt_180deg.xyz
          omp threads                :                    16


molecular fragmentation (1/2 indicates fragments):
111111111111111111111111111111111111222222222222222222222222222222222222
222222222222222222222222222222222222
# atoms in fragment 1/2:    36    72
 fragment masses (1/2) :      349.28      893.44
CMA distance (Bohr)    :  20.991
constraining FC (au)   :  0.0500

           -------------------------------------------------
          |                 G F N 2 - x T B                 |
           -------------------------------------------------

        Reference                      10.1021/acs.jctc.8b01176
      * Hamiltonian:
        H0-scaling (s, p, d)           1.850000    2.230000    2.230000
        zeta-weighting                 0.500000
      * Dispersion:
        s8                             2.700000
        a1                             0.520000
        a2                             5.000000
        s9                             5.000000
      * Repulsion:
        kExp                           1.500000    1.000000
        rExp                           1.000000
      * Coulomb:
        alpha                          2.000000
        third order                    shell-resolved
        anisotropic                    true
        a3                             3.000000
        a5                             4.000000
        cn-shift                       1.200000
        cn-exp                         4.000000
        max-rad                        5.000000


          ...................................................
          :                      SETUP                      :
          :.................................................:
          :  # basis functions                 399          :
          :  # atomic orbitals                 399          :
          :  # shells                          205          :
          :  # electrons                       416          :
          :  max. iterations                   500          :
          :  Hamiltonian                  GFN2-xTB          :
          :  restarted?                      false          :
          :  GBSA solvation                  false          :
          :  PC potential                    false          :
          :  electronic temp.          300.0000000     K    :
          :  accuracy                    1.0000000          :
          :  -> integral cutoff          0.2500000E+02      :
          :  -> integral neglect         0.1000000E-07      :
          :  -> SCF convergence          0.1000000E-05 Eh   :
          :  -> wf. convergence          0.1000000E-03 e    :
          :  Broyden damping             0.4000000          :
          :  net charge                          0          :
          :  unpaired electrons                  0          :
          ...................................................

 iter      E             dE          RMSdq      gap      omega  full diag
   1   -225.2378953 -0.225238E+03  0.117E+01    0.54       0.0  T
   2   -225.6759561 -0.438061E+00  0.709E+00    0.41       1.0  T
   3   -222.4888135  0.318714E+01  0.474E+00    0.16       1.0  T
   4   -224.4815683 -0.199275E+01  0.268E+00    0.32       1.0  T
   5   -225.6594714 -0.117790E+01  0.157E+00    0.18       1.0  T
   6   -225.7570739 -0.976025E-01  0.134E+00    0.16       1.0  T
   7   -226.1557163 -0.398642E+00  0.746E-01    0.82       1.0  T
   8   -226.1807349 -0.250186E-01  0.579E-01    0.75       1.0  T
   9   -226.1780709  0.266405E-02  0.513E-01    0.82       1.0  T
  10   -226.1806209 -0.255003E-02  0.327E-01    0.77       1.0  T
  11   -226.1861570 -0.553607E-02  0.126E-01    0.71       1.0  T
  12   -226.1870878 -0.930842E-03  0.999E-02    0.63       1.0  T
  13   -226.1871754 -0.875532E-04  0.801E-02    0.60       1.0  T
  14   -226.1872130 -0.376817E-04  0.477E-02    0.58       1.0  T
  15   -226.1872788 -0.657684E-04  0.126E-02    0.58       1.0  T
  16   -226.1872900 -0.112388E-04  0.728E-03    0.59       1.3  T
  17   -226.1872911 -0.103258E-05  0.528E-03    0.60       1.8  T
  18   -226.1872924 -0.128068E-05  0.272E-03    0.61       3.5  T
  19   -226.1872928 -0.418265E-06  0.158E-03    0.61       6.1  T
  20   -226.1872929 -0.113295E-06  0.113E-03    0.61       8.5  T
  21   -226.1872930 -0.745709E-07  0.633E-04    0.62      15.2  T
  22   -226.1872930 -0.135863E-07  0.359E-04    0.62      26.8  T

   *** convergence criteria satisfied after 22 iterations ***

         #    Occupation            Energy/Eh            Energy/eV
      -------------------------------------------------------------
         1        2.0000           -0.8687530             -23.6400
       ...           ...                  ...                  ...
       202        2.0000           -0.3279630              -8.9243
       203        2.0000           -0.3252789              -8.8513
       204        2.0000           -0.3240458              -8.8177
       205        2.0000           -0.3214142              -8.7461
       206        2.0000           -0.3159743              -8.5981
       207        2.0000           -0.3140696              -8.5463
       208        2.0000           -0.3097804              -8.4296 (HOMO)
       209        0.0000           -0.2870144              -7.8101 (LUMO)
       210        0.0000           -0.2838853              -7.7249
       211                         -0.2756205              -7.5000
       212                         -0.2684999              -7.3063
       213                         -0.2650063              -7.2112
       ...                                ...                  ...
       399                          0.9831300              26.7523
      -------------------------------------------------------------
                  HL-Gap            0.0227660 Eh            0.6195 eV
             Fermi-level           -0.2984089 Eh           -8.1201 eV

 SCC (total)                   0 d,  0 h,  0 min,  0.903 sec
 SCC setup                      ...        0 min,  0.001 sec (  0.111%)
 Dispersion                     ...        0 min,  0.004 sec (  0.443%)
 classical contributions        ...        0 min,  0.000 sec (  0.000%)
 integral evaluation            ...        0 min,  0.012 sec (  1.329%)
 iterations                     ...        0 min,  0.855 sec ( 94.684%)
 molecular gradient             ...        0 min,  0.028 sec (  3.101%)
 printout                       ...        0 min,  0.003 sec (  0.332%)

         :::::::::::::::::::::::::::::::::::::::::::::::::::::
         ::                     SUMMARY                     ::
         :::::::::::::::::::::::::::::::::::::::::::::::::::::
         :: total energy            -223.992868483557 Eh    ::
         :: gradient norm              0.083294832876 Eh/a0 ::
         :: HOMO-LUMO gap              0.619494582084 eV    ::
         ::.................................................::
         :: SCC energy              -226.172203598103 Eh    ::
         :: -> isotropic ES            0.727677282034 Eh    ::
         :: -> anisotropic ES         -0.030874419560 Eh    ::
         :: -> anisotropic XC          0.072281929603 Eh    ::
         :: -> dispersion             -0.186983796639 Eh    ::
         :: repulsion energy           2.179335114547 Eh    ::
         :: add. restraining           0.000000000000 Eh    ::
         :: total charge              -0.000000000012 e     ::
         :::::::::::::::::::::::::::::::::::::::::::::::::::::

      ----------------------------------------------------------- 
     |                   =====================                   |
     |                        A N C O P T                        |
     |                   =====================                   |
     |               Approximate Normal Coordinate               |
     |                Rational Function Optimizer                |
      ----------------------------------------------------------- 
      ----------------------------------------------------------- 
     |                   =====================                   |
     |                        A N C O P T                        |
     |                   =====================                   |
     |               Approximate Normal Coordinate               |
     |                Rational Function Optimizer                |
      ----------------------------------------------------------- 

          ...................................................
          :                      SETUP                      :
          :.................................................:
          :   optimization level            normal          :
          :   max. optcycles                    15          :
          :   ANC micro-cycles                  15          :
          :   degrees of freedom               318          :
          :.................................................:
          :   RF solver                   davidson          :
          :   write xtbopt.log                true          :
          :   linear?                        false          :
          :   energy convergence         0.5000000E-05 Eh   :
          :   grad. convergence          0.1000000E-02 Eh/α :
          :   maxmium RF displ.          1.0000000          :
          :   Hlow (freq-cutoff)         0.1000000E-01      :
          :   Hmax (freq-cutoff)         5.0000000          :
          :   S6 in model hess.         20.0000000          :
          ...................................................

generating ANC from exact Hessian ...
Using Lindh-Hessian (1995)
 Shifting diagonal of input Hessian by   1.008628583864049E-002
 Lowest  eigenvalues of input Hessian
    0.010000    0.010006    0.010017    0.000000    0.000000    0.000000
    0.000000    0.000000    0.000000    0.010122    0.010149    0.010214
    0.010555    0.011117    0.011298    0.012246    0.013560    0.014750
 Highest eigenvalues
    2.083490    2.087490    2.154604    2.260727    2.314980    2.341874
 

........................................................................
.............................. CYCLE    1 ..............................
........................................................................

 iter      E             dE          RMSdq      gap      omega  full diag
   1   -226.1872930 -0.226187E+03  0.198E-04    0.62       0.0  T
   2   -226.1872930  0.491326E-09  0.193E-04    0.62      49.8  T
   3   -226.1872930 -0.242665E-08  0.102E-04    0.62      94.7  T
     SCC iter.                  ...        0 min,  0.097 sec
     gradient                   ...        0 min,  0.026 sec
 * total energy  :  -223.9928685 Eh     change       -0.4477556E-08 Eh
   gradient norm :     0.0832945 Eh/α   predicted     0.0000000E+00 (-100.00%)
   displ. norm   :     0.2557009 α      lambda       -0.1202308E-01
   maximum displ.:     0.0986999 α      in ANC's #44, #115, #99, ...

........................................................................
.............................. CYCLE    2 ..............................
........................................................................

 iter      E             dE          RMSdq      gap      omega  full diag
   1   -226.2424009 -0.226242E+03  0.118E-01    0.71       0.0  T
   2   -226.2424746 -0.737091E-04  0.700E-02    0.71       1.0  T
   3   -226.2424109  0.637027E-04  0.373E-02    0.70       1.0  T
   4   -226.2425028 -0.919206E-04  0.790E-03    0.71       1.2  T
   5   -226.2425081 -0.535408E-05  0.373E-03    0.71       2.6  T
   6   -226.2425081  0.326584E-07  0.320E-03    0.71       3.0  T
   7   -226.2425097 -0.156517E-05  0.118E-03    0.71       8.1  T
   8   -226.2425098 -0.137761E-06  0.533E-04    0.71      18.1  T
   9   -226.2425098 -0.138577E-07  0.372E-04    0.71      25.9  T
     SCC iter.                  ...        0 min,  0.290 sec
     gradient                   ...        0 min,  0.029 sec
 * total energy  :  -224.0007183 Eh     change       -0.7849838E-02 Eh
   gradient norm :     0.0291881 Eh/α   predicted    -0.6406177E-02 ( -18.39%)
   displ. norm   :     0.2065659 α      lambda       -0.2484615E-02
   maximum displ.:     0.0848007 α      in ANC's #14, #26, #44, ...

........................................................................
.............................. CYCLE    3 ..............................
........................................................................

 iter      E             dE          RMSdq      gap      omega  full diag
   1   -226.2657871 -0.226266E+03  0.605E-02    0.71       0.0  T
   2   -226.2658235 -0.363939E-04  0.368E-02    0.71       1.0  T
   3   -226.2658168  0.671950E-05  0.205E-02    0.71       1.0  T
   4   -226.2658367 -0.199162E-04  0.448E-03    0.71       2.1  T
   5   -226.2658378 -0.105985E-05  0.277E-03    0.71       3.5  T
   6   -226.2658384 -0.675285E-06  0.169E-03    0.71       5.7  T
   7   -226.2658388 -0.350630E-06  0.853E-04    0.71      11.3  T
   8   -226.2658389 -0.784519E-07  0.380E-04    0.71      25.3  T
     SCC iter.                  ...        0 min,  0.270 sec
     gradient                   ...        0 min,  0.030 sec
 * total energy  :  -224.0022213 Eh     change       -0.1502969E-02 Eh
   gradient norm :     0.0111397 Eh/α   predicted    -0.1295988E-02 ( -13.77%)
   displ. norm   :     0.1427000 α      lambda       -0.5018061E-03
   maximum displ.:     0.0713012 α      in ANC's #8, #14, #15, ...

........................................................................
.............................. CYCLE    4 ..............................
........................................................................

 iter      E             dE          RMSdq      gap      omega  full diag
   1   -226.2682134 -0.226268E+03  0.340E-02    0.71       0.0  T
   2   -226.2682228 -0.938019E-05  0.200E-02    0.71       1.0  T
   3   -226.2682199  0.290902E-05  0.106E-02    0.71       1.0  T
   4   -226.2682256 -0.577006E-05  0.249E-03    0.71       3.9  T
   5   -226.2682254  0.226158E-06  0.238E-03    0.71       4.0  T
   6   -226.2682263 -0.925766E-06  0.806E-04    0.71      11.9  T
   7   -226.2682264 -0.567986E-07  0.406E-04    0.71      23.7  T
     SCC iter.                  ...        0 min,  0.216 sec
     gradient                   ...        0 min,  0.026 sec
 * total energy  :  -224.0025842 Eh     change       -0.3629296E-03 Eh
   gradient norm :     0.0069139 Eh/α   predicted    -0.2560143E-03 ( -29.46%)
   displ. norm   :     0.1754800 α      lambda       -0.3402208E-03
   maximum displ.:     0.1133365 α      in ANC's #8, #14, #9, ...

........................................................................
.............................. CYCLE    5 ..............................
........................................................................

 iter      E             dE          RMSdq      gap      omega  full diag
   1   -226.2667590 -0.226267E+03  0.372E-02    0.71       0.0  T
   2   -226.2667665 -0.749724E-05  0.214E-02    0.71       1.0  T
   3   -226.2667613  0.519839E-05  0.108E-02    0.71       1.0  T
   4   -226.2667686 -0.728444E-05  0.261E-03    0.71       3.7  T
   5   -226.2667690 -0.432298E-06  0.188E-03    0.71       5.1  T
   6   -226.2667696 -0.568874E-06  0.699E-04    0.71      13.8  T
   7   -226.2667696 -0.168008E-07  0.463E-04    0.71      20.8  T
     SCC iter.                  ...        0 min,  0.215 sec
     gradient                   ...        0 min,  0.028 sec
 * total energy  :  -224.0028105 Eh     change       -0.2262796E-03 Eh
   gradient norm :     0.0045554 Eh/α   predicted    -0.1753498E-03 ( -22.51%)
   displ. norm   :     0.1405125 α      lambda       -0.1411940E-03
   maximum displ.:     0.1024963 α      in ANC's #8, #9, #7, ...

........................................................................
.............................. CYCLE    6 ..............................
........................................................................

 iter      E             dE          RMSdq      gap      omega  full diag
   1   -226.2656181 -0.226266E+03  0.270E-02    0.71       0.0  T
   2   -226.2656210 -0.286172E-05  0.156E-02    0.71       1.0  T
   3   -226.2656174  0.353326E-05  0.730E-03    0.71       1.3  T
   4   -226.2656213 -0.384936E-05  0.236E-03    0.71       4.1  T
   5   -226.2656219 -0.665806E-06  0.129E-03    0.71       7.5  T
   6   -226.2656221 -0.205321E-06  0.592E-04    0.71      16.3  T
   7   -226.2656221 -0.213925E-08  0.438E-04    0.71      22.0  T
     SCC iter.                  ...        0 min,  0.213 sec
     gradient                   ...        0 min,  0.030 sec
 * total energy  :  -224.0029166 Eh     change       -0.1060939E-03 Eh
   gradient norm :     0.0036928 Eh/α   predicted    -0.7199707E-04 ( -32.14%)
   displ. norm   :     0.1581522 α      lambda       -0.1189823E-03
   maximum displ.:     0.1122314 α      in ANC's #8, #9, #7, ...

........................................................................
.............................. CYCLE    7 ..............................
........................................................................

 iter      E             dE          RMSdq      gap      omega  full diag
   1   -226.2652610 -0.226265E+03  0.308E-02    0.71       0.0  T
   2   -226.2652637 -0.271287E-05  0.180E-02    0.71       1.0  T
   3   -226.2652586  0.508487E-05  0.778E-03    0.71       1.2  T
   4   -226.2652641 -0.547246E-05  0.224E-03    0.71       4.3  T
   5   -226.2652647 -0.644210E-06  0.119E-03    0.71       8.1  T
   6   -226.2652649 -0.197427E-06  0.571E-04    0.71      16.9  T
   7   -226.2652649 -0.243563E-08  0.447E-04    0.71      21.5  T
     SCC iter.                  ...        0 min,  0.379 sec
     gradient                   ...        0 min,  0.028 sec
 * total energy  :  -224.0030066 Eh     change       -0.8999125E-04 Eh
   gradient norm :     0.0027163 Eh/α   predicted    -0.6097976E-04 ( -32.24%)
   displ. norm   :     0.1707522 α      lambda       -0.9109318E-04
   maximum displ.:     0.1144070 α      in ANC's #8, #9, #7, ...

........................................................................
.............................. CYCLE    8 ..............................
........................................................................

 iter      E             dE          RMSdq      gap      omega  full diag
   1   -226.2657138 -0.226266E+03  0.336E-02    0.71       0.0  T
   2   -226.2657159 -0.203881E-05  0.197E-02    0.71       1.0  T
   3   -226.2657103  0.562462E-05  0.757E-03    0.71       1.3  T
   4   -226.2657164 -0.613455E-05  0.190E-03    0.71       5.1  T
   5   -226.2657168 -0.450669E-06  0.969E-04    0.71       9.9  T
   6   -226.2657170 -0.116057E-06  0.471E-04    0.71      20.4  T
     SCC iter.                  ...        0 min,  0.210 sec
     gradient                   ...        0 min,  0.030 sec
 * total energy  :  -224.0030750 Eh     change       -0.6845322E-04 Eh
   gradient norm :     0.0027291 Eh/α   predicted    -0.4687486E-04 ( -31.52%)
   displ. norm   :     0.1755919 α      lambda       -0.6985739E-04
   maximum displ.:     0.1100442 α      in ANC's #8, #9, #7, ...

........................................................................
.............................. CYCLE    9 ..............................
........................................................................

 iter      E             dE          RMSdq      gap      omega  full diag
   1   -226.2664414 -0.226266E+03  0.337E-02    0.71       0.0  T
   2   -226.2664426 -0.113138E-05  0.198E-02    0.71       1.0  T
   3   -226.2664375  0.506565E-05  0.636E-03    0.71       1.5  T
   4   -226.2664418 -0.433209E-05  0.268E-03    0.71       3.6  T
   5   -226.2664431 -0.130613E-05  0.899E-04    0.71      10.7  T
   6   -226.2664432 -0.931553E-07  0.418E-04    0.71      23.0  T
   7   -226.2664432  0.212907E-09  0.280E-04    0.71      34.4  T
     SCC iter.                  ...        0 min,  0.238 sec
     gradient                   ...        0 min,  0.031 sec
 * total energy  :  -224.0031299 Eh     change       -0.5483540E-04 Eh
   gradient norm :     0.0030877 Eh/α   predicted    -0.3600656E-04 ( -34.34%)
   displ. norm   :     0.2117414 α      lambda       -0.7369994E-04
   maximum displ.:     0.1239793 α      in ANC's #8, #9, #7, ...

........................................................................
.............................. CYCLE   10 ..............................
........................................................................

 iter      E             dE          RMSdq      gap      omega  full diag
   1   -226.2671014 -0.226267E+03  0.390E-02    0.71       0.0  T
   2   -226.2671023 -0.867043E-06  0.228E-02    0.71       1.0  T
   3   -226.2670999  0.239904E-05  0.448E-03    0.71       2.1  T
   4   -226.2671024 -0.250221E-05  0.143E-03    0.71       6.7  T
   5   -226.2671027 -0.262668E-06  0.765E-04    0.71      12.6  T
   6   -226.2671027 -0.576915E-07  0.409E-04    0.71      23.5  T
     SCC iter.                  ...        0 min,  0.240 sec
     gradient                   ...        0 min,  0.037 sec
 * total energy  :  -224.0031891 Eh     change       -0.5922088E-04 Eh
   gradient norm :     0.0031385 Eh/α   predicted    -0.3850428E-04 ( -34.98%)
   displ. norm   :     0.2861365 α      lambda       -0.9107471E-04
   maximum displ.:     0.1575021 α      in ANC's #8, #9, #10, ...

........................................................................
.............................. CYCLE   11 ..............................
........................................................................

 iter      E             dE          RMSdq      gap      omega  full diag
   1   -226.2673189 -0.226267E+03  0.505E-02    0.71       0.0  T
   2   -226.2673199 -0.995239E-06  0.296E-02    0.71       1.0  T
   3   -226.2673171  0.277861E-05  0.467E-03    0.71       2.1  T
   4   -226.2673193 -0.215223E-05  0.251E-03    0.71       3.8  T
   5   -226.2673203 -0.105814E-05  0.940E-04    0.71      10.2  T
   6   -226.2673204 -0.714185E-07  0.429E-04    0.71      22.4  T
   7   -226.2673204 -0.883142E-08  0.236E-04    0.71      40.7  T
     SCC iter.                  ...        0 min,  0.263 sec
     gradient                   ...        0 min,  0.029 sec
 * total energy  :  -224.0032617 Eh     change       -0.7255107E-04 Eh
   gradient norm :     0.0030103 Eh/α   predicted    -0.4926589E-04 ( -32.09%)
   displ. norm   :     0.3572502 α      lambda       -0.1055323E-03
   maximum displ.:     0.1854362 α      in ANC's #8, #10, #9, ...

........................................................................
.............................. CYCLE   12 ..............................
........................................................................

 iter      E             dE          RMSdq      gap      omega  full diag
   1   -226.2669202 -0.226267E+03  0.607E-02    0.71       0.0  T
   2   -226.2669217 -0.154670E-05  0.355E-02    0.71       1.0  T
   3   -226.2669196  0.215669E-05  0.500E-03    0.71       1.9  T
   4   -226.2669223 -0.269985E-05  0.156E-03    0.71       6.2  T
   5   -226.2669223 -0.634929E-07  0.116E-03    0.71       8.3  T
   6   -226.2669225 -0.139092E-06  0.511E-04    0.71      18.8  T
   7   -226.2669225 -0.244267E-07  0.247E-04    0.71      39.0  T
     SCC iter.                  ...        0 min,  0.214 sec
     gradient                   ...        0 min,  0.028 sec
 * total energy  :  -224.0033432 Eh     change       -0.8156559E-04 Eh
   gradient norm :     0.0032100 Eh/α   predicted    -0.5950185E-04 ( -27.05%)
   displ. norm   :     0.3135874 α      lambda       -0.9880595E-04
   maximum displ.:     0.1523856 α      in ANC's #10, #8, #4, ...

........................................................................
.............................. CYCLE   13 ..............................
........................................................................

 iter      E             dE          RMSdq      gap      omega  full diag
   1   -226.2668275 -0.226267E+03  0.514E-02    0.71       0.0  T
   2   -226.2668293 -0.179801E-05  0.301E-02    0.71       1.0  T
   3   -226.2668264  0.291690E-05  0.571E-03    0.71       1.7  T
   4   -226.2668301 -0.368774E-05  0.143E-03    0.71       6.7  T
   5   -226.2668301 -0.572637E-07  0.916E-04    0.71      10.5  T
   6   -226.2668302 -0.328209E-07  0.540E-04    0.71      17.8  T
     SCC iter.                  ...        0 min,  0.181 sec
     gradient                   ...        0 min,  0.026 sec
 * total energy  :  -224.0034204 Eh     change       -0.7715670E-04 Eh
   gradient norm :     0.0036389 Eh/α   predicted    -0.5426181E-04 ( -29.67%)
   displ. norm   :     0.3236221 α      lambda       -0.9628223E-04
   maximum displ.:     0.1586214 α      in ANC's #10, #8, #4, ...

........................................................................
.............................. CYCLE   14 ..............................
........................................................................

 iter      E             dE          RMSdq      gap      omega  full diag
   1   -226.2663979 -0.226266E+03  0.526E-02    0.71       0.0  T
   2   -226.2664001 -0.225627E-05  0.308E-02    0.71       1.0  T
   3   -226.2663966  0.358311E-05  0.605E-03    0.71       1.6  T
   4   -226.2664002 -0.361610E-05  0.262E-03    0.71       3.7  T
   5   -226.2664009 -0.690586E-06  0.159E-03    0.71       6.0  T
   6   -226.2664012 -0.296151E-06  0.650E-04    0.71      14.8  T
   7   -226.2664012 -0.330623E-07  0.277E-04    0.71      34.7  T
     SCC iter.                  ...        0 min,  0.226 sec
     gradient                   ...        0 min,  0.029 sec
 * total energy  :  -224.0034917 Eh     change       -0.7136209E-04 Eh
   gradient norm :     0.0040555 Eh/α   predicted    -0.5318733E-04 ( -25.47%)
   displ. norm   :     0.2622436 α      lambda       -0.7020637E-04
   maximum displ.:     0.1247465 α      in ANC's #10, #4, #8, ...

........................................................................
.............................. CYCLE   15 ..............................
........................................................................

 iter      E             dE          RMSdq      gap      omega  full diag
   1   -226.2664620 -0.226266E+03  0.423E-02    0.71       0.0  T
   2   -226.2664635 -0.145632E-05  0.247E-02    0.71       1.0  T
   3   -226.2664623  0.115821E-05  0.371E-03    0.71       2.6  T
   4   -226.2664638 -0.149084E-05  0.152E-03    0.71       6.4  T
   5   -226.2664639 -0.115634E-06  0.108E-03    0.71       8.9  T
   6   -226.2664640 -0.122438E-06  0.555E-04    0.71      17.3  T
   7   -226.2664641 -0.374852E-07  0.289E-04    0.71      33.3  T
     SCC iter.                  ...        0 min,  0.285 sec
     gradient                   ...        0 min,  0.030 sec
 * total energy  :  -224.0035427 Eh     change       -0.5095334E-04 Eh
   gradient norm :     0.0034776 Eh/α   predicted    -0.3752238E-04 ( -26.36%)
   displ. norm   :     0.2080983 α      lambda       -0.5080908E-04
   maximum displ.:     0.1026711 α      in ANC's #4, #10, #8, ...

   *** FAILED TO CONVERGE GEOMETRY OPTIMIZATION IN 15 ITERATIONS ***


 ANCopt (total)                0 d,  0 h,  0 min,  4.319 sec
 optimizer setup                ...        0 min,  0.002 sec (  0.046%)
 model hessian                  ...        0 min,  0.050 sec (  1.158%)
 ANC generation                 ...        0 min,  0.014 sec (  0.324%)
 coordinate transformation      ...        0 min,  0.004 sec (  0.093%)
 single point calculation       ...        0 min,  4.218 sec ( 97.661%)
 optimization log               ...        0 min,  0.025 sec (  0.579%)
 hessian update                 ...        0 min,  0.003 sec (  0.069%)
 rational function              ...        0 min,  0.003 sec (  0.069%)

================
 final structure:
================
108
 xtb: 6.7.1pre (5071a88)
F           -5.80185145810669       -0.17159003956575       11.81274978566121
C           -4.95894636628416       -0.70382232204046       10.91224221008609
F           -5.11747194106479       -2.03386549155814       10.98272530475935
C           -3.53668003601378       -0.27146314435549       11.12766170121723
C           -2.49445686476352       -1.13487133134634       10.82047945401659
C           -1.18930871586441       -0.72424795265723       11.01978318828521
C           -0.91779145154750        0.54167625679160       11.52247209965143
C           -1.96871551144833        1.40489299884971       11.80580223996018
C           -3.27690530967082        1.00433778205104       11.61128081201413
C            0.51271367714689        1.00036299606804       11.74645293610159
C            1.39282127286575       -0.14657921264113       12.20067045047275
C            1.22092539074785       -0.63292002812734       13.48799495210398
C            1.98316986779236       -1.69483406073776       13.93054782279245
F            1.79803317368940       -2.15959552740427       15.18736579037948
C            2.92528832986452       -2.29647244779297       13.11528906171447
C            3.09766632649227       -1.81536016680988       11.83521044263712
C            2.34231298727218       -0.74013228606887       11.35344328164468
N            2.58654642843559       -0.26403921695401       10.08666442059238
C            1.67005369085406        0.64383927918613        9.46034636799106
C            2.29280654102889        1.68307457548331        8.50715866366679
O            2.99850521620005        1.51205131090045        7.55048627058237
N            1.81880607245104        2.87709381159629        8.97799200392746
N            1.14782315958273        2.78839877827556       10.16621496512084
C            1.04976520571050        1.55533082857809       10.48044042161457
F           -5.42544848724718       -0.33421879291792        9.70294766381944
H           -2.70554104087963       -2.12188990976364       10.43886702628065
H           -0.37837646513035       -1.40160933376726       10.79935637327138
H           -1.75904381030581        2.39418358641362       12.18275741646477
H           -4.09494298790771        1.66929258912309       11.84128521026180
H            0.50745555674392        1.79244054620360       12.50139402966827
H            0.48902829455481       -0.18758090375387       14.14393678430608
H            3.50554685421619       -3.12655188364701       13.48431811831119
H            3.82693636614177       -2.27124244225038       11.18294097306219
H            3.15377327413152       -0.82858484524879        9.47385431190615
H            0.88304950966054        0.12553643731809        8.88080026640165
H            2.03815861449991        3.79065045362729        8.61261567846721
B            3.45856784538255       -1.45199042186657        1.65096982131124
N            3.45392024446839        1.13143215650384        0.96739816098830
B            2.55132902013932        2.37161526305289       -1.23363003614144
N            2.30577533205673       -0.63046492614818       -2.71111605537674
B            0.68606314408278       -3.56256972172466        2.71148892581505
N           -2.93640626599253       -2.65397820660578        1.70887995021224
B           -1.03869533388408        4.08187428131165        1.85137620252331
N           -0.60248941478225        0.02880521282721       -3.93152754978540
B           -0.45463047429449        1.45681277591738       -4.07599555873460
N            1.22073605018119       -3.77907067909160       -1.73016024565318
B           -3.83659016425100        2.21269946707857       -0.48660842769794
N           -2.76314020392264        2.76863816282996       -1.20060010671337
B            1.42512723775414        0.83304275410631       -4.86914562259885
N           -0.23963840475676        3.36041483750177        2.85645200256247
B            0.91262437496266       -2.86947941628170       -2.80348331515197
N           -0.48292419399132        3.77192255945727       -0.98885594920628
B           -0.81089225975630        2.17793455992884        3.30148380597634
N            1.64444914440635       -1.27578658108824        3.51347042850296
B           -0.23506517999146        3.47847915827276       -2.35862281330580
N            1.29722189298822        0.06523734451922        3.83117780305534
B           -1.58295204589989       -0.55075844694145       -3.07833515608441
N           -3.82714795789881        1.77531443211693        0.83735205041917
B            0.33854116190506        4.49683788588019        1.21001356872671
N            0.03509387422490       -0.01871707643934        4.47706602275457
B           -2.70642712651653        2.22311487881992        1.61194911022113
N            3.77827634145298       -0.12580625809368       -0.73965988327876
B           -2.25032809147558       -3.63798216053171        1.00679093915713
N            1.05333690766950        3.73334890501142        2.26305892114552
B           -1.82984901685019       -0.78053005485995        3.23019518881302
N           -2.42947830808568       -3.59784291705095       -0.45254913643640
B            3.02702748318985       -1.06470313883024       -1.48144493298408
N           -3.14944054123636       -1.24860220162521       -0.38301938421097
B            2.03502617461085        2.92348160379696        1.59036718138337
N           -0.49454143395790       -2.89211535488014       -2.42773017832255
B           -1.66071491775197       -2.10507012948439       -2.48877222415213
N            0.59583937020433        3.96892781506689       -0.08474273003981
B            1.10668286900359        2.97123321342892       -3.15827641145001
N            0.07703746673534       -4.35926795328125        1.72637004345680
B           -1.77658603667910        3.45493356952306       -0.39221456243892
N           -2.00997783576608        3.41615275634733        1.04697323967709
B            1.46619270731071       -4.21015470744419        1.50912192959418
N           -0.80886648671358        1.06004909486341        4.21835454502469
B           -2.65690773659322       -2.39666907388968       -1.17535576310156
N           -1.07171116995743       -4.48359701330759        0.99170499037951
B           -2.49163517903938        0.49875486757350       -2.10303288103955
N            2.35596542512509       -3.88257553034090        0.46665144806849
B            3.91456711011975       -0.19845746438115        0.75249597710197
N            1.94377120641530        1.96800783874075       -2.44045826710351
B            1.02163253886215        2.26877259181708       -4.59998548803893
N           -4.17845812966921        0.83198995078625       -0.34456790896562
B           -1.32270178878722        2.46338381222583       -3.09946289954360
N           -2.34656061926567        1.94051368066441       -2.29556334122599
B            3.07449559251726       -2.64002132852735        0.61947112176375
N            2.34343429967879       -3.66646099483507       -0.95702203127433
B            2.21762390501377        0.54726310203425        2.83735773497373
N           -2.03397335938159        0.60780071409446        3.61556182414490
B           -1.09454771498342       -4.17997238535394       -0.44019704255421
N           -3.20877452848438        0.04631755266932       -0.95535156626657
B            3.45578509543696        1.26586283731132       -0.48564866323596
N            2.58057588682731        1.63423505727111        1.96367299569564
B            1.48815586349394       -1.54275960954843       -3.50066953742569
N           -2.10410949572526        1.74990414935108        2.77375995483456
B            2.05639051410966        0.72457986480629       -3.18957382469676
N           -2.71743694268206       -1.34213193758225        2.32239122960177
B            0.67751522812398       -0.52568821506880       -4.47344720645493
N           -0.15900047117304       -3.75371494339207       -1.35222633598380
B            0.47837676552631       -2.10894059976026        3.44511058318441
N           -0.59645971909512       -1.21067704777349        3.84426388247115
B           -3.21939884876466       -1.44930204527254        1.00125005173298
N            2.66811426957181       -0.85509041728288        2.64294879909641
B            1.88438999449879        3.34404278951910       -0.07796402082775
N            2.88308669617776       -2.32447242949704       -0.77515087607156
 
 Bond Distances (Angstroems)
 ---------------------------
F1-C2=1.3434         C2-F1=1.3434         C2-F3=1.3413         C2-C4=1.5021         C2-F25=1.3478        F3-C2=1.3413         
C4-C2=1.5021         C4-C5=1.3878         C4-C9=1.3889         C5-C4=1.3878         C5-C6=1.3827         C5-H26=1.0791        
C6-C5=1.3827         C6-C7=1.3889         C6-H27=1.0794        C7-C6=1.3889         C7-C8=1.3892         C7-C10=1.5189        
C8-C7=1.3892         C8-C9=1.3819         C8-H28=1.0792        C9-C4=1.3889         C9-C8=1.3819         C9-H29=1.0790        
C10-C7=1.5189        C10-C11=1.5154       C10-C24=1.4830       C10-H30=1.0942       C11-C10=1.5154       C11-C12=1.3868       
C11-C17=1.4041       C12-C11=1.3868       C12-C13=1.3800       C12-H31=1.0790       C13-C12=1.3800       C13-F14=1.3527       
C13-C15=1.3835       F14-C13=1.3527       C15-C13=1.3835       C15-C16=1.3783       C15-H32=1.0779       C16-C15=1.3783       
C16-C17=1.3996       C16-H33=1.0794       C17-C11=1.4041       C17-C16=1.3996       C17-N18=1.3752       N18-C17=1.3752       
N18-C19=1.4340       N18-H34=1.0080       C19-N18=1.4340       C19-C20=1.5416       C19-C24=1.5021       C19-H35=1.1063       
C20-C19=1.5416       C20-O21=1.2010       C20-N22=1.3682       O21-C20=1.2010       N22-C20=1.3682       N22-N23=1.3675       
N22-H36=1.0081       N23-N22=1.3675       N23-C24=1.2762       C24-C10=1.4830       C24-C19=1.5021       C24-N23=1.2762       
F25-C2=1.3478        H26-C5=1.0791        H27-C6=1.0794        H28-C8=1.0792        H29-C9=1.0790        H30-C10=1.0942       
H31-C12=1.0790       H32-C15=1.0779       H33-C16=1.0794       H34-N18=1.0080       H35-C19=1.1063       H36-N22=1.0081       
B37-B83=1.6083       B37-B89=1.6195       B37-N106=1.4018      N38-B83=1.4237       N38-B95=1.4593       N38-N96=1.4171       
B39-N84=1.4101       B39-B95=1.6125       B39-B107=1.6511      N40-B67=1.4903       N40-B97=1.4575       N40-B99=1.4585       
B41-N74=1.4057       B41-B77=1.5728       B41-B103=1.6415      N42-B63=1.3899       N42-N100=1.4647      N42-B105=1.4255      
B43-N50=1.4728       B43-B59=1.5749       B43-N76=1.4261       N44-B45=1.4429       N44-B57=1.4231       N44-B101=1.4965      
B45-N44=1.4429       B45-B49=2.1335       B45-B85=1.7644       B45-B87=1.6493       N46-B51=1.4402       N46-N90=1.3678       
N46-N102=1.4308      B47-N48=1.4040       B47-N58=1.3944       B47-N86=1.4295       N48-B47=1.4040       N48-B75=1.4484       
N48-N88=1.4347       B49-B45=2.1335       B49-B85=1.5154       B49-B99=1.7976       B49-B101=1.6005      N50-B43=1.4728       
N50-B53=1.3866       N50-N64=1.4707       B51-N46=1.4402       B51-N70=1.4566       B51-B97=1.6055       B51-N102=2.0091      
N52-B55=1.4226       N52-N72=1.4213       N52-B75=1.4595       B53-N50=1.3866       B53-N78=1.4458       B53-N92=2.0149       
B53-N98=1.4609       N54-N56=1.4212       N54-B103=1.4348      N54-N106=1.4081      B55-N52=1.4226       B55-B73=1.6423       
B55-B87=1.6620       N56-N54=1.4212       N56-N60=1.4203       N56-B91=1.4378       B57-N44=1.4231       B57-B71=1.6642       
B57-B81=1.6966       N58-B47=1.3944       N58-B61=1.4341       N58-N86=1.5525       B59-B43=1.5749       B59-N64=1.4842       
B59-N72=1.4217       N60-N56=1.4203       N60-N78=1.3939       N60-N104=1.4900      B61-N58=1.4341       B61-N76=1.4925       
B61-N98=1.3916       N62-B67=1.4129       N62-B83=1.5001       N62-B95=1.4510       B63-N42=1.3899       B63-N66=1.4708       
B63-N80=1.4507       B63-B93=1.9296       N64-N50=1.4707       N64-B59=1.4842       N64-B69=1.4395       B65-N92=1.4552       
B65-N100=1.3883      B65-N104=1.4434      N66-B63=1.4708       N66-B79=1.4202       N66-B93=1.4564       B67-N40=1.4903       
B67-N62=1.4129       B67-N108=1.4514      N68-B79=1.4793       N68-N94=1.4170       N68-B105=1.4005      B69-N64=1.4395       
B69-N96=1.4488       B69-B107=1.7271      N70-B51=1.4566       N70-B71=1.4082       N70-N102=1.4183      B71-B57=1.6642       
B71-N70=1.4082       B71-B79=1.6741       N72-N52=1.4213       N72-B59=1.4217       N72-B107=1.4321      B73-B55=1.6423       
B73-N84=1.4908       B73-B85=1.6060       N74-B41=1.4057       N74-B77=1.4139       N74-N80=1.3692       B75-N48=1.4484       
B75-N52=1.4595       B75-N76=1.4585       N76-B43=1.4261       N76-B61=1.4925       N76-B75=1.4585       B77-B41=1.5728       
B77-N74=1.4139       B77-N82=1.4092       N78-B53=1.4458       N78-N60=1.3939       N78-N92=1.4383       B79-N66=1.4202       
B79-N68=1.4793       B79-B71=1.6741       N80-B63=1.4507       N80-N74=1.3692       N80-B93=1.4639       B81-B57=1.6966       
B81-N88=1.4618       B81-N94=1.4269       N82-B77=1.4092       N82-B89=1.4435       N82-N90=1.4400       B83-B37=1.6083       
B83-N38=1.4237       B83-N62=1.5001       B83-B95=1.9717       N84-B39=1.4101       N84-B73=1.4908       N84-B99=1.4560       
B85-B45=1.7644       B85-B49=1.5154       B85-B73=1.6060       N86-B47=1.4295       N86-N58=1.5525       N86-N94=1.3895       
B87-B45=1.6493       B87-B55=1.6620       B87-N88=1.4028       N88-N48=1.4347       N88-B81=1.4618       N88-B87=1.4028       
B89-B37=1.6195       B89-N82=1.4435       B89-N108=1.4426      N90-N46=1.3678       N90-N82=1.4400       N90-N108=1.4578      
B91-N56=1.4378       B91-N96=1.4410       B91-N106=1.4857      N92-B53=2.0149       N92-B65=1.4552       N92-N78=1.4383       
N92-N98=1.4205       B93-B63=1.9296       B93-N66=1.4564       B93-N80=1.4639       B93-N102=1.3743      N94-N68=1.4170       
N94-B81=1.4269       N94-N86=1.3895       B95-N38=1.4593       B95-B39=1.6125       B95-N62=1.4510       B95-B83=1.9717       
N96-N38=1.4171       N96-B69=1.4488       N96-B91=1.4410       B97-N40=1.4575       B97-B51=1.6055       B97-B101=1.6242      
N98-B53=1.4609       N98-B61=1.3916       N98-N92=1.4205       B99-N40=1.4585       B99-B49=1.7976       B99-N84=1.4560       
N100-N42=1.4647      N100-B65=1.3883      N100-B105=1.4173     B101-N44=1.4965      B101-B49=1.6005      B101-B97=1.6242      
N102-N46=1.4308      N102-B51=2.0091      N102-N70=1.4183      N102-B93=1.3743      B103-B41=1.6415      B103-N54=1.4348      
B103-N104=1.4565     N104-N60=1.4900      N104-B65=1.4434      N104-B103=1.4565     B105-N42=1.4255      B105-N68=1.4005      
B105-N100=1.4173     N106-B37=1.4018      N106-N54=1.4081      N106-B91=1.4857      B107-B39=1.6511      B107-B69=1.7271      
B107-N72=1.4321      N108-B67=1.4514      N108-B89=1.4426      N108-N90=1.4578      
 B  B  Rav=1.6894 sigma=0.1389  Rmin=1.5154  Rmax=2.1335    24
 C  H  Rav=1.0837 sigma=0.0093  Rmin=1.0779  Rmax=1.1063     9
 C  C  Rav=1.4286 sigma=0.0591  Rmin=1.3783  Rmax=1.5416    18
 N  H  Rav=1.0080 sigma=0.0001  Rmin=1.0080  Rmax=1.0081     2
 N  B  Rav=1.4560 sigma=0.1011  Rmin=1.3743  Rmax=2.0149    68
 N  C  Rav=1.3634 sigma=0.0565  Rmin=1.2762  Rmax=1.4340     4
 N  N  Rav=1.4278 sigma=0.0416  Rmin=1.3675  Rmax=1.5525    22
 O  C  Rav=1.2010 sigma=0.0000  Rmin=1.2010  Rmax=1.2010     1
 F  C  Rav=1.3463 sigma=0.0044  Rmin=1.3413  Rmax=1.3527     4
 
 selected bond angles (degree)
 --------------------
F3-C2-F1=106.47                C4-C2-F1=112.58                C4-C2-F3=112.94                F25-C2-F1=106.00               
F25-C2-F3=106.15               F25-C2-C4=112.18               C5-C4-C2=120.02                C9-C4-C2=119.44                
C9-C4-C5=120.54                C6-C5-C4=119.49                H26-C5-C4=120.03               H26-C5-C6=120.48               
C7-C6-C5=120.49                H27-C6-C5=119.56               H27-C6-C7=119.94               C8-C7-C6=119.49                
C10-C7-C6=120.85               C10-C7-C8=119.65               C9-C8-C7=120.49                H28-C8-C7=119.59               
H28-C8-C9=119.92               C8-C9-C4=119.49                H29-C9-C4=119.90               H29-C9-C8=120.60               
C11-C10-C7=111.26              C24-C10-C7=109.16              C24-C10-C11=109.20             H30-C10-C7=108.41              
H30-C10-C11=110.11             H30-C10-C24=108.65             
 
 selected dihedral angles (degree)
 ---------------------------------
C5-C4-C2-F1=147.46            C5-C4-C2-F3= 26.83            C5-C4-C2-F25=266.92           C9-C4-C2-F1=326.25            
C9-C4-C2-F3=205.63            C9-C4-C2-F25= 85.72           C6-C5-C4-C2=179.83            C6-C5-C4-C9=  1.05            
H26-C5-C4-C2=359.20           H26-C5-C4-C9=180.42           C7-C6-C5-C4=359.96            C7-C6-C5-H26=180.59           
H27-C6-C5-C4=178.82           H27-C6-C5-H26=359.45          C8-C7-C6-C5=359.00            C8-C7-C6-H27=180.15           
C10-C7-C6-C5=179.91           C10-C7-C6-H27=  1.06          C9-C8-C7-C6=  1.05            C9-C8-C7-C10=180.15           
H28-C8-C7-C6=180.90           H28-C8-C7-C10=  0.00          C8-C9-C4-C2=180.21            C8-C9-C4-C5=359.00            
H29-C9-C4-C2=  0.85           H29-C9-C4-C5=179.64           C4-C9-C8-C7=359.95            C4-C9-C8-H28=180.10           
H29-C9-C8-C7=179.30           H29-C9-C8-H28=359.45          C11-C10-C7-C6=324.80          C11-C10-C7-C8=145.71          
C24-C10-C7-C6= 85.38          C24-C10-C7-C8=266.29          H30-C10-C7-C6=203.57          H30-C10-C7-C8= 24.48          
 
 CMA Distance (Angstroems)
 ---------------------------
R(CMA): 11.0859
           -------------------------------------------------
          |                Final Singlepoint                |
           -------------------------------------------------

          ...................................................
          :                      SETUP                      :
          :.................................................:
          :  # basis functions                 399          :
          :  # atomic orbitals                 399          :
          :  # shells                          205          :
          :  # electrons                       416          :
          :  max. iterations                   500          :
          :  Hamiltonian                  GFN2-xTB          :
          :  restarted?                      false          :
          :  GBSA solvation                  false          :
          :  PC potential                    false          :
          :  electronic temp.          300.0000000     K    :
          :  accuracy                    1.0000000          :
          :  -> integral cutoff          0.2500000E+02      :
          :  -> integral neglect         0.1000000E-07      :
          :  -> SCF convergence          0.1000000E-05 Eh   :
          :  -> wf. convergence          0.1000000E-03 e    :
          :  Broyden damping             0.4000000          :
          :  net charge                          0          :
          :  unpaired electrons                  0          :
          ...................................................

 iter      E             dE          RMSdq      gap      omega  full diag
   1   -226.2668917 -0.226267E+03  0.330E-02    0.71       0.0  T
   2   -226.2668926 -0.822059E-06  0.192E-02    0.71       1.0  T
   3   -226.2668913  0.123796E-05  0.352E-03    0.71       2.7  T
   4   -226.2668928 -0.145035E-05  0.130E-03    0.71       7.4  T
   5   -226.2668928 -0.556978E-07  0.985E-04    0.71       9.8  T
   6   -226.2668929 -0.100243E-06  0.495E-04    0.71      19.4  T

   *** convergence criteria satisfied after 6 iterations ***

         #    Occupation            Energy/Eh            Energy/eV
      -------------------------------------------------------------
         1        2.0000           -0.8735294             -23.7699
       ...           ...                  ...                  ...
       202        2.0000           -0.3282375              -8.9318
       203        2.0000           -0.3255574              -8.8589
       204        2.0000           -0.3243881              -8.8270
       205        2.0000           -0.3217022              -8.7540
       206        2.0000           -0.3163008              -8.6070
       207        2.0000           -0.3143185              -8.5530
       208        2.0000           -0.3102742              -8.4430 (HOMO)
       209        0.0000           -0.2840972              -7.7307 (LUMO)
       210                         -0.2784753              -7.5777
       211                         -0.2758913              -7.5074
       212                         -0.2652408              -7.2176
       213                         -0.2628949              -7.1537
       ...                                ...                  ...
       399                          0.9832999              26.7570
      -------------------------------------------------------------
                  HL-Gap            0.0261771 Eh            0.7123 eV
             Fermi-level           -0.2971796 Eh           -8.0867 eV

 SCC (total)                   0 d,  0 h,  0 min,  0.256 sec
 SCC setup                      ...        0 min,  0.000 sec (  0.000%)
 Dispersion                     ...        0 min,  0.002 sec (  0.781%)
 classical contributions        ...        0 min,  0.000 sec (  0.000%)
 integral evaluation            ...        0 min,  0.013 sec (  5.078%)
 iterations                     ...        0 min,  0.208 sec ( 81.250%)
 molecular gradient             ...        0 min,  0.030 sec ( 11.719%)
 printout                       ...        0 min,  0.003 sec (  1.172%)

         :::::::::::::::::::::::::::::::::::::::::::::::::::::
         ::                     SUMMARY                     ::
         :::::::::::::::::::::::::::::::::::::::::::::::::::::
         :: total energy            -224.003580892896 Eh    ::
         :: gradient norm              0.002305382094 Eh/a0 ::
         :: HOMO-LUMO gap              0.712314794415 eV    ::
         ::.................................................::
         :: SCC energy              -226.251762867231 Eh    ::
         :: -> isotropic ES            0.727135843022 Eh    ::
         :: -> anisotropic ES         -0.031518888780 Eh    ::
         :: -> anisotropic XC          0.069046637314 Eh    ::
         :: -> dispersion             -0.187990142817 Eh    ::
         :: repulsion energy           2.248181974335 Eh    ::
         :: add. restraining           0.000000000000 Eh    ::
         :: total charge               0.000000000000 e     ::
         :::::::::::::::::::::::::::::::::::::::::::::::::::::

           -------------------------------------------------
          |                Property Printout                |
           -------------------------------------------------

    * Orbital Energies and Occupations

         #    Occupation            Energy/Eh            Energy/eV
      -------------------------------------------------------------
         1        2.0000           -0.8735294             -23.7699
       ...           ...                  ...                  ...
       196        2.0000           -0.3409562              -9.2779
       197        2.0000           -0.3395546              -9.2398
       198        2.0000           -0.3356998              -9.1349
       199        2.0000           -0.3333939              -9.0721
       200        2.0000           -0.3310893              -9.0094
       201        2.0000           -0.3298902              -8.9768
       202        2.0000           -0.3282375              -8.9318
       203        2.0000           -0.3255574              -8.8589
       204        2.0000           -0.3243881              -8.8270
       205        2.0000           -0.3217022              -8.7540
       206        2.0000           -0.3163008              -8.6070
       207        2.0000           -0.3143185              -8.5530
       208        2.0000           -0.3102742              -8.4430 (HOMO)
       209        0.0000           -0.2840972              -7.7307 (LUMO)
       210                         -0.2784753              -7.5777
       211                         -0.2758913              -7.5074
       212                         -0.2652408              -7.2176
       213                         -0.2628949              -7.1537
       214                         -0.2575019              -7.0070
       215                         -0.2521694              -6.8619
       216                         -0.2462337              -6.7004
       217                         -0.2436289              -6.6295
       218                         -0.2356871              -6.4134
       219                         -0.2316044              -6.3023
       ...                                ...                  ...
       399                          0.9832999              26.7570
      -------------------------------------------------------------
                  HL-Gap            0.0261771 Eh            0.7123 eV
             Fermi-level           -0.2971796 Eh           -8.0867 eV

     #   Z          covCN         q      C6AA      α(0)
     1   9 F        0.791    -0.207    11.310     3.973
     2   6 C        3.336     0.486    17.289     6.585
     3   9 F        0.791    -0.206    11.295     3.970
     4   6 C        2.977    -0.025    28.623     8.776
     5   6 C        2.920    -0.023    28.574     8.766
     6   6 C        2.924    -0.031    28.771     8.796
     7   6 C        2.979     0.025    27.448     8.594
     8   6 C        2.924    -0.032    28.786     8.799
     9   6 C        2.920    -0.022    28.544     8.761
    10   6 C        3.868    -0.027    21.014     6.518
    11   6 C        2.984    -0.016    28.396     8.741
    12   6 C        2.921    -0.058    29.440     8.898
    13   6 C        2.784     0.156    24.614     8.126
    14   9 F        0.787    -0.232    11.573     4.018
    15   6 C        2.915    -0.050    29.240     8.867
    16   6 C        2.930    -0.062    29.553     8.915
    17   6 C        2.907     0.064    26.564     8.451
    18   7 N        2.694    -0.173    24.751     7.389
    19   6 C        3.839     0.017    20.269     6.405
    20   6 C        2.801     0.263    22.572     7.783
    21   8 O        0.857    -0.384    21.369     6.198
    22   7 N        2.907    -0.080    22.798     7.091
    23   7 N        1.936    -0.176    25.606     7.503
    24   6 C        3.053     0.087    26.023     8.366
    25   9 F        0.791    -0.209    11.333     3.977
    26   1 H        0.926     0.065     2.137     2.286
    27   1 H        0.926     0.053     2.278     2.360
    28   1 H        0.926     0.060     2.203     2.321
    29   1 H        0.926     0.065     2.144     2.290
    30   1 H        0.924     0.076     2.017     2.221
    31   1 H        0.926     0.057     2.236     2.339
    32   1 H        0.926     0.062     2.180     2.309
    33   1 H        0.926     0.044     2.393     2.419
    34   1 H        0.860     0.173     1.257     1.756
    35   1 H        0.922     0.067     2.124     2.279
    36   1 H        0.860     0.196     1.127     1.663
    37   5 B        2.781     0.076    20.193     7.513
    38   7 N        2.775    -0.226    25.932     7.563
    39   5 B        2.788     0.092    19.931     7.463
    40   7 N        2.524    -0.314    28.121     7.875
    41   5 B        2.779     0.082    20.098     7.496
    42   7 N        2.655    -0.270    26.990     7.716
    43   5 B        2.850     0.241    17.669     7.019
    44   7 N        2.529    -0.272    27.078     7.728
    45   5 B        3.199     0.150    18.927     7.256
    46   7 N        2.979    -0.110    23.398     7.184
    47   5 B        2.644     0.373    16.322     6.813
    48   7 N        2.669    -0.212    25.627     7.519
    49   5 B        3.185     0.022    20.995     7.642
    50   7 N        2.886    -0.224    25.877     7.555
    51   5 B        3.009     0.209    18.073     7.091
    52   7 N        2.660    -0.163    24.528     7.356
    53   5 B        2.904     0.321    16.598     6.799
    54   7 N        3.157    -0.080    22.784     7.089
    55   5 B        2.779     0.094    19.912     7.461
    56   7 N        3.039    -0.122    23.642     7.222
    57   5 B        2.758     0.090    20.005     7.484
    58   7 N        2.634    -0.309    27.953     7.852
    59   5 B        3.038     0.226    17.836     7.045
    60   7 N        2.979    -0.006    21.365     6.865
    61   5 B        2.582     0.326    17.308     7.088
    62   7 N        2.597    -0.359    29.277     8.036
    63   5 B        3.287     0.340    16.337     6.740
    64   7 N        2.785    -0.253    26.576     7.657
    65   5 B        2.558     0.320    17.601     7.188
    66   7 N        2.579    -0.368    29.514     8.068
    67   5 B        2.530     0.301    18.230     7.378
    68   7 N        2.665    -0.205    25.455     7.493
    69   5 B        2.698     0.196    18.502     7.219
    70   7 N        2.843    -0.167    24.606     7.367
    71   5 B        2.758     0.082    20.129     7.507
    72   7 N        2.672    -0.174    24.766     7.391
    73   5 B        2.876     0.110    19.574     7.385
    74   7 N        2.663    -0.144    24.130     7.296
    75   5 B        2.595     0.312    17.388     7.085
    76   7 N        2.519    -0.354    29.170     8.021
    77   5 B        2.684     0.184    18.725     7.269
    78   7 N        3.004    -0.133    23.881     7.258
    79   5 B        2.677     0.210    18.358     7.202
    80   7 N        2.716    -0.249    26.474     7.642
    81   5 B        2.647     0.164    19.166     7.380
    82   7 N        2.825    -0.206    25.479     7.497
    83   5 B        3.321     0.230    17.781     7.032
    84   7 N        2.531    -0.285    27.399     7.774
    85   5 B        2.950     0.036    20.774     7.604
    86   7 N        2.783    -0.184    24.991     7.425
    87   5 B        2.796     0.085    20.040     7.482
    88   7 N        2.673    -0.155    24.366     7.331
    89   5 B        3.021     0.211    18.053     7.087
    90   7 N        3.272     0.015    20.983     6.803
    91   5 B        2.870     0.307    16.782     6.838
    92   7 N        3.153    -0.117    23.533     7.205
    93   5 B        3.263     0.320    16.584     6.791
    94   7 N        2.833    -0.061    22.413     7.031
    95   5 B        3.303     0.231    17.769     7.030
    96   7 N        2.656    -0.181    24.916     7.413
    97   5 B        2.837     0.112    19.568     7.387
    98   7 N        2.832    -0.224    25.890     7.557
    99   5 B        2.861     0.252    17.506     6.985
   100   7 N        2.654    -0.230    26.044     7.579
   101   5 B        3.009     0.114    19.483     7.363
   102   7 N        3.153    -0.086    22.907     7.109
   103   5 B        2.674     0.201    18.512     7.234
   104   7 N        2.696    -0.234    26.115     7.590
   105   5 B        2.585     0.369    16.719     6.962
   106   7 N        2.882    -0.179    24.860     7.405
   107   5 B        2.824     0.106    19.671     7.408
   108   7 N        2.828    -0.252    26.552     7.653

 Mol. C6AA /au·bohr⁶  :     220573.892373
 Mol. C8AA /au·bohr⁸  :    6185419.491082
 Mol. α(0) /au        :        737.363680


Wiberg/Mayer (AO) data.
largest (>0.10) Wiberg bond orders for each atom

 ---------------------------------------------------------------------------
     #   Z sym  total        # sym  WBO       # sym  WBO       # sym  WBO
 ---------------------------------------------------------------------------
     1   9 F    1.071 --     2 C    0.947
     2   6 C    3.824 --     4 C    0.951     3 F    0.950     1 F    0.947
                            25 F    0.939
     3   9 F    1.073 --     2 C    0.950
     4   6 C    3.971 --     5 C    1.413     9 C    1.409     2 C    0.951
                             7 C    0.104
     5   6 C    3.988 --     6 C    1.445     4 C    1.413    26 H    0.966
                             8 C    0.110
     6   6 C    3.991 --     5 C    1.445     7 C    1.413    27 H    0.965
                             9 C    0.109
     7   6 C    3.985 --     6 C    1.413     8 C    1.408    10 C    0.958
                             4 C    0.104
     8   6 C    3.989 --     9 C    1.450     7 C    1.408    28 H    0.966
                             5 C    0.110
     9   6 C    3.988 --     8 C    1.450     4 C    1.409    29 H    0.966
                             6 C    0.109
    10   6 C    3.992 --    24 C    1.002    11 C    0.976     7 C    0.958
                            30 H    0.946
    11   6 C    3.981 --    12 C    1.423    17 C    1.322    10 C    0.976
    12   6 C    3.988 --    11 C    1.423    13 C    1.400    31 H    0.966
                            16 C    0.103
    13   6 C    3.880 --    12 C    1.400    15 C    1.377    14 F    0.950
    14   9 F    1.072 --    13 C    0.950
    15   6 C    3.988 --    16 C    1.469    13 C    1.377    32 H    0.966
    16   6 C    3.985 --    15 C    1.469    17 C    1.331    33 H    0.967
                            12 C    0.103
    17   6 C    3.971 --    16 C    1.331    11 C    1.322    18 N    1.156
    18   7 N    3.335 --    17 C    1.156    19 C    1.000    34 H    0.939
    19   6 C    3.982 --    18 N    1.000    24 C    0.987    20 C    0.923
                            35 H    0.910
    20   6 C    3.949 --    21 O    1.745    22 N    1.190    19 C    0.923
    21   8 O    2.070 --    20 C    1.745    22 N    0.177
    22   7 N    3.512 --    20 C    1.190    23 N    1.091    36 H    0.930
                            21 O    0.177
    23   7 N    3.013 --    24 C    1.761    22 N    1.091
    24   6 C    3.975 --    23 N    1.761    10 C    1.002    19 C    0.987
    25   9 F    1.069 --     2 C    0.939
    26   1 H    0.995 --     5 C    0.966
    27   1 H    0.997 --     6 C    0.965
    28   1 H    0.996 --     8 C    0.966
    29   1 H    0.995 --     9 C    0.966
    30   1 H    0.993 --    10 C    0.946
    31   1 H    0.996 --    12 C    0.966
    32   1 H    0.995 --    15 C    0.966
    33   1 H    0.998 --    16 C    0.967
    34   1 H    0.970 --    18 N    0.939
    35   1 H    0.994 --    19 C    0.910
    36   1 H    0.961 --    22 N    0.930
    37   5 B    3.477 --   106 N    1.283    89 B    1.000    83 B    0.970
    38   7 N    3.401 --    83 B    1.143    96 N    1.008    95 B    1.002
    39   5 B    3.464 --    84 N    1.276   107 B    0.978    95 B    0.959
    40   7 N    3.530 --    99 B    1.152    97 B    1.151    67 B    1.017
    41   5 B    3.465 --    74 N    1.241   103 B    0.996    77 B    0.990
    42   7 N    3.263 --    63 B    1.200   105 B    0.968   100 N    0.888
    43   5 B    3.407 --    76 N    1.177    50 N    1.032    59 B    0.963
    44   7 N    3.568 --    57 B    1.277    45 B    1.158   101 B    0.973
    45   5 B    3.393 --    44 N    1.158    87 B    0.932    85 B    0.640
                            49 B    0.295
    46   7 N    3.322 --    51 B    1.113    90 N    1.043   102 N    0.945
    47   5 B    3.432 --    48 N    1.187    58 N    1.126    86 N    0.961
    48   7 N    3.446 --    47 B    1.187    75 B    1.086    88 N    0.967
    49   5 B    3.457 --    85 B    1.285   101 B    1.003    99 B    0.626
                            45 B    0.295
    50   7 N    3.428 --    53 B    1.235    43 B    1.032    64 N    0.929
    51   5 B    3.390 --    46 N    1.113    70 N    1.039    97 B    1.005
    52   7 N    3.510 --    55 B    1.205    75 B    1.124    72 N    0.998
    53   5 B    3.513 --    50 N    1.235    78 N    1.068    98 N    1.003
    54   7 N    3.356 --   103 B    1.149   106 N    0.991    56 N    0.983
    55   5 B    3.413 --    52 N    1.205    73 B    1.008    87 B    0.927
    56   7 N    3.333 --    91 B    1.139    54 N    0.983    60 N    0.974
    57   5 B    3.464 --    44 N    1.277    71 B    0.978    81 B    0.932
    58   7 N    3.219 --    47 B    1.126    61 B    1.068    86 N    0.793
    59   5 B    3.369 --    72 N    1.152    64 N    0.993    43 B    0.963
    60   7 N    3.095 --    78 N    1.012    56 N    0.974   104 N    0.938
    61   5 B    3.511 --    98 N    1.245    58 N    1.068    76 N    0.989
    62   7 N    3.434 --    67 B    1.203    95 B    1.060    83 B    0.924
    63   5 B    3.481 --    42 N    1.200    80 N    1.042    66 N    0.981
    64   7 N    3.281 --    69 B    1.166    59 B    0.993    50 N    0.929
    65   5 B    3.523 --   100 N    1.212   104 N    1.120    92 N    1.032
    66   7 N    3.431 --    79 B    1.220    93 B    0.993    63 B    0.981
    67   5 B    3.520 --    62 N    1.203   108 N    1.098    40 N    1.017
    68   7 N    3.442 --   105 B    1.261    79 B    0.998    94 N    0.990
    69   5 B    3.445 --    64 N    1.166    96 N    1.126   107 B    0.923
    70   7 N    3.469 --    71 B    1.260    51 B    1.039   102 N    0.984
    71   5 B    3.420 --    70 N    1.260    57 B    0.978    79 B    0.959
    72   7 N    3.511 --   107 B    1.171    59 B    1.152    52 N    0.998
    73   5 B    3.347 --    85 B    1.009    55 B    1.008    84 N    0.963
    74   7 N    3.509 --    41 B    1.241    77 B    1.092    80 N    1.036
    75   5 B    3.515 --    52 N    1.124    76 N    1.103    48 N    1.086
    76   7 N    3.477 --    43 B    1.177    75 B    1.103    61 B    0.989
    77   5 B    3.465 --    82 N    1.180    74 N    1.092    41 B    0.990
    78   7 N    3.255 --    53 B    1.068    60 N    1.012    92 N    0.975
    79   5 B    3.390 --    66 N    1.220    68 N    0.998    71 B    0.959
    80   7 N    3.371 --    63 B    1.042    74 N    1.036    93 B    0.985
    81   5 B    3.453 --    94 N    1.191    88 N    1.079    57 B    0.932
    82   7 N    3.406 --    77 B    1.180    89 B    1.072    90 N    0.959
    83   5 B    3.365 --    38 N    1.143    37 B    0.970    62 N    0.924
                            95 B    0.127
    84   7 N    3.561 --    39 B    1.276    99 B    1.106    73 B    0.963
    85   5 B    3.368 --    49 B    1.285    73 B    1.009    45 B    0.640
                            99 B    0.187
    86   7 N    2.987 --    94 N    1.045    47 B    0.961    58 N    0.793
    87   5 B    3.455 --    88 N    1.266    45 B    0.932    55 B    0.927
    88   7 N    3.480 --    87 B    1.266    81 B    1.079    48 N    0.967
    89   5 B    3.443 --   108 N    1.132    82 N    1.072    37 B    1.000
    90   7 N    3.186 --    46 N    1.043    82 N    0.959   108 N    0.951
    91   5 B    3.522 --    96 N    1.161    56 N    1.139   106 N    0.991
    92   7 N    3.215 --    65 B    1.032    98 N    0.984    78 N    0.975
    93   5 B    3.507 --   102 N    1.265    66 N    0.993    80 N    0.985
    94   7 N    3.439 --    81 B    1.191    86 N    1.045    68 N    0.990
    95   5 B    3.327 --    62 N    1.060    38 N    1.002    39 B    0.959
                            83 B    0.127
    96   7 N    3.493 --    91 B    1.161    69 B    1.126    38 N    1.008
    97   5 B    3.385 --    40 N    1.151    51 B    1.005   101 B    1.002
    98   7 N    3.446 --    61 B    1.245    53 B    1.003    92 N    0.984
    99   5 B    3.444 --    40 N    1.152    84 N    1.106    49 B    0.626
                            85 B    0.187   101 B    0.119
   100   7 N    3.333 --    65 B    1.212   105 B    1.036    42 N    0.888
   101   5 B    3.333 --    49 B    1.003    97 B    1.002    44 N    0.973
                            99 B    0.119
   102   7 N    3.440 --    93 B    1.265    70 N    0.984    46 N    0.945
   103   5 B    3.448 --    54 N    1.149   104 N    1.110    41 B    0.996
   104   7 N    3.388 --    65 B    1.120   103 B    1.110    60 N    0.938
   105   5 B    3.439 --    68 N    1.261   100 N    1.036    42 N    0.968
   106   7 N    3.475 --    37 B    1.283    91 B    0.991    54 N    0.991
   107   5 B    3.359 --    72 N    1.171    39 B    0.978    69 B    0.923
   108   7 N    3.418 --    89 B    1.132    67 B    1.098    90 N    0.951
 ---------------------------------------------------------------------------

Topologies differ in total number of bonds
Writing topology from bond orders to xtbtopo.mol

molecular dipole:
                 x           y           z       tot (Debye)
 q only:        2.898       2.844      -4.250
   full:        1.203       1.784      -2.367       8.130
molecular quadrupole (traceless):
                xx          xy          yy          xz          yz          zz
 q only:      -27.900     -10.497      29.236      39.498      20.250      -1.337
  q+dip:      -11.304     -13.006      49.326      37.302      23.375     -38.021
   full:       -6.350     -10.567      45.623      42.484      22.223     -39.273

           -------------------------------------------------
          |                Geometry Summary                 |
           -------------------------------------------------

      molecular mass/u    :     1242.7213111
   center of mass at/Å    :       -0.1323940      -0.0328923       3.2064364
  moments of inertia/u·Å² :        0.1394710E+05   0.4352097E+05   0.4460712E+05
rotational constants/cm⁻¹ :        0.1208683E-02   0.3873451E-03   0.3779135E-03

 * 127 selected distances

     #   Z          #   Z                                           value/Å
     1   9 F        2   6 C                                       1.3433817
     2   6 C        3   9 F                                       1.3413103
     4   6 C        5   6 C                                       1.3878271
     5   6 C        6   6 C                                       1.3826589
     6   6 C        7   6 C                                       1.3888780
     7   6 C        8   6 C                                       1.3891943
     4   6 C        9   6 C                                       1.3888984
     8   6 C        9   6 C                                       1.3818987
    11   6 C       12   6 C                                       1.3868238
    12   6 C       13   6 C                                       1.3800476
    13   6 C       15   6 C                                       1.3835473
    15   6 C       16   6 C                                       1.3783268
    11   6 C       17   6 C                                       1.4041489
    16   6 C       17   6 C                                       1.3995619
    17   6 C       18   7 N                                       1.3751522
    18   7 N       19   6 C                                       1.4340422
    20   6 C       21   8 O                                       1.2010337
    20   6 C       22   7 N                                       1.3682261
    22   7 N       23   7 N                                       1.3674645
    10   6 C       24   6 C                                       1.4829706
    23   7 N       24   6 C                                       1.2762484
     2   6 C       25   9 F                                       1.3478222
     5   6 C       26   1 H                                       1.0790693
     6   6 C       27   1 H                                       1.0793599
     8   6 C       28   1 H                                       1.0792375
     9   6 C       29   1 H                                       1.0790055
    10   6 C       30   1 H                                       1.0942352
    12   6 C       31   1 H                                       1.0790089
    15   6 C       32   1 H                                       1.0779214
    16   6 C       33   1 H                                       1.0794068
    18   7 N       34   1 H                                       1.0079655 (min)
    19   6 C       35   1 H                                       1.1062944
    22   7 N       36   1 H                                       1.0080681
    44   7 N       45   5 B                                       1.4428927
    47   5 B       48   7 N                                       1.4039755
    43   5 B       50   7 N                                       1.4728114
    46   7 N       51   5 B                                       1.4402472
    50   7 N       53   5 B                                       1.3865945
    52   7 N       55   5 B                                       1.4226049
    54   7 N       56   7 N                                       1.4212144
    44   7 N       57   5 B                                       1.4230737
    47   5 B       58   7 N                                       1.3943696
    43   5 B       59   5 B                                       1.5749037
    56   7 N       60   7 N                                       1.4202772
    58   7 N       61   5 B                                       1.4340646
    42   7 N       63   5 B                                       1.3899268
    59   5 B       64   7 N                                       1.4841675
    63   5 B       66   7 N                                       1.4708432
    40   7 N       67   5 B                                       1.4902547
    62   7 N       67   5 B                                       1.4128509
    64   7 N       69   5 B                                       1.4394837
    51   5 B       70   7 N                                       1.4566464
    57   5 B       71   5 B                                       1.6641865
    70   7 N       71   5 B                                       1.4082355
    59   5 B       72   7 N                                       1.4217193
    55   5 B       73   5 B                                       1.6422645
    41   5 B       74   7 N                                       1.4057382
    48   7 N       75   5 B                                       1.4483708
    52   7 N       75   5 B                                       1.4594603
    43   5 B       76   7 N                                       1.4260573
    61   5 B       76   7 N                                       1.4925077
    75   5 B       76   7 N                                       1.4585053
    41   5 B       77   5 B                                       1.5727858
    74   7 N       77   5 B                                       1.4139251
    53   5 B       78   7 N                                       1.4457954
    60   7 N       78   7 N                                       1.3938929
    66   7 N       79   5 B                                       1.4202086
    68   7 N       79   5 B                                       1.4793389
    71   5 B       79   5 B                                       1.6740649 (max)
    63   5 B       80   7 N                                       1.4506655
    74   7 N       80   7 N                                       1.3692386
    77   5 B       82   7 N                                       1.4091660
    37   5 B       83   5 B                                       1.6082711
    38   7 N       83   5 B                                       1.4237223
    62   7 N       83   5 B                                       1.5001276
    39   5 B       84   7 N                                       1.4101277
    73   5 B       84   7 N                                       1.4907855
    49   5 B       85   5 B                                       1.5154457
    73   5 B       85   5 B                                       1.6059919
    47   5 B       86   7 N                                       1.4294784
    45   5 B       87   5 B                                       1.6493482
    55   5 B       87   5 B                                       1.6619917
    81   5 B       88   7 N                                       1.4617741
    87   5 B       88   7 N                                       1.4028310
    37   5 B       89   5 B                                       1.6195428
    82   7 N       89   5 B                                       1.4434614
    46   7 N       90   7 N                                       1.3677995
    56   7 N       91   5 B                                       1.4377647
    65   5 B       92   7 N                                       1.4552103
    78   7 N       92   7 N                                       1.4383236
    66   7 N       93   5 B                                       1.4563885
    80   7 N       93   5 B                                       1.4639171
    81   5 B       94   7 N                                       1.4269412
    86   7 N       94   7 N                                       1.3894691
    38   7 N       95   5 B                                       1.4592534
    39   5 B       95   5 B                                       1.6125154
    62   7 N       95   5 B                                       1.4509533
    69   5 B       96   7 N                                       1.4488405
    91   5 B       96   7 N                                       1.4410300
    40   7 N       97   5 B                                       1.4574561
    51   5 B       97   5 B                                       1.6054566
    53   5 B       98   7 N                                       1.4608606
    61   5 B       98   7 N                                       1.3915889
    92   7 N       98   7 N                                       1.4205457
    40   7 N       99   5 B                                       1.4585134
    84   7 N       99   5 B                                       1.4560119
    65   5 B      100   7 N                                       1.3882786
    44   7 N      101   5 B                                       1.4965133
    49   5 B      101   5 B                                       1.6005159
    97   5 B      101   5 B                                       1.6241519
    46   7 N      102   7 N                                       1.4307866
    70   7 N      102   7 N                                       1.4183266
    93   5 B      102   7 N                                       1.3743150
    41   5 B      103   5 B                                       1.6414544
    54   7 N      103   5 B                                       1.4347627
    65   5 B      104   7 N                                       1.4433836
   103   5 B      104   7 N                                       1.4565283
    42   7 N      105   5 B                                       1.4255069
    68   7 N      105   5 B                                       1.4004916
   100   7 N      105   5 B                                       1.4173445
    37   5 B      106   7 N                                       1.4018306
    54   7 N      106   7 N                                       1.4080781
    91   5 B      106   7 N                                       1.4857093
    39   5 B      107   5 B                                       1.6510565
    72   7 N      107   5 B                                       1.4320930
    67   5 B      108   7 N                                       1.4514094
    89   5 B      108   7 N                                       1.4426293

 * 9 distinct bonds (by element types)

   Z      Z             #   av. dist./Å        max./Å        min./Å
   5 B    5 B          17     1.6190557     1.6740649     1.5154457
   1 H    6 C           9     1.0837265     1.1062944     1.0779214
   6 C    6 C          13     1.3949833     1.4829706     1.3783268
   1 H    7 N           2     1.0080168     1.0080681     1.0079655
   5 B    7 N          66     1.4391263     1.5001276     1.3743150
   6 C    7 N           4     1.3634172     1.4340422     1.2762484
   7 N    7 N          12     1.4037847     1.4383236     1.3674645
   6 C    8 O           1     1.2010337     1.2010337     1.2010337
   6 C    9 F           3     1.3441714     1.3478222     1.3413103


optimized geometry written to: xtbopt.xyz


           -------------------------------------------------
          | TOTAL ENERGY             -224.003580892896 Eh   |
          | GRADIENT NORM               0.002305382094 Eh/α |
          | HOMO-LUMO GAP               0.712314794415 eV   |
           -------------------------------------------------

------------------------------------------------------------------------
 * finished run on 2026/08/31 at 22:23:16.538     
------------------------------------------------------------------------
 total:
 * wall-time:     0 d,  0 h,  0 min,  5.552 sec
 *  cpu-time:     0 d,  0 h,  0 min, 50.344 sec
 * ratio c/w:     9.068 speedup
 SCF:
 * wall-time:     0 d,  0 h,  0 min,  0.905 sec
 *  cpu-time:     0 d,  0 h,  0 min,  7.281 sec
 * ratio c/w:     8.046 speedup
 ANC optimizer:
 * wall-time:     0 d,  0 h,  0 min,  4.586 sec
 *  cpu-time:     0 d,  0 h,  0 min, 42.469 sec
 * ratio c/w:     9.261 speedup

normal termination of xtb
