      -----------------------------------------------------------      
     |                   =====================                   |     
     |                           x T B                           |     
     |                   =====================                   |     
     |                         S. Grimme                         |     
     |          Mulliken Center for Theoretical Chemistry        |     
     |                    University of Bonn                     |     
      -----------------------------------------------------------      

   * xtb version 6.7.1pre (5071a88) compiled by 'Marcel@Raven' on 2024-07-23

   xtb is free software: you can redistribute it and/or modify it under
   the terms of the GNU Lesser General Public License as published by
   the Free Software Foundation, either version 3 of the License, or
   (at your option) any later version.
   
   xtb is distributed in the hope that it will be useful,
   but WITHOUT ANY WARRANTY; without even the implied warranty of
   MERCHANTABILITY or FITNESS FOR A PARTICULAR PURPOSE.  See the
   GNU Lesser General Public License for more details.
   
   Cite this work as:
   * C. Bannwarth, E. Caldeweyher, S. Ehlert, A. Hansen, P. Pracht,
     J. Seibert, S. Spicher, S. Grimme, WIREs Comput. Mol. Sci., 2020, 11,
     e01493. DOI: 10.1002/wcms.1493
   
   for GFN2-xTB:
   * C. Bannwarth, S. Ehlert and S. Grimme., J. Chem. Theory Comput., 2019,
     15, 1652-1671. DOI: 10.1021/acs.jctc.8b01176
   for GFN1-xTB:
   * S. Grimme, C. Bannwarth, P. Shushkov, J. Chem. Theory Comput., 2017,
     13, 1989-2009. DOI: 10.1021/acs.jctc.7b00118
   for GFN0-xTB:
   * P. Pracht, E. Caldeweyher, S. Ehlert, S. Grimme, ChemRxiv, 2019, preprint.
     DOI: 10.26434/chemrxiv.8326202.v1
   for GFN-FF:
   * S. Spicher and S. Grimme, Angew. Chem. Int. Ed., 2020, 59, 15665-15673.
     DOI: 10.1002/anie.202004239
   
   for ALPB and GBSA implicit solvation:
   * S. Ehlert, M. Stahn, S. Spicher, S. Grimme, J. Chem. Theory Comput.,
     2021, 17, 4250-4261. DOI: 10.1021/acs.jctc.1c00471
   
   for ddCOSMO and CPCM-X implicit solvation:
   * M. Stahn, S. Ehlert, S. Grimme, J. Phys. Chem. A,
     2023, XX, XXXX-XXXX. DOI: 10.1021/acs.jpca.3c04382
   
   for DFT-D4:
   * E. Caldeweyher, C. Bannwarth and S. Grimme, J. Chem. Phys., 2017,
     147, 034112. DOI: 10.1063/1.4993215
   * E. Caldeweyher, S. Ehlert, A. Hansen, H. Neugebauer, S. Spicher,
     C. Bannwarth and S. Grimme, J. Chem. Phys., 2019, 150, 154122.
     DOI: 10.1063/1.5090222
   * E. Caldeweyher, J.-M. Mewes, S. Ehlert and S. Grimme, Phys. Chem. Chem. Phys.
     2020, 22, 8499-8512. DOI: 10.1039/D0CP00502A
   
   for sTDA-xTB:
   * S. Grimme and C. Bannwarth, J. Chem. Phys., 2016, 145, 054103.
     DOI: 10.1063/1.4959605
   
   in the mass-spec context:
   * V. Asgeirsson, C. Bauer and S. Grimme, Chem. Sci., 2017, 8, 4879.
     DOI: 10.1039/c7sc00601b
   * J. Koopman and S. Grimme, ACS Omega 2019, 4, 12, 15120-15133.
     DOI: 10.1021/acsomega.9b02011
   
   for metadynamics refer to:
   * S. Grimme, J. Chem. Theory Comput., 2019, 155, 2847-2862
     DOI: 10.1021/acs.jctc.9b00143
   
   for SPH calculations refer to:
   * S. Spicher and S. Grimme, J. Chem. Theory Comput., 2021, 17, 1701-1714
     DOI: 10.1021/acs.jctc.0c01306
   
   for ONIOM refer to:
   * C. Plett, A. Katbashev, S. Ehlert, S. Grimme, M. Bursch,
     Phys. Chem. Chem. Phys., 2023, 25, 17860-17868. DOI: 10.1039/D3CP02178E
   
   for DIPRO refer to:
   * J. Kohn, N. Gildemeister, S. Grimme, D. Fazzi, A. Hansen,
     J. Chem. Phys., 2023, just accepted.
   
   for PTB refer to:
   * S. Grimme, M. Mueller, A. Hansen, J. Chem. Phys., 2023, 158, 124111.
     DOI: 10.1063/5.0137838
   
   with help from (in alphabetical order)
   P. Atkinson, C. Bannwarth, F. Bohle, G. Brandenburg, E. Caldeweyher
   M. Checinski, S. Dohm, S. Ehlert, S. Ehrlich, I. Gerasimov, C. Hölzer
   A. Katbashev, J. Kohn, J. Koopman, C. Lavigne, S. Lehtola, F. März, M. Müller,
   F. Musil, H. Neugebauer, J. Pisarek, C. Plett, P. Pracht, F. Pultar,
   J. Seibert, P. Shushkov, S. Spicher, M. Stahn, M. Steiner, T. Strunk,
   J. Stückrath, T. Rose, and J. Unsleber
   
 * started run on 2026/08/31 at 18:25:06.946     
   ID    Z sym.   atoms
    1    9 F      1, 3, 14, 25
    2    6 C      2, 4-13, 15-17, 19, 20, 24
    3    7 N      18, 22, 23, 73-108
    4    8 O      21
    5    1 H      26-36
    6    5 B      37-72

           -------------------------------------------------
          |                Calculation Setup                |
           -------------------------------------------------

          program call               : "c:\Users\Andre\Proyectos doctorado\kras-pancreatic-gC3N4-ai\tools\xtb\xtb-6.7.1\bin\xtb.exe" "c:\Users\Andre\Proyectos doctorado\nano-qsar-ai-therapeutics\calculations\tnbc\Talazoparib\Talazoparib_B36N36_complex.xyz" --gfn 2 --sp --chrg 0 --uhf 0 --iterations 500 --norestart
          coordinate file            : c:\Users\Andre\Proyectos doctorado\nano-qsar-ai-therapeutics\calculations\tnbc\Talazoparib\Talazoparib_B36N36_complex.xyz
          omp threads                :                    16


molecular fragmentation (1/2 indicates fragments):
111111111111111111111111111111111111111111111111112112111111111111111111
111111111111112112111121111111111111
# atoms in fragment 1/2:   103     5
 fragment masses (1/2) :     1179.08       63.64
CMA distance (Bohr)    :   5.820
constraining FC (au)   :  0.0500

           -------------------------------------------------
          |                 G F N 2 - x T B                 |
           -------------------------------------------------

        Reference                      10.1021/acs.jctc.8b01176
      * Hamiltonian:
        H0-scaling (s, p, d)           1.850000    2.230000    2.230000
        zeta-weighting                 0.500000
      * Dispersion:
        s8                             2.700000
        a1                             0.520000
        a2                             5.000000
        s9                             5.000000
      * Repulsion:
        kExp                           1.500000    1.000000
        rExp                           1.000000
      * Coulomb:
        alpha                          2.000000
        third order                    shell-resolved
        anisotropic                    true
        a3                             3.000000
        a5                             4.000000
        cn-shift                       1.200000
        cn-exp                         4.000000
        max-rad                        5.000000


          ...................................................
          :                      SETUP                      :
          :.................................................:
          :  # basis functions                 399          :
          :  # atomic orbitals                 399          :
          :  # shells                          205          :
          :  # electrons                       416          :
          :  max. iterations                   500          :
          :  Hamiltonian                  GFN2-xTB          :
          :  restarted?                      false          :
          :  GBSA solvation                  false          :
          :  PC potential                    false          :
          :  electronic temp.          300.0000000     K    :
          :  accuracy                    1.0000000          :
          :  -> integral cutoff          0.2500000E+02      :
          :  -> integral neglect         0.1000000E-07      :
          :  -> SCF convergence          0.1000000E-05 Eh   :
          :  -> wf. convergence          0.1000000E-03 e    :
          :  Broyden damping             0.4000000          :
          :  net charge                          0          :
          :  unpaired electrons                  0          :
          ...................................................

 iter      E             dE          RMSdq      gap      omega  full diag
   1   -218.7627170 -0.218763E+03  0.148E+01    0.14       0.0  T
   2   -209.8551839  0.890753E+01  0.107E+01    0.20       1.0  T
   3    -94.3731961  0.115482E+03  0.122E+01    0.04       1.0  T
   4   -149.4125586 -0.550394E+02  0.993E+00    0.08       1.0  T
   5   -207.1368884 -0.577243E+02  0.616E+00    0.07       1.0  T
   6   -199.6397676  0.749712E+01  0.603E+00    0.39       1.0  T
   7   -218.3136648 -0.186739E+02  0.380E+00    0.24       1.0  T
   8   -224.0803010 -0.576664E+01  0.274E+00    0.29       1.0  T
   9   -224.6281701 -0.547869E+00  0.203E+00    0.15       1.0  T
  10   -224.6180504  0.101197E-01  0.183E+00    0.13       1.0  T
  11   -224.7359518 -0.117901E+00  0.137E+00    0.08       1.0  T
  12   -224.8853716 -0.149420E+00  0.105E+00    0.12       1.0  T
  13   -224.8202385  0.651331E-01  0.940E-01    0.12       1.0  T
  14   -224.9109324 -0.906938E-01  0.690E-01    0.10       1.0  T
  15   -224.9209512 -0.100188E-01  0.603E-01    0.13       1.0  T
  16   -225.0408988 -0.119948E+00  0.399E-01    0.11       1.0  T
  17   -225.0584447 -0.175459E-01  0.223E-01    0.16       1.0  T
  18   -225.0559355  0.250925E-02  0.205E-01    0.15       1.0  T
  19   -225.0432041  0.127314E-01  0.279E-01    0.17       1.0  T
  20   -225.0599959 -0.167918E-01  0.149E-01    0.16       1.0  T
  21   -225.0646829 -0.468701E-02  0.865E-02    0.15       1.0  T
  22   -225.0672885 -0.260561E-02  0.305E-02    0.15       1.0  T
  23   -225.0673593 -0.707608E-04  0.217E-02    0.15       1.0  T
  24   -225.0673982 -0.388817E-04  0.148E-02    0.15       1.0  T
  25   -225.0674295 -0.312866E-04  0.629E-03    0.15       1.5  T
  26   -225.0674284  0.106872E-05  0.457E-03    0.15       2.1  T
  27   -225.0674365 -0.813692E-05  0.178E-03    0.15       5.4  T
  28   -225.0674369 -0.401546E-06  0.125E-03    0.15       7.7  T
  29   -225.0674374 -0.439953E-06  0.380E-04    0.15      25.3  T
  30   -225.0674374 -0.162240E-08  0.309E-04    0.15      31.1  T

   *** convergence criteria satisfied after 30 iterations ***

         #    Occupation            Energy/Eh            Energy/eV
      -------------------------------------------------------------
         1        2.0000           -1.0573256             -28.7713
       ...           ...                  ...                  ...
       202        2.0000           -0.2369481              -6.4477
       203        2.0000           -0.2152536              -5.8573
       204        2.0000           -0.2076761              -5.6512
       205        1.9999           -0.2028768              -5.5206
       206        1.9956           -0.1996465              -5.4327
       207        1.9464           -0.1972374              -5.3671
       208        1.9155           -0.1967893              -5.3549 (HOMO)
       209        0.1375           -0.1913488              -5.2069 (LUMO)
       210        0.0052           -0.1881647              -5.1202
       211                         -0.1697520              -4.6192
       212                         -0.1595744              -4.3422
       213                         -0.1554550              -4.2301
       ...                                ...                  ...
       399                         24.2217912             659.1085
      -------------------------------------------------------------
                  HL-Gap            0.0054404 Eh            0.1480 eV
             Fermi-level           -0.1938248 Eh           -5.2742 eV

 SCC (total)                   0 d,  0 h,  0 min,  0.902 sec
 SCC setup                      ...        0 min,  0.001 sec (  0.111%)
 Dispersion                     ...        0 min,  0.003 sec (  0.333%)
 classical contributions        ...        0 min,  0.000 sec (  0.000%)
 integral evaluation            ...        0 min,  0.012 sec (  1.330%)
 iterations                     ...        0 min,  0.829 sec ( 91.907%)
 molecular gradient             ...        0 min,  0.054 sec (  5.987%)
 printout                       ...        0 min,  0.003 sec (  0.333%)

         :::::::::::::::::::::::::::::::::::::::::::::::::::::
         ::                     SUMMARY                     ::
         :::::::::::::::::::::::::::::::::::::::::::::::::::::
         :: total energy             -17.120705454180 Eh    ::
         :: gradient norm            154.141424701112 Eh/a0 ::
         :: HOMO-LUMO gap              0.148041036328 eV    ::
         ::.................................................::
         :: SCC energy              -225.031924630143 Eh    ::
         :: -> isotropic ES            1.183903722428 Eh    ::
         :: -> anisotropic ES          0.099950989137 Eh    ::
         :: -> anisotropic XC          0.334108340981 Eh    ::
         :: -> dispersion             -0.318533463698 Eh    ::
         :: repulsion energy         207.911219175963 Eh    ::
         :: add. restraining           0.000000000000 Eh    ::
         :: total charge              -0.000000000000 e     ::
         :::::::::::::::::::::::::::::::::::::::::::::::::::::

           -------------------------------------------------
          |                Property Printout                |
           -------------------------------------------------

    * Orbital Energies and Occupations

         #    Occupation            Energy/Eh            Energy/eV
      -------------------------------------------------------------
         1        2.0000           -1.0573256             -28.7713
       ...           ...                  ...                  ...
       196        2.0000           -0.2772707              -7.5449
       197        2.0000           -0.2681517              -7.2968
       198        2.0000           -0.2583871              -7.0311
       199        2.0000           -0.2539473              -6.9103
       200        2.0000           -0.2431707              -6.6170
       201        2.0000           -0.2419228              -6.5831
       202        2.0000           -0.2369481              -6.4477
       203        2.0000           -0.2152536              -5.8573
       204        2.0000           -0.2076761              -5.6512
       205        1.9999           -0.2028768              -5.5206
       206        1.9956           -0.1996465              -5.4327
       207        1.9464           -0.1972374              -5.3671
       208        1.9155           -0.1967893              -5.3549 (HOMO)
       209        0.1375           -0.1913488              -5.2069 (LUMO)
       210        0.0052           -0.1881647              -5.1202
       211                         -0.1697520              -4.6192
       212                         -0.1595744              -4.3422
       213                         -0.1554550              -4.2301
       214                         -0.1488738              -4.0511
       215                         -0.1474442              -4.0122
       216                         -0.1325969              -3.6081
       217                         -0.1248233              -3.3966
       218                         -0.1179353              -3.2092
       219                         -0.1129589              -3.0738
       ...                                ...                  ...
       399                         24.2217912             659.1085
      -------------------------------------------------------------
                  HL-Gap            0.0054404 Eh            0.1480 eV
             Fermi-level           -0.1938248 Eh           -5.2742 eV

     #   Z          covCN         q      C6AA      α(0)
     1   9 F        0.788    -0.290    12.211     4.128
     2   6 C        5.137     0.483    13.905     5.296
     3   9 F        2.464    -0.122    10.447     3.819
     4   6 C        7.276    -0.258    25.600     7.186
     5   6 C        6.620    -0.129    22.877     6.793
     6   6 C        2.922    -0.203    33.375     9.474
     7   6 C        2.963    -0.140    31.600     9.220
     8   6 C        5.092    -0.227    24.908     7.088
     9   6 C        7.958     0.137    18.292     6.074
    10   6 C        3.860    -0.056    21.534     6.599
    11   6 C        3.127    -0.141    31.398     9.175
    12   6 C        5.695    -0.216    24.681     7.055
    13   6 C        5.911    -0.107    22.446     6.728
    14   9 F        3.262     0.164     8.071     3.357
    15   6 C        5.365    -0.203    24.387     7.013
    16   6 C        7.086     0.310    15.913     5.665
    17   6 C        5.415    -0.197    24.274     6.997
    18   7 N        6.370    -0.353    29.074     8.008
    19   6 C        6.046    -0.030    21.017     6.511
    20   6 C        4.986     0.187    17.563     5.952
    21   8 O        1.758    -0.592    24.935     6.743
    22   7 N        3.977    -0.113    23.454     7.193
    23   7 N        4.634    -0.117    23.548     7.207
    24   6 C        3.275    -0.086    28.664     8.625
    25   9 F        1.978    -0.168    10.899     3.901
    26   1 H        3.298     0.415     0.447     1.044
    27   1 H        0.925    -0.006     3.161     2.780
    28   1 H        1.415     0.167     1.276     1.763
    29   1 H        4.561     0.624     0.219     0.731
    30   1 H        0.923     0.053     2.281     2.362
    31   1 H        1.091     0.155     1.352     1.815
    32   1 H        0.927    -0.060     4.353     3.263
    33   1 H        3.484     0.428     0.425     1.018
    34   1 H        4.464     0.675     0.188     0.677
    35   1 H        1.148     0.092     1.845     2.121
    36   1 H        0.860     0.149     1.406     1.857
    37   5 B        5.102     0.083    21.262     7.430
    38   5 B        6.538     0.221    19.061     7.035
    39   5 B        6.439     0.170    19.841     7.177
    40   5 B        5.102     0.116    20.713     7.333
    41   5 B        7.685     0.077    21.369     7.448
    42   5 B        7.917     0.228    18.964     7.017
    43   5 B        5.589     0.125    20.554     7.305
    44   5 B        6.108     0.097    21.023     7.388
    45   5 B        8.341     0.111    20.784     7.346
    46   5 B        5.127     0.149    20.164     7.235
    47   5 B        5.827     0.154    20.082     7.221
    48   5 B        8.197     0.273    18.309     6.894
    49   5 B        1.850     0.106    40.839    13.460
    50   5 B        4.023     0.270    18.349     6.902
    51   5 B        1.850     0.099    41.078    13.499
    52   5 B        1.915     0.143    39.469    13.223
    53   5 B        1.853     0.101    40.980    13.483
    54   5 B        1.850     0.109    40.729    13.442
    55   5 B        1.850     0.091    41.328    13.540
    56   5 B        3.360     0.281    17.090     6.893
    57   5 B        1.894     0.110    40.597    13.414
    58   5 B        2.018     0.075    41.099    13.454
    59   5 B        2.759     0.132    19.333     7.357
    60   5 B        2.928     0.250    17.514     6.983
    61   5 B        4.397     0.303    17.903     6.818
    62   5 B        7.043     0.579    14.608     6.158
    63   5 B        4.397     0.283    18.174     6.869
    64   5 B        4.397     0.320    17.672     6.773
    65   5 B        4.838     0.328    17.562     6.752
    66   5 B        7.061     0.278    18.241     6.882
    67   5 B        7.449     0.298    17.962     6.829
    68   5 B        5.382     0.322    17.647     6.769
    69   5 B        7.686     0.483    15.655     6.375
    70   5 B        4.397     0.332    17.502     6.741
    71   5 B        6.431     0.157    20.035     7.212
    72   5 B        6.589     0.453    16.004     6.446
    73   7 N        4.372    -0.052    22.242     7.004
    74   7 N        4.634    -0.272    27.019     7.720
    75   7 N        4.903    -0.241    26.273     7.613
    76   7 N        4.372    -0.030    21.811     6.936
    77   7 N        7.136     0.096    19.586     6.573
    78   7 N        6.278    -0.070    22.591     7.059
    79   7 N        4.530    -0.143    24.075     7.287
    80   7 N        5.794     0.016    20.961     6.800
    81   7 N        6.581     0.068    20.046     6.650
    82   7 N        4.372    -0.043    22.072     6.978
    83   7 N        4.434    -0.173    24.727     7.385
    84   7 N        6.232    -0.264    26.817     7.691
    85   7 N        0.932    -0.165    24.459     7.141
    86   7 N        1.393    -0.311    26.974     7.444
    87   7 N        0.932    -0.098    23.060     6.934
    88   7 N        0.932    -0.152    24.186     7.101
    89   7 N        0.932    -0.180    24.777     7.188
    90   7 N        0.932    -0.119    23.485     6.998
    91   7 N        0.932    -0.159    24.324     7.122
    92   7 N        1.636    -0.322    28.868     7.920
    93   7 N        0.932    -0.150    24.140     7.095
    94   7 N        0.932    -0.233    25.973     7.359
    95   7 N        0.932    -0.195    25.106     7.235
    96   7 N        1.527    -0.271    26.997     7.585
    97   7 N        3.977    -0.399    30.334     8.180
    98   7 N        5.943    -0.162    24.494     7.351
    99   7 N        3.977    -0.337    28.659     7.951
   100   7 N        3.977    -0.360    29.270     8.035
   101   7 N        4.089    -0.377    29.723     8.097
   102   7 N        5.751    -0.314    28.070     7.869
   103   7 N        6.952    -0.457    31.990     8.400
   104   7 N        4.313    -0.445    31.643     8.355
   105   7 N        6.274    -0.329    28.450     7.922
   106   7 N        3.977    -0.421    30.934     8.261
   107   7 N        5.039    -0.465    32.211     8.429
   108   7 N        4.136    -0.403    30.445     8.195

 Mol. C6AA /au·bohr⁶  :     230511.703806
 Mol. C8AA /au·bohr⁸  :    6569524.849311
 Mol. α(0) /au        :        758.202922


Wiberg/Mayer (AO) data.
largest (>0.10) Wiberg bond orders for each atom

 ---------------------------------------------------------------------------
     #   Z sym  total        # sym  WBO       # sym  WBO       # sym  WBO
 ---------------------------------------------------------------------------
     1   9 F    1.007 --     2 C    0.865
     2   6 C    3.739 --     4 C    0.954     1 F    0.865    25 F    0.861
                             3 F    0.828   103 N    0.126
     3   9 F    1.267 --     2 C    0.828    77 N    0.136
     4   6 C    3.496 --     9 C    1.090     2 C    0.954     5 C    0.938
     5   6 C    3.866 --     6 C    1.210     4 C    0.938    41 B    0.405
                            67 B    0.400    26 H    0.398    77 N    0.123
     6   6 C    3.852 --     7 C    1.246     5 C    1.210    27 H    0.953
                            77 N    0.174
     7   6 C    3.806 --     6 C    1.246     8 C    1.133    10 C    0.965
     8   6 C    3.778 --     7 C    1.133     9 C    0.812    28 H    0.783
                            42 B    0.267    66 B    0.164   102 N    0.113
                            95 N    0.107    78 N    0.105
     9   6 C    3.796 --     4 C    1.090     8 C    0.812    78 N    0.600
                            42 B    0.405    66 B    0.389   102 N    0.277
    10   6 C    3.985 --    24 C    0.988    11 C    0.980     7 C    0.965
                            30 H    0.870
    11   6 C    3.864 --    17 C    1.183    12 C    1.085    10 C    0.980
    12   6 C    3.684 --    11 C    1.085    31 H    0.801    13 C    0.704
                            62 B    0.301    38 B    0.232
    13   6 C    3.262 --    15 C    1.038    12 C    0.704    62 B    0.637
                            14 F    0.381
    14   9 F    1.569 --    98 N    0.749    13 C    0.381    62 B    0.326
    15   6 C    3.496 --    13 C    1.038    32 H    0.888    69 B    0.558
                            16 C    0.518   105 N    0.108
    16   6 C    3.900 --    81 N    0.746    69 B    0.670    17 C    0.633
                           105 N    0.609    45 B    0.567    15 C    0.518
    17   6 C    3.775 --    11 C    1.183    18 N    0.930    16 C    0.633
                            45 B    0.201   105 N    0.159
    18   7 N    3.133 --    17 C    0.930    19 C    0.783    48 B    0.394
                            34 H    0.191    71 B    0.180
    19   6 C    3.949 --    24 C    0.953    35 H    0.862    20 C    0.849
                            18 N    0.783    48 B    0.120
    20   6 C    3.811 --    21 O    1.373    22 N    1.049    19 C    0.849
                            72 B    0.231
    21   8 O    1.735 --    20 C    1.373    22 N    0.117
    22   7 N    3.415 --    20 C    1.049    23 N    1.027    36 H    0.947
                            21 O    0.117
    23   7 N    3.085 --    24 C    1.307    22 N    1.027    60 B    0.241
                            56 B    0.187
    24   6 C    3.839 --    23 N    1.307    10 C    0.988    19 C    0.953
                            96 N    0.152
    25   9 F    1.190 --     2 C    0.861
    26   1 H    0.825 --     5 C    0.398    41 B    0.169    67 B    0.163
    27   1 H    0.999 --     6 C    0.953
    28   1 H    0.971 --     8 C    0.783
    29   1 H    0.608 --    78 N    0.312   102 N    0.138
    30   1 H    0.994 --    10 C    0.870
    31   1 H    0.974 --    12 C    0.801
    32   1 H    0.981 --    15 C    0.888
    33   1 H    0.814 --    81 N    0.660
    34   1 H    0.544 --    18 N    0.191
    35   1 H    0.980 --    19 C    0.862
    36   1 H    0.977 --    22 N    0.947
    37   5 B    3.629 --    73 N    2.954    43 B    0.218    61 B    0.159
                            63 B    0.157
    38   5 B    3.576 --    74 N    2.959    12 C    0.232    47 B    0.144
                            64 B    0.106
    39   5 B    3.602 --    75 N    3.129    53 B    0.163    61 B    0.119
    40   5 B    3.613 --    76 N    3.041    63 B    0.158    55 B    0.155
                            64 B    0.141
    41   5 B    3.647 --    77 N    2.759     5 C    0.405    26 H    0.169
                            57 B    0.116
    42   5 B    3.506 --    78 N    2.333     9 C    0.405     8 C    0.267
                            59 B    0.141
    43   5 B    3.636 --    79 N    3.008    37 B    0.218    66 B    0.144
                            65 B    0.123
    44   5 B    3.652 --    80 N    3.176    49 B    0.160    68 B    0.135
    45   5 B    3.355 --    81 N    1.811    16 C    0.567    58 B    0.263
                            17 C    0.201    71 B    0.160
    46   5 B    3.613 --    82 N    3.105    70 B    0.148    60 B    0.126
    47   5 B    3.650 --    83 N    3.143    38 B    0.144    70 B    0.102
    48   5 B    3.482 --    84 N    2.618    18 N    0.394    19 C    0.120
    49   5 B    3.666 --    85 N    3.476    44 B    0.160
    50   5 B    3.544 --    86 N    3.306
    51   5 B    3.669 --    87 N    3.537    54 B    0.124
    52   5 B    3.641 --    88 N    3.519
    53   5 B    3.666 --    89 N    3.439    39 B    0.163
    54   5 B    3.661 --    90 N    3.525    51 B    0.124
    55   5 B    3.670 --    91 N    3.437    40 B    0.155
    56   5 B    3.539 --    92 N    3.186    23 N    0.187
    57   5 B    3.659 --    93 N    3.497    41 B    0.116
    58   5 B    3.680 --    94 N    3.288    45 B    0.263
    59   5 B    3.644 --    95 N    3.331    42 B    0.141
    60   5 B    3.569 --    96 N    3.146    23 N    0.241    46 B    0.126
    61   5 B    3.433 --    97 N    2.914    37 B    0.159    39 B    0.119
    62   5 B    3.196 --    98 N    1.680    13 C    0.637    14 F    0.326
                            12 C    0.301
    63   5 B    3.455 --    99 N    2.837    40 B    0.158    37 B    0.157
    64   5 B    3.436 --   100 N    2.964    40 B    0.141    38 B    0.106
    65   5 B    3.418 --   101 N    2.930    43 B    0.123
    66   5 B    3.422 --   102 N    2.409     9 C    0.389     8 C    0.164
                            43 B    0.144
    67   5 B    3.462 --   103 N    2.583     5 C    0.400    26 H    0.163
    68   5 B    3.430 --   104 N    3.056    44 B    0.135
    69   5 B    3.366 --   105 N    1.742    16 C    0.670    15 C    0.558
    70   5 B    3.455 --   106 N    2.987    46 B    0.148    47 B    0.102
    71   5 B    3.515 --   107 N    2.791    18 N    0.180    45 B    0.160
    72   5 B    3.355 --   108 N    2.706    20 C    0.231
    73   7 N    3.580 --    37 B    2.954    99 N    0.161    97 N    0.125
    74   7 N    3.476 --    38 B    2.959
    75   7 N    3.553 --    39 B    3.129    97 N    0.101
    76   7 N    3.630 --    40 B    3.041    99 N    0.149   100 N    0.137
    77   7 N    3.682 --    41 B    2.759     6 C    0.174     3 F    0.136
                             5 C    0.123   101 N    0.122
    78   7 N    3.521 --    42 B    2.333     9 C    0.600    29 H    0.312
                             8 C    0.105
    79   7 N    3.577 --    43 B    3.008   101 N    0.109
    80   7 N    3.709 --    44 B    3.176    85 N    0.112
    81   7 N    3.578 --    45 B    1.811    16 C    0.746    33 H    0.660
    82   7 N    3.660 --    46 B    3.105   108 N    0.130   106 N    0.106
    83   7 N    3.623 --    47 B    3.143   106 N    0.104
    84   7 N    3.350 --    48 B    2.618
    85   7 N    3.616 --    49 B    3.476    80 N    0.112
    86   7 N    3.497 --    50 B    3.306
    87   7 N    3.662 --    51 B    3.537    90 N    0.116
    88   7 N    3.628 --    52 B    3.519
    89   7 N    3.598 --    53 B    3.439
    90   7 N    3.647 --    54 B    3.525    87 N    0.116
    91   7 N    3.602 --    55 B    3.437
    92   7 N    3.433 --    56 B    3.186
    93   7 N    3.624 --    57 B    3.497
    94   7 N    3.514 --    58 B    3.288
    95   7 N    3.561 --    59 B    3.331     8 C    0.107
    96   7 N    3.511 --    60 B    3.146    24 C    0.152
    97   7 N    3.328 --    61 B    2.914    73 N    0.125    75 N    0.101
    98   7 N    2.795 --    62 B    1.680    14 F    0.749
    99   7 N    3.380 --    63 B    2.837    73 N    0.161    76 N    0.149
   100   7 N    3.348 --    64 B    2.964    76 N    0.137
   101   7 N    3.383 --    65 B    2.930    77 N    0.122    79 N    0.109
   102   7 N    3.330 --    66 B    2.409     9 C    0.277    29 H    0.138
                             8 C    0.113
   103   7 N    3.121 --    67 B    2.583     2 C    0.126
   104   7 N    3.321 --    68 B    3.056
   105   7 N    3.098 --    69 B    1.742    16 C    0.609    17 C    0.159
                            15 C    0.108
   106   7 N    3.355 --    70 B    2.987    82 N    0.106    83 N    0.104
   107   7 N    3.261 --    71 B    2.791
   108   7 N    3.259 --    72 B    2.706    82 N    0.130
 ---------------------------------------------------------------------------

Topologies differ in total number of bonds
Writing topology from bond orders to xtbtopo.mol

molecular dipole:
                 x           y           z       tot (Debye)
 q only:        0.067       2.252       2.948
   full:        0.073       3.444       4.570      14.545
molecular quadrupole (traceless):
                xx          xy          yy          xz          yz          zz
 q only:        9.163     -52.171      21.735     -23.467     -14.873     -30.897
  q+dip:       54.356     -62.437     -12.994     -31.901      -2.608     -41.363
   full:       39.100     -63.752       1.140     -29.899      -0.007     -40.240


           -------------------------------------------------
          | TOTAL ENERGY              -17.120705454180 Eh   |
          | GRADIENT NORM             154.141424701112 Eh/α |
          | HOMO-LUMO GAP               0.148041036328 eV   |
           -------------------------------------------------

------------------------------------------------------------------------
 * finished run on 2026/08/31 at 18:25:07.922     
------------------------------------------------------------------------
 total:
 * wall-time:     0 d,  0 h,  0 min,  0.975 sec
 *  cpu-time:     0 d,  0 h,  0 min,  9.375 sec
 * ratio c/w:     9.615 speedup
 SCF:
 * wall-time:     0 d,  0 h,  0 min,  0.904 sec
 *  cpu-time:     0 d,  0 h,  0 min,  8.969 sec
 * ratio c/w:     9.921 speedup

normal termination of xtb
