      -----------------------------------------------------------      
     |                   =====================                   |     
     |                           x T B                           |     
     |                   =====================                   |     
     |                         S. Grimme                         |     
     |          Mulliken Center for Theoretical Chemistry        |     
     |                    University of Bonn                     |     
      -----------------------------------------------------------      

   * xtb version 6.7.1pre (5071a88) compiled by 'Marcel@Raven' on 2024-07-23

   xtb is free software: you can redistribute it and/or modify it under
   the terms of the GNU Lesser General Public License as published by
   the Free Software Foundation, either version 3 of the License, or
   (at your option) any later version.
   
   xtb is distributed in the hope that it will be useful,
   but WITHOUT ANY WARRANTY; without even the implied warranty of
   MERCHANTABILITY or FITNESS FOR A PARTICULAR PURPOSE.  See the
   GNU Lesser General Public License for more details.
   
   Cite this work as:
   * C. Bannwarth, E. Caldeweyher, S. Ehlert, A. Hansen, P. Pracht,
     J. Seibert, S. Spicher, S. Grimme, WIREs Comput. Mol. Sci., 2020, 11,
     e01493. DOI: 10.1002/wcms.1493
   
   for GFN2-xTB:
   * C. Bannwarth, S. Ehlert and S. Grimme., J. Chem. Theory Comput., 2019,
     15, 1652-1671. DOI: 10.1021/acs.jctc.8b01176
   for GFN1-xTB:
   * S. Grimme, C. Bannwarth, P. Shushkov, J. Chem. Theory Comput., 2017,
     13, 1989-2009. DOI: 10.1021/acs.jctc.7b00118
   for GFN0-xTB:
   * P. Pracht, E. Caldeweyher, S. Ehlert, S. Grimme, ChemRxiv, 2019, preprint.
     DOI: 10.26434/chemrxiv.8326202.v1
   for GFN-FF:
   * S. Spicher and S. Grimme, Angew. Chem. Int. Ed., 2020, 59, 15665-15673.
     DOI: 10.1002/anie.202004239
   
   for ALPB and GBSA implicit solvation:
   * S. Ehlert, M. Stahn, S. Spicher, S. Grimme, J. Chem. Theory Comput.,
     2021, 17, 4250-4261. DOI: 10.1021/acs.jctc.1c00471
   
   for ddCOSMO and CPCM-X implicit solvation:
   * M. Stahn, S. Ehlert, S. Grimme, J. Phys. Chem. A,
     2023, XX, XXXX-XXXX. DOI: 10.1021/acs.jpca.3c04382
   
   for DFT-D4:
   * E. Caldeweyher, C. Bannwarth and S. Grimme, J. Chem. Phys., 2017,
     147, 034112. DOI: 10.1063/1.4993215
   * E. Caldeweyher, S. Ehlert, A. Hansen, H. Neugebauer, S. Spicher,
     C. Bannwarth and S. Grimme, J. Chem. Phys., 2019, 150, 154122.
     DOI: 10.1063/1.5090222
   * E. Caldeweyher, J.-M. Mewes, S. Ehlert and S. Grimme, Phys. Chem. Chem. Phys.
     2020, 22, 8499-8512. DOI: 10.1039/D0CP00502A
   
   for sTDA-xTB:
   * S. Grimme and C. Bannwarth, J. Chem. Phys., 2016, 145, 054103.
     DOI: 10.1063/1.4959605
   
   in the mass-spec context:
   * V. Asgeirsson, C. Bauer and S. Grimme, Chem. Sci., 2017, 8, 4879.
     DOI: 10.1039/c7sc00601b
   * J. Koopman and S. Grimme, ACS Omega 2019, 4, 12, 15120-15133.
     DOI: 10.1021/acsomega.9b02011
   
   for metadynamics refer to:
   * S. Grimme, J. Chem. Theory Comput., 2019, 155, 2847-2862
     DOI: 10.1021/acs.jctc.9b00143
   
   for SPH calculations refer to:
   * S. Spicher and S. Grimme, J. Chem. Theory Comput., 2021, 17, 1701-1714
     DOI: 10.1021/acs.jctc.0c01306
   
   for ONIOM refer to:
   * C. Plett, A. Katbashev, S. Ehlert, S. Grimme, M. Bursch,
     Phys. Chem. Chem. Phys., 2023, 25, 17860-17868. DOI: 10.1039/D3CP02178E
   
   for DIPRO refer to:
   * J. Kohn, N. Gildemeister, S. Grimme, D. Fazzi, A. Hansen,
     J. Chem. Phys., 2023, just accepted.
   
   for PTB refer to:
   * S. Grimme, M. Mueller, A. Hansen, J. Chem. Phys., 2023, 158, 124111.
     DOI: 10.1063/5.0137838
   
   with help from (in alphabetical order)
   P. Atkinson, C. Bannwarth, F. Bohle, G. Brandenburg, E. Caldeweyher
   M. Checinski, S. Dohm, S. Ehlert, S. Ehrlich, I. Gerasimov, C. Hölzer
   A. Katbashev, J. Kohn, J. Koopman, C. Lavigne, S. Lehtola, F. März, M. Müller,
   F. Musil, H. Neugebauer, J. Pisarek, C. Plett, P. Pracht, F. Pultar,
   J. Seibert, P. Shushkov, S. Spicher, M. Stahn, M. Steiner, T. Strunk,
   J. Stückrath, T. Rose, and J. Unsleber
   
 * started run on 2026/08/31 at 22:22:59.049     
   ID    Z sym.   atoms
    1    9 F      1, 3, 14, 25
    2    6 C      2, 4-13, 15-17, 19, 20, 24
    3    7 N      18, 22, 23, 38, 40, 42, 44, 46, 48, 50, 52, 54, 56, 58, 60,
                  62, 64, 66, 68, 70, 72, 74, 76, 78, 80, 82, 84, 86, 88, 90,
                  92, 94, 96, 98, 100, 102, 104, 106, 108
    4    8 O      21
    5    1 H      26-36
    6    5 B      37, 39, 41, 43, 45, 47, 49, 51, 53, 55, 57, 59, 61, 63, 65,
                  67, 69, 71, 73, 75, 77, 79, 81, 83, 85, 87, 89, 91, 93, 95,
                  97, 99, 101, 103, 105, 107

           -------------------------------------------------
          |                Calculation Setup                |
           -------------------------------------------------

          program call               : "c:\Users\Andre\Proyectos doctorado\kras-pancreatic-gC3N4-ai\tools\xtb\xtb-6.7.1\bin\xtb.exe" "c:\Users\Andre\Proyectos doctorado\nano-qsar-ai-therapeutics\calculations\tnbc\Talazoparib\Talazoparib_opt_0deg.xyz" --opt vloose --gfn 2 --chrg 0 --uhf 0 --etemp 300 --iterations 500 --cycles 15 --norestart
          coordinate file            : c:\Users\Andre\Proyectos doctorado\nano-qsar-ai-therapeutics\calculations\tnbc\Talazoparib\Talazoparib_opt_0deg.xyz
          omp threads                :                    16


molecular fragmentation (1/2 indicates fragments):
111111111111111111111111111111111111222222222222222222222222222222222222
222222222222222222222222222222222222
# atoms in fragment 1/2:    36    72
 fragment masses (1/2) :      349.28      893.44
CMA distance (Bohr)    :  20.995
constraining FC (au)   :  0.0500

           -------------------------------------------------
          |                 G F N 2 - x T B                 |
           -------------------------------------------------

        Reference                      10.1021/acs.jctc.8b01176
      * Hamiltonian:
        H0-scaling (s, p, d)           1.850000    2.230000    2.230000
        zeta-weighting                 0.500000
      * Dispersion:
        s8                             2.700000
        a1                             0.520000
        a2                             5.000000
        s9                             5.000000
      * Repulsion:
        kExp                           1.500000    1.000000
        rExp                           1.000000
      * Coulomb:
        alpha                          2.000000
        third order                    shell-resolved
        anisotropic                    true
        a3                             3.000000
        a5                             4.000000
        cn-shift                       1.200000
        cn-exp                         4.000000
        max-rad                        5.000000


          ...................................................
          :                      SETUP                      :
          :.................................................:
          :  # basis functions                 399          :
          :  # atomic orbitals                 399          :
          :  # shells                          205          :
          :  # electrons                       416          :
          :  max. iterations                   500          :
          :  Hamiltonian                  GFN2-xTB          :
          :  restarted?                      false          :
          :  GBSA solvation                  false          :
          :  PC potential                    false          :
          :  electronic temp.          300.0000000     K    :
          :  accuracy                    1.0000000          :
          :  -> integral cutoff          0.2500000E+02      :
          :  -> integral neglect         0.1000000E-07      :
          :  -> SCF convergence          0.1000000E-05 Eh   :
          :  -> wf. convergence          0.1000000E-03 e    :
          :  Broyden damping             0.4000000          :
          :  net charge                          0          :
          :  unpaired electrons                  0          :
          ...................................................

 iter      E             dE          RMSdq      gap      omega  full diag
   1   -225.2331837 -0.225233E+03  0.117E+01    0.54       0.0  T
   2   -225.6729503 -0.439767E+00  0.709E+00    0.41       1.0  T
   3   -222.4646511  0.320830E+01  0.475E+00    0.15       1.0  T
   4   -224.4160780 -0.195143E+01  0.270E+00    0.30       1.0  T
   5   -225.6503141 -0.123424E+01  0.158E+00    0.17       1.0  T
   6   -225.7648330 -0.114519E+00  0.133E+00    0.16       1.0  T
   7   -226.1550838 -0.390251E+00  0.750E-01    0.82       1.0  T
   8   -226.1803545 -0.252707E-01  0.584E-01    0.76       1.0  T
   9   -226.1779643  0.239024E-02  0.516E-01    0.81       1.0  T
  10   -226.1803740 -0.240969E-02  0.329E-01    0.77       1.0  T
  11   -226.1857575 -0.538356E-02  0.130E-01    0.71       1.0  T
  12   -226.1867447 -0.987155E-03  0.105E-01    0.65       1.0  T
  13   -226.1868458 -0.101147E-03  0.845E-02    0.62       1.0  T
  14   -226.1868876 -0.417297E-04  0.506E-02    0.60       1.0  T
  15   -226.1869582 -0.706068E-04  0.128E-02    0.60       1.0  T
  16   -226.1869693 -0.111600E-04  0.769E-03    0.61       1.3  T
  17   -226.1869707 -0.139775E-05  0.557E-03    0.61       1.7  T
  18   -226.1869723 -0.154023E-05  0.289E-03    0.63       3.3  T
  19   -226.1869727 -0.446107E-06  0.170E-03    0.63       5.7  T
  20   -226.1869728 -0.125884E-06  0.119E-03    0.63       8.1  T
  21   -226.1869729 -0.764658E-07  0.659E-04    0.64      14.6  T
  22   -226.1869729 -0.154010E-07  0.342E-04    0.64      28.2  T

   *** convergence criteria satisfied after 22 iterations ***

         #    Occupation            Energy/Eh            Energy/eV
      -------------------------------------------------------------
         1        2.0000           -0.8699936             -23.6737
       ...           ...                  ...                  ...
       202        2.0000           -0.3279202              -8.9232
       203        2.0000           -0.3253153              -8.8523
       204        2.0000           -0.3240258              -8.8172
       205        2.0000           -0.3213318              -8.7439
       206        2.0000           -0.3160071              -8.5990
       207        2.0000           -0.3140402              -8.5455
       208        2.0000           -0.3099960              -8.4354 (HOMO)
       209        0.0000           -0.2865293              -7.7969 (LUMO)
       210        0.0000           -0.2839034              -7.7254
       211                         -0.2758339              -7.5058
       212                         -0.2687929              -7.3142
       213                         -0.2649380              -7.2093
       ...                                ...                  ...
       399                          0.9831099              26.7518
      -------------------------------------------------------------
                  HL-Gap            0.0234667 Eh            0.6386 eV
             Fermi-level           -0.2982841 Eh           -8.1167 eV

 SCC (total)                   0 d,  0 h,  0 min,  0.884 sec
 SCC setup                      ...        0 min,  0.001 sec (  0.113%)
 Dispersion                     ...        0 min,  0.004 sec (  0.452%)
 classical contributions        ...        0 min,  0.000 sec (  0.000%)
 integral evaluation            ...        0 min,  0.012 sec (  1.357%)
 iterations                     ...        0 min,  0.827 sec ( 93.552%)
 molecular gradient             ...        0 min,  0.037 sec (  4.186%)
 printout                       ...        0 min,  0.003 sec (  0.339%)

         :::::::::::::::::::::::::::::::::::::::::::::::::::::
         ::                     SUMMARY                     ::
         :::::::::::::::::::::::::::::::::::::::::::::::::::::
         :: total energy            -223.992584750219 Eh    ::
         :: gradient norm              0.083681641248 Eh/a0 ::
         :: HOMO-LUMO gap              0.638561011317 eV    ::
         ::.................................................::
         :: SCC energy              -226.171919864766 Eh    ::
         :: -> isotropic ES            0.727305225078 Eh    ::
         :: -> anisotropic ES         -0.030519813630 Eh    ::
         :: -> anisotropic XC          0.072224862292 Eh    ::
         :: -> dispersion             -0.187106640751 Eh    ::
         :: repulsion energy           2.179335114547 Eh    ::
         :: add. restraining           0.000000000000 Eh    ::
         :: total charge              -0.000000000053 e     ::
         :::::::::::::::::::::::::::::::::::::::::::::::::::::

      ----------------------------------------------------------- 
     |                   =====================                   |
     |                        A N C O P T                        |
     |                   =====================                   |
     |               Approximate Normal Coordinate               |
     |                Rational Function Optimizer                |
      ----------------------------------------------------------- 
      ----------------------------------------------------------- 
     |                   =====================                   |
     |                        A N C O P T                        |
     |                   =====================                   |
     |               Approximate Normal Coordinate               |
     |                Rational Function Optimizer                |
      ----------------------------------------------------------- 

          ...................................................
          :                      SETUP                      :
          :.................................................:
          :   optimization level            normal          :
          :   max. optcycles                    15          :
          :   ANC micro-cycles                  15          :
          :   degrees of freedom               318          :
          :.................................................:
          :   RF solver                   davidson          :
          :   write xtbopt.log                true          :
          :   linear?                        false          :
          :   energy convergence         0.5000000E-05 Eh   :
          :   grad. convergence          0.1000000E-02 Eh/α :
          :   maxmium RF displ.          1.0000000          :
          :   Hlow (freq-cutoff)         0.1000000E-01      :
          :   Hmax (freq-cutoff)         5.0000000          :
          :   S6 in model hess.         20.0000000          :
          ...................................................

generating ANC from exact Hessian ...
Using Lindh-Hessian (1995)
 Shifting diagonal of input Hessian by   1.008557724037050E-002
 Lowest  eigenvalues of input Hessian
    0.010000    0.010005    0.010016    0.000000    0.000000    0.000000
    0.000000    0.000000    0.000000    0.010123    0.010149    0.010215
    0.010555    0.011117    0.011297    0.012246    0.013560    0.014750
 Highest eigenvalues
    2.083489    2.087491    2.154603    2.260727    2.314981    2.341877
 

........................................................................
.............................. CYCLE    1 ..............................
........................................................................

 iter      E             dE          RMSdq      gap      omega  full diag
   1   -226.1869729 -0.226187E+03  0.191E-04    0.64       0.0  T
   2   -226.1869729  0.258325E-09  0.196E-04    0.64      49.2  T
   3   -226.1869729 -0.278317E-08  0.101E-04    0.64      95.6  T
     SCC iter.                  ...        0 min,  0.158 sec
     gradient                   ...        0 min,  0.039 sec
 * total energy  :  -223.9925848 Eh     change       -0.4848800E-08 Eh
   gradient norm :     0.0836816 Eh/α   predicted     0.0000000E+00 (-100.00%)
   displ. norm   :     0.2558299 α      lambda       -0.1204200E-01
   maximum displ.:     0.0985371 α      in ANC's #44, #115, #99, ...

........................................................................
.............................. CYCLE    2 ..............................
........................................................................

 iter      E             dE          RMSdq      gap      omega  full diag
   1   -226.2420348 -0.226242E+03  0.118E-01    0.71       0.0  T
   2   -226.2421109 -0.761236E-04  0.699E-02    0.71       1.0  T
   3   -226.2420501  0.608041E-04  0.371E-02    0.71       1.0  T
   4   -226.2421394 -0.893330E-04  0.776E-03    0.71       1.2  T
   5   -226.2421446 -0.519537E-05  0.349E-03    0.71       2.8  T
   6   -226.2421443  0.302555E-06  0.311E-03    0.71       3.1  T
   7   -226.2421458 -0.145970E-05  0.123E-03    0.71       7.8  T
   8   -226.2421460 -0.180978E-06  0.431E-04    0.71      22.3  T
   9   -226.2421459  0.430410E-08  0.331E-04    0.71      29.1  T
     SCC iter.                  ...        0 min,  0.378 sec
     gradient                   ...        0 min,  0.031 sec
 * total energy  :  -224.0004491 Eh     change       -0.7864312E-02 Eh
   gradient norm :     0.0292029 Eh/α   predicted    -0.6416730E-02 ( -18.41%)
   displ. norm   :     0.2075259 α      lambda       -0.2496616E-02
   maximum displ.:     0.0847591 α      in ANC's #14, #26, #44, ...

........................................................................
.............................. CYCLE    3 ..............................
........................................................................

 iter      E             dE          RMSdq      gap      omega  full diag
   1   -226.2653818 -0.226265E+03  0.609E-02    0.71       0.0  T
   2   -226.2654186 -0.368190E-04  0.370E-02    0.71       1.0  T
   3   -226.2654121  0.648188E-05  0.206E-02    0.71       1.0  T
   4   -226.2654322 -0.200590E-04  0.438E-03    0.71       2.2  T
   5   -226.2654330 -0.799997E-06  0.282E-03    0.71       3.4  T
   6   -226.2654336 -0.572816E-06  0.186E-03    0.71       5.2  T
   7   -226.2654340 -0.466995E-06  0.852E-04    0.71      11.3  T
   8   -226.2654341 -0.836996E-07  0.342E-04    0.71      28.1  T
     SCC iter.                  ...        0 min,  0.316 sec
     gradient                   ...        0 min,  0.037 sec
 * total energy  :  -224.0019610 Eh     change       -0.1511956E-02 Eh
   gradient norm :     0.0111663 Eh/α   predicted    -0.1302743E-02 ( -13.84%)
   displ. norm   :     0.1436796 α      lambda       -0.5087158E-03
   maximum displ.:     0.0717931 α      in ANC's #8, #14, #15, ...

........................................................................
.............................. CYCLE    4 ..............................
........................................................................

 iter      E             dE          RMSdq      gap      omega  full diag
   1   -226.2678098 -0.226268E+03  0.344E-02    0.71       0.0  T
   2   -226.2678194 -0.963308E-05  0.202E-02    0.71       1.0  T
   3   -226.2678164  0.301668E-05  0.107E-02    0.71       1.0  T
   4   -226.2678221 -0.567700E-05  0.276E-03    0.71       3.5  T
   5   -226.2678218  0.223697E-06  0.264E-03    0.71       3.6  T
   6   -226.2678231 -0.123983E-05  0.761E-04    0.71      12.6  T
   7   -226.2678231 -0.415469E-07  0.408E-04    0.71      23.6  T
   8   -226.2678231 -0.168540E-07  0.155E-04    0.71      61.9  T
     SCC iter.                  ...        0 min,  0.392 sec
     gradient                   ...        0 min,  0.032 sec
 * total energy  :  -224.0023287 Eh     change       -0.3677114E-03 Eh
   gradient norm :     0.0069944 Eh/α   predicted    -0.2596109E-03 ( -29.40%)
   displ. norm   :     0.1752317 α      lambda       -0.3433595E-03
   maximum displ.:     0.1138827 α      in ANC's #8, #14, #9, ...

........................................................................
.............................. CYCLE    5 ..............................
........................................................................

 iter      E             dE          RMSdq      gap      omega  full diag
   1   -226.2663407 -0.226266E+03  0.375E-02    0.71       0.0  T
   2   -226.2663484 -0.771622E-05  0.215E-02    0.71       1.0  T
   3   -226.2663435  0.490436E-05  0.108E-02    0.71       1.0  T
   4   -226.2663508 -0.723162E-05  0.253E-03    0.71       3.8  T
   5   -226.2663509 -0.113854E-06  0.210E-03    0.71       4.6  T
   6   -226.2663515 -0.633057E-06  0.843E-04    0.71      11.4  T
   7   -226.2663515 -0.201098E-07  0.584E-04    0.71      16.5  T
     SCC iter.                  ...        0 min,  0.415 sec
     gradient                   ...        0 min,  0.027 sec
 * total energy  :  -224.0025568 Eh     change       -0.2280811E-03 Eh
   gradient norm :     0.0046069 Eh/α   predicted    -0.1769526E-03 ( -22.42%)
   displ. norm   :     0.1384274 α      lambda       -0.1409871E-03
   maximum displ.:     0.1025846 α      in ANC's #8, #9, #11, ...

........................................................................
.............................. CYCLE    6 ..............................
........................................................................

 iter      E             dE          RMSdq      gap      omega  full diag
   1   -226.2651902 -0.226265E+03  0.268E-02    0.71       0.0  T
   2   -226.2651931 -0.289726E-05  0.154E-02    0.71       1.0  T
   3   -226.2651899  0.323162E-05  0.714E-03    0.71       1.3  T
   4   -226.2651937 -0.382846E-05  0.193E-03    0.71       5.0  T
   5   -226.2651941 -0.410483E-06  0.112E-03    0.71       8.6  T
   6   -226.2651943 -0.172520E-06  0.492E-04    0.71      19.6  T
   7   -226.2651943 -0.145699E-07  0.248E-04    0.71      38.9  T
     SCC iter.                  ...        0 min,  0.255 sec
     gradient                   ...        0 min,  0.029 sec
 * total energy  :  -224.0026626 Eh     change       -0.1057469E-03 Eh
   gradient norm :     0.0036705 Eh/α   predicted    -0.7185080E-04 ( -32.05%)
   displ. norm   :     0.1521237 α      lambda       -0.1157430E-03
   maximum displ.:     0.1106209 α      in ANC's #8, #9, #7, ...

........................................................................
.............................. CYCLE    7 ..............................
........................................................................

 iter      E             dE          RMSdq      gap      omega  full diag
   1   -226.2648406 -0.226265E+03  0.299E-02    0.71       0.0  T
   2   -226.2648433 -0.266562E-05  0.174E-02    0.71       1.0  T
   3   -226.2648387  0.454842E-05  0.757E-03    0.71       1.3  T
   4   -226.2648438 -0.507086E-05  0.214E-03    0.71       4.5  T
   5   -226.2648442 -0.425694E-06  0.132E-03    0.71       7.3  T
   6   -226.2648444 -0.236154E-06  0.577E-04    0.71      16.7  T
   7   -226.2648445 -0.155327E-07  0.335E-04    0.71      28.7  T
     SCC iter.                  ...        0 min,  0.245 sec
     gradient                   ...        0 min,  0.029 sec
 * total energy  :  -224.0027498 Eh     change       -0.8721767E-04 Eh
   gradient norm :     0.0026491 Eh/α   predicted    -0.5921174E-04 ( -32.11%)
   displ. norm   :     0.1596310 α      lambda       -0.8543859E-04
   maximum displ.:     0.1101484 α      in ANC's #8, #9, #7, ...

........................................................................
.............................. CYCLE    8 ..............................
........................................................................

 iter      E             dE          RMSdq      gap      omega  full diag
   1   -226.2652831 -0.226265E+03  0.317E-02    0.72       0.0  T
   2   -226.2652850 -0.191004E-05  0.186E-02    0.72       1.0  T
   3   -226.2652798  0.517620E-05  0.732E-03    0.71       1.3  T
   4   -226.2652855 -0.573244E-05  0.174E-03    0.72       5.5  T
   5   -226.2652859 -0.366172E-06  0.895E-04    0.72      10.8  T
   6   -226.2652860 -0.983515E-07  0.450E-04    0.72      21.4  T
     SCC iter.                  ...        0 min,  0.293 sec
     gradient                   ...        0 min,  0.032 sec
 * total energy  :  -224.0028139 Eh     change       -0.6414073E-04 Eh
   gradient norm :     0.0026033 Eh/α   predicted    -0.4380818E-04 ( -31.70%)
   displ. norm   :     0.1621067 α      lambda       -0.6413907E-04
   maximum displ.:     0.1047864 α      in ANC's #8, #9, #7, ...

........................................................................
.............................. CYCLE    9 ..............................
........................................................................

 iter      E             dE          RMSdq      gap      omega  full diag
   1   -226.2659775 -0.226266E+03  0.313E-02    0.72       0.0  T
   2   -226.2659785 -0.107130E-05  0.183E-02    0.72       1.0  T
   3   -226.2659752  0.330931E-05  0.557E-03    0.72       1.7  T
   4   -226.2659788 -0.359350E-05  0.136E-03    0.72       7.1  T
   5   -226.2659790 -0.195962E-06  0.809E-04    0.72      11.9  T
   6   -226.2659791 -0.838602E-07  0.427E-04    0.72      22.5  T
     SCC iter.                  ...        0 min,  0.224 sec
     gradient                   ...        0 min,  0.030 sec
 * total energy  :  -224.0028642 Eh     change       -0.5030700E-04 Eh
   gradient norm :     0.0029001 Eh/α   predicted    -0.3291331E-04 ( -34.58%)
   displ. norm   :     0.1959369 α      lambda       -0.6667055E-04
   maximum displ.:     0.1183242 α      in ANC's #8, #9, #10, ...

........................................................................
.............................. CYCLE   10 ..............................
........................................................................

 iter      E             dE          RMSdq      gap      omega  full diag
   1   -226.2665805 -0.226267E+03  0.361E-02    0.72       0.0  T
   2   -226.2665813 -0.779165E-06  0.212E-02    0.72       1.0  T
   3   -226.2665789  0.239362E-05  0.447E-03    0.72       2.2  T
   4   -226.2665811 -0.222059E-05  0.181E-03    0.72       5.3  T
   5   -226.2665816 -0.490712E-06  0.801E-04    0.72      12.0  T
   6   -226.2665816 -0.724875E-07  0.373E-04    0.72      25.8  T
     SCC iter.                  ...        0 min,  0.201 sec
     gradient                   ...        0 min,  0.025 sec
 * total energy  :  -224.0029178 Eh     change       -0.5354815E-04 Eh
   gradient norm :     0.0029488 Eh/α   predicted    -0.3461715E-04 ( -35.35%)
   displ. norm   :     0.2574459 α      lambda       -0.7970253E-04
   maximum displ.:     0.1465295 α      in ANC's #8, #10, #9, ...

........................................................................
.............................. CYCLE   11 ..............................
........................................................................

 iter      E             dE          RMSdq      gap      omega  full diag
   1   -226.2667897 -0.226267E+03  0.453E-02    0.72       0.0  T
   2   -226.2667905 -0.816337E-06  0.265E-02    0.72       1.0  T
   3   -226.2667890  0.148228E-05  0.374E-03    0.72       2.6  T
   4   -226.2667906 -0.156879E-05  0.138E-03    0.72       7.0  T
   5   -226.2667908 -0.215143E-06  0.847E-04    0.72      11.4  T
   6   -226.2667909 -0.780736E-07  0.399E-04    0.72      24.1  T
     SCC iter.                  ...        0 min,  0.196 sec
     gradient                   ...        0 min,  0.028 sec
 * total energy  :  -224.0029816 Eh     change       -0.6381183E-04 Eh
   gradient norm :     0.0028154 Eh/α   predicted    -0.4249301E-04 ( -33.41%)
   displ. norm   :     0.3051294 α      lambda       -0.8820419E-04
   maximum displ.:     0.1652776 α      in ANC's #8, #10, #9, ...

........................................................................
.............................. CYCLE   12 ..............................
........................................................................

 iter      E             dE          RMSdq      gap      omega  full diag
   1   -226.2665204 -0.226267E+03  0.516E-02    0.72       0.0  T
   2   -226.2665215 -0.105078E-05  0.302E-02    0.72       1.0  T
   3   -226.2665181  0.336159E-05  0.523E-03    0.72       1.8  T
   4   -226.2665208 -0.267061E-05  0.268E-03    0.72       3.6  T
   5   -226.2665219 -0.118463E-05  0.103E-03    0.72       9.3  T
   6   -226.2665220 -0.861642E-07  0.398E-04    0.72      24.2  T
   7   -226.2665220 -0.622288E-08  0.202E-04    0.72      47.6  T
     SCC iter.                  ...        0 min,  0.222 sec
     gradient                   ...        0 min,  0.029 sec
 * total energy  :  -224.0030519 Eh     change       -0.7028029E-04 Eh
   gradient norm :     0.0028311 Eh/α   predicted    -0.4821270E-04 ( -31.40%)
   displ. norm   :     0.3049966 α      lambda       -0.8891218E-04
   maximum displ.:     0.1564521 α      in ANC's #8, #10, #4, ...

........................................................................
.............................. CYCLE   13 ..............................
........................................................................

 iter      E             dE          RMSdq      gap      omega  full diag
   1   -226.2662157 -0.226266E+03  0.500E-02    0.72       0.0  T
   2   -226.2662172 -0.152366E-05  0.293E-02    0.72       1.0  T
   3   -226.2662153  0.192174E-05  0.490E-03    0.72       2.0  T
   4   -226.2662178 -0.258858E-05  0.125E-03    0.72       7.7  T
   5   -226.2662179 -0.245692E-07  0.748E-04    0.72      12.9  T
   6   -226.2662179 -0.638795E-08  0.468E-04    0.72      20.6  T
     SCC iter.                  ...        0 min,  0.254 sec
     gradient                   ...        0 min,  0.026 sec
 * total energy  :  -224.0031217 Eh     change       -0.6979966E-04 Eh
   gradient norm :     0.0031879 Eh/α   predicted    -0.4859762E-04 ( -30.38%)
   displ. norm   :     0.3131408 α      lambda       -0.8469437E-04
   maximum displ.:     0.1610309 α      in ANC's #10, #8, #4, ...

........................................................................
.............................. CYCLE   14 ..............................
........................................................................

 iter      E             dE          RMSdq      gap      omega  full diag
   1   -226.2657870 -0.226266E+03  0.509E-02    0.72       0.0  T
   2   -226.2657890 -0.202996E-05  0.298E-02    0.72       1.0  T
   3   -226.2657871  0.195928E-05  0.501E-03    0.72       1.9  T
   4   -226.2657898 -0.270470E-05  0.149E-03    0.72       6.5  T
   5   -226.2657897  0.286805E-07  0.113E-03    0.72       8.5  T
   6   -226.2657898 -0.928812E-07  0.710E-04    0.72      13.6  T
   7   -226.2657899 -0.789974E-07  0.264E-04    0.72      36.4  T
     SCC iter.                  ...        0 min,  0.224 sec
     gradient                   ...        0 min,  0.028 sec
 * total energy  :  -224.0031841 Eh     change       -0.6241396E-04 Eh
   gradient norm :     0.0036950 Eh/α   predicted    -0.4650206E-04 ( -25.49%)
   displ. norm   :     0.2489837 α      lambda       -0.6023050E-04
   maximum displ.:     0.1253400 α      in ANC's #10, #8, #4, ...

........................................................................
.............................. CYCLE   15 ..............................
........................................................................

 iter      E             dE          RMSdq      gap      omega  full diag
   1   -226.2658385 -0.226266E+03  0.404E-02    0.72       0.0  T
   2   -226.2658399 -0.132550E-05  0.236E-02    0.72       1.0  T
   3   -226.2658391  0.746065E-06  0.328E-03    0.72       2.9  T
   4   -226.2658402 -0.113446E-05  0.130E-03    0.72       7.4  T
   5   -226.2658402 -0.700106E-08  0.105E-03    0.72       9.2  T
   6   -226.2658404 -0.108037E-06  0.542E-04    0.72      17.8  T
   7   -226.2658404 -0.348192E-07  0.250E-04    0.72      38.5  T
     SCC iter.                  ...        0 min,  0.225 sec
     gradient                   ...        0 min,  0.027 sec
 * total energy  :  -224.0032282 Eh     change       -0.4409092E-04 Eh
   gradient norm :     0.0032977 Eh/α   predicted    -0.3198455E-04 ( -27.46%)
   displ. norm   :     0.1958504 α      lambda       -0.4698431E-04
   maximum displ.:     0.0996575 α      in ANC's #4, #10, #8, ...

   *** FAILED TO CONVERGE GEOMETRY OPTIMIZATION IN 15 ITERATIONS ***


 ANCopt (total)                0 d,  0 h,  0 min,  4.842 sec
 optimizer setup                ...        0 min,  0.002 sec (  0.041%)
 model hessian                  ...        0 min,  0.050 sec (  1.033%)
 ANC generation                 ...        0 min,  0.053 sec (  1.095%)
 coordinate transformation      ...        0 min,  0.001 sec (  0.021%)
 single point calculation       ...        0 min,  4.696 sec ( 96.985%)
 optimization log               ...        0 min,  0.027 sec (  0.558%)
 hessian update                 ...        0 min,  0.007 sec (  0.145%)
 rational function              ...        0 min,  0.005 sec (  0.103%)

================
 final structure:
================
108
 xtb: 6.7.1pre (5071a88)
F            5.81441735351553        0.17061646794371       11.75337396512315
C            4.95638715598591        0.71573070357031       10.87607813805367
F            5.11796659402496        2.04477188866115       10.96134534326952
C            3.53721436457872        0.28270745807827       11.10870759990815
C            2.49181403664554        1.14363936669741       10.80486959101482
C            1.18853654670725        0.73331484343435       11.01641728751290
C            0.92199143453183       -0.52991488872755       11.52843347641084
C            1.97592220833306       -1.39036225450594       11.80928449478093
C            3.28228271612267       -0.99023790954012       11.60228567837537
C           -0.50585508647205       -0.99082931113420       11.76285685408998
C           -1.39161010113476        0.15596949130745       12.20609434419860
C           -1.21859257355330        0.65840547496289       13.48700608321807
C           -1.98826387643325        1.71834177522716       13.92115777147580
F           -1.80175753949171        2.19869046676939       15.17200421330490
C           -2.93978872015074        2.30186870896648       13.10377145006025
C           -3.11330345414478        1.80496957838147       11.83000616106555
C           -2.35022152503810        0.73137372308593       11.35655008776775
N           -2.59511624819542        0.23939861035886       10.09664671100550
C           -1.67591335346288       -0.67010422280873        9.47755896204285
C           -2.29561508948219       -1.72584129393621        8.54048358350153
O           -3.01015343577499       -1.57347236442389        7.58808134226067
N           -1.80442745804168       -2.91026179060699        9.02037582701566
N           -1.12989326454739       -2.80172288855489       10.20475276394746
C           -1.04295844636602       -1.56429852696283       10.50501602041300
F            5.40127292951269        0.36321868068786        9.65285754730342
H            2.69924304218709        2.12855509563314       10.41591479942107
H            0.37531966959824        1.40843635380234       10.79754876910049
H            1.76996154213953       -2.37758975575911       12.19355198200907
H            4.10232917419704       -1.65349505725542       11.82995420403835
H           -0.49462118487907       -1.77384743698445       12.52714087869744
H           -0.48020023476043        0.22673802684733       14.14469049583554
H           -3.52645810601676        3.13027567528603       13.46630545302989
H           -3.85004735557112        2.24640365295133       11.17635101222533
H           -3.17249543953929        0.78910891487220        9.47982749092226
H           -0.89606777510228       -0.15306479657003        8.88699485161754
H           -2.02285753910871       -3.82999659595289        8.66990514712909
B            3.45150029247295       -1.46177976652786        1.63801026711885
N            3.44982467586663        1.12001805500898        0.94570815699896
B            2.53831441420245        2.35400648692771       -1.25562769627737
N            2.28167179061456       -0.65239260043631       -2.72133567174752
B            0.68281255714778       -3.55934874897270        2.71983690854933
N           -2.94065233940667       -2.64856873467357        1.73251859691207
B           -1.03190295314256        4.08341867599678        1.84101622539855
N           -0.63157380554559        0.00965903214535       -3.92873720419877
B           -0.48253318620492        1.43675880203576       -4.07957214166278
N            1.19471110119965       -3.79483299426052       -1.72384450335761
B           -3.84522039531827        2.21165837391888       -0.47633795696790
N           -2.77430926274650        2.76313394099686       -1.19753864978685
B            1.39329427580032        0.80574924712431       -4.88008699595147
N           -0.22916684517699        3.36418953828636        2.84487549459584
B            0.88301038443823       -2.88842876681489       -2.79874248310038
N           -0.49124664327954        3.76239336389407       -1.00085717543535
B           -0.79897782399819        2.18201152560207        3.29350055601799
N            1.65614406621023       -1.27687745378388        3.52240704998923
B           -0.25071092471277        3.46368214627963       -2.37085308404795
N            1.31333628651753        0.06814129562374        3.83697654415386
B           -1.60878459097911       -0.56510637996927       -3.06841984061629
N           -3.83045861635279        1.77918412447206        0.84915265349647
B            0.34275392540529        4.49332394702407        1.19099483588779
N            0.04680872342404       -0.01105851560226        4.47856762174667
B           -2.70420879639873        2.22592342632739        1.61641014218769
N            3.76453323887793       -0.14362599279711       -0.75883103179692
B           -2.26221920049599       -3.63730450761456        1.03124327970507
N            1.06161808244327        3.73158133759354        2.24331394092804
B           -1.82789360994494       -0.77470526371920        3.24879270044742
N           -2.44839233157808       -3.60152954216034       -0.42782204119527
B            3.00833087992587       -1.08425985135119       -1.49407388931235
N           -3.16283679962876       -1.25007719211360       -0.36240239265665
B            2.03658952329478        2.91679792503792        1.56803642873104
N           -0.52216131686335       -2.90649967391213       -2.41532877509564
B           -1.68689732689261       -2.11708824723521       -2.47286640762446
N            0.59237600778323        3.96002009506602       -0.10283975839122
B            1.08601512246693        2.95044675243608       -3.17527696938658
N            0.06734341158416       -4.35892093946942        1.74093860950037
B           -1.78241891525189        3.45004589263645       -0.39638265538091
N           -2.00858046541632        3.41651732927029        1.04420966089039
B            1.45555412374902       -4.21375477881171        1.51626197134460
N           -0.79329721727863        1.06897634003846        4.21460605674414
B           -2.67664327352245       -2.40196684236762       -1.15306062173519
N           -1.08504622615207       -4.48534670783633        1.01254708616831
B           -2.51093690535148        0.48944776619096       -2.09260103915130
N            2.34061371198044       -3.89344135590406        0.46736417578660
B            3.90504679732691       -0.21217138615715        0.73272447978134
N            1.92410798900467        1.94766146335092       -2.45799330195022
B            0.99300492747795        2.24314650503681       -4.61405171742868
N           -4.18875499008413        0.83211139396748       -0.32762606674705
B           -1.34413873391348        2.44838705597857       -3.10267945874226
N           -2.36473162742878        1.93030311580203       -2.29158349439358
B            3.06333381376241       -2.65278476073859        0.61213161068408
N            2.32168252625434       -3.68253484607858       -0.95699900594497
B            2.21638240879147        0.54118054362266        2.81891003966081
N           -2.02238596441303        0.61707871990040        3.62279250154889
B           -1.11459984050433       -4.18606593864920       -0.42009947587311
N           -3.22308048355981        0.04254465429146       -0.93975787144543
B            3.44405256870554        1.24881537098164       -0.50841470803807
N            2.57959712216632        1.62606935409225        1.94363966193166
B            1.45784734738147       -1.56551497676186       -3.50362751376371
N           -2.09612177792529        1.75444018782738        2.77586606588714
B            2.03191352627805        0.70134660866313       -3.20333767141152
N           -2.71539751477937       -1.33604211391869        2.34085540904986
B            0.64448176608560       -0.54961743934009       -4.47536506469167
N           -0.18286963561703       -3.76506041119315       -1.33865979096385
B            0.48155004226863       -2.10430211767046        3.45369030579533
N           -0.58668772969406       -1.20239854009508        3.85063568575845
B           -3.22474239934766       -1.44514515333299        1.02340795372286
N            2.66640132959335       -0.86029807043300        2.63223781518727
B            1.87966605881067        3.33245379948788       -0.10055423580897
N            2.86591568877893       -2.34127044604067       -0.78286151137353
 
 Bond Distances (Angstroems)
 ---------------------------
F1-C2=1.3428         C2-F1=1.3428         C2-F3=1.3415         C2-C4=1.5019         C2-F25=1.3485        F3-C2=1.3415         
C4-C2=1.5019         C4-C5=1.3879         C4-C9=1.3889         C5-C4=1.3879         C5-C6=1.3826         C5-H26=1.0791        
C6-C5=1.3826         C6-C7=1.3889         C6-H27=1.0794        C7-C6=1.3889         C7-C8=1.3893         C7-C10=1.5186        
C8-C7=1.3893         C8-C9=1.3819         C8-H28=1.0792        C9-C4=1.3889         C9-C8=1.3819         C9-H29=1.0790        
C10-C7=1.5186        C10-C11=1.5153       C10-C24=1.4831       C10-H30=1.0942       C11-C10=1.5153       C11-C12=1.3868       
C11-C17=1.4042       C12-C11=1.3868       C12-C13=1.3800       C12-H31=1.0789       C13-C12=1.3800       C13-F14=1.3528       
C13-C15=1.3835       F14-C13=1.3528       C15-C13=1.3835       C15-C16=1.3782       C15-H32=1.0779       C16-C15=1.3782       
C16-C17=1.3997       C16-H33=1.0793       C17-C11=1.4042       C17-C16=1.3997       C17-N18=1.3745       N18-C17=1.3745       
N18-C19=1.4337       N18-H34=1.0080       C19-N18=1.4337       C19-C20=1.5417       C19-C24=1.5020       C19-H35=1.1065       
C20-C19=1.5417       C20-O21=1.2004       C20-N22=1.3691       O21-C20=1.2004       N22-C20=1.3691       N22-N23=1.3673       
N22-H36=1.0082       N23-N22=1.3673       N23-C24=1.2763       C24-C10=1.4831       C24-C19=1.5020       C24-N23=1.2763       
F25-C2=1.3485        H26-C5=1.0791        H27-C6=1.0794        H28-C8=1.0792        H29-C9=1.0790        H30-C10=1.0942       
H31-C12=1.0789       H32-C15=1.0779       H33-C16=1.0793       H34-N18=1.0080       H35-C19=1.1065       H36-N22=1.0082       
B37-B83=1.6083       B37-B89=1.6191       B37-N106=1.4024      N38-B83=1.4238       N38-B95=1.4598       N38-N96=1.4175       
B39-N84=1.4100       B39-B95=1.6125       B39-B107=1.6509      N40-B67=1.4902       N40-B97=1.4576       N40-B99=1.4585       
B41-N74=1.4058       B41-B77=1.5729       B41-B103=1.6420      N42-B63=1.3891       N42-N100=1.4641      N42-B105=1.4254      
B43-N50=1.4729       B43-B59=1.5749       B43-N76=1.4260       N44-B45=1.4428       N44-B57=1.4232       N44-B101=1.4966      
B45-N44=1.4428       B45-B49=2.1349       B45-B85=1.7644       B45-B87=1.6493       N46-B51=1.4402       N46-N90=1.3677       
N46-N102=1.4307      B47-N48=1.4040       B47-N58=1.3943       B47-N86=1.4294       N48-B47=1.4040       N48-B75=1.4483       
N48-N88=1.4347       B49-B45=2.1349       B49-B85=1.5156       B49-B99=1.7973       B49-B101=1.6005      N50-B43=1.4729       
N50-B53=1.3869       N50-N64=1.4707       B51-N46=1.4402       B51-N70=1.4567       B51-B97=1.6054       B51-N102=2.0091      
N52-B55=1.4227       N52-N72=1.4212       N52-B75=1.4595       B53-N50=1.3869       B53-N78=1.4448       B53-N92=2.0135       
B53-N98=1.4606       N54-N56=1.4232       N54-B103=1.4384      N54-N106=1.4095      B55-N52=1.4227       B55-B73=1.6424       
B55-B87=1.6619       N56-N54=1.4232       N56-N60=1.4220       N56-B91=1.4407       B57-N44=1.4232       B57-B71=1.6642       
B57-B81=1.6965       N58-B47=1.3943       N58-B61=1.4341       N58-N86=1.5525       B59-B43=1.5749       B59-N64=1.4847       
B59-N72=1.4215       N60-N56=1.4220       N60-N78=1.3935       N60-N104=1.4883      B61-N58=1.4341       B61-N76=1.4929       
B61-N98=1.3915       N62-B67=1.4132       N62-B83=1.4997       N62-B95=1.4506       B63-N42=1.3891       B63-N66=1.4713       
B63-N80=1.4510       B63-B93=1.9299       N64-N50=1.4707       N64-B59=1.4847       N64-B69=1.4389       B65-N92=1.4542       
B65-N100=1.3882      B65-N104=1.4442      N66-B63=1.4713       N66-B79=1.4202       N66-B93=1.4563       B67-N40=1.4902       
B67-N62=1.4132       B67-N108=1.4513      N68-B79=1.4793       N68-N94=1.4170       N68-B105=1.4008      B69-N64=1.4389       
B69-N96=1.4498       B69-B107=1.7267      N70-B51=1.4567       N70-B71=1.4082       N70-N102=1.4183      B71-B57=1.6642       
B71-N70=1.4082       B71-B79=1.6741       N72-N52=1.4212       N72-B59=1.4215       N72-B107=1.4321      B73-B55=1.6424       
B73-N84=1.4908       B73-B85=1.6059       N74-B41=1.4058       N74-B77=1.4137       N74-N80=1.3691       B75-N48=1.4483       
B75-N52=1.4595       B75-N76=1.4586       N76-B43=1.4260       N76-B61=1.4929       N76-B75=1.4586       B77-B41=1.5729       
B77-N74=1.4137       B77-N82=1.4093       N78-B53=1.4448       N78-N60=1.3935       N78-N92=1.4371       B79-N66=1.4202       
B79-N68=1.4793       B79-B71=1.6741       N80-B63=1.4510       N80-N74=1.3691       N80-B93=1.4639       B81-B57=1.6965       
B81-N88=1.4619       B81-N94=1.4269       N82-B77=1.4093       N82-B89=1.4431       N82-N90=1.4400       B83-B37=1.6083       
B83-N38=1.4238       B83-N62=1.4997       B83-B95=1.9717       N84-B39=1.4100       N84-B73=1.4908       N84-B99=1.4562       
B85-B45=1.7644       B85-B49=1.5156       B85-B73=1.6059       N86-B47=1.4294       N86-N58=1.5525       N86-N94=1.3895       
B87-B45=1.6493       B87-B55=1.6619       B87-N88=1.4028       N88-N48=1.4347       N88-B81=1.4619       N88-B87=1.4028       
B89-B37=1.6191       B89-N82=1.4431       B89-N108=1.4429      N90-N46=1.3677       N90-N82=1.4400       N90-N108=1.4579      
B91-N56=1.4407       B91-N96=1.4405       B91-N106=1.4837      N92-B53=2.0135       N92-B65=1.4542       N92-N78=1.4371       
N92-N98=1.4200       B93-B63=1.9299       B93-N66=1.4563       B93-N80=1.4639       B93-N102=1.3745      N94-N68=1.4170       
N94-B81=1.4269       N94-N86=1.3895       B95-N38=1.4598       B95-B39=1.6125       B95-N62=1.4506       B95-B83=1.9717       
N96-N38=1.4175       N96-B69=1.4498       N96-B91=1.4405       B97-N40=1.4576       B97-B51=1.6054       B97-B101=1.6242      
N98-B53=1.4606       N98-B61=1.3915       N98-N92=1.4200       B99-N40=1.4585       B99-B49=1.7973       B99-N84=1.4562       
N100-N42=1.4641      N100-B65=1.3882      N100-B105=1.4167     B101-N44=1.4966      B101-B49=1.6005      B101-B97=1.6242      
N102-N46=1.4307      N102-B51=2.0091      N102-N70=1.4183      N102-B93=1.3745      B103-B41=1.6420      B103-N54=1.4384      
B103-N104=1.4533     N104-N60=1.4883      N104-B65=1.4442      N104-B103=1.4533     B105-N42=1.4254      B105-N68=1.4008      
B105-N100=1.4167     N106-B37=1.4024      N106-N54=1.4095      N106-B91=1.4837      B107-B39=1.6509      B107-B69=1.7267      
B107-N72=1.4321      N108-B67=1.4513      N108-B89=1.4429      N108-N90=1.4579      
 B  B  Rav=1.6894 sigma=0.1391  Rmin=1.5156  Rmax=2.1349    24
 C  H  Rav=1.0837 sigma=0.0094  Rmin=1.0779  Rmax=1.1065     9
 C  C  Rav=1.4286 sigma=0.0591  Rmin=1.3782  Rmax=1.5417    18
 N  H  Rav=1.0081 sigma=0.0001  Rmin=1.0080  Rmax=1.0082     2
 N  B  Rav=1.4560 sigma=0.1010  Rmin=1.3745  Rmax=2.0135    68
 N  C  Rav=1.3634 sigma=0.0563  Rmin=1.2763  Rmax=1.4337     4
 N  N  Rav=1.4278 sigma=0.0414  Rmin=1.3673  Rmax=1.5525    22
 O  C  Rav=1.2004 sigma=0.0000  Rmin=1.2004  Rmax=1.2004     1
 F  C  Rav=1.3464 sigma=0.0045  Rmin=1.3415  Rmax=1.3528     4
 
 selected bond angles (degree)
 --------------------
F3-C2-F1=106.48                C4-C2-F1=112.68                C4-C2-F3=112.93                F25-C2-F1=106.00               
F25-C2-F3=106.07               F25-C2-C4=112.14               C5-C4-C2=119.93                C9-C4-C2=119.52                
C9-C4-C5=120.53                C6-C5-C4=119.50                H26-C5-C4=120.02               H26-C5-C6=120.48               
C7-C6-C5=120.48                H27-C6-C5=119.57               H27-C6-C7=119.94               C8-C7-C6=119.49                
C10-C7-C6=120.89               C10-C7-C8=119.61               C9-C8-C7=120.50                H28-C8-C7=119.59               
H28-C8-C9=119.91               C8-C9-C4=119.48                H29-C9-C4=119.93               H29-C9-C8=120.59               
C11-C10-C7=111.41              C24-C10-C7=109.08              C24-C10-C11=109.21             H30-C10-C7=108.38              
H30-C10-C11=110.08             H30-C10-C24=108.63             
 
 selected dihedral angles (degree)
 ---------------------------------
C5-C4-C2-F1=148.77            C5-C4-C2-F3= 28.07            C5-C4-C2-F25=268.29           C9-C4-C2-F1=327.47            
C9-C4-C2-F3=206.77            C9-C4-C2-F25= 86.99           C6-C5-C4-C2=179.68            C6-C5-C4-C9=  0.99            
H26-C5-C4-C2=359.08           H26-C5-C4-C9=180.39           C7-C6-C5-C4=  0.00            C7-C6-C5-H26=180.59           
H27-C6-C5-C4=178.89           H27-C6-C5-H26=359.50          C8-C7-C6-C5=359.03            C8-C7-C6-H27=180.13           
C10-C7-C6-C5=180.08           C10-C7-C6-H27=  1.17          C9-C8-C7-C6=  1.00            C9-C8-C7-C10=179.97           
H28-C8-C7-C6=180.89           H28-C8-C7-C10=359.86          C8-C9-C4-C2=180.34            C8-C9-C4-C5=359.04            
H29-C9-C4-C2=  0.96           H29-C9-C4-C5=179.65           C4-C9-C8-C7=359.96            C4-C9-C8-H28=180.06           
H29-C9-C8-C7=179.34           H29-C9-C8-H28=359.44          C11-C10-C7-C6=325.17          C11-C10-C7-C8=146.21          
C24-C10-C7-C6= 85.80          C24-C10-C7-C8=266.85          H30-C10-C7-C6=203.91          H30-C10-C7-C8= 24.96          
 
 CMA Distance (Angstroems)
 ---------------------------
R(CMA): 11.0858
           -------------------------------------------------
          |                Final Singlepoint                |
           -------------------------------------------------

          ...................................................
          :                      SETUP                      :
          :.................................................:
          :  # basis functions                 399          :
          :  # atomic orbitals                 399          :
          :  # shells                          205          :
          :  # electrons                       416          :
          :  max. iterations                   500          :
          :  Hamiltonian                  GFN2-xTB          :
          :  restarted?                      false          :
          :  GBSA solvation                  false          :
          :  PC potential                    false          :
          :  electronic temp.          300.0000000     K    :
          :  accuracy                    1.0000000          :
          :  -> integral cutoff          0.2500000E+02      :
          :  -> integral neglect         0.1000000E-07      :
          :  -> SCF convergence          0.1000000E-05 Eh   :
          :  -> wf. convergence          0.1000000E-03 e    :
          :  Broyden damping             0.4000000          :
          :  net charge                          0          :
          :  unpaired electrons                  0          :
          ...................................................

 iter      E             dE          RMSdq      gap      omega  full diag
   1   -226.2664219 -0.226266E+03  0.317E-02    0.72       0.0  T
   2   -226.2664227 -0.833786E-06  0.184E-02    0.72       1.0  T
   3   -226.2664216  0.106424E-05  0.331E-03    0.72       2.9  T
   4   -226.2664230 -0.131224E-05  0.116E-03    0.72       8.3  T
   5   -226.2664230 -0.703125E-09  0.958E-04    0.72      10.0  T
   6   -226.2664231 -0.103479E-06  0.506E-04    0.72      19.0  T

   *** convergence criteria satisfied after 6 iterations ***

         #    Occupation            Energy/Eh            Energy/eV
      -------------------------------------------------------------
         1        2.0000           -0.8746019             -23.7991
       ...           ...                  ...                  ...
       202        2.0000           -0.3282692              -8.9327
       203        2.0000           -0.3256614              -8.8617
       204        2.0000           -0.3243844              -8.8269
       205        2.0000           -0.3216427              -8.7523
       206        2.0000           -0.3163211              -8.6075
       207        2.0000           -0.3143524              -8.5540
       208        2.0000           -0.3105714              -8.4511 (HOMO)
       209        0.0000           -0.2842085              -7.7337 (LUMO)
       210                         -0.2780722              -7.5667
       211                         -0.2761745              -7.5151
       212                         -0.2652544              -7.2179
       213                         -0.2629356              -7.1548
       ...                                ...                  ...
       399                          0.9829009              26.7461
      -------------------------------------------------------------
                  HL-Gap            0.0263629 Eh            0.7174 eV
             Fermi-level           -0.2973809 Eh           -8.0921 eV

 SCC (total)                   0 d,  0 h,  0 min,  0.255 sec
 SCC setup                      ...        0 min,  0.001 sec (  0.392%)
 Dispersion                     ...        0 min,  0.001 sec (  0.392%)
 classical contributions        ...        0 min,  0.001 sec (  0.392%)
 integral evaluation            ...        0 min,  0.009 sec (  3.529%)
 iterations                     ...        0 min,  0.205 sec ( 80.392%)
 molecular gradient             ...        0 min,  0.035 sec ( 13.725%)
 printout                       ...        0 min,  0.003 sec (  1.176%)

         :::::::::::::::::::::::::::::::::::::::::::::::::::::
         ::                     SUMMARY                     ::
         :::::::::::::::::::::::::::::::::::::::::::::::::::::
         :: total energy            -224.003263170509 Eh    ::
         :: gradient norm              0.002166598868 Eh/a0 ::
         :: HOMO-LUMO gap              0.717370391342 eV    ::
         ::.................................................::
         :: SCC energy              -226.251335024064 Eh    ::
         :: -> isotropic ES            0.726628731811 Eh    ::
         :: -> anisotropic ES         -0.031144665199 Eh    ::
         :: -> anisotropic XC          0.069026430470 Eh    ::
         :: -> dispersion             -0.188070215261 Eh    ::
         :: repulsion energy           2.248071853555 Eh    ::
         :: add. restraining           0.000000000000 Eh    ::
         :: total charge               0.000000000001 e     ::
         :::::::::::::::::::::::::::::::::::::::::::::::::::::

           -------------------------------------------------
          |                Property Printout                |
           -------------------------------------------------

    * Orbital Energies and Occupations

         #    Occupation            Energy/Eh            Energy/eV
      -------------------------------------------------------------
         1        2.0000           -0.8746019             -23.7991
       ...           ...                  ...                  ...
       196        2.0000           -0.3409345              -9.2773
       197        2.0000           -0.3395948              -9.2408
       198        2.0000           -0.3356710              -9.1341
       199        2.0000           -0.3333731              -9.0715
       200        2.0000           -0.3313278              -9.0159
       201        2.0000           -0.3297912              -8.9741
       202        2.0000           -0.3282692              -8.9327
       203        2.0000           -0.3256614              -8.8617
       204        2.0000           -0.3243844              -8.8269
       205        2.0000           -0.3216427              -8.7523
       206        2.0000           -0.3163211              -8.6075
       207        2.0000           -0.3143524              -8.5540
       208        2.0000           -0.3105714              -8.4511 (HOMO)
       209        0.0000           -0.2842085              -7.7337 (LUMO)
       210                         -0.2780722              -7.5667
       211                         -0.2761745              -7.5151
       212                         -0.2652544              -7.2179
       213                         -0.2629356              -7.1548
       214                         -0.2578333              -7.0160
       215                         -0.2526088              -6.8738
       216                         -0.2463568              -6.7037
       217                         -0.2431491              -6.6164
       218                         -0.2358492              -6.4178
       219                         -0.2316572              -6.3037
       ...                                ...                  ...
       399                          0.9829009              26.7461
      -------------------------------------------------------------
                  HL-Gap            0.0263629 Eh            0.7174 eV
             Fermi-level           -0.2973809 Eh           -8.0921 eV

     #   Z          covCN         q      C6AA      α(0)
     1   9 F        0.791    -0.207    11.305     3.972
     2   6 C        3.336     0.486    17.290     6.585
     3   9 F        0.791    -0.206    11.298     3.970
     4   6 C        2.977    -0.026    28.634     8.778
     5   6 C        2.920    -0.023    28.578     8.767
     6   6 C        2.924    -0.031    28.771     8.796
     7   6 C        2.979     0.025    27.444     8.593
     8   6 C        2.924    -0.032    28.789     8.799
     9   6 C        2.920    -0.022    28.551     8.762
    10   6 C        3.868    -0.027    21.014     6.519
    11   6 C        2.984    -0.016    28.402     8.742
    12   6 C        2.921    -0.058    29.442     8.898
    13   6 C        2.784     0.156    24.618     8.127
    14   9 F        0.787    -0.232    11.576     4.019
    15   6 C        2.915    -0.050    29.240     8.867
    16   6 C        2.930    -0.062    29.552     8.915
    17   6 C        2.907     0.064    26.560     8.451
    18   7 N        2.695    -0.173    24.737     7.387
    19   6 C        3.839     0.017    20.265     6.404
    20   6 C        2.801     0.263    22.569     7.783
    21   8 O        0.857    -0.381    21.309     6.189
    22   7 N        2.907    -0.081    22.818     7.095
    23   7 N        1.936    -0.176    25.612     7.504
    24   6 C        3.054     0.086    26.031     8.367
    25   9 F        0.791    -0.210    11.344     3.978
    26   1 H        0.926     0.065     2.142     2.289
    27   1 H        0.926     0.054     2.272     2.357
    28   1 H        0.926     0.060     2.199     2.319
    29   1 H        0.926     0.065     2.144     2.290
    30   1 H        0.924     0.076     2.016     2.221
    31   1 H        0.926     0.057     2.240     2.340
    32   1 H        0.926     0.061     2.183     2.311
    33   1 H        0.926     0.044     2.392     2.419
    34   1 H        0.860     0.173     1.253     1.754
    35   1 H        0.922     0.066     2.126     2.280
    36   1 H        0.860     0.196     1.128     1.664
    37   5 B        2.781     0.076    20.191     7.513
    38   7 N        2.775    -0.227    25.960     7.567
    39   5 B        2.788     0.092    19.932     7.463
    40   7 N        2.524    -0.314    28.122     7.876
    41   5 B        2.779     0.082    20.097     7.496
    42   7 N        2.655    -0.268    26.947     7.710
    43   5 B        2.850     0.241    17.670     7.019
    44   7 N        2.529    -0.272    27.078     7.728
    45   5 B        3.197     0.150    18.927     7.256
    46   7 N        2.979    -0.110    23.396     7.184
    47   5 B        2.644     0.373    16.325     6.814
    48   7 N        2.669    -0.212    25.627     7.518
    49   5 B        3.183     0.022    20.992     7.641
    50   7 N        2.885    -0.224    25.877     7.555
    51   5 B        3.009     0.209    18.074     7.092
    52   7 N        2.660    -0.163    24.529     7.356
    53   5 B        2.907     0.319    16.612     6.802
    54   7 N        3.154    -0.084    22.875     7.104
    55   5 B        2.778     0.094    19.910     7.461
    56   7 N        3.035    -0.129    23.793     7.245
    57   5 B        2.758     0.090    20.005     7.484
    58   7 N        2.634    -0.308    27.944     7.851
    59   5 B        3.038     0.226    17.831     7.043
    60   7 N        2.980    -0.006    21.370     6.866
    61   5 B        2.581     0.325    17.312     7.089
    62   7 N        2.597    -0.360    29.280     8.036
    63   5 B        3.286     0.339    16.342     6.742
    64   7 N        2.784    -0.254    26.590     7.659
    65   5 B        2.559     0.322    17.573     7.181
    66   7 N        2.579    -0.368    29.511     8.068
    67   5 B        2.530     0.301    18.225     7.377
    68   7 N        2.665    -0.204    25.449     7.492
    69   5 B        2.699     0.196    18.499     7.218
    70   7 N        2.844    -0.167    24.605     7.367
    71   5 B        2.758     0.082    20.130     7.507
    72   7 N        2.672    -0.174    24.766     7.391
    73   5 B        2.877     0.111    19.574     7.385
    74   7 N        2.663    -0.144    24.128     7.295
    75   5 B        2.595     0.312    17.388     7.085
    76   7 N        2.519    -0.354    29.168     8.021
    77   5 B        2.684     0.183    18.726     7.269
    78   7 N        3.006    -0.131    23.839     7.252
    79   5 B        2.677     0.210    18.362     7.202
    80   7 N        2.716    -0.249    26.476     7.642
    81   5 B        2.647     0.164    19.168     7.381
    82   7 N        2.825    -0.206    25.478     7.497
    83   5 B        3.322     0.230    17.779     7.031
    84   7 N        2.531    -0.285    27.401     7.774
    85   5 B        2.950     0.036    20.772     7.604
    86   7 N        2.783    -0.184    24.990     7.425
    87   5 B        2.796     0.085    20.041     7.482
    88   7 N        2.673    -0.155    24.365     7.331
    89   5 B        3.022     0.211    18.051     7.087
    90   7 N        3.272     0.015    20.980     6.803
    91   5 B        2.868     0.306    16.796     6.842
    92   7 N        3.156    -0.112    23.435     7.190
    93   5 B        3.263     0.320    16.586     6.792
    94   7 N        2.833    -0.061    22.411     7.031
    95   5 B        3.304     0.231    17.763     7.028
    96   7 N        2.656    -0.183    24.963     7.420
    97   5 B        2.838     0.112    19.566     7.387
    98   7 N        2.833    -0.224    25.881     7.556
    99   5 B        2.862     0.253    17.504     6.985
   100   7 N        2.654    -0.227    25.976     7.569
   101   5 B        3.010     0.114    19.484     7.363
   102   7 N        3.153    -0.086    22.908     7.109
   103   5 B        2.673     0.202    18.499     7.232
   104   7 N        2.695    -0.229    26.016     7.575
   105   5 B        2.584     0.369    16.731     6.965
   106   7 N        2.880    -0.180    24.887     7.409
   107   5 B        2.824     0.106    19.668     7.408
   108   7 N        2.827    -0.252    26.552     7.653

 Mol. C6AA /au·bohr⁶  :     220571.439939
 Mol. C8AA /au·bohr⁸  :    6185362.104080
 Mol. α(0) /au        :        737.359435


Wiberg/Mayer (AO) data.
largest (>0.10) Wiberg bond orders for each atom

 ---------------------------------------------------------------------------
     #   Z sym  total        # sym  WBO       # sym  WBO       # sym  WBO
 ---------------------------------------------------------------------------
     1   9 F    1.072 --     2 C    0.948
     2   6 C    3.823 --     4 C    0.951     3 F    0.950     1 F    0.948
                            25 F    0.938
     3   9 F    1.073 --     2 C    0.950
     4   6 C    3.971 --     5 C    1.413     9 C    1.409     2 C    0.951
                             7 C    0.104
     5   6 C    3.988 --     6 C    1.445     4 C    1.413    26 H    0.966
                             8 C    0.110
     6   6 C    3.991 --     5 C    1.445     7 C    1.413    27 H    0.965
                             9 C    0.109
     7   6 C    3.985 --     6 C    1.413     8 C    1.408    10 C    0.958
                             4 C    0.104
     8   6 C    3.989 --     9 C    1.450     7 C    1.408    28 H    0.966
                             5 C    0.110
     9   6 C    3.988 --     8 C    1.450     4 C    1.409    29 H    0.966
                             6 C    0.109
    10   6 C    3.992 --    24 C    1.001    11 C    0.977     7 C    0.958
                            30 H    0.946
    11   6 C    3.981 --    12 C    1.423    17 C    1.321    10 C    0.977
    12   6 C    3.988 --    11 C    1.423    13 C    1.400    31 H    0.966
                            16 C    0.103
    13   6 C    3.880 --    12 C    1.400    15 C    1.377    14 F    0.950
    14   9 F    1.072 --    13 C    0.950
    15   6 C    3.988 --    16 C    1.470    13 C    1.377    32 H    0.967
    16   6 C    3.985 --    15 C    1.470    17 C    1.331    33 H    0.967
                            12 C    0.103
    17   6 C    3.971 --    16 C    1.331    11 C    1.321    18 N    1.158
    18   7 N    3.337 --    17 C    1.158    19 C    1.000    34 H    0.939
    19   6 C    3.982 --    18 N    1.000    24 C    0.988    20 C    0.923
                            35 H    0.910
    20   6 C    3.949 --    21 O    1.749    22 N    1.187    19 C    0.923
    21   8 O    2.074 --    20 C    1.749    22 N    0.176
    22   7 N    3.511 --    20 C    1.187    23 N    1.091    36 H    0.930
                            21 O    0.176
    23   7 N    3.013 --    24 C    1.761    22 N    1.091
    24   6 C    3.975 --    23 N    1.761    10 C    1.001    19 C    0.988
    25   9 F    1.068 --     2 C    0.938
    26   1 H    0.995 --     5 C    0.966
    27   1 H    0.997 --     6 C    0.965
    28   1 H    0.996 --     8 C    0.966
    29   1 H    0.995 --     9 C    0.966
    30   1 H    0.993 --    10 C    0.946
    31   1 H    0.996 --    12 C    0.966
    32   1 H    0.995 --    15 C    0.967
    33   1 H    0.998 --    16 C    0.967
    34   1 H    0.969 --    18 N    0.939
    35   1 H    0.994 --    19 C    0.910
    36   1 H    0.961 --    22 N    0.930
    37   5 B    3.477 --   106 N    1.281    89 B    1.000    83 B    0.970
    38   7 N    3.399 --    83 B    1.143    96 N    1.007    95 B    1.000
    39   5 B    3.465 --    84 N    1.276   107 B    0.978    95 B    0.959
    40   7 N    3.530 --    99 B    1.152    97 B    1.150    67 B    1.018
    41   5 B    3.465 --    74 N    1.241   103 B    0.995    77 B    0.990
    42   7 N    3.267 --    63 B    1.203   105 B    0.967   100 N    0.889
    43   5 B    3.408 --    76 N    1.178    50 N    1.032    59 B    0.963
    44   7 N    3.568 --    57 B    1.277    45 B    1.158   101 B    0.973
    45   5 B    3.393 --    44 N    1.158    87 B    0.932    85 B    0.640
                            49 B    0.294
    46   7 N    3.323 --    51 B    1.113    90 N    1.043   102 N    0.945
    47   5 B    3.433 --    48 N    1.187    58 N    1.126    86 N    0.962
    48   7 N    3.446 --    47 B    1.187    75 B    1.087    88 N    0.967
    49   5 B    3.456 --    85 B    1.285   101 B    1.004    99 B    0.626
                            45 B    0.294
    50   7 N    3.426 --    53 B    1.233    43 B    1.032    64 N    0.929
    51   5 B    3.390 --    46 N    1.113    70 N    1.039    97 B    1.005
    52   7 N    3.510 --    55 B    1.205    75 B    1.124    72 N    0.999
    53   5 B    3.514 --    50 N    1.233    78 N    1.070    98 N    1.003
    54   7 N    3.346 --   103 B    1.139   106 N    0.990    56 N    0.982
    55   5 B    3.413 --    52 N    1.205    73 B    1.008    87 B    0.927
    56   7 N    3.323 --    91 B    1.133    54 N    0.982    60 N    0.972
    57   5 B    3.464 --    44 N    1.277    71 B    0.978    81 B    0.932
    58   7 N    3.219 --    47 B    1.126    61 B    1.068    86 N    0.793
    59   5 B    3.368 --    72 N    1.152    64 N    0.991    43 B    0.963
    60   7 N    3.095 --    78 N    1.012    56 N    0.972   104 N    0.939
    61   5 B    3.511 --    98 N    1.245    58 N    1.068    76 N    0.989
    62   7 N    3.434 --    67 B    1.202    95 B    1.061    83 B    0.925
    63   5 B    3.482 --    42 N    1.203    80 N    1.041    66 N    0.980
    64   7 N    3.281 --    69 B    1.168    59 B    0.991    50 N    0.929
    65   5 B    3.522 --   100 N    1.212   104 N    1.117    92 N    1.034
    66   7 N    3.431 --    79 B    1.220    93 B    0.993    63 B    0.980
    67   5 B    3.520 --    62 N    1.202   108 N    1.098    40 N    1.018
    68   7 N    3.442 --   105 B    1.260    79 B    0.998    94 N    0.990
    69   5 B    3.445 --    64 N    1.168    96 N    1.123   107 B    0.923
    70   7 N    3.470 --    71 B    1.260    51 B    1.039   102 N    0.984
    71   5 B    3.421 --    70 N    1.260    57 B    0.978    79 B    0.959
    72   7 N    3.511 --   107 B    1.171    59 B    1.152    52 N    0.999
    73   5 B    3.347 --    85 B    1.009    55 B    1.008    84 N    0.963
    74   7 N    3.509 --    41 B    1.241    77 B    1.093    80 N    1.036
    75   5 B    3.515 --    52 N    1.124    76 N    1.103    48 N    1.087
    76   7 N    3.477 --    43 B    1.178    75 B    1.103    61 B    0.989
    77   5 B    3.464 --    82 N    1.179    74 N    1.093    41 B    0.990
    78   7 N    3.259 --    53 B    1.070    60 N    1.012    92 N    0.976
    79   5 B    3.391 --    66 N    1.220    68 N    0.998    71 B    0.959
    80   7 N    3.371 --    63 B    1.041    74 N    1.036    93 B    0.985
    81   5 B    3.454 --    94 N    1.192    88 N    1.079    57 B    0.932
    82   7 N    3.407 --    77 B    1.179    89 B    1.072    90 N    0.959
    83   5 B    3.365 --    38 N    1.143    37 B    0.970    62 N    0.925
                            95 B    0.127
    84   7 N    3.561 --    39 B    1.276    99 B    1.105    73 B    0.963
    85   5 B    3.367 --    49 B    1.285    73 B    1.009    45 B    0.640
                            99 B    0.187
    86   7 N    2.987 --    94 N    1.044    47 B    0.962    58 N    0.793
    87   5 B    3.455 --    88 N    1.266    45 B    0.932    55 B    0.927
    88   7 N    3.480 --    87 B    1.266    81 B    1.079    48 N    0.967
    89   5 B    3.443 --   108 N    1.131    82 N    1.072    37 B    1.000
    90   7 N    3.186 --    46 N    1.043    82 N    0.959   108 N    0.951
    91   5 B    3.523 --    96 N    1.163    56 N    1.133   106 N    0.996
    92   7 N    3.219 --    65 B    1.034    98 N    0.984    78 N    0.976
    93   5 B    3.507 --   102 N    1.265    66 N    0.993    80 N    0.985
    94   7 N    3.440 --    81 B    1.192    86 N    1.044    68 N    0.990
    95   5 B    3.326 --    62 N    1.061    38 N    1.000    39 B    0.959
                            83 B    0.127
    96   7 N    3.492 --    91 B    1.163    69 B    1.123    38 N    1.007
    97   5 B    3.385 --    40 N    1.150    51 B    1.005   101 B    1.002
    98   7 N    3.447 --    61 B    1.245    53 B    1.003    92 N    0.984
    99   5 B    3.444 --    40 N    1.152    84 N    1.105    49 B    0.626
                            85 B    0.187   101 B    0.119
   100   7 N    3.336 --    65 B    1.212   105 B    1.038    42 N    0.889
   101   5 B    3.333 --    49 B    1.004    97 B    1.002    44 N    0.973
                            99 B    0.119
   102   7 N    3.439 --    93 B    1.265    70 N    0.984    46 N    0.945
   103   5 B    3.447 --    54 N    1.139   104 N    1.121    41 B    0.995
   104   7 N    3.394 --   103 B    1.121    65 B    1.117    60 N    0.939
   105   5 B    3.439 --    68 N    1.260   100 N    1.038    42 N    0.967
   106   7 N    3.475 --    37 B    1.281    91 B    0.996    54 N    0.990
   107   5 B    3.359 --    72 N    1.171    39 B    0.978    69 B    0.923
   108   7 N    3.418 --    89 B    1.131    67 B    1.098    90 N    0.951
 ---------------------------------------------------------------------------

Topologies differ in total number of bonds
Writing topology from bond orders to xtbtopo.mol

molecular dipole:
                 x           y           z       tot (Debye)
 q only:        0.731       1.192      -4.273
   full:       -0.912       0.581      -2.382       6.648
molecular quadrupole (traceless):
                xx          xy          yy          xz          yz          zz
 q only:      -27.843     -10.734      28.825     -25.642     -48.996      -0.982
  q+dip:      -11.071     -13.108      48.917     -25.784     -36.460     -37.847
   full:       -6.099     -10.630      45.238     -23.191     -35.103     -39.140

           -------------------------------------------------
          |                Geometry Summary                 |
           -------------------------------------------------

      molecular mass/u    :     1242.7213111
   center of mass at/Å    :        0.0911332      -0.0096260       3.2056721
  moments of inertia/u·Å² :        0.1399416E+05   0.4350179E+05   0.4458806E+05
rotational constants/cm⁻¹ :        0.1204619E-02   0.3875158E-03   0.3780751E-03

 * 127 selected distances

     #   Z          #   Z                                           value/Å
     1   9 F        2   6 C                                       1.3427634
     2   6 C        3   9 F                                       1.3415399
     4   6 C        5   6 C                                       1.3879422
     5   6 C        6   6 C                                       1.3826248
     6   6 C        7   6 C                                       1.3888688
     7   6 C        8   6 C                                       1.3892507
     4   6 C        9   6 C                                       1.3888843
     8   6 C        9   6 C                                       1.3818560
    11   6 C       12   6 C                                       1.3867632
    12   6 C       13   6 C                                       1.3799808
    13   6 C       15   6 C                                       1.3834825
    15   6 C       16   6 C                                       1.3782215
    11   6 C       17   6 C                                       1.4041908
    16   6 C       17   6 C                                       1.3996654
    17   6 C       18   7 N                                       1.3745435
    18   7 N       19   6 C                                       1.4336664
    20   6 C       21   8 O                                       1.2003548
    20   6 C       22   7 N                                       1.3690924
    22   7 N       23   7 N                                       1.3673062
    10   6 C       24   6 C                                       1.4830748
    23   7 N       24   6 C                                       1.2762974
     2   6 C       25   9 F                                       1.3485018
     5   6 C       26   1 H                                       1.0790606
     6   6 C       27   1 H                                       1.0793583
     8   6 C       28   1 H                                       1.0792125
     9   6 C       29   1 H                                       1.0789900
    10   6 C       30   1 H                                       1.0942458
    12   6 C       31   1 H                                       1.0789388
    15   6 C       32   1 H                                       1.0779008
    16   6 C       33   1 H                                       1.0793150
    18   7 N       34   1 H                                       1.0079753 (min)
    19   6 C       35   1 H                                       1.1064606
    22   7 N       36   1 H                                       1.0081933
    44   7 N       45   5 B                                       1.4427676
    47   5 B       48   7 N                                       1.4039611
    43   5 B       50   7 N                                       1.4728916
    46   7 N       51   5 B                                       1.4401847
    50   7 N       53   5 B                                       1.3869009
    52   7 N       55   5 B                                       1.4226647
    54   7 N       56   7 N                                       1.4232171
    44   7 N       57   5 B                                       1.4231804
    47   5 B       58   7 N                                       1.3943377
    43   5 B       59   5 B                                       1.5748753
    56   7 N       60   7 N                                       1.4219719
    58   7 N       61   5 B                                       1.4341196
    42   7 N       63   5 B                                       1.3891211
    59   5 B       64   7 N                                       1.4847200
    63   5 B       66   7 N                                       1.4713301
    40   7 N       67   5 B                                       1.4902062
    62   7 N       67   5 B                                       1.4132291
    64   7 N       69   5 B                                       1.4389029
    51   5 B       70   7 N                                       1.4566539
    57   5 B       71   5 B                                       1.6641616
    70   7 N       71   5 B                                       1.4082228
    59   5 B       72   7 N                                       1.4215247
    55   5 B       73   5 B                                       1.6423597
    41   5 B       74   7 N                                       1.4058308
    48   7 N       75   5 B                                       1.4482907
    52   7 N       75   5 B                                       1.4594782
    43   5 B       76   7 N                                       1.4260286
    61   5 B       76   7 N                                       1.4929255
    75   5 B       76   7 N                                       1.4586226
    41   5 B       77   5 B                                       1.5728858
    74   7 N       77   5 B                                       1.4137476
    53   5 B       78   7 N                                       1.4447544
    60   7 N       78   7 N                                       1.3935313
    66   7 N       79   5 B                                       1.4202185
    68   7 N       79   5 B                                       1.4793156
    71   5 B       79   5 B                                       1.6741089 (max)
    63   5 B       80   7 N                                       1.4509520
    74   7 N       80   7 N                                       1.3691384
    77   5 B       82   7 N                                       1.4092970
    37   5 B       83   5 B                                       1.6083434
    38   7 N       83   5 B                                       1.4238393
    62   7 N       83   5 B                                       1.4997269
    39   5 B       84   7 N                                       1.4099820
    73   5 B       84   7 N                                       1.4907965
    49   5 B       85   5 B                                       1.5156245
    73   5 B       85   5 B                                       1.6059258
    47   5 B       86   7 N                                       1.4294340
    45   5 B       87   5 B                                       1.6492652
    55   5 B       87   5 B                                       1.6619202
    81   5 B       88   7 N                                       1.4618600
    87   5 B       88   7 N                                       1.4028178
    37   5 B       89   5 B                                       1.6191336
    82   7 N       89   5 B                                       1.4430908
    46   7 N       90   7 N                                       1.3677455
    56   7 N       91   5 B                                       1.4407353
    65   5 B       92   7 N                                       1.4542236
    78   7 N       92   7 N                                       1.4370505
    66   7 N       93   5 B                                       1.4562779
    80   7 N       93   5 B                                       1.4638712
    81   5 B       94   7 N                                       1.4268562
    86   7 N       94   7 N                                       1.3894778
    38   7 N       95   5 B                                       1.4598273
    39   5 B       95   5 B                                       1.6124940
    62   7 N       95   5 B                                       1.4506238
    69   5 B       96   7 N                                       1.4497985
    91   5 B       96   7 N                                       1.4404886
    40   7 N       97   5 B                                       1.4575528
    51   5 B       97   5 B                                       1.6054289
    53   5 B       98   7 N                                       1.4605977
    61   5 B       98   7 N                                       1.3915476
    92   7 N       98   7 N                                       1.4199693
    40   7 N       99   5 B                                       1.4585319
    84   7 N       99   5 B                                       1.4561804
    65   5 B      100   7 N                                       1.3882049
    44   7 N      101   5 B                                       1.4966330
    49   5 B      101   5 B                                       1.6004810
    97   5 B      101   5 B                                       1.6241569
    46   7 N      102   7 N                                       1.4307280
    70   7 N      102   7 N                                       1.4182602
    93   5 B      102   7 N                                       1.3744527
    41   5 B      103   5 B                                       1.6420136
    54   7 N      103   5 B                                       1.4384106
    65   5 B      104   7 N                                       1.4442053
   103   5 B      104   7 N                                       1.4533162
    42   7 N      105   5 B                                       1.4254030
    68   7 N      105   5 B                                       1.4008406
   100   7 N      105   5 B                                       1.4166876
    37   5 B      106   7 N                                       1.4023728
    54   7 N      106   7 N                                       1.4094537
    91   5 B      106   7 N                                       1.4837474
    39   5 B      107   5 B                                       1.6508701
    72   7 N      107   5 B                                       1.4321176
    67   5 B      108   7 N                                       1.4512688
    89   5 B      108   7 N                                       1.4429211

 * 9 distinct bonds (by element types)

   Z      Z             #   av. dist./Å        max./Å        min./Å
   5 B    5 B          17     1.6190617     1.6741089     1.5156245
   1 H    6 C           9     1.0837203     1.1064606     1.0779008
   6 C    6 C          13     1.3949851     1.4830748     1.3782215
   1 H    7 N           2     1.0080843     1.0081933     1.0079753
   5 B    7 N          66     1.4391458     1.4997269     1.3744527
   6 C    7 N           4     1.3633999     1.4336664     1.2762974
   7 N    7 N          12     1.4039875     1.4370505     1.3673062
   6 C    8 O           1     1.2003548     1.2003548     1.2003548
   6 C    9 F           3     1.3442684     1.3485018     1.3415399


optimized geometry written to: xtbopt.xyz


           -------------------------------------------------
          | TOTAL ENERGY             -224.003263170509 Eh   |
          | GRADIENT NORM               0.002166598868 Eh/α |
          | HOMO-LUMO GAP               0.717370391342 eV   |
           -------------------------------------------------

------------------------------------------------------------------------
 * finished run on 2026/08/31 at 22:23:05.109     
------------------------------------------------------------------------
 total:
 * wall-time:     0 d,  0 h,  0 min,  6.059 sec
 *  cpu-time:     0 d,  0 h,  0 min, 47.312 sec
 * ratio c/w:     7.809 speedup
 SCF:
 * wall-time:     0 d,  0 h,  0 min,  0.886 sec
 *  cpu-time:     0 d,  0 h,  0 min,  7.047 sec
 * ratio c/w:     7.954 speedup
 ANC optimizer:
 * wall-time:     0 d,  0 h,  0 min,  5.107 sec
 *  cpu-time:     0 d,  0 h,  0 min, 39.719 sec
 * ratio c/w:     7.777 speedup

normal termination of xtb
