      -----------------------------------------------------------      
     |                   =====================                   |     
     |                           x T B                           |     
     |                   =====================                   |     
     |                         S. Grimme                         |     
     |          Mulliken Center for Theoretical Chemistry        |     
     |                    University of Bonn                     |     
      -----------------------------------------------------------      

   * xtb version 6.7.1pre (5071a88) compiled by 'Marcel@Raven' on 2024-07-23

   xtb is free software: you can redistribute it and/or modify it under
   the terms of the GNU Lesser General Public License as published by
   the Free Software Foundation, either version 3 of the License, or
   (at your option) any later version.
   
   xtb is distributed in the hope that it will be useful,
   but WITHOUT ANY WARRANTY; without even the implied warranty of
   MERCHANTABILITY or FITNESS FOR A PARTICULAR PURPOSE.  See the
   GNU Lesser General Public License for more details.
   
   Cite this work as:
   * C. Bannwarth, E. Caldeweyher, S. Ehlert, A. Hansen, P. Pracht,
     J. Seibert, S. Spicher, S. Grimme, WIREs Comput. Mol. Sci., 2020, 11,
     e01493. DOI: 10.1002/wcms.1493
   
   for GFN2-xTB:
   * C. Bannwarth, S. Ehlert and S. Grimme., J. Chem. Theory Comput., 2019,
     15, 1652-1671. DOI: 10.1021/acs.jctc.8b01176
   for GFN1-xTB:
   * S. Grimme, C. Bannwarth, P. Shushkov, J. Chem. Theory Comput., 2017,
     13, 1989-2009. DOI: 10.1021/acs.jctc.7b00118
   for GFN0-xTB:
   * P. Pracht, E. Caldeweyher, S. Ehlert, S. Grimme, ChemRxiv, 2019, preprint.
     DOI: 10.26434/chemrxiv.8326202.v1
   for GFN-FF:
   * S. Spicher and S. Grimme, Angew. Chem. Int. Ed., 2020, 59, 15665-15673.
     DOI: 10.1002/anie.202004239
   
   for ALPB and GBSA implicit solvation:
   * S. Ehlert, M. Stahn, S. Spicher, S. Grimme, J. Chem. Theory Comput.,
     2021, 17, 4250-4261. DOI: 10.1021/acs.jctc.1c00471
   
   for ddCOSMO and CPCM-X implicit solvation:
   * M. Stahn, S. Ehlert, S. Grimme, J. Phys. Chem. A,
     2023, XX, XXXX-XXXX. DOI: 10.1021/acs.jpca.3c04382
   
   for DFT-D4:
   * E. Caldeweyher, C. Bannwarth and S. Grimme, J. Chem. Phys., 2017,
     147, 034112. DOI: 10.1063/1.4993215
   * E. Caldeweyher, S. Ehlert, A. Hansen, H. Neugebauer, S. Spicher,
     C. Bannwarth and S. Grimme, J. Chem. Phys., 2019, 150, 154122.
     DOI: 10.1063/1.5090222
   * E. Caldeweyher, J.-M. Mewes, S. Ehlert and S. Grimme, Phys. Chem. Chem. Phys.
     2020, 22, 8499-8512. DOI: 10.1039/D0CP00502A
   
   for sTDA-xTB:
   * S. Grimme and C. Bannwarth, J. Chem. Phys., 2016, 145, 054103.
     DOI: 10.1063/1.4959605
   
   in the mass-spec context:
   * V. Asgeirsson, C. Bauer and S. Grimme, Chem. Sci., 2017, 8, 4879.
     DOI: 10.1039/c7sc00601b
   * J. Koopman and S. Grimme, ACS Omega 2019, 4, 12, 15120-15133.
     DOI: 10.1021/acsomega.9b02011
   
   for metadynamics refer to:
   * S. Grimme, J. Chem. Theory Comput., 2019, 155, 2847-2862
     DOI: 10.1021/acs.jctc.9b00143
   
   for SPH calculations refer to:
   * S. Spicher and S. Grimme, J. Chem. Theory Comput., 2021, 17, 1701-1714
     DOI: 10.1021/acs.jctc.0c01306
   
   for ONIOM refer to:
   * C. Plett, A. Katbashev, S. Ehlert, S. Grimme, M. Bursch,
     Phys. Chem. Chem. Phys., 2023, 25, 17860-17868. DOI: 10.1039/D3CP02178E
   
   for DIPRO refer to:
   * J. Kohn, N. Gildemeister, S. Grimme, D. Fazzi, A. Hansen,
     J. Chem. Phys., 2023, just accepted.
   
   for PTB refer to:
   * S. Grimme, M. Mueller, A. Hansen, J. Chem. Phys., 2023, 158, 124111.
     DOI: 10.1063/5.0137838
   
   with help from (in alphabetical order)
   P. Atkinson, C. Bannwarth, F. Bohle, G. Brandenburg, E. Caldeweyher
   M. Checinski, S. Dohm, S. Ehlert, S. Ehrlich, I. Gerasimov, C. Hölzer
   A. Katbashev, J. Kohn, J. Koopman, C. Lavigne, S. Lehtola, F. März, M. Müller,
   F. Musil, H. Neugebauer, J. Pisarek, C. Plett, P. Pracht, F. Pultar,
   J. Seibert, P. Shushkov, S. Spicher, M. Stahn, M. Steiner, T. Strunk,
   J. Stückrath, T. Rose, and J. Unsleber
   
 * started run on 2026/08/31 at 22:23:05.153     
   ID    Z sym.   atoms
    1    9 F      1, 3, 14, 25
    2    6 C      2, 4-13, 15-17, 19, 20, 24
    3    7 N      18, 22, 23, 38, 40, 42, 44, 46, 48, 50, 52, 54, 56, 58, 60,
                  62, 64, 66, 68, 70, 72, 74, 76, 78, 80, 82, 84, 86, 88, 90,
                  92, 94, 96, 98, 100, 102, 104, 106, 108
    4    8 O      21
    5    1 H      26-36
    6    5 B      37, 39, 41, 43, 45, 47, 49, 51, 53, 55, 57, 59, 61, 63, 65,
                  67, 69, 71, 73, 75, 77, 79, 81, 83, 85, 87, 89, 91, 93, 95,
                  97, 99, 101, 103, 105, 107

           -------------------------------------------------
          |                Calculation Setup                |
           -------------------------------------------------

          program call               : "c:\Users\Andre\Proyectos doctorado\kras-pancreatic-gC3N4-ai\tools\xtb\xtb-6.7.1\bin\xtb.exe" "c:\Users\Andre\Proyectos doctorado\nano-qsar-ai-therapeutics\calculations\tnbc\Talazoparib\Talazoparib_opt_90deg.xyz" --opt vloose --gfn 2 --chrg 0 --uhf 0 --etemp 300 --iterations 500 --cycles 15 --norestart
          coordinate file            : c:\Users\Andre\Proyectos doctorado\nano-qsar-ai-therapeutics\calculations\tnbc\Talazoparib\Talazoparib_opt_90deg.xyz
          omp threads                :                    16


molecular fragmentation (1/2 indicates fragments):
111111111111111111111111111111111111222222222222222222222222222222222222
222222222222222222222222222222222222
# atoms in fragment 1/2:    36    72
 fragment masses (1/2) :      349.28      893.44
CMA distance (Bohr)    :  20.995
constraining FC (au)   :  0.0500

           -------------------------------------------------
          |                 G F N 2 - x T B                 |
           -------------------------------------------------

        Reference                      10.1021/acs.jctc.8b01176
      * Hamiltonian:
        H0-scaling (s, p, d)           1.850000    2.230000    2.230000
        zeta-weighting                 0.500000
      * Dispersion:
        s8                             2.700000
        a1                             0.520000
        a2                             5.000000
        s9                             5.000000
      * Repulsion:
        kExp                           1.500000    1.000000
        rExp                           1.000000
      * Coulomb:
        alpha                          2.000000
        third order                    shell-resolved
        anisotropic                    true
        a3                             3.000000
        a5                             4.000000
        cn-shift                       1.200000
        cn-exp                         4.000000
        max-rad                        5.000000


          ...................................................
          :                      SETUP                      :
          :.................................................:
          :  # basis functions                 399          :
          :  # atomic orbitals                 399          :
          :  # shells                          205          :
          :  # electrons                       416          :
          :  max. iterations                   500          :
          :  Hamiltonian                  GFN2-xTB          :
          :  restarted?                      false          :
          :  GBSA solvation                  false          :
          :  PC potential                    false          :
          :  electronic temp.          300.0000000     K    :
          :  accuracy                    1.0000000          :
          :  -> integral cutoff          0.2500000E+02      :
          :  -> integral neglect         0.1000000E-07      :
          :  -> SCF convergence          0.1000000E-05 Eh   :
          :  -> wf. convergence          0.1000000E-03 e    :
          :  Broyden damping             0.4000000          :
          :  net charge                          0          :
          :  unpaired electrons                  0          :
          ...................................................

 iter      E             dE          RMSdq      gap      omega  full diag
   1   -225.2302106 -0.225230E+03  0.117E+01    0.54       0.0  T
   2   -225.6666067 -0.436396E+00  0.709E+00    0.41       1.0  T
   3   -222.4825300  0.318408E+01  0.476E+00    0.16       1.0  T
   4   -224.5048461 -0.202232E+01  0.267E+00    0.37       1.0  T
   5   -225.6264764 -0.112163E+01  0.160E+00    0.15       1.0  T
   6   -225.7724491 -0.145973E+00  0.132E+00    0.19       1.0  T
   7   -226.1553971 -0.382948E+00  0.749E-01    0.82       1.0  T
   8   -226.1810685 -0.256714E-01  0.583E-01    0.75       1.0  T
   9   -226.1788761  0.219244E-02  0.514E-01    0.80       1.0  T
  10   -226.1812506 -0.237454E-02  0.331E-01    0.76       1.0  T
  11   -226.1863290 -0.507840E-02  0.133E-01    0.70       1.0  T
  12   -226.1873727 -0.104364E-02  0.108E-01    0.64       1.0  T
  13   -226.1874756 -0.102981E-03  0.871E-02    0.60       1.0  T
  14   -226.1875190 -0.433277E-04  0.529E-02    0.58       1.0  T
  15   -226.1875930 -0.740622E-04  0.131E-02    0.57       1.0  T
  16   -226.1876054 -0.123705E-04  0.810E-03    0.57       1.2  T
  17   -226.1876072 -0.180652E-05  0.581E-03    0.58       1.7  T
  18   -226.1876090 -0.178067E-05  0.310E-03    0.60       3.1  T
  19   -226.1876094 -0.454527E-06  0.197E-03    0.60       4.9  T
  20   -226.1876096 -0.163183E-06  0.137E-03    0.60       7.0  T
  21   -226.1876097 -0.108803E-06  0.684E-04    0.61      14.1  T
  22   -226.1876097 -0.182712E-07  0.374E-04    0.61      25.8  T

   *** convergence criteria satisfied after 22 iterations ***

         #    Occupation            Energy/Eh            Energy/eV
      -------------------------------------------------------------
         1        2.0000           -0.8698637             -23.6702
       ...           ...                  ...                  ...
       202        2.0000           -0.3277561              -8.9187
       203        2.0000           -0.3250348              -8.8446
       204        2.0000           -0.3239511              -8.8152
       205        2.0000           -0.3208569              -8.7310
       206        2.0000           -0.3156355              -8.5889
       207        2.0000           -0.3138311              -8.5398
       208        2.0000           -0.3096485              -8.4260 (HOMO)
       209        0.0000           -0.2872497              -7.8165 (LUMO)
       210        0.0000           -0.2837163              -7.7203
       211                         -0.2755146              -7.4971
       212                         -0.2689609              -7.3188
       213                         -0.2647699              -7.2048
       ...                                ...                  ...
       399                          0.9832983              26.7569
      -------------------------------------------------------------
                  HL-Gap            0.0223988 Eh            0.6095 eV
             Fermi-level           -0.2984538 Eh           -8.1213 eV

 SCC (total)                   0 d,  0 h,  0 min,  0.840 sec
 SCC setup                      ...        0 min,  0.001 sec (  0.119%)
 Dispersion                     ...        0 min,  0.004 sec (  0.476%)
 classical contributions        ...        0 min,  0.000 sec (  0.000%)
 integral evaluation            ...        0 min,  0.013 sec (  1.548%)
 iterations                     ...        0 min,  0.786 sec ( 93.571%)
 molecular gradient             ...        0 min,  0.033 sec (  3.929%)
 printout                       ...        0 min,  0.003 sec (  0.357%)

         :::::::::::::::::::::::::::::::::::::::::::::::::::::
         ::                     SUMMARY                     ::
         :::::::::::::::::::::::::::::::::::::::::::::::::::::
         :: total energy            -223.993249561193 Eh    ::
         :: gradient norm              0.083220174434 Eh/a0 ::
         :: HOMO-LUMO gap              0.609502716886 eV    ::
         ::.................................................::
         :: SCC energy              -226.172584675740 Eh    ::
         :: -> isotropic ES            0.727423664227 Eh    ::
         :: -> anisotropic ES         -0.030560099968 Eh    ::
         :: -> anisotropic XC          0.072298974550 Eh    ::
         :: -> dispersion             -0.187178886484 Eh    ::
         :: repulsion energy           2.179335114547 Eh    ::
         :: add. restraining           0.000000000000 Eh    ::
         :: total charge              -0.000000000001 e     ::
         :::::::::::::::::::::::::::::::::::::::::::::::::::::

      ----------------------------------------------------------- 
     |                   =====================                   |
     |                        A N C O P T                        |
     |                   =====================                   |
     |               Approximate Normal Coordinate               |
     |                Rational Function Optimizer                |
      ----------------------------------------------------------- 
      ----------------------------------------------------------- 
     |                   =====================                   |
     |                        A N C O P T                        |
     |                   =====================                   |
     |               Approximate Normal Coordinate               |
     |                Rational Function Optimizer                |
      ----------------------------------------------------------- 

          ...................................................
          :                      SETUP                      :
          :.................................................:
          :   optimization level            normal          :
          :   max. optcycles                    15          :
          :   ANC micro-cycles                  15          :
          :   degrees of freedom               318          :
          :.................................................:
          :   RF solver                   davidson          :
          :   write xtbopt.log                true          :
          :   linear?                        false          :
          :   energy convergence         0.5000000E-05 Eh   :
          :   grad. convergence          0.1000000E-02 Eh/α :
          :   maxmium RF displ.          1.0000000          :
          :   Hlow (freq-cutoff)         0.1000000E-01      :
          :   Hmax (freq-cutoff)         5.0000000          :
          :   S6 in model hess.         20.0000000          :
          ...................................................

generating ANC from exact Hessian ...
Using Lindh-Hessian (1995)
 Shifting diagonal of input Hessian by   1.008590728718315E-002
 Lowest  eigenvalues of input Hessian
    0.010000    0.010005    0.010017    0.000000    0.000000    0.000000
    0.000000    0.000000    0.000000    0.010124    0.010150    0.010215
    0.010555    0.011117    0.011298    0.012246    0.013560    0.014750
 Highest eigenvalues
    2.083490    2.087489    2.154604    2.260729    2.314980    2.341886
 

........................................................................
.............................. CYCLE    1 ..............................
........................................................................

 iter      E             dE          RMSdq      gap      omega  full diag
   1   -226.1876097 -0.226188E+03  0.217E-04    0.61       0.0  T
   2   -226.1876097  0.391083E-09  0.226E-04    0.61      42.6  T
   3   -226.1876097 -0.396034E-08  0.114E-04    0.61      84.6  T
     SCC iter.                  ...        0 min,  0.103 sec
     gradient                   ...        0 min,  0.028 sec
 * total energy  :  -223.9932496 Eh     change       -0.6962665E-08 Eh
   gradient norm :     0.0832204 Eh/α   predicted     0.0000000E+00 (-100.00%)
   displ. norm   :     0.2555560 α      lambda       -0.1200929E-01
   maximum displ.:     0.0985110 α      in ANC's #44, #115, #99, ...

........................................................................
.............................. CYCLE    2 ..............................
........................................................................

 iter      E             dE          RMSdq      gap      omega  full diag
   1   -226.2423744 -0.226242E+03  0.118E-01    0.71       0.0  T
   2   -226.2424483 -0.739174E-04  0.701E-02    0.71       1.0  T
   3   -226.2423849  0.633801E-04  0.373E-02    0.71       1.0  T
   4   -226.2424771 -0.922040E-04  0.767E-03    0.71       1.3  T
   5   -226.2424824 -0.533404E-05  0.319E-03    0.71       3.0  T
   6   -226.2424821  0.328869E-06  0.277E-03    0.71       3.5  T
   7   -226.2424832 -0.105330E-05  0.134E-03    0.71       7.2  T
   8   -226.2424834 -0.252981E-06  0.406E-04    0.71      23.7  T
   9   -226.2424834 -0.532287E-08  0.212E-04    0.71      45.4  T
     SCC iter.                  ...        0 min,  0.373 sec
     gradient                   ...        0 min,  0.030 sec
 * total energy  :  -224.0010882 Eh     change       -0.7838591E-02 Eh
   gradient norm :     0.0291506 Eh/α   predicted    -0.6398397E-02 ( -18.37%)
   displ. norm   :     0.2064015 α      lambda       -0.2476049E-02
   maximum displ.:     0.0837937 α      in ANC's #14, #26, #8, ...

........................................................................
.............................. CYCLE    3 ..............................
........................................................................

 iter      E             dE          RMSdq      gap      omega  full diag
   1   -226.2655227 -0.226266E+03  0.604E-02    0.71       0.0  T
   2   -226.2655591 -0.363806E-04  0.367E-02    0.71       1.0  T
   3   -226.2655526  0.648441E-05  0.204E-02    0.71       1.0  T
   4   -226.2655724 -0.197665E-04  0.439E-03    0.71       2.2  T
   5   -226.2655732 -0.813076E-06  0.281E-03    0.71       3.4  T
   6   -226.2655737 -0.477885E-06  0.198E-03    0.71       4.9  T
   7   -226.2655742 -0.586215E-06  0.830E-04    0.71      11.6  T
   8   -226.2655743 -0.853321E-07  0.244E-04    0.71      39.5  T
     SCC iter.                  ...        0 min,  0.329 sec
     gradient                   ...        0 min,  0.034 sec
 * total energy  :  -224.0025863 Eh     change       -0.1498114E-02 Eh
   gradient norm :     0.0111181 Eh/α   predicted    -0.1291448E-02 ( -13.80%)
   displ. norm   :     0.1433717 α      lambda       -0.5014816E-03
   maximum displ.:     0.0721216 α      in ANC's #8, #14, #15, ...

........................................................................
.............................. CYCLE    4 ..............................
........................................................................

 iter      E             dE          RMSdq      gap      omega  full diag
   1   -226.2678750 -0.226268E+03  0.339E-02    0.71       0.0  T
   2   -226.2678844 -0.934864E-05  0.199E-02    0.71       1.0  T
   3   -226.2678816  0.282809E-05  0.105E-02    0.71       1.0  T
   4   -226.2678872 -0.561861E-05  0.249E-03    0.71       3.9  T
   5   -226.2678869  0.299539E-06  0.244E-03    0.71       3.9  T
   6   -226.2678879 -0.103272E-05  0.776E-04    0.71      12.4  T
   7   -226.2678880 -0.537766E-07  0.376E-04    0.71      25.6  T
   8   -226.2678880 -0.134480E-07  0.128E-04    0.71      75.0  T
     SCC iter.                  ...        0 min,  0.282 sec
     gradient                   ...        0 min,  0.029 sec
 * total energy  :  -224.0029491 Eh     change       -0.3628627E-03 Eh
   gradient norm :     0.0068915 Eh/α   predicted    -0.2558976E-03 ( -29.48%)
   displ. norm   :     0.1774274 α      lambda       -0.3411973E-03
   maximum displ.:     0.1147158 α      in ANC's #8, #14, #9, ...

........................................................................
.............................. CYCLE    5 ..............................
........................................................................

 iter      E             dE          RMSdq      gap      omega  full diag
   1   -226.2663665 -0.226266E+03  0.371E-02    0.71       0.0  T
   2   -226.2663739 -0.742598E-05  0.213E-02    0.71       1.0  T
   3   -226.2663690  0.496413E-05  0.107E-02    0.71       1.0  T
   4   -226.2663758 -0.681746E-05  0.286E-03    0.71       3.4  T
   5   -226.2663760 -0.259274E-06  0.235E-03    0.71       4.1  T
   6   -226.2663769 -0.866878E-06  0.788E-04    0.71      12.2  T
   7   -226.2663769 -0.273725E-07  0.481E-04    0.71      20.0  T
     SCC iter.                  ...        0 min,  0.312 sec
     gradient                   ...        0 min,  0.107 sec
 * total energy  :  -224.0031760 Eh     change       -0.2268582E-03 Eh
   gradient norm :     0.0045215 Eh/α   predicted    -0.1759708E-03 ( -22.43%)
   displ. norm   :     0.1420970 α      lambda       -0.1411397E-03
   maximum displ.:     0.1029708 α      in ANC's #8, #9, #7, ...

........................................................................
.............................. CYCLE    6 ..............................
........................................................................

 iter      E             dE          RMSdq      gap      omega  full diag
   1   -226.2651912 -0.226265E+03  0.268E-02    0.71       0.0  T
   2   -226.2651940 -0.277653E-05  0.155E-02    0.71       1.0  T
   3   -226.2651908  0.319108E-05  0.708E-03    0.71       1.4  T
   4   -226.2651944 -0.364906E-05  0.212E-03    0.71       4.5  T
   5   -226.2651949 -0.420559E-06  0.133E-03    0.71       7.2  T
   6   -226.2651951 -0.233881E-06  0.573E-04    0.71      16.8  T
   7   -226.2651951 -0.920417E-08  0.383E-04    0.71      25.1  T
     SCC iter.                  ...        0 min,  0.232 sec
     gradient                   ...        0 min,  0.027 sec
 * total energy  :  -224.0032823 Eh     change       -0.1063477E-03 Eh
   gradient norm :     0.0036803 Eh/α   predicted    -0.7200135E-04 ( -32.30%)
   displ. norm   :     0.1619469 α      lambda       -0.1206577E-03
   maximum displ.:     0.1134120 α      in ANC's #8, #9, #4, ...

........................................................................
.............................. CYCLE    7 ..............................
........................................................................

 iter      E             dE          RMSdq      gap      omega  full diag
   1   -226.2647824 -0.226265E+03  0.309E-02    0.71       0.0  T
   2   -226.2647851 -0.268209E-05  0.180E-02    0.71       1.0  T
   3   -226.2647806  0.450098E-05  0.755E-03    0.71       1.3  T
   4   -226.2647856 -0.503167E-05  0.210E-03    0.71       4.6  T
   5   -226.2647860 -0.370859E-06  0.135E-03    0.71       7.2  T
   6   -226.2647863 -0.255571E-06  0.561E-04    0.71      17.1  T
   7   -226.2647863 -0.159151E-07  0.312E-04    0.71      30.9  T
     SCC iter.                  ...        0 min,  0.229 sec
     gradient                   ...        0 min,  0.033 sec
 * total energy  :  -224.0033740 Eh     change       -0.9166740E-04 Eh
   gradient norm :     0.0027516 Eh/α   predicted    -0.6191169E-04 ( -32.46%)
   displ. norm   :     0.1794812 α      lambda       -0.9565019E-04
   maximum displ.:     0.1180593 α      in ANC's #8, #9, #4, ...

........................................................................
.............................. CYCLE    8 ..............................
........................................................................

 iter      E             dE          RMSdq      gap      omega  full diag
   1   -226.2651651 -0.226265E+03  0.345E-02    0.71       0.0  T
   2   -226.2651673 -0.211904E-05  0.202E-02    0.71       1.0  T
   3   -226.2651619  0.532403E-05  0.753E-03    0.71       1.3  T
   4   -226.2651678 -0.589872E-05  0.189E-03    0.71       5.1  T
   5   -226.2651681 -0.293616E-06  0.120E-03    0.71       8.0  T
   6   -226.2651683 -0.195490E-06  0.537E-04    0.71      17.9  T
   7   -226.2651683 -0.182192E-07  0.272E-04    0.71      35.3  T
     SCC iter.                  ...        0 min,  0.238 sec
     gradient                   ...        0 min,  0.030 sec
 * total energy  :  -224.0034463 Eh     change       -0.7231838E-04 Eh
   gradient norm :     0.0028286 Eh/α   predicted    -0.4936599E-04 ( -31.74%)
   displ. norm   :     0.1913448 α      lambda       -0.7712551E-04
   maximum displ.:     0.1173917 α      in ANC's #8, #9, #4, ...

........................................................................
.............................. CYCLE    9 ..............................
........................................................................

 iter      E             dE          RMSdq      gap      omega  full diag
   1   -226.2658429 -0.226266E+03  0.359E-02    0.71       0.0  T
   2   -226.2658442 -0.131682E-05  0.210E-02    0.71       1.0  T
   3   -226.2658404  0.380407E-05  0.602E-03    0.71       1.6  T
   4   -226.2658446 -0.420278E-05  0.147E-03    0.71       6.5  T
   5   -226.2658448 -0.153381E-06  0.991E-04    0.71       9.7  T
   6   -226.2658449 -0.123022E-06  0.480E-04    0.71      20.1  T
     SCC iter.                  ...        0 min,  0.236 sec
     gradient                   ...        0 min,  0.032 sec
 * total energy  :  -224.0035070 Eh     change       -0.6066828E-04 Eh
   gradient norm :     0.0032576 Eh/α   predicted    -0.3997547E-04 ( -34.11%)
   displ. norm   :     0.2337221 α      lambda       -0.8313247E-04
   maximum displ.:     0.1337138 α      in ANC's #8, #9, #4, ...

........................................................................
.............................. CYCLE   10 ..............................
........................................................................

 iter      E             dE          RMSdq      gap      omega  full diag
   1   -226.2664671 -0.226266E+03  0.422E-02    0.71       0.0  T
   2   -226.2664681 -0.100018E-05  0.247E-02    0.71       1.0  T
   3   -226.2664650  0.310547E-05  0.498E-03    0.71       1.9  T
   4   -226.2664680 -0.296019E-05  0.189E-03    0.71       5.1  T
   5   -226.2664685 -0.564560E-06  0.902E-04    0.71      10.7  T
   6   -226.2664686 -0.801628E-07  0.506E-04    0.71      19.0  T
     SCC iter.                  ...        0 min,  0.214 sec
     gradient                   ...        0 min,  0.027 sec
 * total energy  :  -224.0035744 Eh     change       -0.6740523E-04 Eh
   gradient norm :     0.0033681 Eh/α   predicted    -0.4383917E-04 ( -34.96%)
   displ. norm   :     0.3249193 α      lambda       -0.1071834E-03
   maximum displ.:     0.1744396 α      in ANC's #8, #9, #4, ...

........................................................................
.............................. CYCLE   11 ..............................
........................................................................

 iter      E             dE          RMSdq      gap      omega  full diag
   1   -226.2666298 -0.226267E+03  0.563E-02    0.71       0.0  T
   2   -226.2666310 -0.124079E-05  0.330E-02    0.71       1.0  T
   3   -226.2666283  0.268377E-05  0.489E-03    0.71       2.0  T
   4   -226.2666308 -0.245457E-05  0.229E-03    0.71       4.2  T
   5   -226.2666315 -0.711707E-06  0.114E-03    0.71       8.5  T
   6   -226.2666316 -0.127746E-06  0.504E-04    0.71      19.1  T
   7   -226.2666316 -0.187873E-07  0.261E-04    0.71      36.9  T
     SCC iter.                  ...        0 min,  0.229 sec
     gradient                   ...        0 min,  0.027 sec
 * total energy  :  -224.0036600 Eh     change       -0.8562846E-04 Eh
   gradient norm :     0.0033077 Eh/α   predicted    -0.5924974E-04 ( -30.81%)
   displ. norm   :     0.3942442 α      lambda       -0.1242526E-03
   maximum displ.:     0.1972603 α      in ANC's #8, #10, #9, ...

........................................................................
.............................. CYCLE   12 ..............................
........................................................................

 iter      E             dE          RMSdq      gap      omega  full diag
   1   -226.2662282 -0.226266E+03  0.658E-02    0.71       0.0  T
   2   -226.2662299 -0.175214E-05  0.385E-02    0.71       1.0  T
   3   -226.2662272  0.269888E-05  0.550E-03    0.71       1.8  T
   4   -226.2662306 -0.339867E-05  0.159E-03    0.71       6.0  T
   5   -226.2662306 -0.403903E-07  0.118E-03    0.71       8.2  T
   6   -226.2662308 -0.135275E-06  0.546E-04    0.71      17.6  T
   7   -226.2662308 -0.302728E-07  0.283E-04    0.71      34.0  T
     SCC iter.                  ...        0 min,  0.255 sec
     gradient                   ...        0 min,  0.027 sec
 * total energy  :  -224.0037570 Eh     change       -0.9692787E-04 Eh
   gradient norm :     0.0035637 Eh/α   predicted    -0.7178424E-04 ( -25.94%)
   displ. norm   :     0.3669498 α      lambda       -0.1268457E-03
   maximum displ.:     0.1711237 α      in ANC's #10, #8, #4, ...

........................................................................
.............................. CYCLE   13 ..............................
........................................................................

 iter      E             dE          RMSdq      gap      omega  full diag
   1   -226.2661987 -0.226266E+03  0.590E-02    0.71       0.0  T
   2   -226.2662009 -0.228072E-05  0.346E-02    0.71       1.0  T
   3   -226.2661953  0.564952E-05  0.740E-03    0.71       1.3  T
   4   -226.2662019 -0.658753E-05  0.190E-03    0.71       5.1  T
   5   -226.2662021 -0.171896E-06  0.129E-03    0.71       7.5  T
   6   -226.2662021 -0.926092E-07  0.782E-04    0.71      12.3  T
   7   -226.2662022 -0.674874E-07  0.385E-04    0.71      25.0  T
     SCC iter.                  ...        0 min,  0.255 sec
     gradient                   ...        0 min,  0.039 sec
 * total energy  :  -224.0038543 Eh     change       -0.9736791E-04 Eh
   gradient norm :     0.0042903 Eh/α   predicted    -0.7196351E-04 ( -26.09%)
   displ. norm   :     0.3494864 α      lambda       -0.1135968E-03
   maximum displ.:     0.1623411 α      in ANC's #10, #4, #8, ...

........................................................................
.............................. CYCLE   14 ..............................
........................................................................

 iter      E             dE          RMSdq      gap      omega  full diag
   1   -226.2657450 -0.226266E+03  0.552E-02    0.71       0.0  T
   2   -226.2657474 -0.240374E-05  0.324E-02    0.71       1.0  T
   3   -226.2657413  0.611431E-05  0.743E-03    0.71       1.3  T
   4   -226.2657483 -0.704076E-05  0.200E-03    0.71       4.8  T
   5   -226.2657486 -0.289665E-06  0.119E-03    0.71       8.1  T
   6   -226.2657487 -0.631254E-07  0.685E-04    0.71      14.1  T
   7   -226.2657487 -0.530571E-07  0.326E-04    0.71      29.5  T
     SCC iter.                  ...        0 min,  0.250 sec
     gradient                   ...        0 min,  0.028 sec
 * total energy  :  -224.0039399 Eh     change       -0.8559148E-04 Eh
   gradient norm :     0.0047385 Eh/α   predicted    -0.6374142E-04 ( -25.53%)
   displ. norm   :     0.2926981 α      lambda       -0.9315379E-04
   maximum displ.:     0.1355371 α      in ANC's #4, #10, #8, ...

........................................................................
.............................. CYCLE   15 ..............................
........................................................................

 iter      E             dE          RMSdq      gap      omega  full diag
   1   -226.2660487 -0.226266E+03  0.454E-02    0.71       0.0  T
   2   -226.2660504 -0.173304E-05  0.265E-02    0.71       1.0  T
   3   -226.2660458  0.461273E-05  0.613E-03    0.71       1.6  T
   4   -226.2660511 -0.526245E-05  0.174E-03    0.71       5.5  T
   5   -226.2660514 -0.263055E-06  0.912E-04    0.71      10.6  T
   6   -226.2660514 -0.418080E-07  0.358E-04    0.71      26.9  T
     SCC iter.                  ...        0 min,  0.194 sec
     gradient                   ...        0 min,  0.028 sec
 * total energy  :  -224.0040081 Eh     change       -0.6818151E-04 Eh
   gradient norm :     0.0039270 Eh/α   predicted    -0.5056818E-04 ( -25.83%)
   displ. norm   :     0.2922007 α      lambda       -0.6932407E-04
   maximum displ.:     0.1392865 α      in ANC's #4, #10, #8, ...

   *** FAILED TO CONVERGE GEOMETRY OPTIMIZATION IN 15 ITERATIONS ***


 ANCopt (total)                0 d,  0 h,  0 min,  4.610 sec
 optimizer setup                ...        0 min,  0.001 sec (  0.022%)
 model hessian                  ...        0 min,  0.045 sec (  0.976%)
 ANC generation                 ...        0 min,  0.014 sec (  0.304%)
 coordinate transformation      ...        0 min,  0.000 sec (  0.000%)
 single point calculation       ...        0 min,  4.516 sec ( 97.961%)
 optimization log               ...        0 min,  0.025 sec (  0.542%)
 hessian update                 ...        0 min,  0.003 sec (  0.065%)
 rational function              ...        0 min,  0.002 sec (  0.043%)

================
 final structure:
================
108
 xtb: 6.7.1pre (5071a88)
F           -0.17523740646139        5.79729668753705       11.82279463341474
C           -0.70907581175748        4.95520492937874       10.92257157929643
F           -2.03913475687770        5.11104287569932       10.99775890704987
C           -0.27289780588068        3.53319931625078       11.13198660527583
C           -1.13503837468618        2.49042221245723       10.82283141835506
C           -0.72064679892598        1.18538081789857       11.01493196725151
C            0.54797496872996        0.91437390520117       11.51143093764955
C            1.40929264635729        1.96597838851531       11.79810279621439
C            1.00474520632017        3.27424250689275       11.61134555441157
C            1.01062455446653       -0.51677041201178       11.72329314569063
C           -0.13238603755345       -1.39818827475132       12.18483743651764
C           -0.59736356882943       -1.24152097301032       13.48227604617706
C           -1.65868808591207       -2.00209949636921       13.92936419079425
F           -2.10308801270458       -1.83164018613421       15.19599354031919
C           -2.28150549092889       -2.92625367421747       13.10838230877874
C           -1.82097431900033       -3.08385955362041       11.81857724564550
C           -0.74613775041839       -2.33066310256998       11.33216786809181
N           -0.29082948745064       -2.56069035653022       10.05492683847465
C            0.62113858603872       -1.64736704179739        9.42933539168052
C            1.64514722118568       -2.27141247326476        8.45990215093388
O            1.45791810023194       -2.96402406854301        7.49664042392308
N            2.84876605403290       -1.81424874091546        8.92470433385073
N            2.77802566794255       -1.15528511370271       10.12084317440968
C            1.54879070211851       -1.04700568359248       10.44714169025554
F           -0.34490215413956        5.42588916821993        9.71243073409275
H           -2.12368505851184        2.70096301982325       10.44498680383762
H           -1.39691953498101        0.37391573060304       10.79343293997856
H            2.40012737602006        1.75668692018727       12.17134574378052
H            1.66812821515009        4.09295110409218       11.84359647127432
H            1.81159027455581       -0.51601130301147       12.46874215708956
H           -0.13602491677968       -0.52286576620936       14.14253145430003
H           -3.11148011143556       -3.50455141395321       13.48098289543095
H           -2.29346471652931       -3.79896376772680       11.16163594245221
H           -0.86894938155362       -3.11431235288484        9.44212221642689
H            0.10602027769374       -0.84933366015327        8.86190909563409
H            3.75672340278558       -2.04404838419878        8.55153078860566
B            3.46873119992333       -1.44777645306673        1.64458387376168
N            3.46217461638210        1.13395238882589        0.94723494534328
B            2.53419169252964        2.35546912386890       -1.25655580709602
N            2.29059986480456       -0.65306332043800       -2.71502345043161
B            0.71072479596178       -3.55486940841741        2.73874261374683
N           -2.92404291636955       -2.65900453738587        1.75091017022628
B           -1.03509944577497        4.08123087677633        1.84091089227579
N           -0.62775534445727       -0.00390276999391       -3.91989283207304
B           -0.48494283684127        1.42340746854640       -4.07481151331717
N            1.21518022457504       -3.79506751875931       -1.70849489789681
B           -3.84505605987662        2.19372401423553       -0.46796844640471
N           -2.77728535238447        2.74731001121288       -1.19210466870586
B            1.39301426437559        0.79710171153090       -4.87644196727719
N           -0.22756559196379        3.36532828888988        2.84290693760044
B            0.89883019798422       -2.89379404669015       -2.78569643106471
N           -0.49735061650355        3.75527338196923       -1.00125730967903
B           -0.79449912407937        2.18537023145728        3.29929318590463
N            1.67340240178958       -1.26292886583837        3.52677253150604
B           -0.25788275283990        3.45476071287582       -2.37100008844942
N            1.32611443860905        0.08061289776142        3.83895447273780
B           -1.60206174814654       -0.58058877884907       -3.05757499303986
N           -3.82684637554764        1.76420112197808        0.85861508951022
B            0.33724824104582        4.49430557383306        1.18789491714372
N            0.06294387174658       -0.00243282112115        4.48542089950200
B           -2.70103953828164        2.21810736410554        1.62272661731609
N            3.77473974924466       -0.13456032225304       -0.75512145313813
B           -2.23765107738051       -3.64485343316707        1.05032501554930
N            1.06056231651760        3.73662262164023        2.24009352957692
B           -1.80477514194477       -0.77572366536385        3.25239404117317
N           -2.42658529562082       -3.61391446458635       -0.40831041108943
B            3.02039349910880       -1.07977594280178       -1.48765399612569
N           -3.14996692430860       -1.26535440364783       -0.34804530774608
B            2.03879924554822        2.92563934777751        1.56566450008921
N           -0.50607668026325       -2.91684819064914       -2.40097234387407
B           -1.67357798780249       -2.13170356758911       -2.45857646509171
N            0.58678443785908        3.95903024771306       -0.10525890825112
B            1.07911710260661        2.94459018132635       -3.17687629332871
N            0.09603726988020       -4.35675122484742        1.76087659629027
B           -1.78669968124894        3.44013651148983       -0.39424883810271
N           -2.01054751837743        3.40902149898913        1.04659207486475
B            1.48280013399152       -4.20800900017408        1.53356200680421
N           -0.78380018949963        1.07350696532135        4.22292732657177
B           -2.66025436316200       -2.41736885600768       -1.13667739490230
N           -1.05733250740118       -4.48652036140155        1.03319829799999
B           -2.50679997608356        0.47290811454982       -2.08286297049904
N            2.36413807837625       -3.88550173351851        0.48175134222511
B            3.91782709706180       -0.19891892115520        0.73621251208280
N            1.92097602833714        1.94591226624565       -2.45813729907629
B            0.98674761820509        2.23368172651269       -4.61390645500661
N           -4.18329223544021        0.81314048970707       -0.31583066651984
B           -1.34895914648174        2.43386369658043       -3.09891437939813
N           -2.36643827396168        1.91378350644035       -2.28514006375772
B            3.08273215821125       -2.64263974344453        0.62244705967650
N            2.34287222455628       -3.67866557890876       -0.94336132288493
B            2.22910579589788        0.55449114848002        2.82189562471855
N           -2.01242582518790        0.61484973368956        3.63187806875403
B           -1.08978056535270       -4.19243516636187       -0.40015424249006
N           -3.21561538488504        0.02589114295607       -0.92788296838255
B            3.44591245661897        1.25601039613315       -0.50778208896245
N            2.58921968722004        1.63861214251094        1.94442860368597
B            1.46825311722699       -1.57051533414269       -3.49400289345600
N           -2.09052140375699        1.75181865566484        2.78307037897266
B            2.03378060141487        0.69813315446385       -3.20031950428593
N           -2.70048841447692       -1.34329453083237        2.35574859089887
B            0.64982014572127       -0.55970621232473       -4.46681998537482
N           -0.16186925110284       -3.77095462758713       -1.32225635122912
B            0.50752204514464       -2.09911692218713        3.47068964197658
N           -0.56720353216583       -1.19772939581516        3.86143304874294
B           -3.20957032782924       -1.45835519429712        1.03782196753727
N            2.68372550868510       -0.84641085380860        2.63906922204136
B            1.87636948117482        3.33623303347308       -0.10343768443148
N            2.88368412613884       -2.33540536568805       -0.77373033129757
 
 Bond Distances (Angstroems)
 ---------------------------
F1-C2=1.3433         C2-F1=1.3433         C2-F3=1.3413         C2-C4=1.5021         C2-F25=1.3486        F3-C2=1.3413         
C4-C2=1.5021         C4-C5=1.3879         C4-C9=1.3890         C5-C4=1.3879         C5-C6=1.3827         C5-H26=1.0791        
C6-C5=1.3827         C6-C7=1.3890         C6-H27=1.0793        C7-C6=1.3890         C7-C8=1.3892         C7-C10=1.5189        
C8-C7=1.3892         C8-C9=1.3821         C8-H28=1.0793        C9-C4=1.3890         C9-C8=1.3821         C9-H29=1.0790        
C10-C7=1.5189        C10-C11=1.5154       C10-C24=1.4830       C10-H30=1.0942       C11-C10=1.5154       C11-C12=1.3871       
C11-C17=1.4047       C12-C11=1.3871       C12-C13=1.3801       C12-H31=1.0795       C13-C12=1.3801       C13-F14=1.3531       
C13-C15=1.3842       F14-C13=1.3531       C15-C13=1.3842       C15-C16=1.3786       C15-H32=1.0780       C16-C15=1.3786       
C16-C17=1.3997       C16-H33=1.0799       C17-C11=1.4047       C17-C16=1.3997       C17-N18=1.3753       N18-C17=1.3753       
N18-C19=1.4343       N18-H34=1.0081       C19-N18=1.4343       C19-C20=1.5420       C19-C24=1.5023       C19-H35=1.1064       
C20-C19=1.5420       C20-O21=1.2011       C20-N22=1.3688       O21-C20=1.2011       N22-C20=1.3688       N22-N23=1.3675       
N22-H36=1.0082       N23-N22=1.3675       N23-C24=1.2764       C24-C10=1.4830       C24-C19=1.5023       C24-N23=1.2764       
F25-C2=1.3486        H26-C5=1.0791        H27-C6=1.0793        H28-C8=1.0793        H29-C9=1.0790        H30-C10=1.0942       
H31-C12=1.0795       H32-C15=1.0780       H33-C16=1.0799       H34-N18=1.0081       H35-C19=1.1064       H36-N22=1.0082       
B37-B83=1.6083       B37-B89=1.6191       B37-N106=1.4025      N38-B83=1.4243       N38-B95=1.4602       N38-N96=1.4181       
B39-N84=1.4098       B39-B95=1.6127       B39-B107=1.6505      N40-B67=1.4903       N40-B97=1.4577       N40-B99=1.4585       
B41-N74=1.4061       B41-B77=1.5733       B41-B103=1.6420      N42-B63=1.3906       N42-N100=1.4652      N42-B105=1.4253      
B43-N50=1.4726       B43-B59=1.5749       B43-N76=1.4263       N44-B45=1.4428       N44-B57=1.4232       N44-B101=1.4967      
B45-N44=1.4428       B45-B49=2.1358       B45-B85=1.7644       B45-B87=1.6492       N46-B51=1.4397       N46-N90=1.3677       
N46-N102=1.4304      B47-N48=1.4039       B47-N58=1.3945       B47-N86=1.4295       N48-B47=1.4039       N48-B75=1.4484       
N48-N88=1.4347       B49-B45=2.1358       B49-B85=1.5158       B49-B99=1.7972       B49-B101=1.6003      N50-B43=1.4726       
N50-B53=1.3864       N50-N64=1.4699       B51-N46=1.4397       B51-N70=1.4568       B51-B97=1.6053       B51-N102=2.0090      
N52-B55=1.4226       N52-N72=1.4212       N52-B75=1.4595       B53-N50=1.3864       B53-N78=1.4455       B53-N98=1.4609       
N54-N56=1.4224       N54-B103=1.4358      N54-N106=1.4079      B55-N52=1.4226       B55-B73=1.6423       B55-B87=1.6621       
N56-N54=1.4224       N56-N60=1.4214       N56-B91=1.4403       B57-N44=1.4232       B57-B71=1.6643       B57-B81=1.6966       
N58-B47=1.3945       N58-B61=1.4343       N58-N86=1.5527       B59-B43=1.5749       B59-N64=1.4847       B59-N72=1.4216       
N60-N56=1.4214       N60-N78=1.3941       N60-N104=1.4883      B61-N58=1.4343       B61-N76=1.4923       B61-N98=1.3916       
N62-B67=1.4139       N62-B83=1.4996       N62-B95=1.4502       B63-N42=1.3906       B63-N66=1.4711       B63-N80=1.4498       
B63-B93=1.9291       N64-N50=1.4699       N64-B59=1.4847       N64-B69=1.4386       B65-N92=1.4563       B65-N100=1.3887      
B65-N104=1.4424      N66-B63=1.4711       N66-B79=1.4202       N66-B93=1.4566       B67-N40=1.4903       B67-N62=1.4139       
B67-N108=1.4509      N68-B79=1.4795       N68-N94=1.4170       N68-B105=1.4005      B69-N64=1.4386       B69-N96=1.4501       
B69-B107=1.7265      N70-B51=1.4568       N70-B71=1.4081       N70-N102=1.4183      B71-B57=1.6643       B71-N70=1.4081       
B71-B79=1.6741       N72-N52=1.4212       N72-B59=1.4216       N72-B107=1.4321      B73-B55=1.6423       B73-N84=1.4909       
B73-B85=1.6059       N74-B41=1.4061       N74-B77=1.4131       N74-N80=1.3699       B75-N48=1.4484       B75-N52=1.4595       
B75-N76=1.4585       N76-B43=1.4263       N76-B61=1.4923       N76-B75=1.4585       B77-B41=1.5733       B77-N74=1.4131       
B77-N82=1.4096       N78-B53=1.4455       N78-N60=1.3941       N78-N92=1.4385       B79-N66=1.4202       B79-N68=1.4795       
B79-B71=1.6741       N80-B63=1.4498       N80-N74=1.3699       N80-B93=1.4636       B81-B57=1.6966       B81-N88=1.4618       
B81-N94=1.4270       N82-B77=1.4096       N82-B89=1.4425       N82-N90=1.4402       B83-B37=1.6083       B83-N38=1.4243       
B83-N62=1.4996       B83-B95=1.9716       N84-B39=1.4098       N84-B73=1.4909       N84-B99=1.4562       B85-B45=1.7644       
B85-B49=1.5158       B85-B73=1.6059       N86-B47=1.4295       N86-N58=1.5527       N86-N94=1.3895       B87-B45=1.6492       
B87-B55=1.6621       B87-N88=1.4028       N88-N48=1.4347       N88-B81=1.4618       N88-B87=1.4028       B89-B37=1.6191       
B89-N82=1.4425       B89-N108=1.4434      N90-N46=1.3677       N90-N82=1.4402       N90-N108=1.4579      B91-N56=1.4403       
B91-N96=1.4405       B91-N106=1.4841      N92-B65=1.4563       N92-N78=1.4385       N92-N98=1.4210       B93-B63=1.9291       
B93-N66=1.4566       B93-N80=1.4636       B93-N102=1.3744      N94-N68=1.4170       N94-B81=1.4270       N94-N86=1.3895       
B95-N38=1.4602       B95-B39=1.6127       B95-N62=1.4502       B95-B83=1.9716       N96-N38=1.4181       N96-B69=1.4501       
N96-B91=1.4405       B97-N40=1.4577       B97-B51=1.6053       B97-B101=1.6242      N98-B53=1.4609       N98-B61=1.3916       
N98-N92=1.4210       B99-N40=1.4585       B99-B49=1.7972       B99-N84=1.4562       N100-N42=1.4652      N100-B65=1.3887      
N100-B105=1.4175     B101-N44=1.4967      B101-B49=1.6003      B101-B97=1.6242      N102-N46=1.4304      N102-B51=2.0090      
N102-N70=1.4183      N102-B93=1.3744      B103-B41=1.6420      B103-N54=1.4358      B103-N104=1.4561     N104-N60=1.4883      
N104-B65=1.4424      N104-B103=1.4561     B105-N42=1.4253      B105-N68=1.4005      B105-N100=1.4175     N106-B37=1.4025      
N106-N54=1.4079      N106-B91=1.4841      B107-B39=1.6505      B107-B69=1.7265      B107-N72=1.4321      N108-B67=1.4509      
N108-B89=1.4434      N108-N90=1.4579      
 B  B  Rav=1.6894 sigma=0.1391  Rmin=1.5158  Rmax=2.1358    24
 C  H  Rav=1.0839 sigma=0.0093  Rmin=1.0780  Rmax=1.1064     9
 C  C  Rav=1.4288 sigma=0.0591  Rmin=1.3786  Rmax=1.5420    18
 N  H  Rav=1.0081 sigma=0.0001  Rmin=1.0081  Rmax=1.0082     2
 N  B  Rav=1.4477 sigma=0.0751  Rmin=1.3744  Rmax=2.0090    67
 N  C  Rav=1.3637 sigma=0.0565  Rmin=1.2764  Rmax=1.4343     4
 N  N  Rav=1.4279 sigma=0.0414  Rmin=1.3675  Rmax=1.5527    22
 O  C  Rav=1.2011 sigma=0.0000  Rmin=1.2011  Rmax=1.2011     1
 F  C  Rav=1.3466 sigma=0.0046  Rmin=1.3413  Rmax=1.3531     4
 
 selected bond angles (degree)
 --------------------
F3-C2-F1=106.48                C4-C2-F1=112.62                C4-C2-F3=112.96                F25-C2-F1=105.98               
F25-C2-F3=106.11               F25-C2-C4=112.16               C5-C4-C2=119.99                C9-C4-C2=119.45                
C9-C4-C5=120.54                C6-C5-C4=119.47                H26-C5-C4=120.03               H26-C5-C6=120.49               
C7-C6-C5=120.50                H27-C6-C5=119.56               H27-C6-C7=119.93               C8-C7-C6=119.49                
C10-C7-C6=120.79               C10-C7-C8=119.71               C9-C8-C7=120.48                H28-C8-C7=119.59               
H28-C8-C9=119.93               C8-C9-C4=119.50                H29-C9-C4=119.89               H29-C9-C8=120.61               
C11-C10-C7=111.15              C24-C10-C7=109.11              C24-C10-C11=109.14             H30-C10-C7=108.50              
H30-C10-C11=110.18             H30-C10-C24=108.71             
 
 selected dihedral angles (degree)
 ---------------------------------
C5-C4-C2-F1=147.58            C5-C4-C2-F3= 26.89            C5-C4-C2-F25=267.03           C9-C4-C2-F1=326.35            
C9-C4-C2-F3=205.67            C9-C4-C2-F25= 85.80           C6-C5-C4-C2=179.75            C6-C5-C4-C9=  0.99            
H26-C5-C4-C2=359.15           H26-C5-C4-C9=180.39           C7-C6-C5-C4=359.92            C7-C6-C5-H26=180.52           
H27-C6-C5-C4=178.80           H27-C6-C5-H26=359.40          C8-C7-C6-C5=359.11            C8-C7-C6-H27=180.24           
C10-C7-C6-C5=180.08           C10-C7-C6-H27=  1.20          C9-C8-C7-C6=  0.96            C9-C8-C7-C10=180.01           
H28-C8-C7-C6=180.82           H28-C8-C7-C10=359.87          C8-C9-C4-C2=180.32            C8-C9-C4-C5=359.08            
H29-C9-C4-C2=  0.92           H29-C9-C4-C5=179.69           C4-C9-C8-C7=359.93            C4-C9-C8-H28=180.07           
H29-C9-C8-C7=179.32           H29-C9-C8-H28=359.46          C11-C10-C7-C6=324.37          C11-C10-C7-C8=145.34          
C24-C10-C7-C6= 84.77          C24-C10-C7-C8=265.74          H30-C10-C7-C6=203.07          H30-C10-C7-C8= 24.03          
 
 CMA Distance (Angstroems)
 ---------------------------
R(CMA): 11.0673
           -------------------------------------------------
          |                Final Singlepoint                |
           -------------------------------------------------

          ...................................................
          :                      SETUP                      :
          :.................................................:
          :  # basis functions                 399          :
          :  # atomic orbitals                 399          :
          :  # shells                          205          :
          :  # electrons                       416          :
          :  max. iterations                   500          :
          :  Hamiltonian                  GFN2-xTB          :
          :  restarted?                      false          :
          :  GBSA solvation                  false          :
          :  PC potential                    false          :
          :  electronic temp.          300.0000000     K    :
          :  accuracy                    1.0000000          :
          :  -> integral cutoff          0.2500000E+02      :
          :  -> integral neglect         0.1000000E-07      :
          :  -> SCF convergence          0.1000000E-05 Eh   :
          :  -> wf. convergence          0.1000000E-03 e    :
          :  Broyden damping             0.4000000          :
          :  net charge                          0          :
          :  unpaired electrons                  0          :
          ...................................................

 iter      E             dE          RMSdq      gap      omega  full diag
   1   -226.2653721 -0.226265E+03  0.442E-02    0.71       0.0  T
   2   -226.2653734 -0.125707E-05  0.258E-02    0.71       1.0  T
   3   -226.2653686  0.472180E-05  0.586E-03    0.71       1.6  T
   4   -226.2653739 -0.528559E-05  0.152E-03    0.71       6.3  T
   5   -226.2653741 -0.140861E-06  0.928E-04    0.71      10.4  T
   6   -226.2653741 -0.187399E-07  0.648E-04    0.71      14.9  T

   *** convergence criteria satisfied after 6 iterations ***

         #    Occupation            Energy/Eh            Energy/eV
      -------------------------------------------------------------
         1        2.0000           -0.8745329             -23.7973
       ...           ...                  ...                  ...
       202        2.0000           -0.3280816              -8.9276
       203        2.0000           -0.3254015              -8.8546
       204        2.0000           -0.3243165              -8.8251
       205        2.0000           -0.3212559              -8.7418
       206        2.0000           -0.3160053              -8.5989
       207        2.0000           -0.3141905              -8.5496
       208        2.0000           -0.3101601              -8.4399 (HOMO)
       209        0.0000           -0.2840341              -7.7290 (LUMO)
       210                         -0.2786439              -7.5823
       211                         -0.2759429              -7.5088
       212                         -0.2650636              -7.2127
       213                         -0.2632749              -7.1641
       ...                                ...                  ...
       399                          0.9827863              26.7430
      -------------------------------------------------------------
                  HL-Gap            0.0261260 Eh            0.7109 eV
             Fermi-level           -0.2970910 Eh           -8.0843 eV

 SCC (total)                   0 d,  0 h,  0 min,  0.259 sec
 SCC setup                      ...        0 min,  0.000 sec (  0.000%)
 Dispersion                     ...        0 min,  0.002 sec (  0.772%)
 classical contributions        ...        0 min,  0.000 sec (  0.000%)
 integral evaluation            ...        0 min,  0.011 sec (  4.247%)
 iterations                     ...        0 min,  0.208 sec ( 80.309%)
 molecular gradient             ...        0 min,  0.033 sec ( 12.741%)
 printout                       ...        0 min,  0.005 sec (  1.930%)

         :::::::::::::::::::::::::::::::::::::::::::::::::::::
         ::                     SUMMARY                     ::
         :::::::::::::::::::::::::::::::::::::::::::::::::::::
         :: total energy            -224.004059055316 Eh    ::
         :: gradient norm              0.002935313971 Eh/a0 ::
         :: HOMO-LUMO gap              0.710923727421 eV    ::
         ::.................................................::
         :: SCC energy              -226.250322146012 Eh    ::
         :: -> isotropic ES            0.726913688180 Eh    ::
         :: -> anisotropic ES         -0.031166721387 Eh    ::
         :: -> anisotropic XC          0.069144082914 Eh    ::
         :: -> dispersion             -0.188338329728 Eh    ::
         :: repulsion energy           2.246263090696 Eh    ::
         :: add. restraining           0.000000000000 Eh    ::
         :: total charge               0.000000000000 e     ::
         :::::::::::::::::::::::::::::::::::::::::::::::::::::

           -------------------------------------------------
          |                Property Printout                |
           -------------------------------------------------

    * Orbital Energies and Occupations

         #    Occupation            Energy/Eh            Energy/eV
      -------------------------------------------------------------
         1        2.0000           -0.8745329             -23.7973
       ...           ...                  ...                  ...
       196        2.0000           -0.3407238              -9.2716
       197        2.0000           -0.3394371              -9.2366
       198        2.0000           -0.3352741              -9.1233
       199        2.0000           -0.3332663              -9.0686
       200        2.0000           -0.3309434              -9.0054
       201        2.0000           -0.3290927              -8.9551
       202        2.0000           -0.3280816              -8.9276
       203        2.0000           -0.3254015              -8.8546
       204        2.0000           -0.3243165              -8.8251
       205        2.0000           -0.3212559              -8.7418
       206        2.0000           -0.3160053              -8.5989
       207        2.0000           -0.3141905              -8.5496
       208        2.0000           -0.3101601              -8.4399 (HOMO)
       209        0.0000           -0.2840341              -7.7290 (LUMO)
       210                         -0.2786439              -7.5823
       211                         -0.2759429              -7.5088
       212                         -0.2650636              -7.2127
       213                         -0.2632749              -7.1641
       214                         -0.2579899              -7.0203
       215                         -0.2523394              -6.8665
       216                         -0.2461094              -6.6970
       217                         -0.2434808              -6.6254
       218                         -0.2355800              -6.4105
       219                         -0.2308177              -6.2809
       ...                                ...                  ...
       399                          0.9827863              26.7430
      -------------------------------------------------------------
                  HL-Gap            0.0261260 Eh            0.7109 eV
             Fermi-level           -0.2970910 Eh           -8.0843 eV

     #   Z          covCN         q      C6AA      α(0)
     1   9 F        0.791    -0.207    11.308     3.972
     2   6 C        3.336     0.486    17.291     6.585
     3   9 F        0.791    -0.206    11.295     3.970
     4   6 C        2.977    -0.025    28.630     8.777
     5   6 C        2.920    -0.023    28.575     8.766
     6   6 C        2.924    -0.031    28.771     8.796
     7   6 C        2.979     0.025    27.447     8.594
     8   6 C        2.924    -0.032    28.787     8.799
     9   6 C        2.920    -0.022    28.548     8.762
    10   6 C        3.868    -0.027    21.013     6.518
    11   6 C        2.984    -0.016    28.397     8.741
    12   6 C        2.920    -0.058    29.439     8.898
    13   6 C        2.784     0.156    24.616     8.127
    14   9 F        0.786    -0.232    11.574     4.019
    15   6 C        2.915    -0.050    29.237     8.867
    16   6 C        2.929    -0.062    29.547     8.914
    17   6 C        2.907     0.064    26.563     8.451
    18   7 N        2.694    -0.173    24.746     7.388
    19   6 C        3.839     0.016    20.272     6.405
    20   6 C        2.801     0.263    22.572     7.783
    21   8 O        0.857    -0.384    21.366     6.197
    22   7 N        2.907    -0.081    22.803     7.092
    23   7 N        1.936    -0.176    25.605     7.503
    24   6 C        3.053     0.087    26.026     8.367
    25   9 F        0.791    -0.210    11.343     3.978
    26   1 H        0.926     0.065     2.136     2.286
    27   1 H        0.926     0.054     2.271     2.356
    28   1 H        0.926     0.060     2.203     2.321
    29   1 H        0.926     0.065     2.146     2.291
    30   1 H        0.924     0.076     2.019     2.222
    31   1 H        0.926     0.057     2.237     2.339
    32   1 H        0.926     0.062     2.179     2.308
    33   1 H        0.926     0.044     2.390     2.418
    34   1 H        0.860     0.173     1.256     1.756
    35   1 H        0.922     0.067     2.120     2.277
    36   1 H        0.860     0.196     1.126     1.663
    37   5 B        2.781     0.076    20.199     7.514
    38   7 N        2.773    -0.228    25.986     7.571
    39   5 B        2.788     0.092    19.935     7.464
    40   7 N        2.524    -0.314    28.121     7.875
    41   5 B        2.779     0.087    20.018     7.481
    42   7 N        2.655    -0.271    27.009     7.719
    43   5 B        2.849     0.242    17.659     7.017
    44   7 N        2.529    -0.272    27.079     7.728
    45   5 B        3.195     0.150    18.927     7.256
    46   7 N        2.980    -0.109    23.384     7.182
    47   5 B        2.644     0.373    16.321     6.813
    48   7 N        2.669    -0.212    25.626     7.518
    49   5 B        3.181     0.022    20.993     7.642
    50   7 N        2.887    -0.223    25.850     7.551
    51   5 B        3.009     0.209    18.081     7.093
    52   7 N        2.660    -0.163    24.526     7.355
    53   5 B        2.904     0.320    16.600     6.799
    54   7 N        3.157    -0.078    22.753     7.085
    55   5 B        2.778     0.094    19.910     7.461
    56   7 N        3.037    -0.129    23.788     7.244
    57   5 B        2.758     0.090    20.005     7.484
    58   7 N        2.634    -0.309    27.964     7.854
    59   5 B        3.040     0.227    17.824     7.042
    60   7 N        2.980    -0.006    21.363     6.865
    61   5 B        2.582     0.326    17.306     7.087
    62   7 N        2.596    -0.360    29.280     8.036
    63   5 B        3.288     0.340    16.336     6.740
    64   7 N        2.784    -0.253    26.575     7.656
    65   5 B        2.559     0.320    17.603     7.187
    66   7 N        2.579    -0.368    29.519     8.069
    67   5 B        2.530     0.301    18.226     7.377
    68   7 N        2.665    -0.205    25.461     7.494
    69   5 B        2.698     0.196    18.508     7.220
    70   7 N        2.844    -0.167    24.605     7.367
    71   5 B        2.758     0.082    20.132     7.507
    72   7 N        2.672    -0.174    24.764     7.391
    73   5 B        2.877     0.111    19.574     7.385
    74   7 N        2.663    -0.144    24.119     7.294
    75   5 B        2.594     0.312    17.387     7.085
    76   7 N        2.519    -0.354    29.166     8.020
    77   5 B        2.684     0.184    18.717     7.268
    78   7 N        3.004    -0.133    23.881     7.258
    79   5 B        2.677     0.210    18.359     7.202
    80   7 N        2.716    -0.248    26.462     7.640
    81   5 B        2.647     0.164    19.166     7.380
    82   7 N        2.825    -0.206    25.466     7.495
    83   5 B        3.322     0.230    17.785     7.032
    84   7 N        2.531    -0.286    27.402     7.774
    85   5 B        2.949     0.036    20.771     7.604
    86   7 N        2.783    -0.185    24.999     7.426
    87   5 B        2.796     0.085    20.038     7.482
    88   7 N        2.673    -0.156    24.366     7.331
    89   5 B        3.022     0.211    18.052     7.087
    90   7 N        3.272     0.015    20.984     6.804
    91   5 B        2.870     0.305    16.809     6.844
    92   7 N        3.153    -0.118    23.557     7.209
    93   5 B        3.264     0.320    16.587     6.792
    94   7 N        2.833    -0.061    22.414     7.031
    95   5 B        3.304     0.231    17.764     7.029
    96   7 N        2.656    -0.183    24.971     7.422
    97   5 B        2.838     0.112    19.566     7.387
    98   7 N        2.832    -0.224    25.891     7.557
    99   5 B        2.863     0.252    17.505     6.985
   100   7 N        2.654    -0.231    26.064     7.582
   101   5 B        3.011     0.114    19.487     7.364
   102   7 N        3.153    -0.086    22.903     7.108
   103   5 B        2.673     0.206    18.437     7.220
   104   7 N        2.696    -0.230    26.032     7.578
   105   5 B        2.585     0.369    16.720     6.961
   106   7 N        2.881    -0.180    24.888     7.409
   107   5 B        2.825     0.106    19.671     7.408
   108   7 N        2.827    -0.252    26.551     7.653

 Mol. C6AA /au·bohr⁶  :     220573.218425
 Mol. C8AA /au·bohr⁸  :    6185303.992633
 Mol. α(0) /au        :        737.356647


Wiberg/Mayer (AO) data.
largest (>0.10) Wiberg bond orders for each atom

 ---------------------------------------------------------------------------
     #   Z sym  total        # sym  WBO       # sym  WBO       # sym  WBO
 ---------------------------------------------------------------------------
     1   9 F    1.071 --     2 C    0.947
     2   6 C    3.824 --     4 C    0.951     3 F    0.950     1 F    0.947
                            25 F    0.938
     3   9 F    1.073 --     2 C    0.950
     4   6 C    3.971 --     5 C    1.413     9 C    1.409     2 C    0.951
                             7 C    0.104
     5   6 C    3.988 --     6 C    1.445     4 C    1.413    26 H    0.966
                             8 C    0.110
     6   6 C    3.991 --     5 C    1.445     7 C    1.413    27 H    0.964
                             9 C    0.109
     7   6 C    3.985 --     6 C    1.413     8 C    1.408    10 C    0.958
                             4 C    0.104
     8   6 C    3.989 --     9 C    1.449     7 C    1.408    28 H    0.966
                             5 C    0.110
     9   6 C    3.988 --     8 C    1.449     4 C    1.409    29 H    0.966
                             6 C    0.109
    10   6 C    3.992 --    24 C    1.002    11 C    0.976     7 C    0.958
                            30 H    0.946
    11   6 C    3.980 --    12 C    1.423    17 C    1.321    10 C    0.976
    12   6 C    3.988 --    11 C    1.423    13 C    1.400    31 H    0.966
                            16 C    0.103
    13   6 C    3.880 --    12 C    1.400    15 C    1.376    14 F    0.950
    14   9 F    1.072 --    13 C    0.950
    15   6 C    3.988 --    16 C    1.470    13 C    1.376    32 H    0.966
    16   6 C    3.985 --    15 C    1.470    17 C    1.331    33 H    0.967
                            12 C    0.103
    17   6 C    3.971 --    16 C    1.331    11 C    1.321    18 N    1.157
    18   7 N    3.336 --    17 C    1.157    19 C    1.000    34 H    0.939
    19   6 C    3.982 --    18 N    1.000    24 C    0.988    20 C    0.923
                            35 H    0.910
    20   6 C    3.949 --    21 O    1.746    22 N    1.189    19 C    0.923
    21   8 O    2.071 --    20 C    1.746    22 N    0.177
    22   7 N    3.512 --    20 C    1.189    23 N    1.091    36 H    0.930
                            21 O    0.177
    23   7 N    3.013 --    24 C    1.761    22 N    1.091
    24   6 C    3.975 --    23 N    1.761    10 C    1.002    19 C    0.988
    25   9 F    1.068 --     2 C    0.938
    26   1 H    0.995 --     5 C    0.966
    27   1 H    0.997 --     6 C    0.964
    28   1 H    0.996 --     8 C    0.966
    29   1 H    0.995 --     9 C    0.966
    30   1 H    0.993 --    10 C    0.946
    31   1 H    0.996 --    12 C    0.966
    32   1 H    0.995 --    15 C    0.966
    33   1 H    0.998 --    16 C    0.967
    34   1 H    0.970 --    18 N    0.939
    35   1 H    0.993 --    19 C    0.910
    36   1 H    0.961 --    22 N    0.930
    37   5 B    3.477 --   106 N    1.280    89 B    1.000    83 B    0.970
    38   7 N    3.397 --    83 B    1.143    96 N    1.006    95 B    1.000
    39   5 B    3.465 --    84 N    1.277   107 B    0.978    95 B    0.958
    40   7 N    3.530 --    99 B    1.152    97 B    1.150    67 B    1.018
    41   5 B    3.461 --    74 N    1.240   103 B    0.995    77 B    0.989
    42   7 N    3.261 --    63 B    1.198   105 B    0.968   100 N    0.888
    43   5 B    3.407 --    76 N    1.177    50 N    1.032    59 B    0.963
    44   7 N    3.568 --    57 B    1.277    45 B    1.158   101 B    0.973
    45   5 B    3.393 --    44 N    1.158    87 B    0.932    85 B    0.640
                            49 B    0.294
    46   7 N    3.324 --    51 B    1.114    90 N    1.043   102 N    0.945
    47   5 B    3.433 --    48 N    1.187    58 N    1.126    86 N    0.962
    48   7 N    3.446 --    47 B    1.187    75 B    1.086    88 N    0.967
    49   5 B    3.456 --    85 B    1.284   101 B    1.004    99 B    0.627
                            45 B    0.294
    50   7 N    3.429 --    53 B    1.235    43 B    1.032    64 N    0.929
    51   5 B    3.391 --    46 N    1.114    70 N    1.038    97 B    1.005
    52   7 N    3.510 --    55 B    1.205    75 B    1.124    72 N    0.999
    53   5 B    3.514 --    50 N    1.235    78 N    1.068    98 N    1.003
    54   7 N    3.354 --   103 B    1.145   106 N    0.992    56 N    0.983
    55   5 B    3.413 --    52 N    1.205    73 B    1.008    87 B    0.926
    56   7 N    3.325 --    91 B    1.134    54 N    0.983    60 N    0.972
    57   5 B    3.464 --    44 N    1.277    71 B    0.978    81 B    0.932
    58   7 N    3.218 --    47 B    1.126    61 B    1.067    86 N    0.793
    59   5 B    3.368 --    72 N    1.152    64 N    0.991    43 B    0.963
    60   7 N    3.095 --    78 N    1.012    56 N    0.972   104 N    0.939
    61   5 B    3.511 --    98 N    1.245    58 N    1.067    76 N    0.989
    62   7 N    3.434 --    67 B    1.200    95 B    1.063    83 B    0.926
    63   5 B    3.481 --    42 N    1.198    80 N    1.044    66 N    0.981
    64   7 N    3.282 --    69 B    1.169    59 B    0.991    50 N    0.929
    65   5 B    3.524 --   100 N    1.211   104 N    1.124    92 N    1.030
    66   7 N    3.430 --    79 B    1.220    93 B    0.992    63 B    0.981
    67   5 B    3.519 --    62 N    1.200   108 N    1.100    40 N    1.018
    68   7 N    3.442 --   105 B    1.261    79 B    0.997    94 N    0.990
    69   5 B    3.445 --    64 N    1.169    96 N    1.123   107 B    0.923
    70   7 N    3.470 --    71 B    1.260    51 B    1.038   102 N    0.984
    71   5 B    3.421 --    70 N    1.260    57 B    0.978    79 B    0.959
    72   7 N    3.511 --   107 B    1.171    59 B    1.152    52 N    0.999
    73   5 B    3.347 --    85 B    1.009    55 B    1.008    84 N    0.963
    74   7 N    3.509 --    41 B    1.240    77 B    1.095    80 N    1.034
    75   5 B    3.515 --    52 N    1.124    76 N    1.103    48 N    1.086
    76   7 N    3.477 --    43 B    1.177    75 B    1.103    61 B    0.989
    77   5 B    3.463 --    82 N    1.178    74 N    1.095    41 B    0.989
    78   7 N    3.256 --    53 B    1.068    60 N    1.012    92 N    0.975
    79   5 B    3.391 --    66 N    1.220    68 N    0.997    71 B    0.959
    80   7 N    3.372 --    63 B    1.044    74 N    1.034    93 B    0.986
    81   5 B    3.454 --    94 N    1.191    88 N    1.079    57 B    0.932
    82   7 N    3.407 --    77 B    1.178    89 B    1.074    90 N    0.959
    83   5 B    3.366 --    38 N    1.143    37 B    0.970    62 N    0.926
                            95 B    0.127
    84   7 N    3.561 --    39 B    1.277    99 B    1.105    73 B    0.963
    85   5 B    3.366 --    49 B    1.284    73 B    1.009    45 B    0.640
                            99 B    0.186
    86   7 N    2.986 --    94 N    1.045    47 B    0.962    58 N    0.793
    87   5 B    3.455 --    88 N    1.266    45 B    0.932    55 B    0.926
    88   7 N    3.480 --    87 B    1.266    81 B    1.079    48 N    0.967
    89   5 B    3.443 --   108 N    1.129    82 N    1.074    37 B    1.000
    90   7 N    3.186 --    46 N    1.043    82 N    0.959   108 N    0.950
    91   5 B    3.523 --    96 N    1.164    56 N    1.134   106 N    0.995
    92   7 N    3.212 --    65 B    1.030    98 N    0.983    78 N    0.975
    93   5 B    3.507 --   102 N    1.265    66 N    0.992    80 N    0.986
    94   7 N    3.440 --    81 B    1.191    86 N    1.045    68 N    0.990
    95   5 B    3.327 --    62 N    1.063    38 N    1.000    39 B    0.958
                            83 B    0.127
    96   7 N    3.491 --    91 B    1.164    69 B    1.123    38 N    1.006
    97   5 B    3.385 --    40 N    1.150    51 B    1.005   101 B    1.002
    98   7 N    3.446 --    61 B    1.245    53 B    1.003    92 N    0.983
    99   5 B    3.444 --    40 N    1.152    84 N    1.105    49 B    0.627
                            85 B    0.186   101 B    0.120
   100   7 N    3.332 --    65 B    1.211   105 B    1.036    42 N    0.888
   101   5 B    3.334 --    49 B    1.004    97 B    1.002    44 N    0.973
                            99 B    0.120
   102   7 N    3.440 --    93 B    1.265    70 N    0.984    46 N    0.945
   103   5 B    3.442 --    54 N    1.145   104 N    1.112    41 B    0.995
   104   7 N    3.392 --    65 B    1.124   103 B    1.112    60 N    0.939
   105   5 B    3.439 --    68 N    1.261   100 N    1.036    42 N    0.968
   106   7 N    3.475 --    37 B    1.280    91 B    0.995    54 N    0.992
   107   5 B    3.360 --    72 N    1.171    39 B    0.978    69 B    0.923
   108   7 N    3.418 --    89 B    1.129    67 B    1.100    90 N    0.950
 ---------------------------------------------------------------------------

Topologies differ in total number of bonds
Writing topology from bond orders to xtbtopo.mol

molecular dipole:
                 x           y           z       tot (Debye)
 q only:        2.627       0.934      -4.275
   full:        0.746       0.130      -2.356       6.290
molecular quadrupole (traceless):
                xx          xy          yy          xz          yz          zz
 q only:       10.764       6.648      -8.847      41.257     -46.715      -1.917
  q+dip:       27.382       8.853      11.020      35.059     -37.778     -38.402
   full:       30.850       8.171       8.889      37.599     -38.940     -39.739

           -------------------------------------------------
          |                Geometry Summary                 |
           -------------------------------------------------

      molecular mass/u    :     1242.7213111
   center of mass at/Å    :       -0.0316399       0.0898038       3.2083351
  moments of inertia/u·Å² :        0.1393472E+05   0.4189202E+05   0.4603187E+05
rotational constants/cm⁻¹ :        0.1209757E-02   0.4024067E-03   0.3662166E-03

 * 127 selected distances

     #   Z          #   Z                                           value/Å
     1   9 F        2   6 C                                       1.3433182
     2   6 C        3   9 F                                       1.3412665
     4   6 C        5   6 C                                       1.3878933
     5   6 C        6   6 C                                       1.3826628
     6   6 C        7   6 C                                       1.3890131
     7   6 C        8   6 C                                       1.3892161
     4   6 C        9   6 C                                       1.3889621
     8   6 C        9   6 C                                       1.3820609
    11   6 C       12   6 C                                       1.3871179
    12   6 C       13   6 C                                       1.3801368
    13   6 C       15   6 C                                       1.3841872
    15   6 C       16   6 C                                       1.3785957
    11   6 C       17   6 C                                       1.4047228
    16   6 C       17   6 C                                       1.3997046
    17   6 C       18   7 N                                       1.3753411
    18   7 N       19   6 C                                       1.4342978
    20   6 C       21   8 O                                       1.2010991
    20   6 C       22   7 N                                       1.3688456
    22   7 N       23   7 N                                       1.3674742
    10   6 C       24   6 C                                       1.4830156
    23   7 N       24   6 C                                       1.2764067
     2   6 C       25   9 F                                       1.3485575
     5   6 C       26   1 H                                       1.0791276
     6   6 C       27   1 H                                       1.0792972
     8   6 C       28   1 H                                       1.0792900
     9   6 C       29   1 H                                       1.0790280
    10   6 C       30   1 H                                       1.0941851
    12   6 C       31   1 H                                       1.0794610
    15   6 C       32   1 H                                       1.0780156
    16   6 C       33   1 H                                       1.0799043
    18   7 N       34   1 H                                       1.0080921 (min)
    19   6 C       35   1 H                                       1.1064253
    22   7 N       36   1 H                                       1.0081930
    44   7 N       45   5 B                                       1.4427786
    47   5 B       48   7 N                                       1.4039107
    43   5 B       50   7 N                                       1.4726248
    46   7 N       51   5 B                                       1.4396995
    50   7 N       53   5 B                                       1.3863634
    52   7 N       55   5 B                                       1.4226203
    54   7 N       56   7 N                                       1.4223823
    44   7 N       57   5 B                                       1.4231768
    47   5 B       58   7 N                                       1.3945056
    43   5 B       59   5 B                                       1.5749283
    56   7 N       60   7 N                                       1.4214133
    58   7 N       61   5 B                                       1.4343426
    42   7 N       63   5 B                                       1.3906300
    59   5 B       64   7 N                                       1.4847185
    63   5 B       66   7 N                                       1.4711462
    40   7 N       67   5 B                                       1.4903418
    62   7 N       67   5 B                                       1.4138865
    64   7 N       69   5 B                                       1.4385744
    51   5 B       70   7 N                                       1.4568143
    57   5 B       71   5 B                                       1.6642931
    70   7 N       71   5 B                                       1.4081300
    59   5 B       72   7 N                                       1.4216312
    55   5 B       73   5 B                                       1.6423397
    41   5 B       74   7 N                                       1.4060859
    48   7 N       75   5 B                                       1.4483932
    52   7 N       75   5 B                                       1.4595177
    43   5 B       76   7 N                                       1.4262914
    61   5 B       76   7 N                                       1.4923093
    75   5 B       76   7 N                                       1.4584577
    41   5 B       77   5 B                                       1.5732617
    74   7 N       77   5 B                                       1.4131199
    53   5 B       78   7 N                                       1.4454947
    60   7 N       78   7 N                                       1.3941037
    66   7 N       79   5 B                                       1.4201554
    68   7 N       79   5 B                                       1.4794920
    71   5 B       79   5 B                                       1.6740826 (max)
    63   5 B       80   7 N                                       1.4497755
    74   7 N       80   7 N                                       1.3698970
    77   5 B       82   7 N                                       1.4096360
    37   5 B       83   5 B                                       1.6082510
    38   7 N       83   5 B                                       1.4243230
    62   7 N       83   5 B                                       1.4995644
    39   5 B       84   7 N                                       1.4098116
    73   5 B       84   7 N                                       1.4908622
    49   5 B       85   5 B                                       1.5158298
    73   5 B       85   5 B                                       1.6059200
    47   5 B       86   7 N                                       1.4295317
    45   5 B       87   5 B                                       1.6492185
    55   5 B       87   5 B                                       1.6620885
    81   5 B       88   7 N                                       1.4617591
    87   5 B       88   7 N                                       1.4028457
    37   5 B       89   5 B                                       1.6190916
    82   7 N       89   5 B                                       1.4425252
    46   7 N       90   7 N                                       1.3677238
    56   7 N       91   5 B                                       1.4402649
    65   5 B       92   7 N                                       1.4563041
    78   7 N       92   7 N                                       1.4384808
    66   7 N       93   5 B                                       1.4566400
    80   7 N       93   5 B                                       1.4635706
    81   5 B       94   7 N                                       1.4269627
    86   7 N       94   7 N                                       1.3895209
    38   7 N       95   5 B                                       1.4602183
    39   5 B       95   5 B                                       1.6126707
    62   7 N       95   5 B                                       1.4501695
    69   5 B       96   7 N                                       1.4501256
    91   5 B       96   7 N                                       1.4404684
    40   7 N       97   5 B                                       1.4576631
    51   5 B       97   5 B                                       1.6053061
    53   5 B       98   7 N                                       1.4608652
    61   5 B       98   7 N                                       1.3916018
    92   7 N       98   7 N                                       1.4210109
    40   7 N       99   5 B                                       1.4584926
    84   7 N       99   5 B                                       1.4561979
    65   5 B      100   7 N                                       1.3886729
    44   7 N      101   5 B                                       1.4967452
    49   5 B      101   5 B                                       1.6003299
    97   5 B      101   5 B                                       1.6241740
    46   7 N      102   7 N                                       1.4303941
    70   7 N      102   7 N                                       1.4183107
    93   5 B      102   7 N                                       1.3743864
    41   5 B      103   5 B                                       1.6420273
    54   7 N      103   5 B                                       1.4358388
    65   5 B      104   7 N                                       1.4424289
   103   5 B      104   7 N                                       1.4560959
    42   7 N      105   5 B                                       1.4253350
    68   7 N      105   5 B                                       1.4005107
   100   7 N      105   5 B                                       1.4175099
    37   5 B      106   7 N                                       1.4024536
    54   7 N      106   7 N                                       1.4079267
    91   5 B      106   7 N                                       1.4841265
    39   5 B      107   5 B                                       1.6505483
    72   7 N      107   5 B                                       1.4320997
    67   5 B      108   7 N                                       1.4508556
    89   5 B      108   7 N                                       1.4433727

 * 9 distinct bonds (by element types)

   Z      Z             #   av. dist./Å        max./Å        min./Å
   5 B    5 B          17     1.6190801     1.6740826     1.5158298
   1 H    6 C           9     1.0838594     1.1064253     1.0780156
   6 C    6 C          13     1.3951761     1.4830156     1.3785957
   1 H    7 N           2     1.0081425     1.0081930     1.0080921
   5 B    7 N          66     1.4391791     1.4995644     1.3743864
   6 C    7 N           4     1.3637228     1.4342978     1.2764067
   7 N    7 N          12     1.4040532     1.4384808     1.3674742
   6 C    8 O           1     1.2010991     1.2010991     1.2010991
   6 C    9 F           3     1.3443807     1.3485575     1.3412665


optimized geometry written to: xtbopt.xyz


           -------------------------------------------------
          | TOTAL ENERGY             -224.004059055316 Eh   |
          | GRADIENT NORM               0.002935313971 Eh/α |
          | HOMO-LUMO GAP               0.710923727421 eV   |
           -------------------------------------------------

------------------------------------------------------------------------
 * finished run on 2026/08/31 at 22:23:10.939     
------------------------------------------------------------------------
 total:
 * wall-time:     0 d,  0 h,  0 min,  5.785 sec
 *  cpu-time:     0 d,  0 h,  0 min, 48.234 sec
 * ratio c/w:     8.338 speedup
 SCF:
 * wall-time:     0 d,  0 h,  0 min,  0.842 sec
 *  cpu-time:     0 d,  0 h,  0 min,  7.062 sec
 * ratio c/w:     8.388 speedup
 ANC optimizer:
 * wall-time:     0 d,  0 h,  0 min,  4.879 sec
 *  cpu-time:     0 d,  0 h,  0 min, 40.641 sec
 * ratio c/w:     8.330 speedup

normal termination of xtb
