      -----------------------------------------------------------      
     |                   =====================                   |     
     |                           x T B                           |     
     |                   =====================                   |     
     |                         S. Grimme                         |     
     |          Mulliken Center for Theoretical Chemistry        |     
     |                    University of Bonn                     |     
      -----------------------------------------------------------      

   * xtb version 6.7.1pre (5071a88) compiled by 'Marcel@Raven' on 2024-07-23

   xtb is free software: you can redistribute it and/or modify it under
   the terms of the GNU Lesser General Public License as published by
   the Free Software Foundation, either version 3 of the License, or
   (at your option) any later version.
   
   xtb is distributed in the hope that it will be useful,
   but WITHOUT ANY WARRANTY; without even the implied warranty of
   MERCHANTABILITY or FITNESS FOR A PARTICULAR PURPOSE.  See the
   GNU Lesser General Public License for more details.
   
   Cite this work as:
   * C. Bannwarth, E. Caldeweyher, S. Ehlert, A. Hansen, P. Pracht,
     J. Seibert, S. Spicher, S. Grimme, WIREs Comput. Mol. Sci., 2020, 11,
     e01493. DOI: 10.1002/wcms.1493
   
   for GFN2-xTB:
   * C. Bannwarth, S. Ehlert and S. Grimme., J. Chem. Theory Comput., 2019,
     15, 1652-1671. DOI: 10.1021/acs.jctc.8b01176
   for GFN1-xTB:
   * S. Grimme, C. Bannwarth, P. Shushkov, J. Chem. Theory Comput., 2017,
     13, 1989-2009. DOI: 10.1021/acs.jctc.7b00118
   for GFN0-xTB:
   * P. Pracht, E. Caldeweyher, S. Ehlert, S. Grimme, ChemRxiv, 2019, preprint.
     DOI: 10.26434/chemrxiv.8326202.v1
   for GFN-FF:
   * S. Spicher and S. Grimme, Angew. Chem. Int. Ed., 2020, 59, 15665-15673.
     DOI: 10.1002/anie.202004239
   
   for ALPB and GBSA implicit solvation:
   * S. Ehlert, M. Stahn, S. Spicher, S. Grimme, J. Chem. Theory Comput.,
     2021, 17, 4250-4261. DOI: 10.1021/acs.jctc.1c00471
   
   for ddCOSMO and CPCM-X implicit solvation:
   * M. Stahn, S. Ehlert, S. Grimme, J. Phys. Chem. A,
     2023, XX, XXXX-XXXX. DOI: 10.1021/acs.jpca.3c04382
   
   for DFT-D4:
   * E. Caldeweyher, C. Bannwarth and S. Grimme, J. Chem. Phys., 2017,
     147, 034112. DOI: 10.1063/1.4993215
   * E. Caldeweyher, S. Ehlert, A. Hansen, H. Neugebauer, S. Spicher,
     C. Bannwarth and S. Grimme, J. Chem. Phys., 2019, 150, 154122.
     DOI: 10.1063/1.5090222
   * E. Caldeweyher, J.-M. Mewes, S. Ehlert and S. Grimme, Phys. Chem. Chem. Phys.
     2020, 22, 8499-8512. DOI: 10.1039/D0CP00502A
   
   for sTDA-xTB:
   * S. Grimme and C. Bannwarth, J. Chem. Phys., 2016, 145, 054103.
     DOI: 10.1063/1.4959605
   
   in the mass-spec context:
   * V. Asgeirsson, C. Bauer and S. Grimme, Chem. Sci., 2017, 8, 4879.
     DOI: 10.1039/c7sc00601b
   * J. Koopman and S. Grimme, ACS Omega 2019, 4, 12, 15120-15133.
     DOI: 10.1021/acsomega.9b02011
   
   for metadynamics refer to:
   * S. Grimme, J. Chem. Theory Comput., 2019, 155, 2847-2862
     DOI: 10.1021/acs.jctc.9b00143
   
   for SPH calculations refer to:
   * S. Spicher and S. Grimme, J. Chem. Theory Comput., 2021, 17, 1701-1714
     DOI: 10.1021/acs.jctc.0c01306
   
   for ONIOM refer to:
   * C. Plett, A. Katbashev, S. Ehlert, S. Grimme, M. Bursch,
     Phys. Chem. Chem. Phys., 2023, 25, 17860-17868. DOI: 10.1039/D3CP02178E
   
   for DIPRO refer to:
   * J. Kohn, N. Gildemeister, S. Grimme, D. Fazzi, A. Hansen,
     J. Chem. Phys., 2023, just accepted.
   
   for PTB refer to:
   * S. Grimme, M. Mueller, A. Hansen, J. Chem. Phys., 2023, 158, 124111.
     DOI: 10.1063/5.0137838
   
   with help from (in alphabetical order)
   P. Atkinson, C. Bannwarth, F. Bohle, G. Brandenburg, E. Caldeweyher
   M. Checinski, S. Dohm, S. Ehlert, S. Ehrlich, I. Gerasimov, C. Hölzer
   A. Katbashev, J. Kohn, J. Koopman, C. Lavigne, S. Lehtola, F. März, M. Müller,
   F. Musil, H. Neugebauer, J. Pisarek, C. Plett, P. Pracht, F. Pultar,
   J. Seibert, P. Shushkov, S. Spicher, M. Stahn, M. Steiner, T. Strunk,
   J. Stückrath, T. Rose, and J. Unsleber
   
 * started run on 2026/08/31 at 22:23:16.580     
   ID    Z sym.   atoms
    1    9 F      1, 3, 14, 25
    2    6 C      2, 4-13, 15-17, 19, 20, 24
    3    7 N      18, 22, 23, 38, 40, 42, 44, 46, 48, 50, 52, 54, 56, 58, 60,
                  62, 64, 66, 68, 70, 72, 74, 76, 78, 80, 82, 84, 86, 88, 90,
                  92, 94, 96, 98, 100, 102, 104, 106, 108
    4    8 O      21
    5    1 H      26-36
    6    5 B      37, 39, 41, 43, 45, 47, 49, 51, 53, 55, 57, 59, 61, 63, 65,
                  67, 69, 71, 73, 75, 77, 79, 81, 83, 85, 87, 89, 91, 93, 95,
                  97, 99, 101, 103, 105, 107

           -------------------------------------------------
          |                Calculation Setup                |
           -------------------------------------------------

          program call               : "c:\Users\Andre\Proyectos doctorado\kras-pancreatic-gC3N4-ai\tools\xtb\xtb-6.7.1\bin\xtb.exe" "c:\Users\Andre\Proyectos doctorado\nano-qsar-ai-therapeutics\calculations\tnbc\Talazoparib\Talazoparib_opt_270deg.xyz" --opt vloose --gfn 2 --chrg 0 --uhf 0 --etemp 300 --iterations 500 --cycles 15 --norestart
          coordinate file            : c:\Users\Andre\Proyectos doctorado\nano-qsar-ai-therapeutics\calculations\tnbc\Talazoparib\Talazoparib_opt_270deg.xyz
          omp threads                :                    16


molecular fragmentation (1/2 indicates fragments):
111111111111111111111111111111111111222222222222222222222222222222222222
222222222222222222222222222222222222
# atoms in fragment 1/2:    36    72
 fragment masses (1/2) :      349.28      893.44
CMA distance (Bohr)    :  20.991
constraining FC (au)   :  0.0500

           -------------------------------------------------
          |                 G F N 2 - x T B                 |
           -------------------------------------------------

        Reference                      10.1021/acs.jctc.8b01176
      * Hamiltonian:
        H0-scaling (s, p, d)           1.850000    2.230000    2.230000
        zeta-weighting                 0.500000
      * Dispersion:
        s8                             2.700000
        a1                             0.520000
        a2                             5.000000
        s9                             5.000000
      * Repulsion:
        kExp                           1.500000    1.000000
        rExp                           1.000000
      * Coulomb:
        alpha                          2.000000
        third order                    shell-resolved
        anisotropic                    true
        a3                             3.000000
        a5                             4.000000
        cn-shift                       1.200000
        cn-exp                         4.000000
        max-rad                        5.000000


          ...................................................
          :                      SETUP                      :
          :.................................................:
          :  # basis functions                 399          :
          :  # atomic orbitals                 399          :
          :  # shells                          205          :
          :  # electrons                       416          :
          :  max. iterations                   500          :
          :  Hamiltonian                  GFN2-xTB          :
          :  restarted?                      false          :
          :  GBSA solvation                  false          :
          :  PC potential                    false          :
          :  electronic temp.          300.0000000     K    :
          :  accuracy                    1.0000000          :
          :  -> integral cutoff          0.2500000E+02      :
          :  -> integral neglect         0.1000000E-07      :
          :  -> SCF convergence          0.1000000E-05 Eh   :
          :  -> wf. convergence          0.1000000E-03 e    :
          :  Broyden damping             0.4000000          :
          :  net charge                          0          :
          :  unpaired electrons                  0          :
          ...................................................

 iter      E             dE          RMSdq      gap      omega  full diag
   1   -225.2357817 -0.225236E+03  0.117E+01    0.54       0.0  T
   2   -225.6747790 -0.438997E+00  0.709E+00    0.42       1.0  T
   3   -222.5185757  0.315620E+01  0.472E+00    0.15       1.0  T
   4   -224.5077118 -0.198914E+01  0.265E+00    0.36       1.0  T
   5   -225.6316679 -0.112396E+01  0.160E+00    0.16       1.0  T
   6   -225.7954372 -0.163769E+00  0.129E+00    0.18       1.0  T
   7   -226.1550625 -0.359625E+00  0.743E-01    0.81       1.0  T
   8   -226.1810190 -0.259565E-01  0.578E-01    0.76       1.0  T
   9   -226.1788415  0.217745E-02  0.510E-01    0.79       1.0  T
  10   -226.1811022 -0.226062E-02  0.328E-01    0.75       1.0  T
  11   -226.1859295 -0.482728E-02  0.135E-01    0.69       1.0  T
  12   -226.1870462 -0.111678E-02  0.110E-01    0.65       1.0  T
  13   -226.1871711 -0.124912E-03  0.889E-02    0.62       1.0  T
  14   -226.1872141 -0.429923E-04  0.549E-02    0.60       1.0  T
  15   -226.1872860 -0.718196E-04  0.130E-02    0.59       1.0  T
  16   -226.1872979 -0.119790E-04  0.820E-03    0.59       1.2  T
  17   -226.1873003 -0.233770E-05  0.576E-03    0.60       1.7  T
  18   -226.1873021 -0.186508E-05  0.304E-03    0.62       3.2  T
  19   -226.1873025 -0.408896E-06  0.184E-03    0.62       5.2  T
  20   -226.1873027 -0.124302E-06  0.121E-03    0.62       8.0  T
  21   -226.1873027 -0.699075E-07  0.656E-04    0.63      14.7  T
  22   -226.1873028 -0.181360E-07  0.353E-04    0.63      27.3  T

   *** convergence criteria satisfied after 22 iterations ***

         #    Occupation            Energy/Eh            Energy/eV
      -------------------------------------------------------------
         1        2.0000           -0.8695286             -23.6611
       ...           ...                  ...                  ...
       202        2.0000           -0.3277576              -8.9187
       203        2.0000           -0.3250583              -8.8453
       204        2.0000           -0.3238226              -8.8117
       205        2.0000           -0.3211705              -8.7395
       206        2.0000           -0.3158891              -8.5958
       207        2.0000           -0.3138701              -8.5408
       208        2.0000           -0.3096338              -8.4256 (HOMO)
       209        0.0000           -0.2865163              -7.7965 (LUMO)
       210        0.0000           -0.2836546              -7.7186
       211                         -0.2755210              -7.4973
       212                         -0.2686254              -7.3097
       213                         -0.2648070              -7.2058
       ...                                ...                  ...
       399                          0.9832839              26.7565
      -------------------------------------------------------------
                  HL-Gap            0.0231175 Eh            0.6291 eV
             Fermi-level           -0.2980917 Eh           -8.1115 eV

 SCC (total)                   0 d,  0 h,  0 min,  1.178 sec
 SCC setup                      ...        0 min,  0.002 sec (  0.170%)
 Dispersion                     ...        0 min,  0.002 sec (  0.170%)
 classical contributions        ...        0 min,  0.000 sec (  0.000%)
 integral evaluation            ...        0 min,  0.013 sec (  1.104%)
 iterations                     ...        0 min,  1.122 sec ( 95.246%)
 molecular gradient             ...        0 min,  0.035 sec (  2.971%)
 printout                       ...        0 min,  0.004 sec (  0.340%)

         :::::::::::::::::::::::::::::::::::::::::::::::::::::
         ::                     SUMMARY                     ::
         :::::::::::::::::::::::::::::::::::::::::::::::::::::
         :: total energy            -223.992971550505 Eh    ::
         :: gradient norm              0.083519610909 Eh/a0 ::
         :: HOMO-LUMO gap              0.629058508533 eV    ::
         ::.................................................::
         :: SCC energy              -226.172306665052 Eh    ::
         :: -> isotropic ES            0.727470896791 Eh    ::
         :: -> anisotropic ES         -0.030661507689 Eh    ::
         :: -> anisotropic XC          0.072250606195 Eh    ::
         :: -> dispersion             -0.187303057823 Eh    ::
         :: repulsion energy           2.179335114547 Eh    ::
         :: add. restraining           0.000000000000 Eh    ::
         :: total charge              -0.000000000029 e     ::
         :::::::::::::::::::::::::::::::::::::::::::::::::::::

      ----------------------------------------------------------- 
     |                   =====================                   |
     |                        A N C O P T                        |
     |                   =====================                   |
     |               Approximate Normal Coordinate               |
     |                Rational Function Optimizer                |
      ----------------------------------------------------------- 
      ----------------------------------------------------------- 
     |                   =====================                   |
     |                        A N C O P T                        |
     |                   =====================                   |
     |               Approximate Normal Coordinate               |
     |                Rational Function Optimizer                |
      ----------------------------------------------------------- 

          ...................................................
          :                      SETUP                      :
          :.................................................:
          :   optimization level            normal          :
          :   max. optcycles                    15          :
          :   ANC micro-cycles                  15          :
          :   degrees of freedom               318          :
          :.................................................:
          :   RF solver                   davidson          :
          :   write xtbopt.log                true          :
          :   linear?                        false          :
          :   energy convergence         0.5000000E-05 Eh   :
          :   grad. convergence          0.1000000E-02 Eh/α :
          :   maxmium RF displ.          1.0000000          :
          :   Hlow (freq-cutoff)         0.1000000E-01      :
          :   Hmax (freq-cutoff)         5.0000000          :
          :   S6 in model hess.         20.0000000          :
          ...................................................

generating ANC from exact Hessian ...
Using Lindh-Hessian (1995)
 Shifting diagonal of input Hessian by   1.008617742804112E-002
 Lowest  eigenvalues of input Hessian
    0.010000    0.010005    0.010017    0.000000    0.000000    0.000000
    0.000000    0.000000    0.000000    0.010126    0.010151    0.010216
    0.010556    0.011118    0.011298    0.012247    0.013562    0.014752
 Highest eigenvalues
    2.083490    2.087492    2.154604    2.260727    2.314980    2.341888
 

........................................................................
.............................. CYCLE    1 ..............................
........................................................................

 iter      E             dE          RMSdq      gap      omega  full diag
   1   -226.1873028 -0.226187E+03  0.190E-04    0.63       0.0  T
   2   -226.1873028  0.500108E-09  0.205E-04    0.63      46.9  T
   3   -226.1873028 -0.351002E-08  0.104E-04    0.63      92.8  T
     SCC iter.                  ...        0 min,  0.196 sec
     gradient                   ...        0 min,  0.031 sec
 * total energy  :  -223.9929716 Eh     change       -0.7977462E-08 Eh
   gradient norm :     0.0835202 Eh/α   predicted     0.0000000E+00 (-100.00%)
   displ. norm   :     0.2560888 α      lambda       -0.1203663E-01
   maximum displ.:     0.0980362 α      in ANC's #44, #115, #99, ...

........................................................................
.............................. CYCLE    2 ..............................
........................................................................

 iter      E             dE          RMSdq      gap      omega  full diag
   1   -226.2423296 -0.226242E+03  0.118E-01    0.71       0.0  T
   2   -226.2424048 -0.752227E-04  0.700E-02    0.71       1.0  T
   3   -226.2423425  0.622622E-04  0.372E-02    0.71       1.0  T
   4   -226.2424337 -0.911839E-04  0.768E-03    0.71       1.3  T
   5   -226.2424391 -0.535694E-05  0.318E-03    0.71       3.0  T
   6   -226.2424388  0.272759E-06  0.272E-03    0.71       3.5  T
   7   -226.2424398 -0.953029E-06  0.134E-03    0.71       7.2  T
   8   -226.2424400 -0.251941E-06  0.417E-04    0.71      23.0  T
   9   -226.2424400  0.840345E-09  0.288E-04    0.71      33.4  T
     SCC iter.                  ...        0 min,  0.324 sec
     gradient                   ...        0 min,  0.042 sec
 * total energy  :  -224.0008338 Eh     change       -0.7862221E-02 Eh
   gradient norm :     0.0292596 Eh/α   predicted    -0.6414654E-02 ( -18.41%)
   displ. norm   :     0.2083439 α      lambda       -0.2504454E-02
   maximum displ.:     0.0836513 α      in ANC's #14, #26, #44, ...

........................................................................
.............................. CYCLE    3 ..............................
........................................................................

 iter      E             dE          RMSdq      gap      omega  full diag
   1   -226.2656947 -0.226266E+03  0.612E-02    0.71       0.0  T
   2   -226.2657321 -0.374215E-04  0.372E-02    0.71       1.0  T
   3   -226.2657255  0.658744E-05  0.206E-02    0.71       1.0  T
   4   -226.2657457 -0.201921E-04  0.443E-03    0.71       2.2  T
   5   -226.2657467 -0.104549E-05  0.266E-03    0.71       3.6  T
   6   -226.2657473 -0.536915E-06  0.169E-03    0.71       5.7  T
   7   -226.2657476 -0.348672E-06  0.859E-04    0.71      11.2  T
   8   -226.2657477 -0.832362E-07  0.363E-04    0.71      26.5  T
     SCC iter.                  ...        0 min,  0.323 sec
     gradient                   ...        0 min,  0.025 sec
 * total energy  :  -224.0023517 Eh     change       -0.1517944E-02 Eh
   gradient norm :     0.0112202 Eh/α   predicted    -0.1307270E-02 ( -13.88%)
   displ. norm   :     0.1449365 α      lambda       -0.5144784E-03
   maximum displ.:     0.0688574 α      in ANC's #8, #14, #15, ...

........................................................................
.............................. CYCLE    4 ..............................
........................................................................

 iter      E             dE          RMSdq      gap      omega  full diag
   1   -226.2681316 -0.226268E+03  0.347E-02    0.71       0.0  T
   2   -226.2681415 -0.994754E-05  0.204E-02    0.71       1.0  T
   3   -226.2681385  0.302434E-05  0.108E-02    0.71       1.0  T
   4   -226.2681441 -0.563237E-05  0.290E-03    0.71       3.3  T
   5   -226.2681440  0.146959E-06  0.272E-03    0.71       3.5  T
   6   -226.2681453 -0.130789E-05  0.754E-04    0.71      12.8  T
   7   -226.2681453 -0.402813E-07  0.393E-04    0.71      24.5  T
   8   -226.2681453 -0.156034E-07  0.135E-04    0.71      71.5  T
     SCC iter.                  ...        0 min,  0.245 sec
     gradient                   ...        0 min,  0.027 sec
 * total energy  :  -224.0027241 Eh     change       -0.3723279E-03 Eh
   gradient norm :     0.0070518 Eh/α   predicted    -0.2626451E-03 ( -29.46%)
   displ. norm   :     0.1783151 α      lambda       -0.3518679E-03
   maximum displ.:     0.1094087 α      in ANC's #8, #14, #11, ...

........................................................................
.............................. CYCLE    5 ..............................
........................................................................

 iter      E             dE          RMSdq      gap      omega  full diag
   1   -226.2666291 -0.226267E+03  0.379E-02    0.71       0.0  T
   2   -226.2666372 -0.804593E-05  0.218E-02    0.71       1.0  T
   3   -226.2666324  0.473370E-05  0.109E-02    0.71       1.0  T
   4   -226.2666399 -0.743160E-05  0.224E-03    0.71       4.3  T
   5   -226.2666399  0.225516E-07  0.190E-03    0.71       5.1  T
   6   -226.2666403 -0.482186E-06  0.869E-04    0.71      11.1  T
   7   -226.2666404 -0.424577E-07  0.533E-04    0.71      18.1  T
     SCC iter.                  ...        0 min,  0.211 sec
     gradient                   ...        0 min,  0.028 sec
 * total energy  :  -224.0029585 Eh     change       -0.2344122E-03 Eh
   gradient norm :     0.0047347 Eh/α   predicted    -0.1815295E-03 ( -22.56%)
   displ. norm   :     0.1455549 α      lambda       -0.1499287E-03
   maximum displ.:     0.1015011 α      in ANC's #8, #9, #7, ...

........................................................................
.............................. CYCLE    6 ..............................
........................................................................

 iter      E             dE          RMSdq      gap      omega  full diag
   1   -226.2654126 -0.226265E+03  0.279E-02    0.71       0.0  T
   2   -226.2654158 -0.313642E-05  0.161E-02    0.71       1.0  T
   3   -226.2654126  0.321007E-05  0.731E-03    0.71       1.3  T
   4   -226.2654166 -0.399440E-05  0.181E-03    0.71       5.3  T
   5   -226.2654168 -0.250182E-06  0.119E-03    0.71       8.1  T
   6   -226.2654170 -0.193632E-06  0.600E-04    0.71      16.0  T
   7   -226.2654170 -0.163728E-07  0.417E-04    0.71      23.1  T
     SCC iter.                  ...        0 min,  0.227 sec
     gradient                   ...        0 min,  0.025 sec
 * total energy  :  -224.0030703 Eh     change       -0.1118409E-03 Eh
   gradient norm :     0.0038396 Eh/α   predicted    -0.7655710E-04 ( -31.55%)
   displ. norm   :     0.1637199 α      lambda       -0.1244718E-03
   maximum displ.:     0.1112767 α      in ANC's #8, #9, #7, ...

........................................................................
.............................. CYCLE    7 ..............................
........................................................................

 iter      E             dE          RMSdq      gap      omega  full diag
   1   -226.2649972 -0.226265E+03  0.317E-02    0.71       0.0  T
   2   -226.2650001 -0.294216E-05  0.185E-02    0.71       1.0  T
   3   -226.2649957  0.448391E-05  0.771E-03    0.71       1.2  T
   4   -226.2650010 -0.535463E-05  0.183E-03    0.71       5.3  T
   5   -226.2650012 -0.195260E-06  0.121E-03    0.71       8.0  T
   6   -226.2650014 -0.163986E-06  0.666E-04    0.71      14.4  T
   7   -226.2650014 -0.409411E-07  0.306E-04    0.71      31.4  T
     SCC iter.                  ...        0 min,  0.262 sec
     gradient                   ...        0 min,  0.026 sec
 * total energy  :  -224.0031631 Eh     change       -0.9281794E-04 Eh
   gradient norm :     0.0028129 Eh/α   predicted    -0.6392950E-04 ( -31.12%)
   displ. norm   :     0.1706762 α      lambda       -0.9071170E-04
   maximum displ.:     0.1096115 α      in ANC's #8, #9, #7, ...

........................................................................
.............................. CYCLE    8 ..............................
........................................................................

 iter      E             dE          RMSdq      gap      omega  full diag
   1   -226.2654179 -0.226265E+03  0.333E-02    0.71       0.0  T
   2   -226.2654200 -0.205246E-05  0.195E-02    0.71       1.0  T
   3   -226.2654151  0.487311E-05  0.729E-03    0.71       1.3  T
   4   -226.2654208 -0.571751E-05  0.142E-03    0.71       6.8  T
   5   -226.2654210 -0.149573E-06  0.740E-04    0.71      13.0  T
   6   -226.2654210 -0.978400E-08  0.573E-04    0.71      16.8  T
     SCC iter.                  ...        0 min,  0.184 sec
     gradient                   ...        0 min,  0.028 sec
 * total energy  :  -224.0032303 Eh     change       -0.6714857E-04 Eh
   gradient norm :     0.0027265 Eh/α   predicted    -0.4667735E-04 ( -30.49%)
   displ. norm   :     0.1693191 α      lambda       -0.6687718E-04
   maximum displ.:     0.1012256 α      in ANC's #8, #9, #7, ...

........................................................................
.............................. CYCLE    9 ..............................
........................................................................

 iter      E             dE          RMSdq      gap      omega  full diag
   1   -226.2661459 -0.226266E+03  0.321E-02    0.71       0.0  T
   2   -226.2661469 -0.104992E-05  0.188E-02    0.71       1.0  T
   3   -226.2661432  0.370339E-05  0.569E-03    0.71       1.7  T
   4   -226.2661467 -0.345367E-05  0.214E-03    0.71       4.5  T
   5   -226.2661474 -0.709483E-06  0.918E-04    0.71      10.5  T
   6   -226.2661475 -0.109853E-06  0.371E-04    0.71      25.9  T
     SCC iter.                  ...        0 min,  0.191 sec
     gradient                   ...        0 min,  0.026 sec
 * total energy  :  -224.0032823 Eh     change       -0.5203821E-04 Eh
   gradient norm :     0.0029885 Eh/α   predicted    -0.3439811E-04 ( -33.90%)
   displ. norm   :     0.2085528 α      lambda       -0.7113828E-04
   maximum displ.:     0.1154692 α      in ANC's #8, #9, #7, ...

........................................................................
.............................. CYCLE   10 ..............................
........................................................................

 iter      E             dE          RMSdq      gap      omega  full diag
   1   -226.2668046 -0.226267E+03  0.375E-02    0.71       0.0  T
   2   -226.2668054 -0.800674E-06  0.220E-02    0.71       1.0  T
   3   -226.2668036  0.179342E-05  0.403E-03    0.71       2.4  T
   4   -226.2668054 -0.180363E-05  0.151E-03    0.71       6.4  T
   5   -226.2668056 -0.250858E-06  0.912E-04    0.71      10.6  T
   6   -226.2668057 -0.103636E-06  0.381E-04    0.71      25.2  T
     SCC iter.                  ...        0 min,  0.194 sec
     gradient                   ...        0 min,  0.027 sec
 * total energy  :  -224.0033387 Eh     change       -0.5642445E-04 Eh
   gradient norm :     0.0030540 Eh/α   predicted    -0.3711943E-04 ( -34.21%)
   displ. norm   :     0.2710916 α      lambda       -0.8413284E-04
   maximum displ.:     0.1399861 α      in ANC's #8, #9, #10, ...

........................................................................
.............................. CYCLE   11 ..............................
........................................................................

 iter      E             dE          RMSdq      gap      omega  full diag
   1   -226.2670394 -0.226267E+03  0.462E-02    0.72       0.0  T
   2   -226.2670402 -0.806519E-06  0.271E-02    0.71       1.0  T
   3   -226.2670377  0.250374E-05  0.437E-03    0.71       2.2  T
   4   -226.2670395 -0.180770E-05  0.247E-03    0.72       3.9  T
   5   -226.2670406 -0.105373E-05  0.862E-04    0.71      11.2  T
   6   -226.2670407 -0.548239E-07  0.348E-04    0.71      27.6  T
   7   -226.2670407 -0.226862E-08  0.221E-04    0.71      43.6  T
     SCC iter.                  ...        0 min,  0.227 sec
     gradient                   ...        0 min,  0.031 sec
 * total energy  :  -224.0034057 Eh     change       -0.6695227E-04 Eh
   gradient norm :     0.0029517 Eh/α   predicted    -0.4516756E-04 ( -32.54%)
   displ. norm   :     0.3422781 α      lambda       -0.9948715E-04
   maximum displ.:     0.1653774 α      in ANC's #8, #10, #9, ...

........................................................................
.............................. CYCLE   12 ..............................
........................................................................

 iter      E             dE          RMSdq      gap      omega  full diag
   1   -226.2666898 -0.226267E+03  0.559E-02    0.72       0.0  T
   2   -226.2666910 -0.123576E-05  0.328E-02    0.72       1.0  T
   3   -226.2666851  0.589312E-05  0.652E-03    0.71       1.5  T
   4   -226.2666899 -0.477793E-05  0.323E-03    0.72       3.0  T
   5   -226.2666917 -0.176959E-05  0.118E-03    0.72       8.2  T
   6   -226.2666918 -0.946782E-07  0.505E-04    0.72      19.0  T
   7   -226.2666918 -0.150591E-07  0.248E-04    0.72      38.8  T
     SCC iter.                  ...        0 min,  0.229 sec
     gradient                   ...        0 min,  0.028 sec
 * total energy  :  -224.0034830 Eh     change       -0.7728434E-04 Eh
   gradient norm :     0.0031152 Eh/α   predicted    -0.5557226E-04 ( -28.09%)
   displ. norm   :     0.3194138 α      lambda       -0.9517272E-04
   maximum displ.:     0.1494941 α      in ANC's #10, #8, #9, ...

........................................................................
.............................. CYCLE   13 ..............................
........................................................................

 iter      E             dE          RMSdq      gap      omega  full diag
   1   -226.2664111 -0.226266E+03  0.502E-02    0.72       0.0  T
   2   -226.2664127 -0.160428E-05  0.295E-02    0.72       1.0  T
   3   -226.2664044  0.832826E-05  0.770E-03    0.71       1.2  T
   4   -226.2664111 -0.672258E-05  0.376E-03    0.72       2.6  T
   5   -226.2664136 -0.246782E-05  0.130E-03    0.72       7.4  T
   6   -226.2664137 -0.124876E-06  0.592E-04    0.72      16.2  T
   7   -226.2664137 -0.180738E-07  0.282E-04    0.72      34.1  T
     SCC iter.                  ...        0 min,  0.223 sec
     gradient                   ...        0 min,  0.030 sec
 * total energy  :  -224.0035574 Eh     change       -0.7446716E-04 Eh
   gradient norm :     0.0035413 Eh/α   predicted    -0.5244208E-04 ( -29.58%)
   displ. norm   :     0.3338892 α      lambda       -0.9500822E-04
   maximum displ.:     0.1561172 α      in ANC's #10, #8, #4, ...

........................................................................
.............................. CYCLE   14 ..............................
........................................................................

 iter      E             dE          RMSdq      gap      omega  full diag
   1   -226.2659255 -0.226266E+03  0.518E-02    0.72       0.0  T
   2   -226.2659276 -0.208135E-05  0.304E-02    0.72       1.0  T
   3   -226.2659163  0.112443E-04  0.852E-03    0.71       1.1  T
   4   -226.2659251 -0.875983E-05  0.444E-03    0.72       2.2  T
   5   -226.2659287 -0.358430E-05  0.140E-03    0.72       6.9  T
   6   -226.2659288 -0.109203E-06  0.700E-04    0.72      13.7  T
   7   -226.2659288 -0.217110E-07  0.408E-04    0.72      23.6  T
     SCC iter.                  ...        0 min,  0.210 sec
     gradient                   ...        0 min,  0.025 sec
 * total energy  :  -224.0036277 Eh     change       -0.7029281E-04 Eh
   gradient norm :     0.0039572 Eh/α   predicted    -0.5280510E-04 ( -24.88%)
   displ. norm   :     0.2747920 α      lambda       -0.7146644E-04
   maximum displ.:     0.1220744 α      in ANC's #10, #4, #8, ...

........................................................................
.............................. CYCLE   15 ..............................
........................................................................

 iter      E             dE          RMSdq      gap      omega  full diag
   1   -226.2659371 -0.226266E+03  0.424E-02    0.71       0.0  T
   2   -226.2659384 -0.134708E-05  0.248E-02    0.72       1.0  T
   3   -226.2659316  0.685144E-05  0.635E-03    0.71       1.5  T
   4   -226.2659371 -0.554078E-05  0.334E-03    0.72       2.9  T
   5   -226.2659391 -0.197537E-05  0.111E-03    0.72       8.7  T
   6   -226.2659391 -0.374672E-07  0.644E-04    0.72      14.9  T
   7   -226.2659392 -0.395674E-07  0.355E-04    0.72      27.1  T
     SCC iter.                  ...        0 min,  0.211 sec
     gradient                   ...        0 min,  0.027 sec
 * total energy  :  -224.0036804 Eh     change       -0.5266806E-04 Eh
   gradient norm :     0.0034546 Eh/α   predicted    -0.3843192E-04 ( -27.03%)
   displ. norm   :     0.2307511 α      lambda       -0.5692440E-04
   maximum displ.:     0.1058894 α      in ANC's #4, #10, #8, ...

   *** FAILED TO CONVERGE GEOMETRY OPTIMIZATION IN 15 ITERATIONS ***


 ANCopt (total)                0 d,  0 h,  0 min,  4.235 sec
 optimizer setup                ...        0 min,  0.002 sec (  0.047%)
 model hessian                  ...        0 min,  0.050 sec (  1.181%)
 ANC generation                 ...        0 min,  0.017 sec (  0.401%)
 coordinate transformation      ...        0 min,  0.001 sec (  0.024%)
 single point calculation       ...        0 min,  4.134 sec ( 97.615%)
 optimization log               ...        0 min,  0.022 sec (  0.519%)
 hessian update                 ...        0 min,  0.002 sec (  0.047%)
 rational function              ...        0 min,  0.004 sec (  0.094%)

================
 final structure:
================
108
 xtb: 6.7.1pre (5071a88)
F            0.17581254258673       -5.80957466752555       11.78439883775695
C            0.72396365046180       -4.95992254151440       10.90073841694185
F            2.05303004983035       -5.11431932932513       10.99838299728696
C            0.28316302567038       -3.53992507026824       11.11338234654579
C            1.14220556895044       -2.49455525509578       10.80397612522393
C            0.72615530302835       -1.19077344544915       11.00068623375307
C           -0.54095406804784       -0.92360400210054       11.50297429037481
C           -1.39997404376322       -1.97765613002877       11.78760446549936
C           -0.99401126072653       -3.28463379166145       11.59564986453988
C           -1.00352764877831        0.50521581851743       11.72865182765566
C            0.13964554428950        1.38480832966691       12.19354199697522
C            0.62508738834117        1.20036589741875       13.47952477456018
C            1.68260885284772        1.96255792554533       13.93253571229360
F            2.14629056566253        1.76554700481231       15.18798343969957
C            2.28099129622836        2.91690030029311       13.12926856683210
C            1.80098791252884        3.10169455620089       11.85059078781233
C            0.72992889980694        2.34697935538161       11.35839105386325
N            0.25472177926310        2.60353774485323       10.09410309645972
C           -0.64790076622042        1.69119638252583        9.45499833463875
C           -1.69057955649905        2.32173151391471        8.50981197949947
O           -1.52375044242194        3.05272782772999        7.57193719255269
N           -2.88055781428203        1.82269050640829        8.96586723408950
N           -2.78895950421671        1.13652164532647       10.14497299166962
C           -1.55614161836538        1.04865751980246       10.46391071103564
F            0.38295299430567       -5.42108619531541        9.68048775303419
H            2.13024955713481       -2.70263861812786       10.42322058963278
H            1.39994293000617       -0.37721163601594       10.77907753007805
H           -2.39016652228099       -1.77132210927422       12.16402778881395
H           -1.65569762254764       -4.10491577203820       11.82710810733660
H           -1.79902568992327        0.49510422859631       12.48010120297234
H            0.18218439385457        0.45890972750332       14.12633007167430
H            3.10762056978287        3.49692826784809       13.50642432677852
H            2.25423988555823        3.84062615616283       11.20748092445976
H            0.81462657735979        3.18380936809589        9.48941676143719
H           -0.12504863754220        0.91634379008881        8.86322414785511
H           -3.79533388799010        2.03560169917579        8.59970885168974
B            3.46176362681203       -1.46181305846887        1.61336393951441
N            3.45724045575063        1.12726122539431        0.94633756967183
B            2.52823237595601        2.37789072057537       -1.23978463368496
N            2.27365411273610       -0.61386457865571       -2.73286248085084
B            0.70348279171813       -3.57549654303600        2.68745254348886
N           -2.93177135937928       -2.66216311165659        1.72273957637523
B           -1.03126784813337        4.07405637485482        1.89055115193593
N           -0.64654273276004        0.05479164851129       -3.92165525737399
B           -0.50154835653361        1.48365175268651       -4.05982191388794
N            1.19590712634866       -3.76639278265153       -1.76066886000053
B           -3.84948326223672        2.21735677249658       -0.43365526556740
N           -2.78295949215434        2.77748982402313       -1.15460363992956
B            1.37303659846769        0.86334436319719       -4.87417290844891
N           -0.22146002708173        3.34434777392387        2.87917989432166
B            0.87824055883730       -2.85140711587443       -2.82614771377996
N           -0.50113112275009        3.77907570914170       -0.95878241827337
B           -0.79233184985718        2.16464039242633        3.33163832235540
N            1.67522617564297       -1.29710802380256        3.50792227501409
B           -0.26606207320462        3.49419095631772       -2.33244424627193
N            1.33134799838627        0.04474402233438        3.83688900760531
B           -1.61949977896544       -0.53015876286674       -3.06347314302041
N           -3.82893608559805        1.77280322505258        0.88763015136875
B            0.33996289984030        4.48958243335565        1.23645675562818
N            0.06598137987698       -0.04351780230402        4.48072216858362
B           -2.70147545444817        2.21770394848398        1.65592781799969
N            3.76435346905047       -0.12091632875220       -0.77182137673975
B           -2.25019656668640       -3.64147004513753        1.00906297152321
N            1.06511808697532        3.71834040806092        2.27723290302988
B           -1.80785700950670       -0.79704762455088        3.24194888807223
N           -2.44230395866320       -3.59299197849655       -0.44858343583009
B            3.00631053237513       -1.05607867907795       -1.51289627432342
N           -3.16218198492054       -1.24449358080393       -0.35922250998199
B            2.04009834848511        2.91508350754741        1.59110469274527
N           -0.52552091308635       -2.87600055537007       -2.43762022478221
B           -1.69188555701105       -2.08826696544830       -2.48306416043013
N            0.58600168060279        3.96996239945536       -0.06373060719246
B            1.06773778658398        2.99105838488007       -3.14810147040473
N            0.08414825952304       -4.36547202190776        1.70343225324920
B           -1.78937680171220        3.45933544947459       -0.35076913878590
N           -2.01014336424391        3.41328293738760        1.08980588560165
B            1.47125127158513       -4.21772634697004        1.47424160001404
N           -0.77775009562310        1.03586085027037        4.23129032235423
B           -2.67608477196724       -2.38780070869182       -1.16249797402243
N           -1.07108677015139       -4.48518749958193        0.97860483844171
B           -2.51979530292773        0.51346216505697       -2.07387303780956
N            2.35078251179041       -3.88441796708276        0.42469105570330
B            3.91062464977454       -0.20327101540466        0.71833059608142
N            1.91031560915214        1.98269819366849       -2.44382453104400
B            0.97012972293057        2.29738106009758       -4.59321045850694
N           -4.19033646849101        0.83577826881853       -0.29740919484372
B           -1.36088069280980        2.48405517250811       -3.06942047332527
N           -2.37682593631308        1.95637960111845       -2.25863946825441
B            3.07196007107325       -2.64421873694454        0.57841538592742
N            2.32587867237824       -3.66017214215216       -0.99742727682027
B            2.22798630498189        0.52825156276638        2.81701999263261
N           -2.00761893965523        0.58774720789174        3.63868481290471
B           -1.10697668505711       -4.17475899315901       -0.45139862936669
N           -3.22653167009034        0.05406156736956       -0.92255171683888
B            3.43971856467081        1.26762821955414       -0.50705650153120
N            2.58849905843480        1.62128654810180        1.95205115123964
B            1.44779024926022       -1.52069626533561       -3.52040206628913
N           -2.08986107019430        1.73788662549773        2.80956441858601
B            2.01826291123792        0.74367768554383       -3.20119002017854
N           -2.70708575627230       -1.35362203829786        2.34206493863609
B            0.62837118720219       -0.49694537532611       -4.47877576522318
N           -0.18014443721393       -3.74360597718349       -1.37005689059916
B            0.50291898031518       -2.12659089705939        3.43303276428579
N           -0.56758384069889       -1.23069696438546        3.83985437783030
B           -3.21931000719851       -1.45348284300784        1.02416156983894
N            2.68092994843805       -0.87046112848843        2.61703247349539
B            1.87472869462398        3.34572443932504       -0.07295712054008
N            2.86903316788999       -2.31987794135739       -0.81302659460866
 
 Bond Distances (Angstroems)
 ---------------------------
F1-C2=1.3428         C2-F1=1.3428         C2-F3=1.3416         C2-C4=1.5020         C2-F25=1.3483        F3-C2=1.3416         
C4-C2=1.5020         C4-C5=1.3880         C4-C9=1.3889         C5-C4=1.3880         C5-C6=1.3826         C5-H26=1.0791        
C6-C5=1.3826         C6-C7=1.3890         C6-H27=1.0793        C7-C6=1.3890         C7-C8=1.3892         C7-C10=1.5187        
C8-C7=1.3892         C8-C9=1.3820         C8-H28=1.0792        C9-C4=1.3889         C9-C8=1.3820         C9-H29=1.0790        
C10-C7=1.5187        C10-C11=1.5155       C10-C24=1.4833       C10-H30=1.0943       C11-C10=1.5155       C11-C12=1.3869       
C11-C17=1.4042       C12-C11=1.3869       C12-C13=1.3800       C12-H31=1.0790       C13-C12=1.3800       C13-F14=1.3528       
C13-C15=1.3835       F14-C13=1.3528       C15-C13=1.3835       C15-C16=1.3782       C15-H32=1.0780       C16-C15=1.3782       
C16-C17=1.3997       C16-H33=1.0794       C17-C11=1.4042       C17-C16=1.3997       C17-N18=1.3748       N18-C17=1.3748       
N18-C19=1.4337       N18-H34=1.0079       C19-N18=1.4337       C19-C20=1.5421       C19-C24=1.5019       C19-H35=1.1063       
C20-C19=1.5421       C20-O21=1.2007       C20-N22=1.3686       O21-C20=1.2007       N22-C20=1.3686       N22-N23=1.3673       
N22-H36=1.0081       N23-N22=1.3673       N23-C24=1.2764       C24-C10=1.4833       C24-C19=1.5019       C24-N23=1.2764       
F25-C2=1.3483        H26-C5=1.0791        H27-C6=1.0793        H28-C8=1.0792        H29-C9=1.0790        H30-C10=1.0943       
H31-C12=1.0790       H32-C15=1.0780       H33-C16=1.0794       H34-N18=1.0079       H35-C19=1.1063       H36-N22=1.0081       
B37-B83=1.6083       B37-B89=1.6190       B37-N106=1.4024      N38-B83=1.4240       N38-B95=1.4603       N38-N96=1.4178       
B39-N84=1.4099       B39-B95=1.6126       B39-B107=1.6508      N40-B67=1.4902       N40-B97=1.4576       N40-B99=1.4586       
B41-N74=1.4057       B41-B77=1.5728       B41-B103=1.6418      N42-B63=1.3903       N42-N100=1.4650      N42-B105=1.4253      
B43-N50=1.4716       B43-B59=1.5750       B43-N76=1.4269       N44-B45=1.4428       N44-B57=1.4231       N44-B101=1.4967      
B45-N44=1.4428       B45-B49=2.1359       B45-B85=1.7642       B45-B87=1.6493       N46-B51=1.4399       N46-N90=1.3677       
N46-N102=1.4306      B47-N48=1.4039       B47-N58=1.3942       B47-N86=1.4295       N48-B47=1.4039       N48-B75=1.4485       
N48-N88=1.4346       B49-B45=2.1359       B49-B85=1.5158       B49-B99=1.7971       B49-B101=1.6004      N50-B43=1.4716       
N50-B53=1.3865       N50-N64=1.4688       B51-N46=1.4399       B51-N70=1.4567       B51-B97=1.6054       B51-N102=2.0091      
N52-B55=1.4224       N52-N72=1.4211       N52-B75=1.4600       B53-N50=1.3865       B53-N78=1.4435       B53-N92=2.0144       
B53-N98=1.4623       N54-N56=1.4237       N54-B103=1.4380      N54-N106=1.4097      B55-N52=1.4224       B55-B73=1.6424       
B55-B87=1.6620       N56-N54=1.4237       N56-N60=1.4225       N56-B91=1.4415       B57-N44=1.4231       B57-B71=1.6643       
B57-B81=1.6968       N58-B47=1.3942       N58-B61=1.4351       N58-N86=1.5534       B59-B43=1.5750       B59-N64=1.4845       
B59-N72=1.4216       N60-N56=1.4225       N60-N78=1.3925       N60-N104=1.4905      B61-N58=1.4351       B61-N76=1.4926       
B61-N98=1.3911       N62-B67=1.4136       N62-B83=1.4996       N62-B95=1.4504       B63-N42=1.3903       B63-N66=1.4711       
B63-N80=1.4502       B63-B93=1.9298       N64-N50=1.4688       N64-B59=1.4845       N64-B69=1.4376       B65-N92=1.4543       
B65-N100=1.3886      B65-N104=1.4435      N66-B63=1.4711       N66-B79=1.4201       N66-B93=1.4566       B67-N40=1.4902       
B67-N62=1.4136       B67-N108=1.4512      N68-B79=1.4794       N68-N94=1.4169       N68-B105=1.4002      B69-N64=1.4376       
B69-N96=1.4508       B69-B107=1.7268      N70-B51=1.4567       N70-B71=1.4082       N70-N102=1.4183      B71-B57=1.6643       
B71-N70=1.4082       B71-B79=1.6740       N72-N52=1.4211       N72-B59=1.4216       N72-B107=1.4320      B73-B55=1.6424       
B73-N84=1.4909       B73-B85=1.6059       N74-B41=1.4057       N74-B77=1.4137       N74-N80=1.3690       B75-N48=1.4485       
B75-N52=1.4600       B75-N76=1.4581       N76-B43=1.4269       N76-B61=1.4926       N76-B75=1.4581       B77-B41=1.5728       
B77-N74=1.4137       B77-N82=1.4093       N78-B53=1.4435       N78-N60=1.3925       N78-N92=1.4369       B79-N66=1.4201       
B79-N68=1.4794       B79-B71=1.6740       N80-B63=1.4502       N80-N74=1.3690       N80-B93=1.4638       B81-B57=1.6968       
B81-N88=1.4617       B81-N94=1.4269       N82-B77=1.4093       N82-B89=1.4429       N82-N90=1.4399       B83-B37=1.6083       
B83-N38=1.4240       B83-N62=1.4996       B83-B95=1.9715       N84-B39=1.4099       N84-B73=1.4909       N84-B99=1.4562       
B85-B45=1.7642       B85-B49=1.5158       B85-B73=1.6059       N86-B47=1.4295       N86-N58=1.5534       N86-N94=1.3895       
B87-B45=1.6493       B87-B55=1.6620       B87-N88=1.4028       N88-N48=1.4346       N88-B81=1.4617       N88-B87=1.4028       
B89-B37=1.6190       B89-N82=1.4429       B89-N108=1.4431      N90-N46=1.3677       N90-N82=1.4399       N90-N108=1.4579      
B91-N56=1.4415       B91-N96=1.4397       B91-N106=1.4838      N92-B53=2.0144       N92-B65=1.4543       N92-N78=1.4369       
N92-N98=1.4202       B93-B63=1.9298       B93-N66=1.4566       B93-N80=1.4638       B93-N102=1.3744      N94-N68=1.4169       
N94-B81=1.4269       N94-N86=1.3895       B95-N38=1.4603       B95-B39=1.6126       B95-N62=1.4504       B95-B83=1.9715       
N96-N38=1.4178       N96-B69=1.4508       N96-B91=1.4397       B97-N40=1.4576       B97-B51=1.6054       B97-B101=1.6242      
N98-B53=1.4623       N98-B61=1.3911       N98-N92=1.4202       B99-N40=1.4586       B99-B49=1.7971       B99-N84=1.4562       
N100-N42=1.4650      N100-B65=1.3886      N100-B105=1.4175     B101-N44=1.4967      B101-B49=1.6004      B101-B97=1.6242      
N102-N46=1.4306      N102-B51=2.0091      N102-N70=1.4183      N102-B93=1.3744      B103-B41=1.6418      B103-N54=1.4380      
B103-N104=1.4540     N104-N60=1.4905      N104-B65=1.4435      N104-B103=1.4540     B105-N42=1.4253      B105-N68=1.4002      
B105-N100=1.4175     N106-B37=1.4024      N106-N54=1.4097      N106-B91=1.4838      B107-B39=1.6508      B107-B69=1.7268      
B107-N72=1.4320      N108-B67=1.4512      N108-B89=1.4431      N108-N90=1.4579      
 B  B  Rav=1.6894 sigma=0.1392  Rmin=1.5158  Rmax=2.1359    24
 C  H  Rav=1.0837 sigma=0.0093  Rmin=1.0780  Rmax=1.1063     9
 C  C  Rav=1.4286 sigma=0.0592  Rmin=1.3782  Rmax=1.5421    18
 N  H  Rav=1.0080 sigma=0.0001  Rmin=1.0079  Rmax=1.0081     2
 N  B  Rav=1.4560 sigma=0.1010  Rmin=1.3744  Rmax=2.0144    68
 N  C  Rav=1.3634 sigma=0.0563  Rmin=1.2764  Rmax=1.4337     4
 N  N  Rav=1.4279 sigma=0.0417  Rmin=1.3673  Rmax=1.5534    22
 O  C  Rav=1.2007 sigma=0.0000  Rmin=1.2007  Rmax=1.2007     1
 F  C  Rav=1.3464 sigma=0.0045  Rmin=1.3416  Rmax=1.3528     4
 
 selected bond angles (degree)
 --------------------
F3-C2-F1=106.48                C4-C2-F1=112.66                C4-C2-F3=112.91                F25-C2-F1=106.02               
F25-C2-F3=106.09               F25-C2-C4=112.16               C5-C4-C2=119.92                C9-C4-C2=119.53                
C9-C4-C5=120.54                C6-C5-C4=119.49                H26-C5-C4=120.01               H26-C5-C6=120.50               
C7-C6-C5=120.49                H27-C6-C5=119.59               H27-C6-C7=119.92               C8-C7-C6=119.49                
C10-C7-C6=120.84               C10-C7-C8=119.67               C9-C8-C7=120.49                H28-C8-C7=119.59               
H28-C8-C9=119.92               C8-C9-C4=119.49                H29-C9-C4=119.91               H29-C9-C8=120.60               
C11-C10-C7=111.22              C24-C10-C7=109.36              C24-C10-C11=109.27             H30-C10-C7=108.35              
H30-C10-C11=110.06             H30-C10-C24=108.54             
 
 selected dihedral angles (degree)
 ---------------------------------
C5-C4-C2-F1=148.74            C5-C4-C2-F3= 28.07            C5-C4-C2-F25=268.27           C9-C4-C2-F1=327.53            
C9-C4-C2-F3=206.85            C9-C4-C2-F25= 87.06           C6-C5-C4-C2=179.87            C6-C5-C4-C9=  1.10            
H26-C5-C4-C2=359.20           H26-C5-C4-C9=180.43           C7-C6-C5-C4=359.96            C7-C6-C5-H26=180.63           
H27-C6-C5-C4=178.79           H27-C6-C5-H26=359.46          C8-C7-C6-C5=358.96            C8-C7-C6-H27=180.13           
C10-C7-C6-C5=179.69           C10-C7-C6-H27=  0.86          C9-C8-C7-C6=  1.09            C9-C8-C7-C10=180.36           
H28-C8-C7-C6=180.91           H28-C8-C7-C10=  0.18          C8-C9-C4-C2=180.17            C8-C9-C4-C5=358.95            
H29-C9-C4-C2=  0.84           H29-C9-C4-C5=179.62           C4-C9-C8-C7=359.95            C4-C9-C8-H28=180.13           
H29-C9-C8-C7=179.28           H29-C9-C8-H28=359.46          C11-C10-C7-C6=324.43          C11-C10-C7-C8=145.16          
C24-C10-C7-C6= 85.19          C24-C10-C7-C8=265.93          H30-C10-C7-C6=203.33          H30-C10-C7-C8= 24.07          
 
 CMA Distance (Angstroems)
 ---------------------------
R(CMA): 11.0759
           -------------------------------------------------
          |                Final Singlepoint                |
           -------------------------------------------------

          ...................................................
          :                      SETUP                      :
          :.................................................:
          :  # basis functions                 399          :
          :  # atomic orbitals                 399          :
          :  # shells                          205          :
          :  # electrons                       416          :
          :  max. iterations                   500          :
          :  Hamiltonian                  GFN2-xTB          :
          :  restarted?                      false          :
          :  GBSA solvation                  false          :
          :  PC potential                    false          :
          :  electronic temp.          300.0000000     K    :
          :  accuracy                    1.0000000          :
          :  -> integral cutoff          0.2500000E+02      :
          :  -> integral neglect         0.1000000E-07      :
          :  -> SCF convergence          0.1000000E-05 Eh   :
          :  -> wf. convergence          0.1000000E-03 e    :
          :  Broyden damping             0.4000000          :
          :  net charge                          0          :
          :  unpaired electrons                  0          :
          ...................................................

 iter      E             dE          RMSdq      gap      omega  full diag
   1   -226.2664453 -0.226266E+03  0.351E-02    0.71       0.0  T
   2   -226.2664461 -0.859200E-06  0.205E-02    0.72       1.0  T
   3   -226.2664407  0.538108E-05  0.571E-03    0.71       1.7  T
   4   -226.2664455 -0.473626E-05  0.259E-03    0.72       3.7  T
   5   -226.2664466 -0.111548E-05  0.103E-03    0.72       9.3  T
   6   -226.2664467 -0.662301E-07  0.507E-04    0.72      19.0  T
   7   -226.2664467 -0.175189E-07  0.313E-04    0.72      30.8  T

   *** convergence criteria satisfied after 7 iterations ***

         #    Occupation            Energy/Eh            Energy/eV
      -------------------------------------------------------------
         1        2.0000           -0.8741227             -23.7861
       ...           ...                  ...                  ...
       202        2.0000           -0.3281945              -8.9306
       203        2.0000           -0.3255511              -8.8587
       204        2.0000           -0.3242859              -8.8243
       205        2.0000           -0.3215828              -8.7507
       206        2.0000           -0.3162650              -8.6060
       207        2.0000           -0.3142920              -8.5523
       208        2.0000           -0.3103466              -8.4450 (HOMO)
       209        0.0000           -0.2840649              -7.7298 (LUMO)
       210                         -0.2778104              -7.5596
       211                         -0.2759868              -7.5100
       212                         -0.2652130              -7.2168
       213                         -0.2629065              -7.1540
       ...                                ...                  ...
       399                          0.9826922              26.7404
      -------------------------------------------------------------
                  HL-Gap            0.0262818 Eh            0.7152 eV
             Fermi-level           -0.2971982 Eh           -8.0872 eV

 SCC (total)                   0 d,  0 h,  0 min,  0.279 sec
 SCC setup                      ...        0 min,  0.001 sec (  0.358%)
 Dispersion                     ...        0 min,  0.001 sec (  0.358%)
 classical contributions        ...        0 min,  0.000 sec (  0.000%)
 integral evaluation            ...        0 min,  0.011 sec (  3.943%)
 iterations                     ...        0 min,  0.238 sec ( 85.305%)
 molecular gradient             ...        0 min,  0.026 sec (  9.319%)
 printout                       ...        0 min,  0.002 sec (  0.717%)

         :::::::::::::::::::::::::::::::::::::::::::::::::::::
         ::                     SUMMARY                     ::
         :::::::::::::::::::::::::::::::::::::::::::::::::::::
         :: total energy            -224.003723122604 Eh    ::
         :: gradient norm              0.002411752594 Eh/a0 ::
         :: HOMO-LUMO gap              0.715163359744 eV    ::
         ::.................................................::
         :: SCC energy              -226.251408673890 Eh    ::
         :: -> isotropic ES            0.726833702197 Eh    ::
         :: -> anisotropic ES         -0.031281240040 Eh    ::
         :: -> anisotropic XC          0.069048511349 Eh    ::
         :: -> dispersion             -0.188282695494 Eh    ::
         :: repulsion energy           2.247685551287 Eh    ::
         :: add. restraining           0.000000000000 Eh    ::
         :: total charge               0.000000000001 e     ::
         :::::::::::::::::::::::::::::::::::::::::::::::::::::

           -------------------------------------------------
          |                Property Printout                |
           -------------------------------------------------

    * Orbital Energies and Occupations

         #    Occupation            Energy/Eh            Energy/eV
      -------------------------------------------------------------
         1        2.0000           -0.8741227             -23.7861
       ...           ...                  ...                  ...
       196        2.0000           -0.3407694              -9.2728
       197        2.0000           -0.3395074              -9.2385
       198        2.0000           -0.3355942              -9.1320
       199        2.0000           -0.3333415              -9.0707
       200        2.0000           -0.3310849              -9.0093
       201        2.0000           -0.3296958              -8.9715
       202        2.0000           -0.3281945              -8.9306
       203        2.0000           -0.3255511              -8.8587
       204        2.0000           -0.3242859              -8.8243
       205        2.0000           -0.3215828              -8.7507
       206        2.0000           -0.3162650              -8.6060
       207        2.0000           -0.3142920              -8.5523
       208        2.0000           -0.3103466              -8.4450 (HOMO)
       209        0.0000           -0.2840649              -7.7298 (LUMO)
       210                         -0.2778104              -7.5596
       211                         -0.2759868              -7.5100
       212                         -0.2652130              -7.2168
       213                         -0.2629065              -7.1540
       214                         -0.2575830              -7.0092
       215                         -0.2525673              -6.8727
       216                         -0.2461978              -6.6994
       217                         -0.2434242              -6.6239
       218                         -0.2353546              -6.4043
       219                         -0.2316669              -6.3040
       ...                                ...                  ...
       399                          0.9826922              26.7404
      -------------------------------------------------------------
                  HL-Gap            0.0262818 Eh            0.7152 eV
             Fermi-level           -0.2971982 Eh           -8.0872 eV

     #   Z          covCN         q      C6AA      α(0)
     1   9 F        0.791    -0.207    11.304     3.972
     2   6 C        3.336     0.486    17.291     6.585
     3   9 F        0.791    -0.206    11.298     3.970
     4   6 C        2.977    -0.025    28.632     8.777
     5   6 C        2.920    -0.023    28.580     8.767
     6   6 C        2.924    -0.031    28.770     8.796
     7   6 C        2.979     0.025    27.443     8.593
     8   6 C        2.924    -0.031    28.784     8.798
     9   6 C        2.920    -0.022    28.548     8.762
    10   6 C        3.868    -0.027    21.014     6.519
    11   6 C        2.984    -0.016    28.398     8.741
    12   6 C        2.921    -0.058    29.442     8.898
    13   6 C        2.784     0.156    24.617     8.127
    14   9 F        0.787    -0.232    11.575     4.019
    15   6 C        2.915    -0.050    29.242     8.867
    16   6 C        2.930    -0.063    29.555     8.916
    17   6 C        2.907     0.064    26.563     8.451
    18   7 N        2.694    -0.173    24.742     7.388
    19   6 C        3.839     0.017    20.269     6.405
    20   6 C        2.801     0.263    22.563     7.782
    21   8 O        0.857    -0.383    21.351     6.195
    22   7 N        2.907    -0.080    22.790     7.090
    23   7 N        1.937    -0.176    25.600     7.502
    24   6 C        3.052     0.086    26.034     8.368
    25   9 F        0.791    -0.210    11.343     3.978
    26   1 H        0.926     0.065     2.142     2.289
    27   1 H        0.926     0.053     2.277     2.359
    28   1 H        0.926     0.060     2.198     2.319
    29   1 H        0.926     0.065     2.142     2.288
    30   1 H        0.924     0.077     2.015     2.220
    31   1 H        0.926     0.057     2.238     2.340
    32   1 H        0.926     0.061     2.183     2.311
    33   1 H        0.926     0.044     2.396     2.421
    34   1 H        0.860     0.172     1.258     1.757
    35   1 H        0.922     0.066     2.125     2.280
    36   1 H        0.860     0.196     1.126     1.662
    37   5 B        2.781     0.076    20.197     7.514
    38   7 N        2.773    -0.228    25.978     7.570
    39   5 B        2.788     0.092    19.934     7.464
    40   7 N        2.524    -0.314    28.124     7.876
    41   5 B        2.779     0.083    20.082     7.493
    42   7 N        2.655    -0.271    27.004     7.718
    43   5 B        2.849     0.242    17.658     7.017
    44   7 N        2.529    -0.272    27.079     7.728
    45   5 B        3.195     0.150    18.927     7.256
    46   7 N        2.979    -0.110    23.389     7.183
    47   5 B        2.644     0.373    16.325     6.814
    48   7 N        2.669    -0.212    25.626     7.518
    49   5 B        3.181     0.022    20.993     7.641
    50   7 N        2.890    -0.218    25.738     7.535
    51   5 B        3.009     0.209    18.076     7.092
    52   7 N        2.660    -0.163    24.525     7.355
    53   5 B        2.905     0.322    16.579     6.795
    54   7 N        3.154    -0.084    22.873     7.103
    55   5 B        2.778     0.094    19.913     7.461
    56   7 N        3.034    -0.130    23.807     7.247
    57   5 B        2.758     0.090    20.005     7.484
    58   7 N        2.634    -0.309    27.967     7.854
    59   5 B        3.043     0.227    17.826     7.042
    60   7 N        2.979    -0.007    21.392     6.869
    61   5 B        2.581     0.325    17.317     7.090
    62   7 N        2.596    -0.360    29.285     8.037
    63   5 B        3.287     0.340    16.336     6.740
    64   7 N        2.784    -0.252    26.544     7.652
    65   5 B        2.559     0.320    17.608     7.188
    66   7 N        2.579    -0.368    29.515     8.068
    67   5 B        2.530     0.301    18.224     7.377
    68   7 N        2.665    -0.205    25.457     7.493
    69   5 B        2.699     0.195    18.511     7.220
    70   7 N        2.844    -0.167    24.605     7.367
    71   5 B        2.758     0.082    20.130     7.507
    72   7 N        2.672    -0.174    24.762     7.391
    73   5 B        2.877     0.110    19.574     7.385
    74   7 N        2.663    -0.144    24.117     7.294
    75   5 B        2.594     0.311    17.393     7.087
    76   7 N        2.519    -0.354    29.151     8.018
    77   5 B        2.684     0.184    18.716     7.267
    78   7 N        3.007    -0.127    23.740     7.237
    79   5 B        2.677     0.210    18.359     7.202
    80   7 N        2.716    -0.248    26.459     7.640
    81   5 B        2.647     0.164    19.168     7.381
    82   7 N        2.825    -0.206    25.471     7.496
    83   5 B        3.322     0.230    17.783     7.032
    84   7 N        2.531    -0.286    27.402     7.774
    85   5 B        2.950     0.036    20.772     7.604
    86   7 N        2.783    -0.185    25.010     7.428
    87   5 B        2.796     0.085    20.040     7.482
    88   7 N        2.673    -0.155    24.363     7.331
    89   5 B        3.022     0.211    18.053     7.087
    90   7 N        3.273     0.015    20.977     6.802
    91   5 B        2.867     0.306    16.798     6.842
    92   7 N        3.154    -0.116    23.511     7.202
    93   5 B        3.263     0.320    16.584     6.791
    94   7 N        2.833    -0.061    22.412     7.031
    95   5 B        3.304     0.231    17.763     7.028
    96   7 N        2.656    -0.183    24.974     7.422
    97   5 B        2.838     0.112    19.566     7.387
    98   7 N        2.833    -0.223    25.859     7.553
    99   5 B        2.863     0.252    17.504     6.985
   100   7 N        2.654    -0.231    26.062     7.582
   101   5 B        3.011     0.114    19.486     7.363
   102   7 N        3.153    -0.086    22.904     7.108
   103   5 B        2.673     0.203    18.484     7.229
   104   7 N        2.695    -0.233    26.101     7.588
   105   5 B        2.585     0.369    16.720     6.961
   106   7 N        2.879    -0.180    24.898     7.411
   107   5 B        2.824     0.106    19.674     7.409
   108   7 N        2.827    -0.252    26.553     7.653

 Mol. C6AA /au·bohr⁶  :     220573.839594
 Mol. C8AA /au·bohr⁸  :    6185380.210874
 Mol. α(0) /au        :        737.362333


Wiberg/Mayer (AO) data.
largest (>0.10) Wiberg bond orders for each atom

 ---------------------------------------------------------------------------
     #   Z sym  total        # sym  WBO       # sym  WBO       # sym  WBO
 ---------------------------------------------------------------------------
     1   9 F    1.072 --     2 C    0.948
     2   6 C    3.824 --     4 C    0.951     3 F    0.950     1 F    0.948
                            25 F    0.938
     3   9 F    1.073 --     2 C    0.950
     4   6 C    3.971 --     5 C    1.412     9 C    1.409     2 C    0.951
                             7 C    0.104
     5   6 C    3.988 --     6 C    1.446     4 C    1.412    26 H    0.966
                             8 C    0.110
     6   6 C    3.991 --     5 C    1.446     7 C    1.413    27 H    0.965
                             9 C    0.109
     7   6 C    3.985 --     6 C    1.413     8 C    1.408    10 C    0.958
                             4 C    0.104
     8   6 C    3.989 --     9 C    1.449     7 C    1.408    28 H    0.966
                             5 C    0.110
     9   6 C    3.988 --     8 C    1.449     4 C    1.409    29 H    0.966
                             6 C    0.109
    10   6 C    3.992 --    24 C    1.002    11 C    0.977     7 C    0.958
                            30 H    0.946
    11   6 C    3.981 --    12 C    1.423    17 C    1.322    10 C    0.977
    12   6 C    3.988 --    11 C    1.423    13 C    1.400    31 H    0.966
                            16 C    0.103
    13   6 C    3.880 --    12 C    1.400    15 C    1.377    14 F    0.950
    14   9 F    1.072 --    13 C    0.950
    15   6 C    3.988 --    16 C    1.470    13 C    1.377    32 H    0.967
    16   6 C    3.985 --    15 C    1.470    17 C    1.331    33 H    0.967
                            12 C    0.103
    17   6 C    3.971 --    16 C    1.331    11 C    1.322    18 N    1.157
    18   7 N    3.337 --    17 C    1.157    19 C    1.000    34 H    0.939
    19   6 C    3.982 --    18 N    1.000    24 C    0.988    20 C    0.923
                            35 H    0.910
    20   6 C    3.949 --    21 O    1.747    22 N    1.188    19 C    0.923
    21   8 O    2.072 --    20 C    1.747    22 N    0.176
    22   7 N    3.512 --    20 C    1.188    23 N    1.091    36 H    0.930
                            21 O    0.176
    23   7 N    3.013 --    24 C    1.761    22 N    1.091
    24   6 C    3.975 --    23 N    1.761    10 C    1.002    19 C    0.988
    25   9 F    1.068 --     2 C    0.938
    26   1 H    0.995 --     5 C    0.966
    27   1 H    0.997 --     6 C    0.965
    28   1 H    0.996 --     8 C    0.966
    29   1 H    0.995 --     9 C    0.966
    30   1 H    0.993 --    10 C    0.946
    31   1 H    0.996 --    12 C    0.966
    32   1 H    0.995 --    15 C    0.967
    33   1 H    0.998 --    16 C    0.967
    34   1 H    0.970 --    18 N    0.939
    35   1 H    0.994 --    19 C    0.910
    36   1 H    0.961 --    22 N    0.930
    37   5 B    3.477 --   106 N    1.281    89 B    1.000    83 B    0.970
    38   7 N    3.398 --    83 B    1.143    96 N    1.007    95 B    1.000
    39   5 B    3.465 --    84 N    1.277   107 B    0.978    95 B    0.958
    40   7 N    3.530 --    99 B    1.152    97 B    1.150    67 B    1.018
    41   5 B    3.464 --    74 N    1.241   103 B    0.995    77 B    0.990
    42   7 N    3.262 --    63 B    1.199   105 B    0.968   100 N    0.888
    43   5 B    3.408 --    76 N    1.175    50 N    1.035    59 B    0.963
    44   7 N    3.568 --    57 B    1.277    45 B    1.158   101 B    0.973
    45   5 B    3.393 --    44 N    1.158    87 B    0.932    85 B    0.640
                            49 B    0.294
    46   7 N    3.323 --    51 B    1.113    90 N    1.043   102 N    0.945
    47   5 B    3.433 --    48 N    1.187    58 N    1.127    86 N    0.961
    48   7 N    3.446 --    47 B    1.187    75 B    1.086    88 N    0.967
    49   5 B    3.456 --    85 B    1.284   101 B    1.004    99 B    0.627
                            45 B    0.294
    50   7 N    3.433 --    53 B    1.234    43 B    1.035    64 N    0.931
    51   5 B    3.390 --    46 N    1.113    70 N    1.038    97 B    1.005
    52   7 N    3.510 --    55 B    1.206    75 B    1.123    72 N    0.999
    53   5 B    3.512 --    50 N    1.234    78 N    1.072    98 N    0.999
    54   7 N    3.346 --   103 B    1.140   106 N    0.989    56 N    0.982
    55   5 B    3.414 --    52 N    1.206    73 B    1.008    87 B    0.926
    56   7 N    3.321 --    91 B    1.131    54 N    0.982    60 N    0.972
    57   5 B    3.464 --    44 N    1.277    71 B    0.978    81 B    0.932
    58   7 N    3.217 --    47 B    1.127    61 B    1.066    86 N    0.792
    59   5 B    3.367 --    72 N    1.152    64 N    0.990    43 B    0.963
    60   7 N    3.094 --    78 N    1.014    56 N    0.972   104 N    0.937
    61   5 B    3.511 --    98 N    1.248    58 N    1.066    76 N    0.989
    62   7 N    3.433 --    67 B    1.201    95 B    1.063    83 B    0.925
    63   5 B    3.481 --    42 N    1.199    80 N    1.043    66 N    0.981
    64   7 N    3.285 --    69 B    1.173    59 B    0.990    50 N    0.931
    65   5 B    3.524 --   100 N    1.211   104 N    1.119    92 N    1.035
    66   7 N    3.431 --    79 B    1.220    93 B    0.993    63 B    0.981
    67   5 B    3.519 --    62 N    1.201   108 N    1.099    40 N    1.018
    68   7 N    3.442 --   105 B    1.262    79 B    0.997    94 N    0.990
    69   5 B    3.445 --    64 N    1.173    96 N    1.120   107 B    0.923
    70   7 N    3.469 --    71 B    1.260    51 B    1.038   102 N    0.984
    71   5 B    3.421 --    70 N    1.260    57 B    0.978    79 B    0.959
    72   7 N    3.511 --   107 B    1.172    59 B    1.152    52 N    0.999
    73   5 B    3.347 --    85 B    1.009    55 B    1.008    84 N    0.963
    74   7 N    3.509 --    41 B    1.241    77 B    1.093    80 N    1.036
    75   5 B    3.515 --    52 N    1.123    76 N    1.105    48 N    1.086
    76   7 N    3.477 --    43 B    1.175    75 B    1.105    61 B    0.989
    77   5 B    3.464 --    82 N    1.179    74 N    1.093    41 B    0.990
    78   7 N    3.263 --    53 B    1.072    60 N    1.014    92 N    0.975
    79   5 B    3.390 --    66 N    1.220    68 N    0.997    71 B    0.959
    80   7 N    3.373 --    63 B    1.043    74 N    1.036    93 B    0.985
    81   5 B    3.454 --    94 N    1.191    88 N    1.079    57 B    0.932
    82   7 N    3.407 --    77 B    1.179    89 B    1.073    90 N    0.959
    83   5 B    3.366 --    38 N    1.143    37 B    0.970    62 N    0.925
                            95 B    0.127
    84   7 N    3.561 --    39 B    1.277    99 B    1.105    73 B    0.963
    85   5 B    3.367 --    49 B    1.284    73 B    1.009    45 B    0.640
                            99 B    0.186
    86   7 N    2.986 --    94 N    1.045    47 B    0.961    58 N    0.792
    87   5 B    3.455 --    88 N    1.266    45 B    0.932    55 B    0.926
    88   7 N    3.481 --    87 B    1.266    81 B    1.079    48 N    0.967
    89   5 B    3.443 --   108 N    1.130    82 N    1.073    37 B    1.000
    90   7 N    3.187 --    46 N    1.043    82 N    0.959   108 N    0.951
    91   5 B    3.523 --    96 N    1.166    56 N    1.131   106 N    0.996
    92   7 N    3.219 --    65 B    1.035    98 N    0.984    78 N    0.975
    93   5 B    3.507 --   102 N    1.265    66 N    0.993    80 N    0.985
    94   7 N    3.440 --    81 B    1.191    86 N    1.045    68 N    0.990
    95   5 B    3.327 --    62 N    1.063    38 N    1.000    39 B    0.958
                            83 B    0.127
    96   7 N    3.491 --    91 B    1.166    69 B    1.120    38 N    1.007
    97   5 B    3.385 --    40 N    1.150    51 B    1.005   101 B    1.002
    98   7 N    3.446 --    61 B    1.248    53 B    0.999    92 N    0.984
    99   5 B    3.443 --    40 N    1.152    84 N    1.105    49 B    0.627
                            85 B    0.186   101 B    0.120
   100   7 N    3.332 --    65 B    1.211   105 B    1.035    42 N    0.888
   101   5 B    3.333 --    49 B    1.004    97 B    1.002    44 N    0.973
                            99 B    0.120
   102   7 N    3.440 --    93 B    1.265    70 N    0.984    46 N    0.945
   103   5 B    3.445 --    54 N    1.140   104 N    1.118    41 B    0.995
   104   7 N    3.392 --    65 B    1.119   103 B    1.118    60 N    0.937
   105   5 B    3.439 --    68 N    1.262   100 N    1.035    42 N    0.968
   106   7 N    3.475 --    37 B    1.281    91 B    0.996    54 N    0.989
   107   5 B    3.360 --    72 N    1.172    39 B    0.978    69 B    0.923
   108   7 N    3.418 --    89 B    1.130    67 B    1.099    90 N    0.951
 ---------------------------------------------------------------------------

Topologies differ in total number of bonds
Writing topology from bond orders to xtbtopo.mol

molecular dipole:
                 x           y           z       tot (Debye)
 q only:        0.950       3.126      -4.274
   full:       -0.479       2.250      -2.377       8.408
molecular quadrupole (traceless):
                xx          xy          yy          xz          yz          zz
 q only:       10.645       7.130      -8.235     -27.921      18.751      -2.410
  q+dip:       27.498       9.376      11.533     -24.375      25.839     -39.031
   full:       31.044       8.634       9.262     -19.291      27.253     -40.306

           -------------------------------------------------
          |                Geometry Summary                 |
           -------------------------------------------------

      molecular mass/u    :     1242.7213111
   center of mass at/Å    :       -0.0083235      -0.1334451       3.2071061
  moments of inertia/u·Å² :        0.1396516E+05   0.4193918E+05   0.4607711E+05
rotational constants/cm⁻¹ :        0.1207120E-02   0.4019542E-03   0.3658570E-03

 * 127 selected distances

     #   Z          #   Z                                           value/Å
     1   9 F        2   6 C                                       1.3428457
     2   6 C        3   9 F                                       1.3415628
     4   6 C        5   6 C                                       1.3879786
     5   6 C        6   6 C                                       1.3826207
     6   6 C        7   6 C                                       1.3889706
     7   6 C        8   6 C                                       1.3892285
     4   6 C        9   6 C                                       1.3888593
     8   6 C        9   6 C                                       1.3819708
    11   6 C       12   6 C                                       1.3868759
    12   6 C       13   6 C                                       1.3800390
    13   6 C       15   6 C                                       1.3834990
    15   6 C       16   6 C                                       1.3782487
    11   6 C       17   6 C                                       1.4041670
    16   6 C       17   6 C                                       1.3996512
    17   6 C       18   7 N                                       1.3747976
    18   7 N       19   6 C                                       1.4337188
    20   6 C       21   8 O                                       1.2007485
    20   6 C       22   7 N                                       1.3686040
    22   7 N       23   7 N                                       1.3672998
    10   6 C       24   6 C                                       1.4833346
    23   7 N       24   6 C                                       1.2764332
     2   6 C       25   9 F                                       1.3483220
     5   6 C       26   1 H                                       1.0791221
     6   6 C       27   1 H                                       1.0793439
     8   6 C       28   1 H                                       1.0792357
     9   6 C       29   1 H                                       1.0790109
    10   6 C       30   1 H                                       1.0943472
    12   6 C       31   1 H                                       1.0790170
    15   6 C       32   1 H                                       1.0779588
    16   6 C       33   1 H                                       1.0793738
    18   7 N       34   1 H                                       1.0078960 (min)
    19   6 C       35   1 H                                       1.1063308
    22   7 N       36   1 H                                       1.0080767
    44   7 N       45   5 B                                       1.4428288
    47   5 B       48   7 N                                       1.4039191
    43   5 B       50   7 N                                       1.4716149
    46   7 N       51   5 B                                       1.4399154
    50   7 N       53   5 B                                       1.3864787
    52   7 N       55   5 B                                       1.4224500
    54   7 N       56   7 N                                       1.4237411
    44   7 N       57   5 B                                       1.4231266
    47   5 B       58   7 N                                       1.3942186
    43   5 B       59   5 B                                       1.5750478
    56   7 N       60   7 N                                       1.4224853
    58   7 N       61   5 B                                       1.4350560
    42   7 N       63   5 B                                       1.3902953
    59   5 B       64   7 N                                       1.4845470
    63   5 B       66   7 N                                       1.4710502
    40   7 N       67   5 B                                       1.4901868
    62   7 N       67   5 B                                       1.4136301
    64   7 N       69   5 B                                       1.4375606
    51   5 B       70   7 N                                       1.4567447
    57   5 B       71   5 B                                       1.6642764
    70   7 N       71   5 B                                       1.4081890
    59   5 B       72   7 N                                       1.4216285
    55   5 B       73   5 B                                       1.6423951
    41   5 B       74   7 N                                       1.4056788
    48   7 N       75   5 B                                       1.4485408
    52   7 N       75   5 B                                       1.4599628
    43   5 B       76   7 N                                       1.4268890
    61   5 B       76   7 N                                       1.4925963
    75   5 B       76   7 N                                       1.4581205
    41   5 B       77   5 B                                       1.5728346
    74   7 N       77   5 B                                       1.4136521
    53   5 B       78   7 N                                       1.4435131
    60   7 N       78   7 N                                       1.3925364
    66   7 N       79   5 B                                       1.4201457
    68   7 N       79   5 B                                       1.4794234
    71   5 B       79   5 B                                       1.6739965 (max)
    63   5 B       80   7 N                                       1.4502024
    74   7 N       80   7 N                                       1.3690416
    77   5 B       82   7 N                                       1.4093354
    37   5 B       83   5 B                                       1.6082567
    38   7 N       83   5 B                                       1.4240298
    62   7 N       83   5 B                                       1.4995769
    39   5 B       84   7 N                                       1.4098619
    73   5 B       84   7 N                                       1.4908837
    49   5 B       85   5 B                                       1.5158283
    73   5 B       85   5 B                                       1.6059440
    47   5 B       86   7 N                                       1.4295116
    45   5 B       87   5 B                                       1.6492891
    55   5 B       87   5 B                                       1.6619677
    81   5 B       88   7 N                                       1.4617079
    87   5 B       88   7 N                                       1.4028373
    37   5 B       89   5 B                                       1.6189963
    82   7 N       89   5 B                                       1.4428523
    46   7 N       90   7 N                                       1.3677195
    56   7 N       91   5 B                                       1.4414829
    65   5 B       92   7 N                                       1.4542907
    78   7 N       92   7 N                                       1.4368594
    66   7 N       93   5 B                                       1.4565576
    80   7 N       93   5 B                                       1.4637501
    81   5 B       94   7 N                                       1.4269080
    86   7 N       94   7 N                                       1.3895338
    38   7 N       95   5 B                                       1.4602618
    39   5 B       95   5 B                                       1.6125697
    62   7 N       95   5 B                                       1.4503602
    69   5 B       96   7 N                                       1.4508400
    91   5 B       96   7 N                                       1.4397453
    40   7 N       97   5 B                                       1.4576055
    51   5 B       97   5 B                                       1.6053560
    53   5 B       98   7 N                                       1.4622799
    61   5 B       98   7 N                                       1.3911055
    92   7 N       98   7 N                                       1.4202202
    40   7 N       99   5 B                                       1.4585872
    84   7 N       99   5 B                                       1.4561687
    65   5 B      100   7 N                                       1.3885888
    44   7 N      101   5 B                                       1.4967307
    49   5 B      101   5 B                                       1.6003919
    97   5 B      101   5 B                                       1.6241903
    46   7 N      102   7 N                                       1.4305996
    70   7 N      102   7 N                                       1.4183497
    93   5 B      102   7 N                                       1.3743523
    41   5 B      103   5 B                                       1.6417807
    54   7 N      103   5 B                                       1.4380385
    65   5 B      104   7 N                                       1.4435445
   103   5 B      104   7 N                                       1.4539967
    42   7 N      105   5 B                                       1.4253414
    68   7 N      105   5 B                                       1.4002471
   100   7 N      105   5 B                                       1.4174680
    37   5 B      106   7 N                                       1.4024084
    54   7 N      106   7 N                                       1.4096640
    91   5 B      106   7 N                                       1.4837623
    39   5 B      107   5 B                                       1.6508350
    72   7 N      107   5 B                                       1.4319832
    67   5 B      108   7 N                                       1.4511553
    89   5 B      108   7 N                                       1.4430826

 * 9 distinct bonds (by element types)

   Z      Z             #   av. dist./Å        max./Å        min./Å
   5 B    5 B          17     1.6190562     1.6739965     1.5158283
   1 H    6 C           9     1.0837489     1.1063308     1.0779588
   6 C    6 C          13     1.3950341     1.4833346     1.3782487
   1 H    7 N           2     1.0079863     1.0080767     1.0078960
   5 B    7 N          66     1.4391425     1.4995769     1.3743523
   6 C    7 N           4     1.3633884     1.4337188     1.2764332
   7 N    7 N          12     1.4040042     1.4368594     1.3672998
   6 C    8 O           1     1.2007485     1.2007485     1.2007485
   6 C    9 F           3     1.3442435     1.3483220     1.3415628


optimized geometry written to: xtbopt.xyz


           -------------------------------------------------
          | TOTAL ENERGY             -224.003723122604 Eh   |
          | GRADIENT NORM               0.002411752594 Eh/α |
          | HOMO-LUMO GAP               0.715163359744 eV   |
           -------------------------------------------------

------------------------------------------------------------------------
 * finished run on 2026/08/31 at 22:23:22.345     
------------------------------------------------------------------------
 total:
 * wall-time:     0 d,  0 h,  0 min,  5.763 sec
 *  cpu-time:     0 d,  0 h,  0 min, 53.234 sec
 * ratio c/w:     9.237 speedup
 SCF:
 * wall-time:     0 d,  0 h,  0 min,  1.180 sec
 *  cpu-time:     0 d,  0 h,  0 min,  8.422 sec
 * ratio c/w:     7.137 speedup
 ANC optimizer:
 * wall-time:     0 d,  0 h,  0 min,  4.524 sec
 *  cpu-time:     0 d,  0 h,  0 min, 44.312 sec
 * ratio c/w:     9.795 speedup

normal termination of xtb
