108
 energy: -224.003723122604 gnorm: 0.002411752594 xtb: 6.7.1pre (5071a88)
F            0.17581254258673       -5.80957466752555       11.78439883775695
C            0.72396365046180       -4.95992254151440       10.90073841694185
F            2.05303004983035       -5.11431932932513       10.99838299728696
C            0.28316302567038       -3.53992507026824       11.11338234654579
C            1.14220556895044       -2.49455525509578       10.80397612522393
C            0.72615530302835       -1.19077344544915       11.00068623375307
C           -0.54095406804784       -0.92360400210054       11.50297429037481
C           -1.39997404376322       -1.97765613002877       11.78760446549936
C           -0.99401126072653       -3.28463379166145       11.59564986453988
C           -1.00352764877831        0.50521581851743       11.72865182765566
C            0.13964554428950        1.38480832966691       12.19354199697522
C            0.62508738834117        1.20036589741875       13.47952477456018
C            1.68260885284772        1.96255792554533       13.93253571229360
F            2.14629056566253        1.76554700481231       15.18798343969957
C            2.28099129622836        2.91690030029311       13.12926856683210
C            1.80098791252884        3.10169455620089       11.85059078781233
C            0.72992889980694        2.34697935538161       11.35839105386325
N            0.25472177926310        2.60353774485323       10.09410309645972
C           -0.64790076622042        1.69119638252583        9.45499833463875
C           -1.69057955649905        2.32173151391471        8.50981197949947
O           -1.52375044242194        3.05272782772999        7.57193719255269
N           -2.88055781428203        1.82269050640829        8.96586723408950
N           -2.78895950421671        1.13652164532647       10.14497299166962
C           -1.55614161836538        1.04865751980246       10.46391071103564
F            0.38295299430567       -5.42108619531541        9.68048775303419
H            2.13024955713481       -2.70263861812786       10.42322058963278
H            1.39994293000617       -0.37721163601594       10.77907753007805
H           -2.39016652228099       -1.77132210927422       12.16402778881395
H           -1.65569762254764       -4.10491577203820       11.82710810733660
H           -1.79902568992327        0.49510422859631       12.48010120297234
H            0.18218439385457        0.45890972750332       14.12633007167430
H            3.10762056978287        3.49692826784809       13.50642432677852
H            2.25423988555823        3.84062615616283       11.20748092445976
H            0.81462657735979        3.18380936809589        9.48941676143719
H           -0.12504863754220        0.91634379008881        8.86322414785511
H           -3.79533388799010        2.03560169917579        8.59970885168974
B            3.46176362681203       -1.46181305846887        1.61336393951441
N            3.45724045575063        1.12726122539431        0.94633756967183
B            2.52823237595601        2.37789072057537       -1.23978463368496
N            2.27365411273610       -0.61386457865571       -2.73286248085084
B            0.70348279171813       -3.57549654303600        2.68745254348886
N           -2.93177135937928       -2.66216311165659        1.72273957637523
B           -1.03126784813337        4.07405637485482        1.89055115193593
N           -0.64654273276004        0.05479164851129       -3.92165525737399
B           -0.50154835653361        1.48365175268651       -4.05982191388794
N            1.19590712634866       -3.76639278265153       -1.76066886000053
B           -3.84948326223672        2.21735677249658       -0.43365526556740
N           -2.78295949215434        2.77748982402313       -1.15460363992956
B            1.37303659846769        0.86334436319719       -4.87417290844891
N           -0.22146002708173        3.34434777392387        2.87917989432166
B            0.87824055883730       -2.85140711587443       -2.82614771377996
N           -0.50113112275009        3.77907570914170       -0.95878241827337
B           -0.79233184985718        2.16464039242633        3.33163832235540
N            1.67522617564297       -1.29710802380256        3.50792227501409
B           -0.26606207320462        3.49419095631772       -2.33244424627193
N            1.33134799838627        0.04474402233438        3.83688900760531
B           -1.61949977896544       -0.53015876286674       -3.06347314302041
N           -3.82893608559805        1.77280322505258        0.88763015136875
B            0.33996289984030        4.48958243335565        1.23645675562818
N            0.06598137987698       -0.04351780230402        4.48072216858362
B           -2.70147545444817        2.21770394848398        1.65592781799969
N            3.76435346905047       -0.12091632875220       -0.77182137673975
B           -2.25019656668640       -3.64147004513753        1.00906297152321
N            1.06511808697532        3.71834040806092        2.27723290302988
B           -1.80785700950670       -0.79704762455088        3.24194888807223
N           -2.44230395866320       -3.59299197849655       -0.44858343583009
B            3.00631053237513       -1.05607867907795       -1.51289627432342
N           -3.16218198492054       -1.24449358080393       -0.35922250998199
B            2.04009834848511        2.91508350754741        1.59110469274527
N           -0.52552091308635       -2.87600055537007       -2.43762022478221
B           -1.69188555701105       -2.08826696544830       -2.48306416043013
N            0.58600168060279        3.96996239945536       -0.06373060719246
B            1.06773778658398        2.99105838488007       -3.14810147040473
N            0.08414825952304       -4.36547202190776        1.70343225324920
B           -1.78937680171220        3.45933544947459       -0.35076913878590
N           -2.01014336424391        3.41328293738760        1.08980588560165
B            1.47125127158513       -4.21772634697004        1.47424160001404
N           -0.77775009562310        1.03586085027037        4.23129032235423
B           -2.67608477196724       -2.38780070869182       -1.16249797402243
N           -1.07108677015139       -4.48518749958193        0.97860483844171
B           -2.51979530292773        0.51346216505697       -2.07387303780956
N            2.35078251179041       -3.88441796708276        0.42469105570330
B            3.91062464977454       -0.20327101540466        0.71833059608142
N            1.91031560915214        1.98269819366849       -2.44382453104400
B            0.97012972293057        2.29738106009758       -4.59321045850694
N           -4.19033646849101        0.83577826881853       -0.29740919484372
B           -1.36088069280980        2.48405517250811       -3.06942047332527
N           -2.37682593631308        1.95637960111845       -2.25863946825441
B            3.07196007107325       -2.64421873694454        0.57841538592742
N            2.32587867237824       -3.66017214215216       -0.99742727682027
B            2.22798630498189        0.52825156276638        2.81701999263261
N           -2.00761893965523        0.58774720789174        3.63868481290471
B           -1.10697668505711       -4.17475899315901       -0.45139862936669
N           -3.22653167009034        0.05406156736956       -0.92255171683888
B            3.43971856467081        1.26762821955414       -0.50705650153120
N            2.58849905843480        1.62128654810180        1.95205115123964
B            1.44779024926022       -1.52069626533561       -3.52040206628913
N           -2.08986107019430        1.73788662549773        2.80956441858601
B            2.01826291123792        0.74367768554383       -3.20119002017854
N           -2.70708575627230       -1.35362203829786        2.34206493863609
B            0.62837118720219       -0.49694537532611       -4.47877576522318
N           -0.18014443721393       -3.74360597718349       -1.37005689059916
B            0.50291898031518       -2.12659089705939        3.43303276428579
N           -0.56758384069889       -1.23069696438546        3.83985437783030
B           -3.21931000719851       -1.45348284300784        1.02416156983894
N            2.68092994843805       -0.87046112848843        2.61703247349539
B            1.87472869462398        3.34572443932504       -0.07295712054008
N            2.86903316788999       -2.31987794135739       -0.81302659460866
