 Entering Gaussian System
 *********************************************
 Gaussian 98:
 frequency output generated by the xtb code
 *********************************************
                         Standard orientation:
 --------------------------------------------------------------------
  Center     Atomic     Atomic              Coordinates (Angstroms)
  Number     Number      Type              X           Y           Z
 --------------------------------------------------------------------
    1          5             0        0.657597   -4.092480   -0.657616
    2          7             0        0.780538   -4.276329    0.780562
    3          5             0       -0.657640   -4.092471    0.657630
    4          7             0       -0.780583   -4.276324   -0.780547
    5          7             0       -4.276333   -0.780536   -0.780541
    6          5             0       -4.092476   -0.657598    0.657636
    7          7             0       -4.276320    0.780581    0.780571
    8          5             0       -4.092474    0.657641   -0.657608
    9          5             0       -1.439094   -3.199172   -1.439062
   10          7             0       -2.536647   -2.536619   -0.749253
   11          5             0       -3.199189   -1.439058   -1.439059
   12          7             0       -2.536644   -0.749257   -2.536621
   13          5             0       -1.439091   -1.439070   -3.199169
   14          7             0       -0.749288   -2.536631   -2.536624
   15          7             0        0.780547    0.780546   -4.276331
   16          5             0        0.657603   -0.657631   -4.092476
   17          7             0       -0.780577   -0.780561   -4.276323
   18          5             0       -0.657632    0.657617   -4.092474
   19          5             0       -2.469193   -0.702481    2.469207
   20          7             0       -3.168562   -1.415161    1.415193
   21          5             0       -2.469208   -2.469183    0.702511
   22          7             0       -1.415192   -3.168550    1.415190
   23          5             0       -0.702503   -2.469190    2.469204
   24          7             0       -1.415176   -1.415167    3.168567
   25          7             0        0.780568   -0.780554    4.276325
   26          5             0        0.657639    0.657624    4.092472
   27          7             0       -0.780539    0.780569    4.276328
   28          5             0       -0.657610   -0.657610    4.092479
   29          7             0       -1.415184    1.415182   -3.168557
   30          5             0       -2.469202    0.702507   -2.469190
   31          7             0       -3.168557    1.415194   -1.415171
   32          5             0       -2.469187    2.469209   -0.702494
   33          7             0       -1.415168    3.168564   -1.415181
   34          5             0       -0.702494    2.469197   -2.469199
   35          5             0        2.469182   -2.469212   -0.702503
   36          7             0        1.415158   -3.168569   -1.415179
   37          5             0        0.702477   -2.469206   -2.469196
   38          7             0        1.415161   -1.415193   -3.168562
   39          5             0        2.469185   -0.702516   -2.469205
   40          7             0        3.168547   -1.415199   -1.415189
   41          7             0       -2.536615    2.536646    0.749270
   42          5             0       -3.199164    1.439091    1.439081
   43          7             0       -2.536618    0.749284    2.536638
   44          5             0       -1.439053    1.439085    3.199179
   45          7             0       -0.749244    2.536639    2.536629
   46          5             0       -1.439050    3.199187    1.439072
   47          5             0        0.657645    4.092473    0.657611
   48          7             0        0.780577    4.276321   -0.780568
   49          5             0       -0.657602    4.092478   -0.657626
   50          7             0       -0.780532    4.276332    0.780553
   51          7             0        2.536626    0.749248   -2.536641
   52          5             0        1.439069    1.439059   -3.199184
   53          7             0        0.749270    2.536623   -2.536638
   54          5             0        1.439084    3.199167   -1.439083
   55          7             0        2.536642    2.536616   -0.749279
   56          5             0        3.199179    1.439053   -1.439086
   57          5             0        1.439076   -1.439074    3.199174
   58          7             0        0.749261   -2.536630    2.536633
   59          5             0        1.439060   -3.199182    1.439073
   60          7             0        2.536620   -2.536643    0.749261
   61          5             0        3.199174   -1.439086    1.439064
   62          7             0        2.536636   -0.749275    2.536623
   63          7             0        1.415201    3.168555    1.415169
   64          5             0        0.702520    2.469198    2.469191
   65          7             0        1.415198    1.415178    3.168552
   66          5             0        2.469210    0.702490    2.469188
   67          7             0        3.168572    1.415166    1.415166
   68          5             0        2.469213    2.469186    0.702486
   69          7             0        4.276325   -0.780579    0.780544
   70          5             0        4.092470   -0.657643   -0.657634
   71          7             0        4.276328    0.780534   -0.780574
   72          5             0        4.092481    0.657601    0.657605
 --------------------------------------------------------------------
     1 basis functions        1 primitive gaussians
     1 alpha electrons        1 beta electrons

 Harmonic frequencies (cm**-1), IR intensities (km*mol⁻¹),
 Raman scattering activities (A**4/amu), Raman depolarization ratios,
 reduced masses (AMU), force constants (mDyne/A) and normal coordinates:
                      1                      2                      3
                        a                      a                      a 
 Frequencies --   163.6190               163.6191               181.6583
 Red. masses --    12.7009                12.7009                12.7174
 Frc consts  --     0.0000                 0.0000                 0.0000
 IR Inten    --     0.0000                 0.0000                 0.0161
 Raman Activ --     0.0000                 0.0000                 0.0000
 Depolar     --     0.0000                 0.0000                 0.0000
 Atom AN      X      Y      Z        X      Y      Z        X      Y      Z
   1   5    -0.01  -0.00  -0.01     0.00  -0.14  -0.00    -0.00   0.02   0.06
   2   7    -0.00  -0.00   0.00     0.00  -0.16   0.00     0.03  -0.06   0.06
   3   5     0.01  -0.00   0.01    -0.00  -0.14   0.00     0.03  -0.02   0.03
   4   7     0.00  -0.00  -0.00    -0.00  -0.16  -0.00     0.01   0.02   0.04
   5   7     0.14   0.00   0.00     0.08  -0.00   0.00     0.00   0.03  -0.03
   6   5     0.12   0.01   0.00     0.07  -0.00  -0.01     0.04   0.01  -0.03
   7   7     0.14  -0.00  -0.00     0.08   0.00  -0.00     0.04   0.01  -0.05
   8   5     0.12  -0.01  -0.00     0.07   0.00   0.01    -0.04   0.04  -0.06
   9   5     0.05  -0.00  -0.05    -0.01  -0.14  -0.01     0.00   0.02   0.03
  10   7     0.15   0.07   0.00     0.01  -0.13  -0.00     0.02   0.05   0.01
  11   5     0.12   0.03  -0.02     0.07  -0.04   0.04     0.02   0.05  -0.00
  12   7     0.08  -0.00  -0.08     0.12   0.00   0.12    -0.02   0.10  -0.01
  13   5     0.02  -0.03  -0.12     0.04  -0.04   0.07    -0.02   0.06   0.02
  14   7    -0.00  -0.07  -0.15    -0.00  -0.13   0.01    -0.03   0.07   0.05
  15   7     0.00   0.00  -0.14    -0.00   0.00   0.08    -0.05   0.04   0.01
  16   5    -0.00  -0.01  -0.12    -0.01  -0.00   0.07    -0.04   0.05   0.06
  17   7    -0.00  -0.00  -0.14     0.00  -0.00   0.08    -0.04   0.05   0.01
  18   5     0.00   0.01  -0.12     0.01   0.00   0.07    -0.06   0.06  -0.06
  19   5     0.07  -0.00   0.07     0.09  -0.01  -0.09     0.07  -0.03  -0.04
  20   7     0.14   0.03   0.02     0.08  -0.04  -0.05     0.03  -0.00  -0.02
  21   5     0.11   0.04   0.01     0.02  -0.10  -0.01     0.05   0.01   0.00
  22   7     0.05  -0.00   0.05    -0.01  -0.16   0.01     0.06   0.01   0.02
  23   5     0.01  -0.04   0.11     0.01  -0.10  -0.02     0.08  -0.05   0.04
  24   7     0.02  -0.03   0.14     0.05  -0.04  -0.08     0.07  -0.03  -0.02
  25   7     0.00  -0.00   0.14    -0.00  -0.00  -0.08     0.05  -0.05   0.06
  26   5    -0.00   0.01   0.12    -0.01   0.00  -0.07     0.03  -0.05  -0.00
  27   7    -0.00   0.00   0.14     0.00   0.00  -0.08     0.04  -0.04  -0.05
  28   5     0.00  -0.01   0.12     0.01  -0.00  -0.07     0.05  -0.04   0.00
  29   7     0.02   0.03  -0.14     0.05   0.04   0.08    -0.13   0.14  -0.16
  30   5     0.07  -0.00  -0.07     0.09   0.01   0.09    -0.10   0.10  -0.12
  31   7     0.14  -0.03  -0.02     0.08   0.04   0.05    -0.16   0.12  -0.15
  32   5     0.11  -0.04  -0.01     0.02   0.10   0.01    -0.08   0.08  -0.13
  33   7     0.05   0.00  -0.05    -0.01   0.16  -0.01    -0.12   0.16  -0.15
  34   5     0.01   0.04  -0.11     0.01   0.10   0.02    -0.10   0.11  -0.12
  35   5    -0.11   0.04  -0.01    -0.02  -0.10   0.01    -0.02   0.02   0.12
  36   7    -0.05  -0.00  -0.05     0.01  -0.16  -0.01    -0.05   0.10   0.13
  37   5    -0.01  -0.04  -0.11    -0.01  -0.10   0.02    -0.04   0.08   0.11
  38   7    -0.02  -0.03  -0.14    -0.05  -0.04   0.08    -0.08   0.09   0.11
  39   5    -0.07   0.00  -0.07    -0.09  -0.01   0.09    -0.07   0.05   0.10
  40   7    -0.14   0.03  -0.02    -0.08  -0.04   0.05    -0.10   0.06   0.13
  41   7     0.15  -0.07  -0.00     0.01   0.13   0.00     0.05  -0.05  -0.13
  42   5     0.12  -0.03   0.02     0.07   0.04  -0.04     0.07  -0.04  -0.09
  43   7     0.08  -0.00   0.08     0.12  -0.00  -0.12     0.09  -0.05  -0.11
  44   5     0.02   0.03   0.12     0.04   0.04  -0.07     0.05  -0.06  -0.07
  45   7    -0.00   0.07   0.15    -0.00   0.13  -0.01     0.04  -0.09  -0.11
  46   5     0.05   0.00   0.05    -0.01   0.14   0.01     0.03  -0.07  -0.09
  47   5    -0.01   0.00   0.01     0.00   0.14   0.00    -0.01  -0.04  -0.04
  48   7    -0.00   0.00  -0.00     0.00   0.16  -0.00    -0.03  -0.00  -0.04
  49   5     0.01   0.00  -0.01    -0.00   0.14  -0.00    -0.04   0.04  -0.07
  50   7     0.00   0.00   0.00    -0.00   0.16   0.00    -0.01  -0.04  -0.06
  51   7    -0.08   0.00  -0.08    -0.12  -0.00   0.12    -0.06   0.04   0.04
  52   5    -0.02   0.03  -0.12    -0.04   0.04   0.07    -0.06   0.03   0.02
  53   7     0.00   0.07  -0.15     0.00   0.13   0.01    -0.09   0.03  -0.02
  54   5    -0.05   0.00  -0.05     0.01   0.14  -0.01    -0.05  -0.02  -0.01
  55   7    -0.15  -0.07   0.00    -0.01   0.13  -0.00    -0.04  -0.01  -0.00
  56   5    -0.12  -0.03  -0.02    -0.07   0.04   0.04    -0.01   0.00   0.02
  57   5    -0.02  -0.03   0.12    -0.04  -0.04  -0.07     0.09  -0.09   0.11
  58   7     0.00  -0.07   0.15     0.00  -0.13  -0.01     0.10  -0.13   0.14
  59   5    -0.05  -0.00   0.05     0.01  -0.14   0.01     0.08  -0.11   0.11
  60   7    -0.15   0.07  -0.00    -0.01  -0.13   0.00     0.11  -0.11   0.14
  61   5    -0.12   0.03   0.02    -0.07  -0.04  -0.04     0.11  -0.08   0.11
  62   7    -0.08   0.00   0.08    -0.12   0.00  -0.12     0.12  -0.10   0.13
  63   7    -0.05   0.00   0.05     0.01   0.16   0.01    -0.00  -0.05  -0.04
  64   5    -0.01   0.04   0.11    -0.01   0.10  -0.02     0.03  -0.08  -0.05
  65   7    -0.02   0.03   0.14    -0.05   0.04  -0.08     0.02  -0.08  -0.03
  66   5    -0.07   0.00   0.07    -0.09   0.01  -0.09     0.04  -0.09   0.03
  67   7    -0.14  -0.03   0.02    -0.08   0.04  -0.05    -0.02  -0.07   0.00
  68   5    -0.11  -0.04   0.01    -0.02   0.10  -0.01    -0.01  -0.05  -0.01
  69   7    -0.14   0.00  -0.00    -0.08  -0.00  -0.00     0.06  -0.03   0.05
  70   5    -0.12   0.01  -0.00    -0.07  -0.00   0.01    -0.02   0.00   0.06
  71   7    -0.14  -0.00   0.00    -0.08   0.00   0.00    -0.02  -0.01   0.03
  72   5    -0.12  -0.01   0.00    -0.07   0.00  -0.01     0.01  -0.03   0.03
                      4                      5                      6
                        a                      a                      a 
 Frequencies --   181.6588               181.6594               197.4209
 Red. masses --    12.7174                12.7174                12.8975
 Frc consts  --     0.0000                 0.0000                 0.0000
 IR Inten    --     0.0161                 0.0161                 0.0000
 Raman Activ --     0.0000                 0.0000                 0.0000
 Depolar     --     0.0000                 0.0000                 0.0000
 Atom AN      X      Y      Z        X      Y      Z        X      Y      Z
   1   5    -0.01   0.04   0.04     0.07  -0.04  -0.02     0.02  -0.02  -0.02
   2   7    -0.03  -0.00   0.04     0.06  -0.03  -0.01    -0.01   0.03  -0.01
   3   5    -0.04  -0.04   0.07     0.06   0.04  -0.00    -0.02  -0.02   0.02
   4   7    -0.01   0.04   0.06     0.07   0.05   0.00     0.01   0.03   0.01
   5   7     0.04  -0.00   0.06     0.05   0.06   0.02     0.03   0.01   0.01
   6   5    -0.04  -0.04   0.07     0.02   0.06   0.02    -0.02  -0.02   0.02
   7   7     0.00  -0.03   0.03    -0.06   0.06   0.03     0.03  -0.01  -0.01
   8   5     0.04  -0.01   0.03    -0.02   0.06   0.02    -0.02   0.02  -0.02
   9   5     0.04   0.08   0.10     0.10   0.09   0.04     0.06   0.08   0.06
  10   7     0.05   0.05   0.14     0.13   0.12   0.04     0.08   0.08   0.08
  11   5     0.08   0.04   0.10     0.09   0.09   0.05     0.08   0.06   0.06
  12   7     0.09   0.05   0.11     0.10   0.09   0.08     0.08   0.08   0.08
  13   5     0.06   0.06   0.07     0.09   0.07   0.09     0.06   0.06   0.08
  14   7     0.05   0.09   0.11     0.13   0.08   0.07     0.08   0.08   0.08
  15   7     0.05   0.05  -0.06     0.01  -0.02   0.01    -0.01  -0.01   0.03
  16   5     0.04   0.05   0.00     0.05  -0.03  -0.02     0.02  -0.02  -0.02
  17   7     0.04   0.04   0.05     0.04   0.01   0.04     0.01   0.01   0.03
  18   5     0.05   0.04  -0.00     0.00   0.02   0.02    -0.02   0.02  -0.02
  19   5    -0.10  -0.10   0.12     0.01   0.08   0.02    -0.06  -0.08   0.06
  20   7    -0.16  -0.12   0.15     0.06   0.10   0.01    -0.12  -0.10   0.10
  21   5    -0.08  -0.08   0.13     0.08   0.09   0.02    -0.06  -0.06   0.08
  22   7    -0.12  -0.16   0.15     0.08   0.07  -0.01    -0.10  -0.12   0.10
  23   5    -0.09  -0.11   0.12     0.05   0.04  -0.00    -0.08  -0.06   0.06
  24   7    -0.13  -0.13   0.16     0.04   0.07  -0.05    -0.10  -0.10   0.12
  25   7    -0.05  -0.04  -0.01    -0.01  -0.01   0.01    -0.01   0.01  -0.03
  26   5    -0.05  -0.05  -0.06    -0.05  -0.02  -0.02     0.02   0.02   0.02
  27   7    -0.04  -0.05  -0.01    -0.04   0.02   0.04     0.01  -0.01  -0.03
  28   5    -0.06  -0.06   0.06    -0.00   0.02   0.01    -0.02  -0.02   0.02
  29   7     0.07   0.04   0.02    -0.04   0.07  -0.04    -0.10   0.10  -0.12
  30   5     0.07   0.03   0.04    -0.01   0.08   0.02    -0.06   0.08  -0.06
  31   7     0.03   0.01   0.03    -0.05   0.09   0.01    -0.12   0.10  -0.10
  32   5     0.05  -0.00  -0.00    -0.08   0.09   0.03    -0.06   0.06  -0.08
  33   7     0.06  -0.01  -0.01    -0.08   0.06   0.00    -0.10   0.12  -0.10
  34   5     0.08   0.05  -0.03    -0.05   0.04   0.00    -0.08   0.06  -0.06
  35   5    -0.01   0.05   0.01     0.12  -0.11  -0.05     0.06  -0.06  -0.08
  36   7     0.00   0.04   0.03     0.15  -0.13  -0.07     0.10  -0.12  -0.10
  37   5     0.03   0.07   0.05     0.12  -0.06  -0.05     0.08  -0.06  -0.06
  38   7     0.03   0.08   0.03     0.13  -0.10  -0.12     0.10  -0.10  -0.12
  39   5     0.04   0.08  -0.03     0.09  -0.09  -0.06     0.06  -0.08  -0.06
  40   7    -0.02   0.07  -0.01     0.14  -0.13  -0.08     0.12  -0.10  -0.10
  41   7     0.02  -0.04  -0.01    -0.13   0.12   0.05     0.08  -0.08  -0.08
  42   5     0.02  -0.05   0.01    -0.09   0.09   0.06     0.08  -0.06  -0.06
  43   7    -0.02  -0.09   0.01    -0.11   0.10   0.09     0.08  -0.08  -0.08
  44   5    -0.02  -0.06  -0.02    -0.09   0.07   0.09     0.06  -0.06  -0.08
  45   7    -0.04  -0.06  -0.04    -0.13   0.08   0.07     0.08  -0.08  -0.08
  46   5    -0.00  -0.02  -0.02    -0.10   0.09   0.05     0.06  -0.08  -0.06
  47   5    -0.00  -0.02  -0.06    -0.07  -0.04  -0.01     0.02   0.02   0.02
  48   7     0.03   0.06  -0.06    -0.06  -0.03  -0.00    -0.01  -0.03   0.01
  49   5     0.03   0.02  -0.03    -0.06   0.04   0.00    -0.02   0.02  -0.02
  50   7     0.01  -0.02  -0.04    -0.07   0.05   0.01     0.01  -0.03  -0.01
  51   7     0.12   0.10  -0.13    -0.02  -0.09   0.01    -0.08  -0.08   0.08
  52   5     0.09   0.09  -0.11    -0.03  -0.05   0.04    -0.06  -0.06   0.08
  53   7     0.10   0.13  -0.13    -0.06  -0.05   0.02    -0.08  -0.08   0.08
  54   5     0.08   0.11  -0.11    -0.06  -0.04   0.00    -0.06  -0.08   0.06
  55   7     0.11   0.11  -0.14    -0.08  -0.08  -0.03    -0.08  -0.08   0.08
  56   5     0.11   0.08  -0.11    -0.04  -0.07  -0.01    -0.08  -0.06   0.06
  57   5    -0.05  -0.03  -0.01     0.03  -0.05   0.04    -0.06   0.06  -0.08
  58   7    -0.09  -0.03   0.02     0.06  -0.04   0.02    -0.08   0.08  -0.08
  59   5    -0.05   0.01   0.01     0.05  -0.03  -0.00    -0.06   0.08  -0.06
  60   7    -0.04   0.01   0.00     0.07  -0.08  -0.03    -0.08   0.08  -0.08
  61   5    -0.01  -0.01  -0.02     0.04  -0.07  -0.01    -0.08   0.06  -0.06
  62   7    -0.06  -0.04  -0.04     0.02  -0.09   0.00    -0.08   0.08  -0.08
  63   7    -0.06  -0.11  -0.13    -0.14  -0.13  -0.07     0.10   0.12   0.10
  64   5    -0.05  -0.08  -0.11    -0.12  -0.06  -0.04     0.08   0.06   0.06
  65   7    -0.09  -0.09  -0.12    -0.13  -0.10  -0.12     0.10   0.10   0.12
  66   5    -0.08  -0.05  -0.10    -0.09  -0.09  -0.06     0.06   0.08   0.06
  67   7    -0.10  -0.06  -0.13    -0.13  -0.12  -0.08     0.12   0.10   0.10
  68   5    -0.03  -0.03  -0.13    -0.12  -0.11  -0.04     0.06   0.06   0.08
  69   7    -0.02   0.00  -0.03     0.02  -0.06  -0.03    -0.03   0.01  -0.01
  70   5     0.02   0.03  -0.03     0.06  -0.07  -0.03     0.02  -0.02  -0.02
  71   7     0.06   0.03  -0.06    -0.02  -0.06  -0.02    -0.03  -0.01   0.01
  72   5    -0.02  -0.00  -0.06    -0.06  -0.07  -0.03     0.02   0.02   0.02
                      7                      8                      9
                        a                      a                      a 
 Frequencies --   222.0685               222.0688               222.0700
 Red. masses --    12.8522                12.8522                12.8522
 Frc consts  --     0.0000                 0.0000                 0.0000
 IR Inten    --     0.0000                 0.0000                 0.0000
 Raman Activ --     0.0000                 0.0000                 0.0000
 Depolar     --     0.0000                 0.0000                 0.0000
 Atom AN      X      Y      Z        X      Y      Z        X      Y      Z
   1   5     0.07   0.05   0.01    -0.01  -0.06   0.07     0.01   0.00   0.01
   2   7     0.10   0.08   0.01    -0.01   0.06   0.10     0.01  -0.00  -0.01
   3   5     0.07  -0.05   0.01    -0.01   0.06   0.07    -0.01  -0.00  -0.01
   4   7     0.10  -0.08   0.01    -0.01  -0.06   0.10    -0.01   0.00   0.01
   5   7     0.01  -0.01  -0.00     0.07   0.00  -0.10    -0.07   0.10  -0.00
   6   5    -0.01  -0.01  -0.02    -0.06   0.00  -0.07    -0.06   0.07   0.00
   7   7    -0.01   0.01  -0.02    -0.07   0.00  -0.10     0.07   0.10  -0.00
   8   5     0.01   0.01   0.00     0.06  -0.00  -0.07     0.06   0.07   0.00
   9   5     0.01  -0.12   0.00     0.00  -0.09   0.01    -0.07   0.00   0.07
  10   7    -0.07  -0.20  -0.01     0.04  -0.02   0.00    -0.20  -0.07  -0.01
  11   5     0.01  -0.07   0.07     0.10   0.01  -0.02    -0.10   0.01   0.00
  12   7     0.09   0.02   0.21     0.19   0.01   0.05    -0.04  -0.00   0.04
  13   5    -0.00  -0.01   0.10     0.07  -0.07  -0.01    -0.00  -0.01   0.10
  14   7    -0.00  -0.06   0.03    -0.01  -0.19  -0.07     0.01   0.07   0.20
  15   7    -0.10   0.00  -0.07     0.00   0.01   0.01     0.00  -0.10  -0.07
  16   5    -0.07  -0.00  -0.06    -0.00  -0.01   0.01    -0.00  -0.07   0.06
  17   7    -0.10   0.00   0.07     0.02  -0.01  -0.01     0.00  -0.10   0.07
  18   5    -0.07   0.00   0.06     0.02   0.01  -0.01    -0.00  -0.07  -0.06
  19   5     0.01  -0.01  -0.13    -0.14   0.01   0.04    -0.03  -0.00  -0.03
  20   7    -0.01  -0.07  -0.08    -0.11   0.01  -0.00    -0.11   0.01  -0.01
  21   5    -0.03  -0.13  -0.01    -0.03   0.04   0.00    -0.14  -0.03  -0.01
  22   7     0.01  -0.09  -0.00    -0.01   0.12   0.01    -0.08  -0.00  -0.08
  23   5    -0.00  -0.01  -0.03    -0.01   0.14  -0.03    -0.01   0.03  -0.14
  24   7    -0.02   0.00  -0.11    -0.07   0.08   0.01    -0.00  -0.01  -0.11
  25   7    -0.10  -0.00   0.07     0.02   0.01  -0.01    -0.00  -0.10  -0.07
  26   5    -0.07  -0.00   0.06     0.02  -0.01  -0.01     0.00  -0.07   0.06
  27   7    -0.10  -0.00  -0.07     0.00  -0.01   0.01    -0.00  -0.10   0.07
  28   5    -0.07   0.00  -0.06    -0.00   0.01   0.01     0.00  -0.07  -0.06
  29   7    -0.00   0.01   0.11     0.08   0.07  -0.01     0.00  -0.01  -0.11
  30   5     0.04   0.01   0.14     0.13   0.01   0.01     0.03  -0.00  -0.03
  31   7     0.01   0.08   0.07     0.11  -0.00  -0.02     0.11   0.01  -0.01
  32   5    -0.03   0.14   0.01     0.03   0.01  -0.00     0.14  -0.03  -0.01
  33   7     0.01   0.12   0.01     0.00   0.09   0.01     0.08  -0.00  -0.08
  34   5     0.00   0.05   0.03     0.01   0.13  -0.03     0.01   0.03  -0.14
  35   5    -0.03   0.13  -0.01    -0.03  -0.05   0.00     0.14  -0.03   0.01
  36   7     0.01   0.09  -0.00    -0.01  -0.12   0.01     0.08   0.00   0.08
  37   5    -0.00   0.01  -0.03    -0.01  -0.14  -0.02     0.01   0.03   0.14
  38   7    -0.02  -0.00  -0.11    -0.07  -0.08   0.01     0.01  -0.01   0.11
  39   5     0.01   0.01  -0.13    -0.14  -0.01   0.04     0.03   0.00   0.03
  40   7    -0.01   0.07  -0.08    -0.11  -0.01  -0.00     0.11   0.01   0.01
  41   7    -0.07   0.20   0.01    -0.03  -0.06  -0.00     0.20  -0.07  -0.01
  42   5    -0.01   0.07  -0.07    -0.10  -0.01  -0.00     0.10   0.01   0.00
  43   7     0.05  -0.01  -0.19    -0.21   0.02   0.09     0.04  -0.00   0.04
  44   5    -0.02  -0.01  -0.10    -0.07  -0.07   0.01     0.00  -0.01   0.10
  45   7     0.00   0.02  -0.05     0.01  -0.20  -0.07    -0.01   0.07   0.20
  46   5     0.01   0.09  -0.00    -0.00  -0.12   0.01     0.07   0.00   0.07
  47   5     0.07  -0.06   0.01    -0.01  -0.05   0.07    -0.01   0.00   0.01
  48   7     0.10  -0.06   0.01    -0.01   0.08   0.10    -0.01  -0.00  -0.01
  49   5     0.07   0.06   0.01    -0.01   0.05   0.07     0.01  -0.00  -0.01
  50   7     0.10   0.06   0.01    -0.01  -0.08   0.10     0.01   0.00   0.01
  51   7     0.05   0.01  -0.19    -0.21  -0.02   0.09    -0.04   0.00  -0.04
  52   5    -0.02   0.01  -0.10    -0.07   0.07   0.01    -0.00  -0.01  -0.10
  53   7     0.00  -0.02  -0.05     0.01   0.20  -0.07     0.01   0.07  -0.20
  54   5     0.01  -0.09  -0.00    -0.00   0.12   0.01    -0.07  -0.00  -0.07
  55   7    -0.08  -0.20   0.01    -0.03   0.06  -0.00    -0.20  -0.07   0.01
  56   5    -0.01  -0.07  -0.07    -0.10   0.01  -0.00    -0.10   0.01  -0.00
  57   5    -0.00   0.01   0.10     0.07   0.07  -0.01     0.00  -0.01  -0.10
  58   7    -0.00   0.06   0.03    -0.01   0.20  -0.08    -0.01   0.07  -0.20
  59   5     0.01   0.12   0.00     0.00   0.09   0.01     0.07  -0.00  -0.07
  60   7    -0.07   0.20  -0.01     0.05   0.02   0.00     0.20  -0.07   0.01
  61   5     0.01   0.07   0.07     0.10  -0.01  -0.02     0.10   0.01  -0.00
  62   7     0.09  -0.02   0.21     0.19  -0.01   0.05     0.04   0.00  -0.04
  63   7     0.01  -0.12   0.01     0.00  -0.09   0.01    -0.08   0.00   0.08
  64   5     0.00  -0.05   0.03     0.01  -0.13  -0.03    -0.01   0.03   0.14
  65   7    -0.00  -0.01   0.11     0.08  -0.07  -0.01    -0.01  -0.01   0.11
  66   5     0.04  -0.01   0.14     0.13  -0.01   0.01    -0.03   0.00   0.03
  67   7     0.01  -0.08   0.07     0.11   0.00  -0.02    -0.11   0.01   0.01
  68   5    -0.03  -0.14   0.01     0.03  -0.01  -0.00    -0.14  -0.03   0.01
  69   7     0.01   0.01  -0.00     0.07  -0.00  -0.10     0.07   0.10   0.00
  70   5    -0.01   0.01  -0.02    -0.05  -0.00  -0.07     0.06   0.07   0.00
  71   7    -0.01  -0.01  -0.02    -0.07  -0.00  -0.10    -0.07   0.10   0.00
  72   5     0.01  -0.01   0.00     0.05   0.00  -0.07    -0.06   0.07   0.00
                     10                     11                     12
                        a                      a                      a 
 Frequencies --   246.5823               246.5828               246.5830
 Red. masses --    12.9428                12.9428                12.9428
 Frc consts  --     0.0000                 0.0000                 0.0000
 IR Inten    --     0.0095                 0.0095                 0.0095
 Raman Activ --     0.0000                 0.0000                 0.0000
 Depolar     --     0.0000                 0.0000                 0.0000
 Atom AN      X      Y      Z        X      Y      Z        X      Y      Z
   1   5    -0.01   0.00   0.01     0.04  -0.13  -0.04     0.01   0.08  -0.01
   2   7    -0.01  -0.10  -0.00     0.01  -0.08  -0.01     0.00   0.09  -0.01
   3   5    -0.01  -0.05   0.01     0.03   0.01  -0.03     0.02   0.15  -0.02
   4   7    -0.01   0.05  -0.00     0.01  -0.05  -0.01     0.01   0.14  -0.01
   5   7    -0.00  -0.01   0.00    -0.10   0.01  -0.01    -0.12  -0.00   0.01
   6   5    -0.10  -0.02   0.02    -0.04   0.02  -0.02    -0.11  -0.02   0.03
   7   7    -0.12  -0.01   0.00    -0.10   0.01  -0.01    -0.01  -0.00   0.01
   8   5    -0.02  -0.01   0.01    -0.15   0.03  -0.03    -0.02  -0.01   0.02
   9   5     0.07   0.12   0.07     0.01  -0.01   0.03    -0.01   0.11   0.00
  10   7     0.12   0.14   0.10    -0.05  -0.02  -0.03    -0.08   0.04  -0.02
  11   5     0.07   0.07   0.06    -0.06   0.01   0.02    -0.13  -0.03  -0.04
  12   7     0.07   0.04   0.04     0.02   0.05   0.12    -0.13  -0.08  -0.08
  13   5     0.05   0.05   0.00     0.04   0.05   0.16    -0.03  -0.01  -0.03
  14   7     0.07   0.12   0.06     0.07   0.06   0.14     0.03   0.08   0.01
  15   7     0.00  -0.00  -0.15    -0.00  -0.01   0.00     0.01  -0.01   0.03
  16   5     0.02  -0.02  -0.13     0.00  -0.00   0.05     0.03  -0.03  -0.07
  17   7    -0.00  -0.01  -0.08    -0.00  -0.01   0.13     0.02  -0.01  -0.01
  18   5    -0.00   0.00  -0.09     0.01  -0.01   0.08     0.04  -0.04   0.09
  19   5    -0.05   0.02  -0.04     0.04   0.04  -0.06    -0.03  -0.08   0.00
  20   7    -0.16  -0.05   0.08     0.04   0.07  -0.07    -0.18  -0.08   0.06
  21   5    -0.02  -0.00   0.09     0.04   0.06  -0.04    -0.05   0.04  -0.01
  22   7    -0.02  -0.08   0.05     0.10   0.12  -0.09     0.07   0.20  -0.06
  23   5     0.05  -0.04  -0.04     0.07   0.05  -0.05     0.05   0.03   0.04
  24   7     0.07   0.06  -0.21     0.10   0.09  -0.11    -0.02  -0.05   0.06
  25   7     0.00   0.01  -0.10     0.01   0.01   0.08    -0.01   0.00   0.08
  26   5     0.01   0.01  -0.07     0.04   0.04   0.14    -0.01  -0.01  -0.01
  27   7     0.01   0.01  -0.13     0.01   0.01   0.05    -0.01   0.00  -0.06
  28   5     0.03   0.03  -0.15     0.03   0.03  -0.01    -0.01  -0.01   0.03
  29   7     0.02  -0.00  -0.07     0.04  -0.02   0.10     0.11  -0.12   0.21
  30   5     0.04   0.02   0.01    -0.05   0.05   0.03     0.02  -0.08   0.06
  31   7     0.04  -0.04   0.06    -0.23   0.09  -0.09     0.05  -0.07   0.05
  32   5     0.01  -0.06   0.08    -0.05  -0.03  -0.05     0.04  -0.02  -0.01
  33   7     0.11  -0.21   0.12     0.04  -0.10   0.01     0.03   0.05   0.01
  34   5     0.04  -0.07  -0.00     0.07  -0.00   0.00     0.04  -0.00   0.07
  35   5    -0.05  -0.00   0.08    -0.02  -0.07  -0.05     0.05  -0.02  -0.00
  36   7    -0.02   0.04   0.05     0.11  -0.24  -0.11     0.04   0.03  -0.03
  37   5     0.05   0.03  -0.01     0.07  -0.06   0.01     0.04  -0.01  -0.07
  38   7     0.04  -0.03  -0.15     0.03  -0.00   0.02     0.11  -0.12  -0.18
  39   5    -0.06   0.02  -0.03     0.01   0.05  -0.02     0.03  -0.08  -0.06
  40   7    -0.21   0.09   0.10    -0.09   0.02  -0.00     0.07  -0.08  -0.06
  41   7    -0.14   0.08   0.08     0.02  -0.12  -0.05     0.06  -0.03  -0.04
  42   5    -0.14   0.04   0.03    -0.05  -0.03  -0.01     0.06  -0.05  -0.06
  43   7    -0.09   0.03  -0.02    -0.04   0.02   0.02     0.11  -0.10  -0.15
  44   5    -0.01   0.00  -0.09     0.02  -0.03   0.01     0.07  -0.06  -0.13
  45   7     0.03  -0.01  -0.07     0.07  -0.14  -0.06     0.07  -0.05  -0.12
  46   5    -0.03   0.03   0.01     0.05  -0.16  -0.05     0.05   0.00  -0.05
  47   5     0.03   0.06   0.03     0.00  -0.05   0.00     0.02   0.14   0.02
  48   7     0.01  -0.05   0.01    -0.00   0.00   0.01     0.00   0.15   0.01
  49   5     0.04  -0.10   0.04     0.01  -0.08   0.01     0.00   0.09   0.00
  50   7     0.02  -0.00   0.01    -0.00  -0.13   0.01     0.00   0.08   0.01
  51   7    -0.04   0.01  -0.07     0.08   0.07  -0.10    -0.12  -0.08   0.08
  52   5     0.01   0.01  -0.13     0.07   0.07  -0.09    -0.03  -0.01   0.04
  53   7     0.03   0.00  -0.09     0.09   0.12  -0.12     0.03   0.09  -0.01
  54   5    -0.03  -0.06   0.00     0.07   0.09  -0.07     0.00   0.12  -0.01
  55   7    -0.11  -0.09   0.07     0.08   0.10  -0.07    -0.06   0.06  -0.00
  56   5    -0.10  -0.03   0.01     0.04   0.06  -0.06    -0.12  -0.02   0.03
  57   5     0.03  -0.04  -0.03    -0.01  -0.01   0.06     0.07  -0.06   0.15
  58   7     0.06  -0.12   0.03     0.06  -0.07   0.08     0.07  -0.04   0.12
  59   5     0.06  -0.15   0.06    -0.01  -0.06   0.01     0.04   0.02   0.04
  60   7     0.09  -0.15   0.09    -0.11   0.01  -0.04     0.04  -0.00   0.02
  61   5     0.04  -0.05   0.04    -0.15   0.03  -0.03     0.04  -0.04   0.06
  62   7     0.02  -0.01  -0.01    -0.11   0.04  -0.00     0.10  -0.10   0.15
  63   7     0.10   0.17   0.11     0.03  -0.03   0.00     0.05   0.17   0.04
  64   5     0.04   0.07   0.02     0.07  -0.01   0.06     0.05   0.02  -0.03
  65   7     0.04   0.04  -0.02     0.11   0.10   0.24    -0.02  -0.04  -0.04
  66   5     0.05   0.01   0.02    -0.02   0.04   0.07    -0.04  -0.08   0.00
  67   7     0.09   0.07   0.09    -0.10  -0.00  -0.02    -0.20  -0.09  -0.08
  68   5     0.04   0.06   0.08     0.00   0.02  -0.05    -0.06   0.04  -0.01
  69   7    -0.02   0.01   0.01    -0.15  -0.00   0.00    -0.02  -0.01  -0.01
  70   5    -0.12   0.03   0.03    -0.09   0.01   0.01    -0.01  -0.02  -0.02
  71   7    -0.10   0.01   0.01    -0.05  -0.01   0.01    -0.11  -0.01  -0.01
  72   5     0.00   0.02   0.02    -0.10  -0.01  -0.01    -0.12  -0.03  -0.03
                     13                     14                     15
                        a                      a                      a 
 Frequencies --   264.7437               264.7467               264.7471
 Red. masses --    12.8394                12.8394                12.8394
 Frc consts  --     0.0000                 0.0000                 0.0000
 IR Inten    --     0.0000                 0.0000                 0.0000
 Raman Activ --     0.0000                 0.0000                 0.0000
 Depolar     --     0.0000                 0.0000                 0.0000
 Atom AN      X      Y      Z        X      Y      Z        X      Y      Z
   1   5    -0.00   0.00   0.00    -0.08  -0.01  -0.10     0.13  -0.13  -0.11
   2   7     0.01  -0.00  -0.00    -0.11   0.03  -0.12     0.11  -0.00  -0.09
   3   5    -0.00  -0.00   0.00    -0.08   0.01  -0.10     0.13   0.13  -0.11
   4   7    -0.01   0.00   0.01    -0.11  -0.03  -0.12     0.11   0.00  -0.09
   5   7     0.02   0.15   0.01     0.02   0.01   0.11     0.02   0.01   0.10
   6   5     0.10   0.15  -0.02    -0.07  -0.01   0.12    -0.06  -0.01   0.10
   7   7    -0.02   0.15   0.01    -0.02   0.00   0.12    -0.02   0.02   0.09
   8   5    -0.10   0.15  -0.02     0.07  -0.01   0.12     0.06  -0.01   0.10
   9   5    -0.01  -0.00   0.01    -0.04   0.03  -0.05     0.04  -0.00  -0.03
  10   7    -0.01   0.04  -0.02    -0.04   0.01   0.01     0.03   0.00  -0.02
  11   5    -0.02   0.06   0.01    -0.02   0.01   0.04    -0.01   0.00   0.04
  12   7    -0.01   0.00   0.01     0.02  -0.03   0.03    -0.04   0.00   0.03
  13   5    -0.01  -0.06   0.02     0.03   0.01  -0.01    -0.05  -0.01   0.02
  14   7     0.02  -0.04   0.01     0.02   0.01  -0.04     0.02  -0.00  -0.02
  15   7    -0.01  -0.15   0.02     0.10   0.00  -0.01    -0.11  -0.02   0.02
  16   5     0.02  -0.15  -0.10     0.10  -0.01  -0.06    -0.12   0.01   0.07
  17   7    -0.01  -0.15  -0.02     0.09   0.01   0.01    -0.12  -0.01  -0.02
  18   5     0.02  -0.15   0.10     0.10  -0.01   0.06    -0.11   0.01  -0.07
  19   5     0.04   0.00   0.04     0.01  -0.00   0.02    -0.08  -0.05   0.08
  20   7     0.15   0.16  -0.09    -0.11  -0.06   0.12    -0.09  -0.07   0.09
  21   5     0.05   0.07  -0.04    -0.07  -0.00   0.02     0.03   0.06  -0.03
  22   7    -0.02  -0.01  -0.01    -0.03   0.02  -0.06     0.18   0.21  -0.17
  23   5    -0.04  -0.07   0.05     0.03   0.01  -0.08     0.02   0.06  -0.01
  24   7    -0.09  -0.15   0.14     0.11   0.05  -0.09    -0.11  -0.08   0.12
  25   7     0.01  -0.15   0.02     0.09  -0.01   0.01    -0.12   0.00  -0.02
  26   5    -0.02  -0.15  -0.09     0.10   0.01   0.06    -0.12  -0.02  -0.07
  27   7     0.01  -0.15  -0.02     0.10  -0.00  -0.01    -0.11   0.01   0.02
  28   5    -0.02  -0.15   0.09     0.10   0.01  -0.06    -0.12  -0.02   0.07
  29   7     0.09  -0.15   0.15     0.09  -0.07   0.10    -0.12   0.06  -0.11
  30   5    -0.04   0.00   0.04     0.08  -0.05   0.08    -0.02   0.00   0.01
  31   7    -0.15   0.16  -0.10     0.11  -0.08   0.11     0.09  -0.05   0.11
  32   5    -0.05   0.07  -0.04    -0.01   0.06  -0.02     0.08  -0.01   0.03
  33   7     0.01  -0.00  -0.01    -0.17   0.21  -0.18     0.06  -0.02  -0.03
  34   5     0.04  -0.07   0.05    -0.03   0.06  -0.03    -0.02  -0.00  -0.07
  35   5    -0.05   0.07   0.04    -0.07   0.00   0.02     0.03  -0.06  -0.03
  36   7     0.01   0.01   0.02    -0.03  -0.02  -0.06     0.18  -0.21  -0.17
  37   5     0.04  -0.07  -0.05     0.03  -0.01  -0.08     0.02  -0.06  -0.02
  38   7     0.09  -0.16  -0.15     0.11  -0.05  -0.10    -0.11   0.07   0.11
  39   5    -0.04  -0.00  -0.04     0.01   0.00   0.02    -0.08   0.05   0.08
  40   7    -0.14   0.15   0.09    -0.11   0.06   0.13    -0.10   0.07   0.09
  41   7     0.01   0.04  -0.02    -0.02   0.00  -0.01     0.04   0.01   0.02
  42   5     0.02   0.06   0.01     0.02   0.00   0.05     0.01   0.01   0.03
  43   7     0.01   0.00   0.01     0.03  -0.00   0.04    -0.03  -0.03   0.02
  44   5     0.01  -0.06   0.02     0.04  -0.00   0.01    -0.04   0.01  -0.01
  45   7    -0.02  -0.04   0.01    -0.02  -0.00  -0.03    -0.02   0.01  -0.04
  46   5     0.00  -0.00   0.01    -0.03   0.00  -0.04     0.05   0.03  -0.04
  47   5    -0.00   0.00   0.00    -0.11  -0.13  -0.13     0.10   0.01  -0.08
  48   7    -0.01  -0.00  -0.00    -0.09   0.00  -0.11     0.12   0.03  -0.11
  49   5    -0.00  -0.00   0.00    -0.11   0.13  -0.13     0.10  -0.01  -0.08
  50   7     0.00   0.00   0.01    -0.09  -0.00  -0.11     0.12  -0.03  -0.11
  51   7    -0.01  -0.00  -0.01     0.03   0.00   0.04    -0.03   0.03   0.02
  52   5    -0.01  -0.06  -0.02     0.04   0.00   0.01    -0.04  -0.01  -0.02
  53   7     0.02  -0.04  -0.01    -0.02   0.00  -0.03    -0.01  -0.01  -0.04
  54   5    -0.01   0.00  -0.00    -0.03  -0.00  -0.04     0.05  -0.03  -0.04
  55   7    -0.01   0.04   0.02    -0.02  -0.00  -0.01     0.04  -0.01   0.02
  56   5    -0.02   0.06  -0.01     0.02  -0.00   0.05     0.01  -0.01   0.03
  57   5     0.01  -0.06  -0.02     0.03  -0.01  -0.01    -0.05   0.00   0.01
  58   7    -0.02  -0.04  -0.01     0.02  -0.01  -0.04     0.01   0.00  -0.02
  59   5     0.00   0.00  -0.00    -0.04  -0.03  -0.05     0.04   0.00  -0.03
  60   7     0.01   0.04   0.02    -0.04  -0.01   0.01     0.03  -0.00  -0.02
  61   5     0.02   0.06  -0.01    -0.02  -0.01   0.04    -0.01  -0.00   0.04
  62   7     0.01  -0.00  -0.01     0.02   0.03   0.03    -0.04  -0.00   0.03
  63   7    -0.01   0.00   0.01    -0.17  -0.21  -0.18     0.06   0.02  -0.03
  64   5    -0.04  -0.07  -0.05    -0.03  -0.06  -0.03    -0.02  -0.00  -0.08
  65   7    -0.09  -0.15  -0.14     0.09   0.07   0.09    -0.13  -0.07  -0.12
  66   5     0.04  -0.00  -0.04     0.08   0.05   0.08    -0.02  -0.00   0.01
  67   7     0.14   0.15   0.09     0.11   0.08   0.11     0.10   0.05   0.11
  68   5     0.05   0.07   0.04    -0.01  -0.06  -0.02     0.08   0.01   0.03
  69   7    -0.02   0.15  -0.01     0.02  -0.01   0.11     0.01   0.00   0.10
  70   5    -0.09   0.15   0.01    -0.07   0.01   0.12    -0.06   0.01   0.10
  71   7     0.02   0.15  -0.01    -0.02  -0.00   0.12    -0.01  -0.01   0.09
  72   5     0.09   0.15   0.01     0.07   0.01   0.12     0.06   0.02   0.10
                     16                     17                     18
                        a                      a                      a 
 Frequencies --   278.6607               278.6610               292.2060
 Red. masses --    12.9858                12.9858                13.0081
 Frc consts  --     0.0000                 0.0000                 0.0000
 IR Inten    --     0.0000                 0.0000                 0.0000
 Raman Activ --     0.0000                 0.0000                 0.0000
 Depolar     --     0.0000                 0.0000                 0.0000
 Atom AN      X      Y      Z        X      Y      Z        X      Y      Z
   1   5    -0.04  -0.00  -0.04    -0.04   0.04   0.04     0.09   0.03   0.08
   2   7     0.05  -0.00  -0.05     0.02   0.00   0.02     0.12  -0.15   0.08
   3   5     0.04   0.00   0.04     0.04   0.04  -0.04     0.09  -0.03   0.08
   4   7    -0.05   0.00   0.05    -0.02   0.00  -0.02     0.12   0.15   0.08
   5   7    -0.00  -0.01   0.05    -0.00   0.06  -0.03    -0.05  -0.01  -0.06
   6   5    -0.03  -0.01   0.05    -0.02  -0.05  -0.01    -0.04  -0.03  -0.05
   7   7    -0.00   0.01  -0.05    -0.00  -0.06   0.03     0.05  -0.01  -0.06
   8   5    -0.03   0.01  -0.05    -0.02   0.05   0.01     0.04  -0.01  -0.04
   9   5    -0.06   0.00   0.06    -0.07  -0.04  -0.07     0.10   0.12   0.08
  10   7     0.05   0.08   0.16    -0.07  -0.01  -0.09     0.08   0.10   0.05
  11   5     0.03   0.03   0.09     0.02   0.09  -0.02    -0.04  -0.02  -0.04
  12   7    -0.03   0.00   0.03     0.08   0.19   0.08    -0.15  -0.07  -0.14
  13   5    -0.09  -0.03  -0.03    -0.02   0.09   0.02    -0.08  -0.04  -0.08
  14   7    -0.16  -0.08  -0.05    -0.09  -0.01  -0.07     0.03   0.08   0.02
  15   7     0.05  -0.01   0.00     0.03  -0.06  -0.00    -0.10  -0.02   0.09
  16   5    -0.05   0.01   0.03    -0.01  -0.05  -0.02    -0.08  -0.04  -0.06
  17   7    -0.05   0.01   0.00    -0.03   0.06  -0.00    -0.10  -0.02  -0.09
  18   5     0.05  -0.01   0.03     0.01   0.05  -0.02    -0.07  -0.03   0.06
  19   5     0.01  -0.00   0.01     0.01  -0.17  -0.01    -0.06   0.01  -0.05
  20   7    -0.11  -0.05   0.14    -0.06  -0.13  -0.02    -0.09  -0.04  -0.00
  21   5     0.01   0.00   0.14     0.01  -0.02  -0.08     0.02  -0.01   0.04
  22   7     0.09   0.00   0.09     0.11   0.13  -0.11     0.02  -0.06   0.05
  23   5     0.14  -0.00   0.01     0.08  -0.02  -0.01     0.02  -0.01  -0.01
  24   7     0.14   0.05  -0.11     0.02  -0.13   0.06     0.00   0.06  -0.15
  25   7     0.05   0.01  -0.00     0.03   0.06   0.00    -0.10   0.02  -0.09
  26   5    -0.05  -0.01  -0.03    -0.01   0.05   0.02    -0.07   0.03   0.07
  27   7    -0.05  -0.01  -0.00    -0.03  -0.06   0.00    -0.10   0.02   0.09
  28   5     0.05   0.01  -0.03     0.01  -0.05   0.02    -0.08   0.04  -0.07
  29   7     0.14  -0.05   0.11     0.02   0.13  -0.06     0.01  -0.05   0.14
  30   5     0.01  -0.00  -0.01     0.01   0.17   0.01    -0.02  -0.06   0.00
  31   7    -0.11   0.05  -0.14    -0.06   0.13   0.02     0.09  -0.02   0.02
  32   5     0.01  -0.00  -0.14     0.01   0.02   0.08     0.06   0.05  -0.04
  33   7     0.09  -0.00  -0.09     0.11  -0.13   0.11    -0.04   0.23  -0.06
  34   5     0.14   0.00  -0.01     0.08   0.02   0.01    -0.02   0.05   0.05
  35   5    -0.01   0.00  -0.14    -0.01  -0.02   0.08     0.02   0.01   0.04
  36   7    -0.09  -0.00  -0.09    -0.11   0.13   0.11     0.02   0.06   0.05
  37   5    -0.14  -0.00  -0.01    -0.08  -0.02   0.01     0.02   0.01  -0.01
  38   7    -0.14   0.05   0.11    -0.02  -0.13  -0.06     0.00  -0.06  -0.14
  39   5    -0.01   0.00  -0.01    -0.01  -0.17   0.01    -0.06  -0.01  -0.05
  40   7     0.11  -0.05  -0.14     0.06  -0.13   0.02    -0.08   0.04  -0.01
  41   7     0.05  -0.08  -0.16    -0.07   0.01   0.09     0.13  -0.05  -0.05
  42   5     0.03  -0.03  -0.09     0.02  -0.09   0.02     0.04  -0.01  -0.05
  43   7    -0.03  -0.00  -0.03     0.08  -0.19  -0.08    -0.06   0.02   0.01
  44   5    -0.09   0.03   0.03    -0.02  -0.09  -0.02    -0.08   0.03   0.07
  45   7    -0.16   0.08   0.05    -0.09   0.01   0.07    -0.03   0.01   0.10
  46   5    -0.06   0.00  -0.06    -0.07   0.04   0.07     0.06  -0.03   0.01
  47   5    -0.04   0.00   0.04    -0.04  -0.04  -0.04     0.05  -0.11   0.01
  48   7     0.05  -0.00   0.05     0.02  -0.00  -0.02     0.09   0.04   0.04
  49   5     0.04  -0.00  -0.04     0.04  -0.04   0.04     0.05   0.11   0.01
  50   7    -0.05   0.00  -0.05    -0.02  -0.00   0.02     0.09  -0.04   0.04
  51   7     0.03   0.00   0.03    -0.08  -0.19   0.08    -0.06  -0.02   0.02
  52   5     0.09   0.03  -0.03     0.02  -0.09   0.02    -0.08  -0.03   0.08
  53   7     0.16   0.08  -0.05     0.09   0.01  -0.07    -0.03  -0.01   0.10
  54   5     0.06  -0.00   0.06     0.07   0.04  -0.07     0.06   0.03   0.01
  55   7    -0.05  -0.08   0.16     0.07   0.01  -0.09     0.13   0.06  -0.05
  56   5    -0.03  -0.03   0.09    -0.02  -0.09  -0.02     0.05   0.01  -0.05
  57   5     0.09  -0.03   0.03     0.02   0.09  -0.02    -0.07   0.03  -0.07
  58   7     0.16  -0.08   0.05     0.09  -0.01   0.07     0.03  -0.09   0.03
  59   5     0.06  -0.00  -0.06     0.07  -0.04   0.07     0.10  -0.12   0.08
  60   7    -0.05   0.08  -0.16     0.07  -0.01   0.09     0.08  -0.10   0.05
  61   5    -0.03   0.03  -0.09    -0.02   0.09   0.02    -0.05   0.03  -0.04
  62   7     0.03  -0.00  -0.03    -0.08   0.19  -0.08    -0.15   0.07  -0.14
  63   7    -0.09   0.00   0.09    -0.11  -0.13  -0.11    -0.04  -0.23  -0.06
  64   5    -0.14   0.00   0.01    -0.08   0.02  -0.01    -0.02  -0.05   0.06
  65   7    -0.14  -0.05  -0.11    -0.02   0.13   0.06     0.01   0.05   0.15
  66   5    -0.01   0.00   0.01    -0.01   0.17  -0.01    -0.02   0.06   0.00
  67   7     0.11   0.05   0.14     0.06   0.13  -0.02     0.08   0.02   0.01
  68   5    -0.01  -0.00   0.14    -0.01   0.02  -0.08     0.06  -0.05  -0.04
  69   7     0.00  -0.01  -0.05     0.00   0.06   0.03    -0.06   0.01  -0.06
  70   5     0.03  -0.01  -0.05     0.02  -0.05   0.01    -0.04   0.03  -0.05
  71   7     0.00   0.01   0.05     0.00  -0.06  -0.03     0.06   0.01  -0.06
  72   5     0.03   0.01   0.05     0.02   0.05  -0.01     0.04   0.01  -0.04
                     19                     20                     21
                        a                      a                      a 
 Frequencies --   292.2063               292.2083               299.4542
 Red. masses --    13.0081                13.0081                13.2047
 Frc consts  --     0.0000                 0.0000                 0.0000
 IR Inten    --     0.0000                 0.0000                 0.9969
 Raman Activ --     0.0000                 0.0000                 0.0000
 Depolar     --     0.0000                 0.0000                 0.0000
 Atom AN      X      Y      Z        X      Y      Z        X      Y      Z
   1   5     0.01   0.11  -0.05    -0.01   0.01  -0.01     0.03   0.01   0.05
   2   7     0.04   0.04  -0.09     0.00  -0.00  -0.00     0.05  -0.12   0.05
   3   5     0.01  -0.11  -0.06     0.01  -0.01   0.01     0.06   0.04   0.02
   4   7     0.04  -0.04  -0.09     0.00   0.00  -0.00     0.04   0.05   0.04
   5   7     0.10   0.03   0.10    -0.10  -0.12  -0.02     0.07   0.05   0.04
   6   5     0.06   0.03   0.07     0.08  -0.09  -0.03     0.03   0.06   0.03
   7   7    -0.10   0.03   0.11     0.10  -0.12  -0.02    -0.12   0.06   0.05
   8   5    -0.06   0.04   0.08    -0.08  -0.08  -0.03     0.01   0.04   0.05
   9   5     0.01  -0.03  -0.06     0.01   0.00  -0.01    -0.01  -0.02  -0.03
  10   7     0.11   0.01   0.03    -0.08  -0.12  -0.05     0.02   0.01  -0.03
  11   5     0.08   0.03   0.08    -0.09  -0.09  -0.03    -0.00  -0.00  -0.01
  12   7     0.02   0.02   0.06    -0.05  -0.00   0.05    -0.02  -0.04  -0.04
  13   5    -0.05  -0.02  -0.05     0.03   0.09   0.08    -0.03  -0.03  -0.05
  14   7    -0.05  -0.06  -0.13     0.05   0.12   0.08    -0.04  -0.06  -0.07
  15   7    -0.06  -0.02   0.06     0.02   0.12  -0.10     0.05   0.04  -0.12
  16   5    -0.04  -0.02  -0.04     0.03   0.08  -0.08     0.01   0.05   0.03
  17   7    -0.06  -0.02  -0.06     0.02   0.12   0.10     0.03   0.03   0.02
  18   5    -0.05  -0.03   0.04     0.03   0.08   0.08     0.06   0.01   0.04
  19   5     0.00   0.06   0.02     0.04   0.00   0.04    -0.03  -0.02   0.08
  20   7     0.13   0.05  -0.01     0.17   0.01  -0.06     0.09   0.08  -0.03
  21   5     0.05  -0.05   0.02     0.04  -0.05  -0.04     0.09   0.09  -0.04
  22   7    -0.06  -0.23   0.04     0.01  -0.01   0.01     0.10   0.12  -0.05
  23   5    -0.03  -0.05  -0.06    -0.04   0.04   0.03    -0.01  -0.01   0.07
  24   7     0.02   0.02  -0.09    -0.06  -0.01   0.16    -0.11  -0.10   0.18
  25   7    -0.06   0.01  -0.05    -0.03   0.12  -0.11    -0.02   0.00  -0.06
  26   5    -0.05   0.02   0.04    -0.04   0.09  -0.07    -0.00   0.01  -0.01
  27   7    -0.06   0.01   0.05    -0.03   0.12   0.11    -0.01  -0.01  -0.04
  28   5    -0.03   0.01  -0.04    -0.04   0.09   0.07    -0.04  -0.03   0.08
  29   7    -0.01  -0.04   0.08     0.06  -0.01   0.17     0.11  -0.08   0.15
  30   5    -0.05   0.01   0.06    -0.04  -0.00   0.04     0.08  -0.05   0.09
  31   7    -0.13   0.06   0.00    -0.17   0.01  -0.06     0.08  -0.03   0.07
  32   5    -0.01  -0.01  -0.02    -0.03  -0.05  -0.04    -0.04   0.09  -0.01
  33   7     0.05  -0.06  -0.02    -0.01   0.00   0.01    -0.09   0.15  -0.08
  34   5     0.03  -0.01  -0.02     0.04   0.05   0.03     0.00   0.06   0.00
  35   5     0.06   0.05   0.02    -0.03  -0.04   0.04     0.08  -0.03  -0.00
  36   7    -0.06   0.23   0.04    -0.01   0.01  -0.01    -0.04   0.10   0.09
  37   5    -0.04   0.04  -0.06     0.04   0.05  -0.04    -0.05   0.07   0.08
  38   7     0.01  -0.02  -0.08     0.06  -0.01  -0.17    -0.07   0.11   0.14
  39   5     0.01  -0.06   0.03    -0.04  -0.00  -0.04     0.06   0.01  -0.01
  40   7     0.15  -0.05  -0.02    -0.16   0.01   0.06     0.13  -0.07  -0.07
  41   7     0.02  -0.08  -0.02     0.09  -0.13  -0.06    -0.12   0.07   0.00
  42   5    -0.08   0.04   0.08     0.09  -0.09  -0.03    -0.09   0.05   0.04
  43   7    -0.14   0.07   0.15     0.04   0.00   0.05    -0.08  -0.01   0.02
  44   5    -0.04   0.02   0.04    -0.04   0.09   0.09     0.01  -0.07  -0.08
  45   7     0.05  -0.11  -0.09    -0.05   0.12   0.09     0.05  -0.18  -0.19
  46   5     0.08  -0.12  -0.10    -0.00  -0.01  -0.01    -0.01  -0.05  -0.06
  47   5     0.08   0.03  -0.09     0.01  -0.00  -0.01    -0.02  -0.03   0.01
  48   7     0.08   0.15  -0.12     0.01   0.01  -0.01    -0.03  -0.06   0.00
  49   5     0.08  -0.03  -0.09    -0.00   0.00   0.00    -0.05   0.08  -0.03
  50   7     0.08  -0.15  -0.12     0.01  -0.01  -0.00    -0.02  -0.01  -0.01
  51   7    -0.14  -0.07   0.15    -0.05  -0.00  -0.04     0.08   0.02  -0.14
  52   5    -0.04  -0.03   0.05     0.03   0.09  -0.08     0.06   0.05  -0.12
  53   7     0.04   0.09  -0.08     0.06   0.13  -0.09     0.01   0.04  -0.11
  54   5     0.08   0.12  -0.10     0.01   0.01   0.00    -0.07  -0.07   0.00
  55   7     0.03   0.09  -0.03    -0.09  -0.12   0.05    -0.20  -0.20   0.04
  56   5    -0.07  -0.03   0.07    -0.09  -0.09   0.04    -0.05  -0.06  -0.01
  57   5    -0.05   0.01  -0.04    -0.04   0.09  -0.09    -0.07   0.02  -0.09
  58   7    -0.04   0.05  -0.12    -0.06   0.12  -0.10    -0.00  -0.08   0.01
  59   5     0.01   0.03  -0.06    -0.00  -0.00   0.01     0.06  -0.10   0.04
  60   7     0.10  -0.00   0.02     0.10  -0.12   0.06     0.09  -0.15   0.01
  61   5     0.07  -0.02   0.08     0.09  -0.09   0.04    -0.04  -0.02  -0.06
  62   7     0.01  -0.02   0.06     0.04   0.00  -0.04    -0.18   0.05  -0.20
  63   7     0.05   0.06  -0.02     0.01  -0.00  -0.01     0.05   0.07   0.06
  64   5     0.04   0.01  -0.02    -0.04   0.05  -0.03     0.05   0.01   0.02
  65   7    -0.00   0.04   0.09    -0.06  -0.01  -0.16     0.08   0.08   0.11
  66   5    -0.05  -0.01   0.06     0.03   0.00  -0.03    -0.01   0.04   0.00
  67   7    -0.15  -0.06  -0.00     0.16   0.01   0.06     0.04   0.03   0.04
  68   5    -0.01   0.02  -0.02     0.03  -0.05   0.04    -0.03  -0.02   0.03
  69   7     0.09  -0.01   0.10     0.11  -0.12   0.03    -0.01  -0.02  -0.01
  70   5     0.07  -0.02   0.07    -0.07  -0.09   0.04     0.08  -0.04  -0.03
  71   7    -0.09  -0.01   0.10    -0.11  -0.12   0.03    -0.04  -0.03  -0.00
  72   5    -0.07  -0.03   0.08     0.07  -0.09   0.04    -0.04  -0.02  -0.01
                     22                     23                     24
                        a                      a                      a 
 Frequencies --   299.4550               299.4566               331.0722
 Red. masses --    13.2047                13.2047                12.9904
 Frc consts  --     0.0000                 0.0000                 0.0000
 IR Inten    --     0.9969                 0.9969                 0.0000
 Raman Activ --     0.0000                 0.0000                 0.0000
 Depolar     --     0.0000                 0.0000                 0.0000
 Atom AN      X      Y      Z        X      Y      Z        X      Y      Z
   1   5    -0.02   0.07   0.04     0.05  -0.03   0.01     0.02   0.00   0.02
   2   7    -0.01  -0.03   0.03     0.02  -0.01   0.03    -0.01   0.00   0.01
   3   5    -0.01  -0.05   0.03     0.00  -0.04   0.05    -0.02   0.00  -0.02
   4   7    -0.01   0.00   0.02     0.04   0.11   0.04     0.01   0.00  -0.01
   5   7    -0.08  -0.03  -0.01    -0.06  -0.01  -0.04    -0.15  -0.01  -0.03
   6   5     0.00  -0.01  -0.02     0.07   0.02  -0.05    -0.12   0.00  -0.02
   7   7    -0.02  -0.02   0.00     0.00   0.00  -0.03    -0.15   0.01   0.03
   8   5     0.07  -0.05   0.02    -0.03  -0.01  -0.02    -0.12  -0.00   0.02
   9   5    -0.05  -0.01   0.03     0.06   0.12   0.06     0.05   0.00  -0.05
  10   7    -0.20  -0.16  -0.04     0.05   0.12   0.02     0.16   0.17  -0.03
  11   5    -0.10  -0.07  -0.03    -0.07   0.00  -0.07    -0.04   0.05   0.01
  12   7    -0.03  -0.01   0.04    -0.20  -0.04  -0.20    -0.01  -0.00   0.01
  13   5     0.03   0.07   0.10    -0.06   0.01  -0.05    -0.01  -0.05   0.04
  14   7     0.02   0.13   0.17     0.02   0.14   0.08     0.03  -0.17  -0.16
  15   7     0.03   0.04  -0.03    -0.03   0.01   0.00    -0.03  -0.01   0.15
  16   5     0.04   0.03   0.00    -0.05   0.02   0.07     0.02  -0.00   0.12
  17   7     0.04   0.05   0.11    -0.03  -0.00  -0.05     0.03   0.01   0.15
  18   5     0.01   0.06  -0.05    -0.02   0.00  -0.04    -0.02   0.00   0.12
  19   5     0.04   0.05  -0.03     0.09   0.01  -0.05    -0.03   0.00  -0.03
  20   7     0.13   0.08  -0.10     0.14   0.07  -0.08    -0.04   0.06  -0.07
  21   5     0.00  -0.03  -0.03     0.05  -0.01   0.01     0.07   0.10  -0.04
  22   7     0.01  -0.01  -0.00    -0.09  -0.17   0.12    -0.02   0.00  -0.02
  23   5     0.02  -0.05   0.03    -0.05  -0.09   0.07    -0.04  -0.10   0.07
  24   7     0.07   0.05  -0.08    -0.02  -0.06   0.06    -0.07  -0.06  -0.04
  25   7     0.02  -0.04   0.08     0.05  -0.04   0.07    -0.03   0.01  -0.15
  26   5    -0.01  -0.05  -0.07     0.06  -0.03   0.03     0.02   0.00  -0.12
  27   7     0.01  -0.03  -0.01     0.06  -0.05  -0.12     0.03  -0.01  -0.15
  28   5     0.02  -0.02   0.02     0.04  -0.05   0.00    -0.02  -0.00  -0.12
  29   7    -0.06   0.10  -0.14     0.02  -0.03   0.03    -0.07   0.06   0.04
  30   5     0.06  -0.01  -0.01    -0.03  -0.02  -0.04    -0.03  -0.00   0.03
  31   7     0.19  -0.12   0.10     0.05  -0.05   0.03    -0.04  -0.06   0.07
  32   5     0.09  -0.04   0.03     0.01  -0.02   0.05     0.07  -0.10   0.04
  33   7    -0.00   0.05  -0.05     0.09  -0.13   0.09    -0.02  -0.00   0.02
  34   5    -0.04   0.08  -0.10     0.04  -0.01  -0.01    -0.04   0.10  -0.07
  35   5    -0.00   0.05  -0.02     0.06  -0.08  -0.05    -0.07   0.10   0.04
  36   7    -0.04   0.09   0.05     0.12  -0.16  -0.09     0.02   0.00   0.02
  37   5     0.01   0.07   0.03     0.01  -0.01   0.05     0.04  -0.10  -0.07
  38   7     0.08  -0.05  -0.10    -0.07   0.06   0.12     0.07  -0.06   0.04
  39   5     0.07  -0.05  -0.06    -0.04   0.00   0.08     0.03   0.00   0.03
  40   7     0.15  -0.08  -0.11     0.08  -0.07  -0.03     0.04   0.06   0.07
  41   7     0.00  -0.05   0.02    -0.17   0.19   0.05     0.16  -0.17   0.03
  42   5    -0.08   0.02   0.06    -0.04   0.06  -0.01    -0.04  -0.05  -0.01
  43   7    -0.17   0.05   0.16     0.09  -0.00  -0.13    -0.01   0.00  -0.01
  44   5    -0.05  -0.00   0.05     0.05  -0.03  -0.08    -0.01   0.05  -0.04
  45   7    -0.01  -0.10  -0.06    -0.01   0.01  -0.05     0.03   0.17   0.16
  46   5     0.02  -0.07  -0.04    -0.07   0.09   0.02     0.05  -0.00   0.05
  47   5     0.05  -0.00  -0.05    -0.03  -0.07  -0.04     0.02  -0.00  -0.02
  48   7     0.05   0.09  -0.06     0.00   0.06  -0.02    -0.01  -0.00  -0.01
  49   5     0.04   0.02  -0.06     0.01   0.00   0.00    -0.02  -0.00   0.02
  50   7     0.05  -0.11  -0.06    -0.01   0.05  -0.01     0.01  -0.00   0.01
  51   7    -0.11  -0.05   0.10    -0.15  -0.01   0.11     0.01   0.00   0.01
  52   5    -0.04  -0.00   0.03    -0.02   0.05  -0.03     0.01   0.05   0.04
  53   7    -0.02   0.05  -0.03     0.05   0.19  -0.17    -0.03   0.17  -0.16
  54   5     0.00   0.03  -0.01     0.03   0.10  -0.07    -0.05  -0.00  -0.05
  55   7    -0.03   0.01   0.03    -0.05   0.02  -0.01    -0.16  -0.17  -0.03
  56   5    -0.06  -0.02   0.05    -0.09  -0.03   0.06     0.04  -0.05   0.01
  57   5     0.01  -0.07   0.09     0.01   0.01   0.00     0.01  -0.05  -0.04
  58   7     0.04  -0.18   0.20    -0.04   0.06  -0.03    -0.03  -0.17   0.16
  59   5    -0.03  -0.03   0.05    -0.04   0.06  -0.03    -0.05   0.00   0.05
  60   7    -0.17   0.12  -0.03    -0.06   0.08  -0.04    -0.16   0.17   0.03
  61   5    -0.12   0.07  -0.05    -0.01   0.02   0.00     0.04   0.05  -0.01
  62   7    -0.08   0.01  -0.01     0.04   0.02   0.04     0.01  -0.00  -0.01
  63   7     0.05   0.03  -0.00    -0.11  -0.20  -0.12     0.02  -0.00  -0.02
  64   5    -0.02  -0.06  -0.10    -0.02  -0.08  -0.02     0.04   0.10   0.07
  65   7    -0.08  -0.10  -0.16     0.07   0.03   0.09     0.07   0.06  -0.04
  66   5     0.02   0.01  -0.04     0.10   0.04   0.09     0.03  -0.00  -0.03
  67   7     0.17   0.12   0.09     0.11   0.04   0.09     0.04  -0.06  -0.07
  68   5     0.09   0.07   0.04    -0.01  -0.07  -0.02    -0.07  -0.10  -0.04
  69   7    -0.11   0.04  -0.03     0.06  -0.04   0.05     0.15  -0.01   0.03
  70   5     0.02   0.01  -0.04     0.00  -0.05   0.04     0.12   0.00   0.02
  71   7     0.00   0.03  -0.02    -0.12  -0.05   0.06     0.15   0.01  -0.03
  72   5     0.05   0.06   0.00     0.04  -0.02   0.06     0.12  -0.00  -0.02
                     25                     26                     27
                        a                      a                      a 
 Frequencies --   331.0722               344.7968               344.7973
 Red. masses --    12.9904                13.1166                13.1166
 Frc consts  --     0.0000                 0.0000                 0.0000
 IR Inten    --     0.0000                 0.0396                 0.0396
 Raman Activ --     0.0000                 0.0000                 0.0000
 Depolar     --     0.0000                 0.0000                 0.0000
 Atom AN      X      Y      Z        X      Y      Z        X      Y      Z
   1   5     0.01   0.14  -0.01     0.06   0.03  -0.04     0.07  -0.06  -0.08
   2   7    -0.02   0.17  -0.02     0.03   0.10  -0.04     0.09  -0.06  -0.08
   3   5    -0.01   0.14   0.01     0.03   0.05  -0.01     0.09   0.00  -0.10
   4   7     0.02   0.17   0.02     0.06   0.06  -0.01     0.07  -0.04  -0.10
   5   7    -0.08  -0.02   0.00     0.09   0.05   0.01     0.09   0.03  -0.03
   6   5    -0.07   0.02   0.01     0.07   0.01   0.01     0.05   0.00  -0.03
   7   7    -0.08   0.02  -0.00     0.13   0.01  -0.03     0.05   0.00  -0.05
   8   5    -0.07  -0.02  -0.01     0.05   0.05  -0.03     0.03   0.03  -0.05
   9   5    -0.04   0.04  -0.04    -0.05  -0.04  -0.03     0.00   0.01   0.05
  10   7    -0.10  -0.08   0.02    -0.15  -0.15  -0.03    -0.08  -0.10   0.02
  11   5    -0.02  -0.02   0.06    -0.03  -0.06  -0.05     0.03  -0.03  -0.02
  12   7     0.19  -0.03   0.19    -0.08  -0.03  -0.09     0.02   0.01  -0.01
  13   5     0.06  -0.02  -0.02    -0.03  -0.02  -0.04     0.03   0.06   0.00
  14   7     0.02  -0.08  -0.10    -0.03  -0.03  -0.03     0.00   0.20   0.19
  15   7    -0.00   0.02  -0.08     0.03  -0.00   0.06     0.08  -0.03  -0.11
  16   5     0.01   0.02  -0.07     0.03  -0.01   0.01     0.04  -0.04  -0.08
  17   7     0.00  -0.02  -0.08     0.04   0.01   0.01     0.04  -0.07  -0.11
  18   5    -0.01  -0.02  -0.07     0.02   0.00   0.02     0.08  -0.07  -0.04
  19   5     0.10   0.05  -0.10    -0.05  -0.02   0.06    -0.11  -0.02   0.11
  20   7    -0.02   0.05  -0.02    -0.07  -0.10   0.09    -0.05  -0.04   0.06
  21   5    -0.08  -0.02   0.03    -0.11  -0.12   0.03    -0.02  -0.03   0.02
  22   7    -0.08   0.04   0.08    -0.06  -0.05   0.05     0.11   0.03  -0.11
  23   5    -0.03  -0.02   0.08    -0.02  -0.03   0.04    -0.02  -0.05   0.04
  24   7     0.02   0.05   0.02     0.10   0.10  -0.02    -0.11  -0.10   0.07
  25   7    -0.00  -0.02   0.08     0.10   0.08   0.03     0.00   0.02  -0.13
  26   5     0.01  -0.02   0.07     0.08   0.08   0.05     0.04   0.02  -0.06
  27   7     0.00   0.02   0.08     0.08   0.09   0.04     0.04  -0.02  -0.09
  28   5    -0.01   0.02   0.07     0.10   0.09  -0.01    -0.00  -0.02  -0.06
  29   7     0.02  -0.05  -0.02    -0.03   0.02  -0.02     0.15  -0.15   0.07
  30   5     0.10  -0.05   0.10    -0.08   0.01  -0.09     0.03   0.00   0.01
  31   7    -0.02  -0.05   0.02    -0.07   0.12  -0.13    -0.05   0.10  -0.08
  32   5    -0.08   0.02  -0.03    -0.02   0.03  -0.01    -0.06   0.07  -0.00
  33   7    -0.08  -0.04  -0.08     0.12  -0.05   0.13    -0.07   0.03  -0.05
  34   5    -0.03   0.02  -0.08    -0.01  -0.01   0.02    -0.00  -0.04   0.02
  35   5     0.08  -0.02  -0.03    -0.01   0.03   0.00    -0.09   0.09   0.04
  36   7     0.08   0.04  -0.08     0.10  -0.05  -0.11     0.01   0.03  -0.01
  37   5     0.03  -0.02  -0.08     0.00  -0.06  -0.06    -0.04   0.11   0.11
  38   7    -0.02   0.05  -0.02     0.04  -0.05  -0.02    -0.07   0.07   0.07
  39   5    -0.10   0.05   0.10    -0.03   0.00   0.05    -0.12   0.04   0.12
  40   7     0.02   0.05   0.02    -0.07   0.14   0.15    -0.05   0.01   0.02
  41   7    -0.10   0.08  -0.02    -0.04   0.07  -0.00    -0.04   0.04   0.03
  42   5    -0.02   0.02  -0.06     0.02   0.04   0.05    -0.04   0.03   0.04
  43   7     0.19   0.03  -0.19    -0.11  -0.01   0.13    -0.14   0.03   0.13
  44   5     0.06   0.02   0.02    -0.01  -0.04   0.01    -0.06   0.05   0.03
  45   7     0.02   0.08   0.10    -0.01  -0.18  -0.18    -0.03   0.11   0.10
  46   5    -0.04  -0.04   0.04     0.01   0.01  -0.05    -0.02   0.04   0.03
  47   5     0.01  -0.14   0.01     0.06   0.07   0.05     0.00  -0.03  -0.02
  48   7    -0.02  -0.17   0.02     0.09   0.07   0.05    -0.01  -0.08  -0.03
  49   5    -0.01  -0.14  -0.01     0.09   0.02   0.08    -0.01  -0.02  -0.04
  50   7     0.02  -0.17  -0.02     0.06   0.09   0.07     0.01  -0.02  -0.04
  51   7    -0.19   0.03   0.19    -0.01  -0.02   0.03    -0.20  -0.01   0.20
  52   5    -0.06   0.02  -0.02     0.01   0.01   0.04    -0.07  -0.03   0.01
  53   7    -0.02   0.08  -0.10    -0.03   0.04  -0.03    -0.02  -0.02  -0.00
  54   5     0.04  -0.04  -0.04    -0.06  -0.02   0.02     0.02  -0.04  -0.01
  55   7     0.10   0.08   0.02    -0.20  -0.20   0.01     0.06   0.05   0.02
  56   5     0.02   0.02   0.06    -0.02  -0.07   0.04    -0.02  -0.01   0.05
  57   5    -0.06  -0.02   0.02    -0.04  -0.01  -0.01     0.04  -0.05  -0.02
  58   7    -0.02  -0.08   0.10    -0.02  -0.11   0.12    -0.01  -0.11   0.09
  59   5     0.04   0.04   0.04     0.02   0.03   0.04    -0.04  -0.01   0.00
  60   7     0.10  -0.08  -0.02     0.01   0.02  -0.01    -0.18   0.19   0.01
  61   5     0.02  -0.02  -0.06     0.00   0.03  -0.06     0.01   0.05  -0.01
  62   7    -0.19  -0.03  -0.19    -0.18   0.00  -0.19     0.08   0.01   0.06
  63   7     0.08  -0.04   0.08    -0.03  -0.05  -0.03     0.03   0.03   0.04
  64   5     0.03   0.02   0.08    -0.03  -0.08  -0.08     0.02   0.10   0.09
  65   7    -0.02  -0.05   0.02     0.03   0.03  -0.02     0.11   0.12   0.07
  66   5    -0.10  -0.05  -0.10    -0.10  -0.03  -0.10     0.04   0.01   0.02
  67   7     0.02  -0.05  -0.02    -0.07  -0.07  -0.07    -0.05  -0.12  -0.12
  68   5     0.08   0.02   0.03    -0.12  -0.12  -0.04     0.00  -0.01   0.01
  69   7     0.08  -0.02  -0.00     0.12   0.04   0.07     0.08  -0.08  -0.07
  70   5     0.07   0.02  -0.01     0.04   0.07   0.07     0.06  -0.06  -0.07
  71   7     0.08   0.02   0.00     0.10   0.08   0.03     0.06  -0.06  -0.09
  72   5     0.07  -0.02   0.01     0.08   0.04   0.03     0.01  -0.08  -0.09
                     28                     29                     30
                        a                      a                      a 
 Frequencies --   344.7986               357.4766               357.4768
 Red. masses --    13.1166                13.1589                13.1589
 Frc consts  --     0.0000                 0.0000                 0.0000
 IR Inten    --     0.0396                 0.0000                 0.0000
 Raman Activ --     0.0000                 0.0000                 0.0000
 Depolar     --     0.0000                 0.0000                 0.0000
 Atom AN      X      Y      Z        X      Y      Z        X      Y      Z
   1   5    -0.02  -0.05   0.04     0.01  -0.00  -0.09    -0.08  -0.00  -0.08
   2   7     0.02  -0.08   0.04    -0.04   0.19  -0.09     0.05   0.09  -0.11
   3   5     0.01  -0.06   0.00    -0.02   0.00  -0.11     0.03   0.00   0.03
   4   7    -0.02  -0.12   0.01     0.01  -0.19  -0.14    -0.11  -0.09   0.05
   5   7     0.05  -0.08   0.09     0.06  -0.07   0.11    -0.14  -0.00  -0.09
   6   5    -0.01  -0.10   0.09    -0.00   0.06   0.08     0.00   0.03  -0.08
   7   7     0.04  -0.10   0.07    -0.06   0.09  -0.05     0.14   0.04  -0.13
   8   5     0.06  -0.08   0.07     0.00  -0.05  -0.03    -0.00   0.01  -0.11
   9   5     0.05  -0.02   0.04     0.04  -0.06  -0.00    -0.05  -0.03   0.07
  10   7     0.11   0.09  -0.01     0.11  -0.01   0.07     0.06   0.12   0.12
  11   5     0.00   0.00  -0.04     0.02  -0.07   0.06    -0.05   0.00   0.02
  12   7    -0.19   0.01  -0.19    -0.12  -0.11  -0.04    -0.06  -0.05  -0.01
  13   5    -0.05  -0.01   0.01    -0.02  -0.01   0.04    -0.00  -0.04   0.07
  14   7    -0.01   0.05   0.07     0.03   0.01   0.04    -0.08  -0.12   0.01
  15   7     0.05  -0.09   0.07    -0.03   0.12  -0.14     0.10   0.05  -0.22
  16   5     0.08  -0.09   0.02    -0.02   0.10   0.00     0.11   0.04  -0.00
  17   7     0.08  -0.06   0.09    -0.02   0.11   0.14     0.13   0.02   0.22
  18   5     0.05  -0.06   0.07    -0.03   0.10  -0.00     0.09   0.01   0.00
  19   5     0.03   0.02  -0.02    -0.02   0.07   0.06    -0.02   0.00  -0.02
  20   7    -0.03  -0.11   0.11     0.01   0.07   0.08    -0.05   0.04  -0.01
  21   5     0.05   0.04  -0.02     0.01   0.04   0.06     0.05   0.04   0.09
  22   7     0.09   0.07  -0.10    -0.00  -0.04  -0.04     0.07  -0.00   0.07
  23   5     0.02   0.11  -0.11    -0.02  -0.02  -0.04     0.09  -0.04   0.05
  24   7     0.05   0.07  -0.05    -0.01  -0.02  -0.03    -0.01  -0.04  -0.05
  25   7     0.00  -0.05   0.05     0.04  -0.11   0.23    -0.09  -0.00  -0.14
  26   5    -0.03  -0.05   0.03     0.02  -0.10  -0.00    -0.11  -0.01  -0.00
  27   7    -0.03  -0.03   0.10     0.03  -0.12  -0.23    -0.13  -0.04   0.14
  28   5    -0.00  -0.02   0.05     0.03  -0.10   0.00    -0.09  -0.04   0.00
  29   7    -0.02   0.03  -0.05    -0.03   0.02   0.05    -0.00  -0.03  -0.03
  30   5    -0.09   0.04  -0.09    -0.04  -0.08  -0.05     0.01  -0.04  -0.04
  31   7    -0.03  -0.01   0.01    -0.01  -0.08  -0.07     0.05   0.00  -0.04
  32   5    -0.11   0.10  -0.04     0.04  -0.06  -0.09    -0.04   0.02   0.06
  33   7    -0.06   0.07  -0.06     0.04   0.04   0.00    -0.06   0.02   0.08
  34   5    -0.04   0.12  -0.12     0.02   0.03   0.01    -0.09  -0.03   0.06
  35   5    -0.09   0.09   0.01     0.04  -0.06   0.09    -0.05   0.01  -0.06
  36   7    -0.12   0.07   0.11     0.03   0.04   0.00    -0.07   0.00  -0.07
  37   5    -0.01   0.01   0.03     0.02   0.04  -0.01    -0.06  -0.01  -0.05
  38   7     0.13  -0.13  -0.05    -0.02   0.03  -0.05     0.03   0.00   0.03
  39   5     0.01   0.01  -0.00    -0.03  -0.07   0.04     0.03  -0.00   0.03
  40   7    -0.03   0.05   0.03    -0.01  -0.08   0.07     0.03  -0.00   0.03
  41   7    -0.20   0.19   0.00     0.13  -0.06  -0.13    -0.00   0.11   0.07
  42   5    -0.01   0.05  -0.00    -0.02   0.06  -0.07     0.05   0.04  -0.01
  43   7     0.11   0.02  -0.09    -0.12   0.09   0.01    -0.00   0.00   0.00
  44   5     0.04  -0.02   0.03    -0.03   0.02  -0.08    -0.01  -0.04   0.04
  45   7    -0.01  -0.02   0.00    -0.03   0.05  -0.01     0.08  -0.11  -0.00
  46   5    -0.06  -0.00   0.03     0.01   0.06  -0.03     0.07   0.00   0.07
  47   5     0.08  -0.03   0.08    -0.01   0.00   0.11     0.07   0.00  -0.03
  48   7     0.04  -0.10   0.08     0.02  -0.17   0.13    -0.06  -0.00  -0.05
  49   5     0.04  -0.08   0.04     0.02  -0.00   0.09    -0.03  -0.00   0.08
  50   7     0.07  -0.11   0.04    -0.02   0.17   0.09     0.10   0.00   0.10
  51   7    -0.03   0.02   0.05    -0.11  -0.09   0.03    -0.04  -0.00  -0.04
  52   5     0.02   0.06  -0.02    -0.02  -0.00  -0.04    -0.03  -0.01  -0.07
  53   7     0.01   0.20  -0.20     0.02   0.01  -0.02    -0.12  -0.13   0.05
  54   5     0.03   0.01  -0.06     0.04  -0.06   0.00    -0.06  -0.00  -0.06
  55   7     0.01  -0.01  -0.02     0.11  -0.00  -0.07     0.05   0.13  -0.12
  56   5     0.04  -0.01   0.02     0.01  -0.07  -0.06    -0.07   0.01  -0.03
  57   5    -0.03   0.05  -0.04    -0.02   0.02   0.08     0.02  -0.01  -0.04
  58   7    -0.03   0.14  -0.14    -0.02   0.05   0.02     0.12  -0.12   0.06
  59   5    -0.05   0.03  -0.05     0.01   0.06   0.03     0.07   0.03  -0.06
  60   7    -0.09   0.09  -0.03     0.13  -0.06   0.13     0.01   0.12  -0.07
  61   5    -0.04   0.03  -0.02    -0.01   0.06   0.07     0.07   0.04  -0.00
  62   7    -0.05   0.03  -0.05    -0.13   0.11  -0.03    -0.01   0.05  -0.05
  63   7     0.15   0.07   0.14     0.00  -0.04   0.04     0.08  -0.02  -0.06
  64   5    -0.00   0.00   0.02    -0.02  -0.02   0.04     0.06  -0.02  -0.04
  65   7    -0.10  -0.09  -0.05    -0.02  -0.01   0.03    -0.04  -0.01   0.05
  66   5    -0.07  -0.00  -0.07    -0.02   0.08  -0.06    -0.04   0.04   0.01
  67   7    -0.03  -0.05  -0.07     0.01   0.07  -0.08    -0.03   0.03  -0.00
  68   5     0.03   0.02  -0.00     0.02   0.04  -0.06     0.06   0.03  -0.09
  69   7     0.02  -0.04   0.01    -0.04   0.08   0.05     0.22  -0.01   0.13
  70   5     0.03  -0.02   0.01     0.00  -0.06   0.03    -0.00  -0.04   0.11
  71   7     0.08  -0.02  -0.00     0.04  -0.09  -0.11    -0.22  -0.05   0.09
  72   5     0.02  -0.03  -0.01    -0.00   0.05  -0.08     0.00  -0.01   0.09
                     31                     32                     33
                        a                      a                      a 
 Frequencies --   357.4769               357.9995               360.2791
 Red. masses --    13.1589                12.7768                13.0460
 Frc consts  --     0.0000                 0.0000                 0.0000
 IR Inten    --     0.0000                 0.0000                 1.0882
 Raman Activ --     0.0000                 0.0000                 0.0000
 Depolar     --     0.0000                 0.0000                 0.0000
 Atom AN      X      Y      Z        X      Y      Z        X      Y      Z
   1   5    -0.09   0.00   0.02    -0.01  -0.01   0.01     0.09   0.05   0.10
   2   7    -0.13   0.16   0.02     0.01  -0.02   0.01     0.12  -0.08   0.11
   3   5    -0.11  -0.00  -0.00     0.01  -0.01  -0.01     0.10   0.05   0.09
   4   7    -0.10  -0.16  -0.01    -0.01  -0.02  -0.01     0.13   0.15   0.12
   5   7     0.22   0.13   0.02    -0.02  -0.01  -0.01    -0.06  -0.02  -0.08
   6   5     0.00   0.09   0.02    -0.01   0.01  -0.01    -0.04  -0.02  -0.06
   7   7    -0.22   0.11   0.04    -0.02   0.01   0.01     0.03  -0.02  -0.07
   8   5    -0.00   0.11   0.03    -0.01  -0.01   0.01    -0.01  -0.01  -0.06
   9   5     0.02  -0.05   0.01     0.07   0.07   0.07     0.04   0.03   0.04
  10   7     0.00  -0.05  -0.03     0.13   0.13   0.04    -0.05  -0.05  -0.01
  11   5     0.07  -0.01  -0.03     0.07   0.07   0.07    -0.02  -0.02  -0.01
  12   7    -0.01  -0.09  -0.12     0.13   0.04   0.13     0.09   0.02   0.09
  13   5     0.07  -0.06  -0.02     0.07   0.07   0.07    -0.01  -0.03  -0.02
  14   7     0.12   0.05   0.12     0.04   0.13   0.13    -0.01  -0.04  -0.04
  15   7    -0.11   0.07   0.06     0.01   0.01  -0.02    -0.09  -0.04   0.04
  16   5     0.03   0.04   0.00    -0.01   0.01  -0.01    -0.07  -0.03  -0.04
  17   7     0.06  -0.10  -0.06    -0.01  -0.01  -0.02    -0.09  -0.04  -0.08
  18   5    -0.07  -0.07  -0.00     0.01  -0.01  -0.01    -0.07  -0.03  -0.01
  19   5     0.06  -0.08  -0.03     0.09   0.02  -0.09    -0.06   0.02   0.04
  20   7    -0.03   0.01  -0.02     0.08   0.07  -0.07    -0.06   0.01  -0.00
  21   5    -0.04   0.01  -0.02     0.09   0.09  -0.02    -0.04  -0.00  -0.01
  22   7    -0.04   0.04   0.00     0.07   0.08  -0.07     0.01   0.06  -0.03
  23   5     0.06  -0.04   0.02     0.02   0.09  -0.09    -0.02   0.07  -0.06
  24   7     0.08  -0.07   0.01     0.07   0.07  -0.08     0.01   0.03  -0.03
  25   7     0.10   0.09   0.02     0.01  -0.01   0.02     0.17  -0.15   0.14
  26   5    -0.03   0.06   0.00    -0.01  -0.01   0.01     0.14  -0.13  -0.03
  27   7    -0.06  -0.07  -0.02    -0.01   0.01   0.02     0.18  -0.16  -0.18
  28   5     0.07  -0.04  -0.00     0.01   0.01   0.01     0.14  -0.12  -0.02
  29   7    -0.07  -0.07   0.00     0.07  -0.07   0.08    -0.02   0.03  -0.02
  30   5    -0.05  -0.07  -0.02     0.09  -0.02   0.09     0.03   0.01   0.03
  31   7     0.03   0.02  -0.01     0.08  -0.07   0.07    -0.00   0.02  -0.02
  32   5     0.03   0.03  -0.01     0.09  -0.09   0.02     0.00   0.01  -0.00
  33   7     0.03   0.04   0.00     0.07  -0.08   0.07    -0.03   0.05  -0.03
  34   5    -0.06  -0.05   0.01     0.02  -0.09   0.09     0.00   0.02  -0.01
  35   5    -0.02  -0.03   0.01    -0.09   0.09   0.02    -0.06   0.07  -0.02
  36   7    -0.01  -0.04   0.03    -0.07   0.08   0.07    -0.03   0.07   0.01
  37   5     0.09   0.05   0.04    -0.02   0.09   0.09    -0.01   0.01  -0.03
  38   7     0.07   0.07  -0.00    -0.07   0.07   0.08     0.00   0.00  -0.06
  39   5     0.05   0.08  -0.04    -0.09   0.02   0.09     0.04   0.02  -0.07
  40   7    -0.05  -0.01  -0.03    -0.08   0.07   0.07    -0.02   0.02   0.00
  41   7    -0.03  -0.04  -0.01     0.13  -0.13  -0.04     0.04  -0.04   0.01
  42   5    -0.07  -0.03  -0.02     0.07  -0.07  -0.07    -0.02  -0.00   0.01
  43   7     0.04  -0.11  -0.13     0.13  -0.04  -0.13    -0.11   0.03   0.10
  44   5    -0.07  -0.06  -0.01     0.07  -0.07  -0.07     0.03  -0.04  -0.01
  45   7    -0.12   0.05   0.13     0.04  -0.13  -0.13    -0.02   0.06   0.06
  46   5    -0.03  -0.07   0.01     0.07  -0.07  -0.07    -0.02   0.04   0.03
  47   5     0.09   0.00  -0.00    -0.01   0.01  -0.01    -0.02   0.06   0.00
  48   7     0.13   0.20  -0.00     0.01   0.02  -0.01    -0.03   0.02  -0.00
  49   5     0.11  -0.00  -0.02     0.01   0.01   0.01    -0.03   0.04  -0.01
  50   7     0.10  -0.20  -0.04    -0.01   0.02   0.01    -0.04   0.05   0.00
  51   7     0.04   0.11  -0.12    -0.13  -0.04   0.13     0.11   0.04  -0.11
  52   5    -0.06   0.07   0.02    -0.07  -0.07   0.07     0.01  -0.00  -0.03
  53   7    -0.08  -0.00   0.12    -0.04  -0.13   0.13     0.02  -0.02   0.02
  54   5    -0.00   0.07   0.04    -0.07  -0.07   0.07     0.02   0.04  -0.01
  55   7    -0.04  -0.01   0.03    -0.13  -0.13   0.04     0.07   0.08  -0.03
  56   5    -0.05   0.02  -0.01    -0.07  -0.07   0.07    -0.00  -0.04   0.03
  57   5     0.07   0.07   0.01    -0.07   0.07  -0.07     0.01  -0.01  -0.04
  58   7     0.08  -0.00   0.11    -0.04   0.13  -0.13    -0.05   0.08  -0.08
  59   5    -0.00   0.05   0.04    -0.07   0.07  -0.07    -0.01   0.05  -0.00
  60   7     0.01  -0.00   0.01    -0.13   0.13  -0.04    -0.09   0.09  -0.05
  61   5     0.05   0.00  -0.03    -0.07   0.07  -0.07    -0.03  -0.02   0.01
  62   7    -0.02   0.09  -0.11    -0.13   0.04  -0.13    -0.13   0.06  -0.13
  63   7     0.00  -0.04   0.03    -0.07  -0.08  -0.07     0.01   0.08   0.01
  64   5    -0.09   0.06   0.03    -0.02  -0.09  -0.09    -0.01   0.05   0.01
  65   7    -0.07   0.08  -0.01    -0.07  -0.07  -0.08    -0.02   0.00  -0.05
  66   5    -0.04   0.07  -0.03    -0.09  -0.02  -0.09    -0.07   0.03  -0.08
  67   7     0.05  -0.03  -0.01    -0.08  -0.07  -0.07    -0.04   0.01  -0.02
  68   5     0.01  -0.04   0.02    -0.09  -0.09  -0.02     0.03   0.06  -0.02
  69   7     0.15  -0.12  -0.02     0.02  -0.01   0.01     0.16  -0.17   0.19
  70   5     0.00  -0.09  -0.03     0.01   0.01   0.01    -0.02  -0.14   0.15
  71   7    -0.15  -0.10  -0.01     0.02   0.01  -0.01    -0.19  -0.18   0.19
  72   5    -0.00  -0.11  -0.01     0.01  -0.01  -0.01    -0.03  -0.14   0.15
                     34                     35                     36
                        a                      a                      a 
 Frequencies --   360.2800               360.2805               361.0259
 Red. masses --    13.0460                13.0460                13.2104
 Frc consts  --     0.0000                 0.0000                 0.0000
 IR Inten    --     1.0883                 1.0884                 0.0000
 Raman Activ --     0.0000                 0.0000                 0.0000
 Depolar     --     0.0000                 0.0000                 0.0000
 Atom AN      X      Y      Z        X      Y      Z        X      Y      Z
   1   5     0.05   0.00  -0.00    -0.12   0.04  -0.13     0.05  -0.00   0.05
   2   7     0.06  -0.04  -0.00    -0.16   0.18  -0.17    -0.07   0.00   0.07
   3   5     0.04  -0.03   0.00    -0.12   0.03  -0.14    -0.05   0.00  -0.05
   4   7     0.06   0.02  -0.00    -0.15  -0.13  -0.17     0.07  -0.00  -0.07
   5   7     0.16   0.16   0.13    -0.10  -0.13  -0.14     0.11   0.04  -0.03
   6   5     0.03   0.13   0.10     0.04  -0.10  -0.12    -0.02  -0.04  -0.01
   7   7    -0.11   0.15   0.13     0.16  -0.14  -0.14     0.11  -0.04   0.03
   8   5     0.04   0.12   0.11     0.05  -0.11  -0.11    -0.02   0.04   0.01
   9   5    -0.01  -0.01   0.01    -0.01   0.04  -0.00     0.07  -0.00  -0.07
  10   7    -0.10  -0.10  -0.03     0.08   0.08   0.05     0.09   0.03  -0.07
  11   5     0.02   0.03   0.04     0.05   0.00   0.00     0.08   0.02  -0.05
  12   7    -0.03  -0.01  -0.03     0.10   0.05   0.10     0.06  -0.00  -0.06
  13   5    -0.03  -0.02  -0.04    -0.01  -0.01   0.03     0.05  -0.02  -0.08
  14   7     0.00   0.05   0.05     0.06   0.12   0.12     0.07  -0.03  -0.09
  15   7    -0.03  -0.07   0.02    -0.18  -0.19   0.19    -0.03   0.04  -0.11
  16   5    -0.02  -0.06  -0.04    -0.15  -0.15   0.03     0.01   0.04   0.02
  17   7    -0.04  -0.08  -0.09    -0.18  -0.19  -0.16     0.03  -0.04  -0.11
  18   5    -0.03  -0.05  -0.06    -0.14  -0.15   0.02    -0.01  -0.04   0.02
  19   5     0.05  -0.02  -0.06    -0.01   0.01   0.04    -0.05  -0.00  -0.05
  20   7     0.04   0.01  -0.03     0.06   0.03  -0.01    -0.17  -0.14   0.06
  21   5    -0.03  -0.05  -0.01     0.07   0.06   0.02    -0.08  -0.03  -0.05
  22   7     0.01  -0.04  -0.01     0.03   0.04  -0.01    -0.07   0.00  -0.07
  23   5     0.01  -0.04   0.01     0.02  -0.03   0.06    -0.05   0.03  -0.08
  24   7     0.03   0.02  -0.06     0.00   0.00   0.06     0.06   0.14  -0.17
  25   7    -0.11   0.13  -0.14     0.01   0.05  -0.00    -0.03  -0.04   0.11
  26   5    -0.09   0.09  -0.05     0.01   0.04   0.01     0.01  -0.04  -0.02
  27   7    -0.10   0.12   0.07     0.00   0.05   0.04     0.03   0.04   0.11
  28   5    -0.08   0.10  -0.04     0.00   0.04   0.04    -0.01   0.04  -0.02
  29   7    -0.01   0.01  -0.08     0.02   0.00   0.03     0.06  -0.14   0.17
  30   5     0.00  -0.01  -0.04     0.07   0.02   0.06    -0.05   0.00   0.05
  31   7     0.06  -0.02  -0.00     0.06  -0.01   0.02    -0.17   0.14  -0.06
  32   5     0.08  -0.07  -0.03    -0.00   0.04   0.01    -0.08   0.03   0.05
  33   7     0.02  -0.02  -0.01     0.00   0.07  -0.01    -0.07   0.00   0.07
  34   5     0.02   0.04  -0.07     0.02   0.07  -0.04    -0.05  -0.03   0.08
  35   5    -0.02   0.03  -0.01     0.05  -0.01   0.01     0.08  -0.03   0.05
  36   7     0.02   0.01  -0.02    -0.00   0.05   0.02     0.07  -0.00   0.07
  37   5     0.00   0.02  -0.00     0.03   0.08   0.07     0.05   0.03   0.08
  38   7     0.03  -0.02  -0.05     0.00   0.02   0.04    -0.06   0.14   0.17
  39   5     0.02   0.01  -0.03     0.06   0.02  -0.03     0.05   0.00   0.05
  40   7     0.03  -0.02  -0.03     0.08  -0.01  -0.01     0.17  -0.14  -0.06
  41   7     0.12  -0.12  -0.05    -0.05   0.05   0.01     0.09  -0.03   0.07
  42   5     0.04  -0.00   0.01     0.03  -0.04  -0.04     0.08  -0.02   0.05
  43   7     0.06  -0.04  -0.06    -0.07   0.02   0.07     0.06  -0.00   0.06
  44   5     0.00  -0.01  -0.05    -0.02   0.01   0.02     0.05   0.02   0.08
  45   7     0.05  -0.10  -0.10     0.01  -0.07  -0.07     0.07   0.03   0.09
  46   5    -0.02  -0.03   0.02    -0.03   0.03   0.01     0.07  -0.00   0.07
  47   5    -0.16  -0.01   0.15    -0.02   0.02   0.06     0.05  -0.00  -0.05
  48   7    -0.20  -0.20   0.19    -0.02  -0.02   0.07    -0.07   0.00  -0.07
  49   5    -0.16  -0.01   0.15    -0.02   0.05   0.05    -0.05   0.00   0.05
  50   7    -0.20   0.18   0.19    -0.03   0.07   0.07     0.07  -0.00   0.07
  51   7     0.01   0.02  -0.01     0.08   0.03  -0.08    -0.06   0.00  -0.06
  52   5     0.01   0.02  -0.04    -0.04  -0.03   0.01    -0.05   0.02  -0.08
  53   7     0.04   0.09  -0.09     0.04   0.10  -0.10    -0.07   0.03  -0.09
  54   5    -0.03   0.00   0.03     0.00   0.03  -0.02    -0.07   0.00  -0.07
  55   7     0.11   0.11  -0.04    -0.02  -0.02  -0.01    -0.09  -0.03  -0.07
  56   5     0.04   0.01   0.00     0.04   0.01  -0.02    -0.08  -0.02  -0.05
  57   5    -0.04   0.03  -0.03    -0.00  -0.02   0.02    -0.05  -0.02   0.08
  58   7     0.01  -0.07   0.06     0.03  -0.09   0.09    -0.07  -0.03   0.09
  59   5     0.00  -0.01   0.02    -0.04   0.02  -0.03    -0.07   0.00   0.07
  60   7    -0.09   0.09  -0.02     0.06  -0.06   0.02    -0.09   0.03   0.07
  61   5     0.02  -0.02   0.03     0.04  -0.03   0.02    -0.08   0.02   0.05
  62   7     0.02  -0.00   0.02    -0.05  -0.00  -0.05    -0.06   0.00   0.06
  63   7     0.01  -0.01  -0.02     0.03   0.02   0.02     0.07  -0.00  -0.07
  64   5     0.02  -0.06  -0.08     0.01  -0.02  -0.02     0.05  -0.03  -0.08
  65   7    -0.01  -0.02  -0.07     0.02   0.02   0.01    -0.06  -0.14  -0.17
  66   5     0.03  -0.00  -0.01     0.00   0.00  -0.01     0.05  -0.00  -0.05
  67   7     0.07   0.01  -0.00     0.04   0.03   0.03     0.17   0.14   0.06
  68   5     0.07   0.05  -0.02     0.01   0.01  -0.00     0.08   0.03  -0.05
  69   7     0.11  -0.11   0.06     0.06  -0.01   0.05    -0.11   0.04   0.03
  70   5     0.02  -0.09   0.04     0.06  -0.01   0.03     0.02  -0.04   0.01
  71   7    -0.05  -0.10   0.06     0.01   0.00   0.04    -0.11  -0.04  -0.03
  72   5     0.05  -0.08   0.05     0.03   0.00   0.04     0.02   0.04  -0.01
                     37                     38                     39
                        a                      a                      a 
 Frequencies --   361.0269               404.6210               404.6211
 Red. masses --    13.2104                12.7403                12.7403
 Frc consts  --     0.0000                 0.0000                 0.0000
 IR Inten    --     0.0000                 0.0000                 0.0000
 Raman Activ --     0.0000                 0.0000                 0.0000
 Depolar     --     0.0000                 0.0000                 0.0000
 Atom AN      X      Y      Z        X      Y      Z        X      Y      Z
   1   5    -0.02   0.02   0.02    -0.02   0.08   0.09    -0.04   0.03   0.00
   2   7     0.00  -0.12   0.00    -0.05   0.09   0.09    -0.08  -0.19  -0.01
   3   5     0.02   0.02  -0.02    -0.06  -0.08   0.05    -0.07  -0.03  -0.03
   4   7    -0.00  -0.12  -0.00     0.00  -0.09   0.04    -0.04   0.19  -0.04
   5   7     0.06  -0.06   0.06    -0.10   0.08  -0.03    -0.17   0.04   0.04
   6   5    -0.01   0.04   0.05    -0.01  -0.04  -0.02     0.04   0.08   0.02
   7   7     0.06   0.06  -0.06     0.10  -0.04   0.09     0.17   0.09  -0.01
   8   5    -0.01  -0.04  -0.05     0.01   0.06   0.07    -0.04   0.04  -0.02
   9   5     0.01  -0.09   0.01     0.06  -0.07  -0.03     0.00   0.14  -0.05
  10   7     0.02  -0.08   0.04     0.12   0.14  -0.14    -0.06   0.03   0.01
  11   5     0.04  -0.07   0.05    -0.07   0.09  -0.06    -0.13  -0.02   0.06
  12   7     0.06  -0.09   0.06    -0.09   0.07  -0.04     0.11  -0.14   0.14
  13   5     0.05  -0.07   0.04    -0.01  -0.04   0.14     0.08  -0.08  -0.01
  14   7     0.04  -0.08   0.02     0.08  -0.11  -0.02     0.13  -0.10  -0.14
  15   7    -0.06   0.06   0.06    -0.04  -0.05  -0.19    -0.08   0.09   0.02
  16   5     0.05   0.04  -0.01     0.00  -0.04  -0.03     0.02   0.08   0.04
  17   7     0.06  -0.06   0.06    -0.01  -0.08   0.19     0.04  -0.03  -0.02
  18   5    -0.05  -0.04  -0.01    -0.03  -0.07   0.03    -0.08  -0.01  -0.04
  19   5    -0.07   0.06   0.07    -0.07  -0.12   0.03     0.01  -0.05   0.05
  20   7    -0.10   0.00   0.12    -0.00  -0.08  -0.08     0.01   0.02   0.01
  21   5    -0.01   0.08   0.03     0.07   0.04  -0.14    -0.01   0.00   0.01
  22   7     0.11   0.20  -0.11    -0.05  -0.02  -0.03    -0.01  -0.01   0.00
  23   5    -0.03   0.08   0.01    -0.02  -0.03  -0.02     0.06   0.00  -0.05
  24   7    -0.12   0.00   0.10     0.04  -0.02  -0.03     0.06  -0.06   0.00
  25   7    -0.06  -0.06  -0.06     0.05   0.08   0.07     0.08   0.03  -0.10
  26   5     0.05  -0.04   0.01     0.03   0.09   0.08    -0.03   0.02  -0.01
  27   7     0.06   0.06  -0.06     0.02   0.05  -0.07    -0.04  -0.09   0.10
  28   5    -0.05   0.04   0.01     0.06   0.06  -0.08     0.06  -0.07   0.01
  29   7    -0.12  -0.00  -0.10     0.00  -0.01   0.01    -0.08  -0.07  -0.01
  30   5    -0.07  -0.06  -0.07    -0.05   0.07  -0.00     0.04  -0.14   0.06
  31   7    -0.10  -0.00  -0.12     0.00   0.06   0.06    -0.01  -0.04  -0.05
  32   5    -0.01  -0.08  -0.03     0.05   0.01   0.05    -0.04   0.02  -0.07
  33   7     0.11  -0.20   0.11     0.01   0.01  -0.02     0.02  -0.03  -0.01
  34   5    -0.03  -0.08  -0.01     0.02  -0.01   0.00    -0.06  -0.01  -0.06
  35   5     0.01   0.08  -0.03     0.05   0.01  -0.05    -0.02   0.03   0.07
  36   7    -0.11   0.20   0.11     0.01   0.02   0.03     0.04   0.01   0.04
  37   5     0.03   0.08  -0.01     0.07  -0.02  -0.03     0.13  -0.04  -0.06
  38   7     0.12   0.00  -0.10     0.04   0.04  -0.01     0.06   0.07   0.01
  39   5     0.07   0.06  -0.07    -0.06   0.12   0.04     0.01   0.05   0.05
  40   7     0.10   0.00  -0.12     0.01   0.06  -0.07     0.02  -0.03   0.01
  41   7     0.02   0.08  -0.04     0.06  -0.03   0.05    -0.02   0.11  -0.08
  42   5     0.04   0.07  -0.05     0.07  -0.06   0.08     0.13   0.05  -0.00
  43   7     0.06   0.09  -0.06    -0.10  -0.13   0.13    -0.03  -0.05   0.07
  44   5     0.05   0.07  -0.04    -0.05  -0.03  -0.05    -0.06  -0.08   0.07
  45   7     0.04   0.08  -0.02    -0.08  -0.02  -0.11    -0.13  -0.14  -0.10
  46   5     0.01   0.09  -0.01    -0.00   0.13  -0.05    -0.03   0.05  -0.05
  47   5    -0.02  -0.02  -0.02    -0.02  -0.04  -0.04     0.06   0.08   0.06
  48   7     0.00   0.12  -0.00     0.04  -0.17  -0.04     0.09  -0.07   0.05
  49   5     0.02  -0.02   0.02     0.02   0.04  -0.08     0.09  -0.08   0.03
  50   7    -0.00   0.12   0.00    -0.01   0.17  -0.09     0.05   0.07   0.02
  51   7    -0.06   0.09   0.06    -0.14   0.13   0.09    -0.06   0.05   0.04
  52   5    -0.05   0.07   0.04    -0.05   0.00  -0.14    -0.06   0.07   0.01
  53   7    -0.04   0.08   0.02     0.02  -0.06  -0.03    -0.07   0.08  -0.04
  54   5    -0.01   0.09   0.01     0.06  -0.13   0.02     0.02  -0.05  -0.00
  55   7    -0.02   0.08   0.04     0.14   0.12   0.14     0.03  -0.05  -0.01
  56   5    -0.04   0.07   0.05    -0.02   0.08   0.08     0.07  -0.03  -0.01
  57   5    -0.05  -0.07  -0.04    -0.00   0.02   0.05     0.09   0.06  -0.07
  58   7    -0.04  -0.08  -0.02    -0.02   0.03   0.06     0.07   0.04  -0.08
  59   5    -0.01  -0.09  -0.01    -0.01   0.07   0.03    -0.04  -0.14  -0.01
  60   7    -0.02  -0.08  -0.04     0.04  -0.06  -0.05    -0.11   0.02   0.08
  61   5    -0.04  -0.07  -0.05     0.02  -0.06  -0.07    -0.07   0.03   0.06
  62   7    -0.06  -0.09  -0.06    -0.04  -0.07  -0.08     0.14   0.14   0.12
  63   7    -0.11  -0.20  -0.11    -0.05  -0.01   0.04    -0.02   0.03   0.04
  64   5     0.03  -0.08   0.01    -0.07  -0.04  -0.02    -0.13  -0.03  -0.07
  65   7     0.12  -0.00   0.10    -0.00   0.02   0.03    -0.08   0.08  -0.00
  66   5     0.07  -0.06   0.07    -0.06  -0.07   0.00     0.04   0.14   0.07
  67   7     0.10  -0.00   0.12    -0.01  -0.08   0.07    -0.02   0.03  -0.05
  68   5     0.01  -0.08   0.03     0.06   0.05   0.14    -0.03   0.02  -0.01
  69   7    -0.06  -0.06  -0.06     0.02  -0.08  -0.09    -0.09  -0.04   0.00
  70   5     0.01   0.04  -0.05     0.04   0.02  -0.08     0.08  -0.09  -0.02
  71   7    -0.06   0.06   0.06    -0.02   0.04   0.03     0.09  -0.09  -0.05
  72   5     0.01  -0.04   0.05    -0.04  -0.07   0.01    -0.08  -0.05  -0.06
                     40                     41                     42
                        a                      a                      a 
 Frequencies --   404.6213               430.4431               430.4444
 Red. masses --    12.7403                12.8642                12.8642
 Frc consts  --     0.0000                 0.0000                 0.0000
 IR Inten    --     0.0000                 0.0066                 0.0066
 Raman Activ --     0.0000                 0.0000                 0.0000
 Depolar     --     0.0000                 0.0000                 0.0000
 Atom AN      X      Y      Z        X      Y      Z        X      Y      Z
   1   5    -0.08   0.05  -0.02    -0.03   0.05   0.00     0.15   0.00  -0.16
   2   7     0.03  -0.02  -0.03    -0.01   0.04  -0.01     0.17  -0.00  -0.17
   3   5     0.01  -0.05   0.08     0.00   0.05  -0.03     0.15  -0.00  -0.15
   4   7    -0.09   0.02   0.08    -0.02   0.21  -0.02     0.17   0.00  -0.17
   5   7     0.07   0.05  -0.09    -0.10  -0.14   0.16    -0.18   0.11  -0.07
   6   5     0.08   0.03  -0.09    -0.03  -0.14   0.15    -0.05   0.07  -0.05
   7   7    -0.07   0.02  -0.05    -0.03  -0.14   0.15    -0.04   0.09  -0.08
   8   5    -0.08   0.06  -0.06    -0.03  -0.12   0.13    -0.05   0.10  -0.08
   9   5    -0.06   0.01   0.06    -0.08   0.08  -0.08    -0.01  -0.00   0.01
  10   7    -0.08  -0.04   0.07    -0.08   0.01  -0.04     0.04   0.09   0.07
  11   5     0.05  -0.00  -0.02    -0.04   0.05   0.03    -0.07   0.06   0.07
  12   7     0.05  -0.01  -0.03     0.08   0.08   0.08    -0.05  -0.00   0.05
  13   5     0.03  -0.01  -0.06     0.03   0.05  -0.04    -0.07  -0.07   0.07
  14   7    -0.05   0.04   0.06    -0.04   0.01  -0.08    -0.07  -0.09  -0.04
  15   7     0.04   0.00   0.09     0.15  -0.14  -0.03     0.08  -0.09   0.04
  16   5     0.09  -0.02  -0.08     0.15  -0.14  -0.03     0.05  -0.07   0.05
  17   7     0.09  -0.05  -0.09     0.16  -0.14  -0.10     0.06  -0.11   0.18
  18   5     0.05  -0.06   0.08     0.13  -0.12  -0.03     0.08  -0.10   0.05
  19   5    -0.02  -0.08   0.04     0.07   0.05  -0.02    -0.00  -0.04   0.00
  20   7     0.03  -0.01  -0.03     0.16  -0.02   0.02    -0.07   0.01  -0.02
  21   5     0.01  -0.05   0.06     0.06  -0.02  -0.03    -0.02  -0.06   0.06
  22   7     0.06  -0.01   0.08     0.01  -0.02   0.01     0.03  -0.18  -0.02
  23   5     0.14   0.06  -0.05     0.01  -0.03   0.01    -0.06  -0.06   0.02
  24   7     0.04  -0.05   0.01     0.00  -0.02  -0.04     0.02   0.01   0.07
  25   7    -0.04   0.04   0.17    -0.07  -0.02   0.06     0.07   0.11   0.18
  26   5    -0.08   0.03  -0.04    -0.07  -0.03  -0.03     0.08   0.11   0.05
  27   7    -0.09  -0.01  -0.17    -0.07  -0.02  -0.19     0.08   0.10   0.04
  28   5    -0.04  -0.02   0.04    -0.05  -0.01  -0.03     0.05   0.08   0.05
  29   7    -0.03  -0.05   0.02     0.02  -0.03  -0.14     0.02  -0.00  -0.11
  30   5    -0.02  -0.01   0.03    -0.05   0.07  -0.05     0.05  -0.00  -0.04
  31   7    -0.03   0.04   0.02    -0.14  -0.03   0.02     0.11   0.00  -0.02
  32   5     0.03  -0.07   0.13    -0.04   0.01  -0.05     0.06  -0.01   0.02
  33   7    -0.08  -0.00   0.08     0.02   0.08   0.02     0.01   0.00  -0.01
  34   5    -0.14   0.07  -0.04    -0.05   0.01  -0.04    -0.02   0.02  -0.06
  35   5     0.04  -0.06  -0.13     0.01  -0.03   0.01    -0.02   0.06   0.06
  36   7    -0.07   0.01  -0.06     0.01  -0.02   0.01     0.03   0.18  -0.02
  37   5    -0.05   0.05  -0.01    -0.03  -0.02   0.06    -0.06   0.06   0.02
  38   7     0.03   0.01  -0.02     0.02  -0.02   0.16     0.02  -0.01   0.07
  39   5    -0.04   0.08   0.02    -0.02   0.05   0.07    -0.00   0.03   0.00
  40   7    -0.01   0.04  -0.04    -0.04  -0.02   0.00    -0.07  -0.01  -0.02
  41   7     0.14  -0.10   0.13     0.07  -0.05  -0.06    -0.06   0.00   0.03
  42   5    -0.05  -0.05   0.03    -0.02   0.00  -0.01    -0.02  -0.01  -0.00
  43   7    -0.11  -0.08   0.03    -0.09   0.05   0.03     0.04  -0.04  -0.04
  44   5    -0.05  -0.00  -0.13    -0.08   0.08  -0.07     0.00  -0.01   0.02
  45   7     0.05   0.06   0.03    -0.02   0.06  -0.02    -0.03   0.01   0.06
  46   5     0.08   0.08   0.06     0.04   0.05  -0.05    -0.06  -0.05   0.06
  47   5     0.07   0.01  -0.06     0.11   0.05   0.11    -0.02  -0.00   0.02
  48   7    -0.03  -0.10  -0.08     0.10   0.13   0.11    -0.03   0.14   0.03
  49   5    -0.02  -0.01   0.03     0.07   0.06   0.07    -0.02  -0.00   0.02
  50   7     0.09   0.10   0.04     0.11   0.13   0.10    -0.03  -0.14   0.03
  51   7    -0.03   0.08   0.11     0.03   0.05  -0.09     0.03   0.04  -0.04
  52   5    -0.03   0.06   0.06    -0.01   0.00  -0.02    -0.00   0.01   0.02
  53   7    -0.14   0.12  -0.14    -0.06  -0.05   0.07    -0.03  -0.01   0.06
  54   5    -0.06  -0.08  -0.09    -0.05   0.05   0.04    -0.06   0.05   0.06
  55   7    -0.04  -0.08  -0.07    -0.02   0.06  -0.02    -0.06  -0.00   0.03
  56   5     0.14  -0.01   0.04    -0.07   0.08  -0.08    -0.02   0.01  -0.00
  57   5     0.02   0.06   0.13    -0.03   0.04   0.01    -0.07   0.06   0.07
  58   7     0.14   0.14  -0.11     0.01   0.01   0.01    -0.07   0.09  -0.04
  59   5     0.08  -0.01  -0.08     0.00   0.03   0.00    -0.01  -0.00   0.01
  60   7     0.10  -0.14  -0.13     0.01   0.01   0.01     0.04  -0.09   0.07
  61   5    -0.14  -0.05  -0.00     0.01   0.04  -0.03    -0.07  -0.07   0.07
  62   7    -0.03   0.01   0.06    -0.03   0.03  -0.03    -0.05  -0.00   0.05
  63   7     0.06   0.00  -0.06     0.01  -0.13   0.01     0.01  -0.00  -0.01
  64   5     0.05   0.05  -0.01    -0.02  -0.06   0.02    -0.02  -0.02  -0.06
  65   7    -0.02   0.01  -0.01     0.01  -0.02   0.06     0.02   0.00  -0.11
  66   5    -0.00   0.01   0.01     0.04   0.03   0.04     0.04  -0.00  -0.05
  67   7     0.01  -0.00   0.01     0.06  -0.02   0.01     0.11  -0.00  -0.02
  68   5    -0.00  -0.05  -0.06     0.02  -0.06  -0.02     0.06   0.01   0.02
  69   7    -0.19  -0.04   0.04     0.06  -0.02  -0.07    -0.18  -0.10  -0.06
  70   5    -0.03   0.00   0.04    -0.03  -0.01  -0.05    -0.05  -0.07  -0.05
  71   7     0.19  -0.01   0.08    -0.19  -0.02  -0.07    -0.04  -0.09  -0.07
  72   5     0.03  -0.03   0.07    -0.03  -0.03  -0.07    -0.05  -0.10  -0.08
                     43                     44                     45
                        a                      a                      a 
 Frequencies --   430.4450               433.9154               442.1738
 Red. masses --    12.8642                12.8231                12.6286
 Frc consts  --     0.0000                 0.0000                 0.0000
 IR Inten    --     0.0066                 0.0000                 0.0000
 Raman Activ --     0.0000                 0.0000                 0.0000
 Depolar     --     0.0000                 0.0000                 0.0000
 Atom AN      X      Y      Z        X      Y      Z        X      Y      Z
   1   5    -0.01  -0.04  -0.03    -0.08   0.00  -0.08     0.01  -0.17  -0.01
   2   7    -0.03  -0.21  -0.02     0.13  -0.00  -0.13     0.02  -0.20   0.02
   3   5    -0.03  -0.04  -0.00     0.08  -0.00   0.08    -0.01  -0.17   0.01
   4   7    -0.02   0.02  -0.01    -0.13   0.00   0.13    -0.02  -0.20  -0.02
   5   7     0.03  -0.02  -0.02    -0.00   0.13  -0.13    -0.20  -0.02  -0.02
   6   5    -0.04  -0.03  -0.01     0.00  -0.08  -0.08    -0.17  -0.01   0.01
   7   7    -0.20  -0.03  -0.03    -0.00  -0.13   0.13    -0.20   0.02   0.02
   8   5    -0.04  -0.00  -0.03    -0.00   0.08   0.08    -0.17   0.01  -0.01
   9   5    -0.02  -0.00  -0.02    -0.10   0.00   0.10     0.01  -0.07   0.01
  10   7    -0.01  -0.01  -0.01    -0.10   0.10   0.00     0.01   0.01   0.00
  11   5     0.00  -0.02  -0.02    -0.00   0.10  -0.10    -0.07   0.01   0.01
  12   7    -0.01  -0.01  -0.01     0.10  -0.00  -0.10     0.01   0.00   0.01
  13   5    -0.02  -0.02  -0.00     0.10  -0.10   0.00     0.01   0.01  -0.07
  14   7    -0.01  -0.01  -0.01    -0.00  -0.10   0.10     0.00   0.01   0.01
  15   7    -0.03  -0.02  -0.20    -0.13   0.13   0.00     0.02   0.02  -0.20
  16   5    -0.01  -0.03  -0.04     0.08   0.08  -0.00     0.01  -0.01  -0.17
  17   7    -0.02  -0.01   0.02     0.13  -0.13   0.00    -0.02  -0.02  -0.20
  18   5    -0.04  -0.00  -0.04    -0.08  -0.08   0.00    -0.01   0.01  -0.17
  19   5     0.00  -0.03   0.07     0.00   0.00   0.00    -0.00  -0.01   0.00
  20   7     0.01   0.01   0.01     0.00  -0.01  -0.01    -0.07   0.02  -0.02
  21   5     0.03   0.03  -0.01    -0.00   0.00   0.00    -0.00  -0.00   0.01
  22   7     0.01   0.02   0.01     0.01  -0.00   0.01     0.02  -0.07  -0.02
  23   5    -0.03   0.01   0.07    -0.00  -0.00  -0.00    -0.01  -0.00   0.00
  24   7     0.02   0.02   0.16    -0.01   0.01   0.00     0.02   0.02   0.07
  25   7     0.14   0.13  -0.09    -0.13  -0.13  -0.00     0.02  -0.02   0.20
  26   5     0.11   0.11  -0.04     0.08  -0.08   0.00     0.01   0.01   0.17
  27   7     0.13   0.14  -0.09     0.13   0.13  -0.00    -0.02   0.02   0.20
  28   5     0.14   0.14  -0.04    -0.08   0.08  -0.00    -0.01  -0.01   0.17
  29   7     0.01   0.01   0.02    -0.01  -0.01  -0.00     0.02  -0.02  -0.07
  30   5     0.03  -0.01   0.03     0.00  -0.00  -0.00    -0.00   0.01  -0.00
  31   7     0.02   0.01   0.01     0.00   0.01   0.01    -0.07  -0.02   0.02
  32   5     0.01   0.07  -0.03    -0.00  -0.00  -0.00    -0.00   0.00  -0.01
  33   7     0.02   0.16   0.02     0.01  -0.00  -0.01     0.02   0.07   0.02
  34   5    -0.03   0.07   0.01     0.00   0.00   0.00    -0.01   0.00  -0.00
  35   5     0.07   0.01  -0.03     0.00   0.00   0.00     0.00  -0.00  -0.01
  36   7     0.01   0.01   0.01    -0.01   0.00  -0.01    -0.02  -0.07   0.02
  37   5    -0.00   0.03   0.03    -0.00  -0.00   0.00     0.01  -0.00  -0.00
  38   7     0.01   0.01   0.01     0.01   0.01  -0.00    -0.02   0.02  -0.07
  39   5     0.07  -0.04   0.00    -0.00  -0.00  -0.00     0.00  -0.01  -0.00
  40   7     0.16   0.02   0.02    -0.00  -0.01   0.01     0.07   0.02   0.02
  41   7    -0.00  -0.08  -0.04    -0.10  -0.10  -0.00     0.01  -0.01  -0.00
  42   5    -0.08  -0.08  -0.08    -0.00  -0.10   0.10    -0.07  -0.01  -0.01
  43   7     0.00  -0.04  -0.08     0.10   0.00   0.10     0.01  -0.00  -0.01
  44   5    -0.03   0.02  -0.04     0.10   0.10  -0.00     0.01  -0.01   0.07
  45   7    -0.07   0.07   0.07     0.00   0.10  -0.10     0.00  -0.01  -0.01
  46   5    -0.04  -0.04   0.02    -0.10  -0.00  -0.10     0.01   0.07  -0.01
  47   5     0.11  -0.04   0.11    -0.08   0.00   0.08     0.01   0.17   0.01
  48   7     0.14  -0.10   0.13     0.13  -0.00   0.13     0.02   0.20  -0.02
  49   5     0.14  -0.04   0.14     0.08  -0.00  -0.08    -0.01   0.17  -0.01
  50   7     0.13  -0.09   0.14    -0.13   0.00  -0.13    -0.02   0.20   0.02
  51   7    -0.08  -0.04   0.00    -0.10  -0.00  -0.10    -0.01  -0.00   0.01
  52   5    -0.08  -0.08  -0.08    -0.10   0.10   0.00    -0.01  -0.01  -0.07
  53   7    -0.04  -0.08  -0.00     0.00   0.10   0.10    -0.00  -0.01   0.01
  54   5     0.03  -0.04  -0.04     0.10   0.00   0.10    -0.01   0.07   0.01
  55   7     0.07   0.07  -0.07     0.10  -0.10  -0.00    -0.01  -0.01   0.00
  56   5    -0.04   0.02  -0.03     0.00  -0.10  -0.10     0.07  -0.01   0.01
  57   5     0.03  -0.04  -0.04    -0.10  -0.10  -0.00    -0.01   0.01   0.07
  58   7    -0.04  -0.00  -0.08    -0.00  -0.10  -0.10    -0.00   0.01  -0.01
  59   5    -0.08  -0.08  -0.08     0.10  -0.00  -0.10    -0.01  -0.07  -0.01
  60   7    -0.08  -0.00  -0.04     0.10   0.10   0.00    -0.01   0.01  -0.00
  61   5    -0.04  -0.04   0.02     0.00   0.10   0.10     0.07   0.01  -0.01
  62   7     0.07  -0.07   0.07    -0.10   0.00   0.10    -0.01   0.00  -0.01
  63   7     0.02  -0.12   0.02    -0.01   0.00   0.01    -0.02   0.07  -0.02
  64   5    -0.06  -0.03  -0.03     0.00   0.00  -0.00     0.01   0.00   0.00
  65   7     0.02   0.02  -0.13     0.01  -0.01   0.00    -0.02  -0.02   0.07
  66   5    -0.04  -0.06  -0.03    -0.00   0.00   0.00     0.00   0.01   0.00
  67   7    -0.13   0.02   0.02    -0.00   0.01  -0.01     0.07  -0.02  -0.02
  68   5    -0.03  -0.03  -0.06     0.00  -0.00  -0.00     0.00   0.00   0.01
  69   7    -0.09   0.14   0.15     0.00   0.13   0.13     0.20  -0.02   0.02
  70   5    -0.04   0.14   0.14     0.00  -0.08   0.08     0.17  -0.01  -0.01
  71   7    -0.08   0.15   0.14     0.00  -0.13  -0.13     0.20   0.02  -0.02
  72   5    -0.04   0.12   0.12    -0.00   0.08  -0.08     0.17   0.01   0.01
                     46                     47                     48
                        a                      a                      a 
 Frequencies --   457.0521               473.1240               473.1242
 Red. masses --    12.6152                12.6171                12.6171
 Frc consts  --     0.0000                 0.0000                 0.0000
 IR Inten    --     0.0000                 2.9112                 2.9113
 Raman Activ --     0.0000                 0.0000                 0.0000
 Depolar     --     0.0000                 0.0000                 0.0000
 Atom AN      X      Y      Z        X      Y      Z        X      Y      Z
   1   5    -0.06   0.00  -0.06     0.02   0.02   0.08     0.05  -0.19  -0.01
   2   7     0.05  -0.00  -0.05     0.05   0.19   0.10     0.09  -0.01   0.02
   3   5     0.06  -0.00   0.06     0.02  -0.10   0.08     0.07  -0.02  -0.04
   4   7    -0.05   0.00   0.05     0.02  -0.24   0.07     0.02  -0.15  -0.05
   5   7    -0.00   0.05  -0.05    -0.24   0.02   0.07    -0.15   0.01  -0.05
   6   5     0.00  -0.06  -0.06    -0.10   0.02   0.08    -0.03   0.07  -0.04
   7   7    -0.00  -0.05   0.05     0.19   0.05   0.10    -0.02   0.09   0.02
   8   5    -0.00   0.06   0.06     0.02   0.02   0.08    -0.19   0.04  -0.01
   9   5     0.05  -0.00  -0.05     0.04  -0.12   0.06     0.02  -0.04  -0.01
  10   7     0.07  -0.07   0.00     0.05   0.05  -0.01    -0.01  -0.01  -0.01
  11   5    -0.00  -0.05   0.05    -0.12   0.04   0.06    -0.03   0.02  -0.01
  12   7    -0.07   0.00   0.07    -0.02  -0.01   0.05     0.08  -0.01  -0.01
  13   5    -0.05   0.05   0.00     0.00   0.00  -0.04     0.07   0.07  -0.15
  14   7    -0.00   0.07  -0.07    -0.01  -0.02   0.05    -0.01   0.08  -0.01
  15   7    -0.05   0.05   0.00     0.07   0.07  -0.04     0.05   0.05   0.28
  16   5     0.06   0.06  -0.00     0.00   0.04  -0.16     0.07   0.05   0.05
  17   7     0.05  -0.05   0.00    -0.03  -0.03  -0.20     0.09   0.08  -0.21
  18   5    -0.06  -0.06   0.00     0.04   0.00  -0.16     0.05   0.06   0.05
  19   5    -0.11   0.00  -0.11    -0.04  -0.01  -0.02    -0.07  -0.03   0.06
  20   7     0.00  -0.13  -0.13     0.00   0.04  -0.06    -0.07   0.01  -0.02
  21   5     0.11  -0.11   0.00     0.08   0.08  -0.04    -0.04  -0.04   0.01
  22   7     0.13  -0.00   0.13     0.04   0.00  -0.06     0.01  -0.07  -0.01
  23   5     0.00   0.11   0.11    -0.01  -0.04  -0.01    -0.03  -0.08   0.06
  24   7    -0.13   0.13   0.00    -0.09  -0.09  -0.06    -0.03  -0.03   0.05
  25   7    -0.05  -0.05  -0.00    -0.03   0.06  -0.12     0.07   0.03   0.03
  26   5     0.06  -0.06   0.00     0.04   0.04  -0.12     0.05   0.05   0.16
  27   7     0.05   0.05  -0.00     0.07  -0.04  -0.12     0.03   0.06   0.05
  28   5    -0.06   0.06  -0.00     0.00  -0.00  -0.19     0.06   0.06  -0.06
  29   7    -0.13  -0.13  -0.00     0.07  -0.08  -0.07    -0.04   0.02   0.02
  30   5    -0.11   0.00   0.11     0.03  -0.01  -0.01     0.03  -0.03   0.08
  31   7     0.00   0.13   0.13    -0.03   0.00  -0.02    -0.03  -0.10   0.09
  32   5     0.11   0.11  -0.00    -0.09   0.07  -0.04    -0.01  -0.06   0.01
  33   7     0.13  -0.00  -0.13    -0.06   0.01  -0.07    -0.07  -0.04  -0.06
  34   5    -0.00  -0.11  -0.11    -0.01  -0.00  -0.05    -0.03   0.04  -0.06
  35   5    -0.11  -0.11   0.00     0.07  -0.09  -0.04    -0.06  -0.01   0.01
  36   7    -0.13   0.00  -0.13     0.00  -0.03  -0.02    -0.09  -0.02   0.09
  37   5    -0.00   0.11  -0.11    -0.01   0.03  -0.01    -0.03   0.03   0.08
  38   7     0.13   0.13  -0.00    -0.08   0.07  -0.07     0.01  -0.03   0.02
  39   5     0.11  -0.00   0.11    -0.00  -0.01  -0.05     0.04  -0.03  -0.06
  40   7    -0.00  -0.13   0.13     0.01  -0.06  -0.07    -0.04  -0.08  -0.06
  41   7     0.07   0.07  -0.00    -0.02   0.07  -0.01     0.08   0.05   0.00
  42   5    -0.00   0.05  -0.05     0.13   0.04   0.07     0.04   0.04   0.01
  43   7    -0.07   0.00  -0.07     0.04  -0.01   0.07    -0.01   0.00   0.04
  44   5    -0.05  -0.05  -0.00     0.02  -0.01   0.01     0.02   0.03   0.00
  45   7     0.00  -0.07   0.07     0.01  -0.04   0.03    -0.00   0.01  -0.08
  46   5     0.05  -0.00   0.05    -0.01  -0.08   0.05     0.06   0.11  -0.05
  47   5    -0.06   0.00   0.06     0.02   0.06   0.08     0.07  -0.08  -0.02
  48   7     0.05   0.00   0.05    -0.01   0.11   0.09     0.03  -0.26  -0.00
  49   5     0.06  -0.00  -0.06     0.01  -0.13   0.08     0.05  -0.14  -0.04
  50   7    -0.05  -0.00  -0.05     0.01  -0.16   0.07     0.10   0.10  -0.07
  51   7     0.07  -0.00   0.07     0.06   0.00   0.05     0.05  -0.01  -0.02
  52   5     0.05  -0.05   0.00     0.04   0.04   0.05     0.06   0.06   0.14
  53   7     0.00  -0.07  -0.07     0.00   0.06   0.05    -0.01   0.05  -0.02
  54   5    -0.05   0.00  -0.05    -0.02   0.08   0.06     0.04  -0.10  -0.03
  55   7    -0.07   0.07  -0.00    -0.04  -0.04  -0.00     0.02   0.02   0.01
  56   5     0.00   0.05   0.05     0.08  -0.02   0.06    -0.10   0.04  -0.03
  57   5     0.05   0.05  -0.00    -0.01   0.02   0.01     0.03   0.02  -0.01
  58   7    -0.00   0.07   0.07    -0.01   0.04   0.07     0.00  -0.01   0.04
  59   5    -0.05   0.00   0.05     0.04   0.13   0.07     0.04   0.04   0.01
  60   7    -0.07  -0.07   0.00     0.07  -0.02  -0.01     0.05   0.08   0.00
  61   5     0.00  -0.05  -0.05    -0.08  -0.01   0.05     0.11   0.06  -0.05
  62   7     0.07  -0.00  -0.07    -0.04   0.01   0.03     0.02  -0.00  -0.08
  63   7    -0.13   0.00   0.13    -0.02  -0.04  -0.04     0.03  -0.05   0.04
  64   5     0.00  -0.11   0.11    -0.01  -0.01  -0.05    -0.03  -0.09  -0.04
  65   7     0.13  -0.13   0.00     0.06   0.06  -0.08    -0.08  -0.08  -0.01
  66   5     0.11  -0.00  -0.11    -0.01  -0.01  -0.05    -0.08  -0.03  -0.04
  67   7    -0.00   0.13  -0.13    -0.04  -0.02  -0.03    -0.06   0.03   0.05
  68   5    -0.11   0.11  -0.00    -0.09  -0.09  -0.04     0.02   0.02   0.02
  69   7     0.00   0.05   0.05    -0.16   0.01   0.07     0.09   0.10  -0.07
  70   5     0.00  -0.06   0.06    -0.13   0.01   0.07    -0.14   0.04  -0.04
  71   7     0.00  -0.05  -0.05     0.11  -0.01   0.09    -0.26   0.02  -0.00
  72   5    -0.00   0.06  -0.06     0.06   0.02   0.08    -0.09   0.07  -0.01
                     49                     50                     51
                        a                      a                      a 
 Frequencies --   473.1242               504.7911               504.7912
 Red. masses --    12.6171                12.6652                12.6652
 Frc consts  --     0.0000                 0.0000                 0.0000
 IR Inten    --     2.9113                 0.0000                 0.0000
 Raman Activ --     0.0000                 0.0000                 0.0000
 Depolar     --     0.0000                 0.0000                 0.0000
 Atom AN      X      Y      Z        X      Y      Z        X      Y      Z
   1   5    -0.07  -0.06   0.01    -0.08  -0.12  -0.04    -0.04  -0.01  -0.04
   2   7    -0.02  -0.22   0.03     0.06  -0.00  -0.06    -0.04   0.00  -0.06
   3   5    -0.04  -0.18  -0.02     0.05   0.12   0.09    -0.02   0.01  -0.02
   4   7    -0.10   0.04  -0.05    -0.12   0.00   0.13    -0.06  -0.00  -0.04
   5   7    -0.05   0.10   0.05     0.00  -0.07   0.14     0.00   0.16  -0.10
   6   5     0.17   0.05   0.01     0.00   0.10   0.10    -0.07  -0.05  -0.07
   7   7     0.22   0.03  -0.02    -0.00   0.14  -0.07    -0.00  -0.06   0.12
   8   5     0.05   0.07  -0.01    -0.00  -0.05  -0.05     0.07   0.10   0.08
   9   5    -0.05   0.08  -0.03     0.08  -0.00  -0.07    -0.02   0.01  -0.03
  10   7    -0.07   0.07  -0.00     0.08  -0.01  -0.11    -0.00  -0.03   0.06
  11   5    -0.08   0.06   0.03    -0.01  -0.00   0.04    -0.01  -0.02   0.05
  12   7    -0.00   0.00   0.06    -0.03   0.01   0.03     0.04  -0.14   0.04
  13   5    -0.02   0.02  -0.00    -0.04   0.01   0.01     0.04  -0.02  -0.01
  14   7    -0.00   0.01  -0.06     0.10   0.02  -0.08     0.08  -0.03  -0.01
  15   7    -0.05   0.05   0.01     0.05  -0.13   0.00     0.13  -0.09  -0.00
  16   5    -0.06   0.06   0.12    -0.08  -0.09   0.01    -0.09  -0.06  -0.08
  17   7    -0.05   0.05  -0.01    -0.13   0.04  -0.00    -0.12   0.16   0.00
  18   5    -0.06   0.06  -0.12     0.04   0.03  -0.01     0.09   0.11   0.08
  19   5    -0.04  -0.03   0.08     0.05  -0.08  -0.07    -0.04  -0.01  -0.05
  20   7     0.03  -0.09   0.08     0.00  -0.06  -0.05    -0.01   0.00  -0.10
  21   5     0.03  -0.04   0.00    -0.05  -0.07  -0.08     0.07  -0.01   0.04
  22   7     0.09  -0.03  -0.08    -0.09   0.02   0.08     0.07   0.00   0.08
  23   5     0.03   0.04  -0.07    -0.00   0.02   0.02     0.05   0.01   0.08
  24   7     0.01  -0.01   0.00     0.09   0.09   0.02    -0.09  -0.00  -0.01
  25   7    -0.07   0.07   0.26    -0.06  -0.05  -0.00    -0.12  -0.16   0.00
  26   5    -0.06   0.06   0.00     0.08  -0.04  -0.13     0.09  -0.11   0.06
  27   7    -0.07   0.07  -0.26     0.12   0.12   0.00     0.13   0.08  -0.00
  28   5    -0.06   0.06  -0.00    -0.04   0.08   0.13    -0.08   0.06  -0.06
  29   7     0.06  -0.06   0.03     0.08   0.06  -0.00    -0.08   0.02   0.01
  30   5     0.09  -0.03   0.05     0.06   0.01  -0.04    -0.07  -0.10  -0.07
  31   7     0.06   0.02  -0.03    -0.00  -0.06  -0.06     0.01   0.01  -0.09
  32   5     0.01  -0.01  -0.00    -0.06  -0.05   0.01     0.04  -0.03  -0.05
  33   7    -0.02  -0.07  -0.04    -0.08  -0.00   0.06     0.10   0.03   0.11
  34   5     0.03  -0.08   0.05     0.00   0.05   0.05    -0.05  -0.02   0.05
  35   5     0.01  -0.01   0.00    -0.03  -0.02  -0.01     0.07   0.00   0.05
  36   7    -0.02  -0.07   0.04    -0.10  -0.02   0.08     0.07  -0.00   0.08
  37   5     0.03  -0.08  -0.05     0.08   0.07   0.04     0.06   0.00   0.08
  38   7     0.06  -0.06  -0.03     0.07   0.06   0.00    -0.09   0.02  -0.01
  39   5     0.09  -0.03  -0.05     0.08   0.08  -0.04    -0.04   0.01  -0.05
  40   7     0.06   0.02   0.03    -0.02  -0.08  -0.07    -0.02  -0.02  -0.10
  41   7    -0.01   0.01  -0.01     0.04   0.03   0.01    -0.11  -0.07  -0.07
  42   5     0.07   0.03   0.01     0.01   0.04  -0.01     0.01  -0.06   0.09
  43   7    -0.07  -0.01   0.01    -0.08  -0.11  -0.02     0.08  -0.01   0.08
  44   5    -0.06   0.06  -0.15    -0.08  -0.08  -0.00     0.08   0.06   0.01
  45   7     0.01   0.07   0.00    -0.10  -0.08   0.02    -0.08   0.07  -0.11
  46   5    -0.03  -0.07   0.01     0.05   0.01   0.01    -0.11   0.00  -0.11
  47   5    -0.04  -0.18   0.01     0.09   0.01  -0.09     0.03  -0.15   0.01
  48   7    -0.10   0.03   0.05    -0.05   0.00  -0.13     0.03   0.00   0.02
  49   5    -0.07  -0.06  -0.01    -0.04  -0.01   0.04     0.02   0.15   0.03
  50   7    -0.02  -0.22  -0.03     0.13  -0.00   0.05     0.05  -0.00   0.04
  51   7    -0.00   0.00  -0.06     0.00   0.11   0.06     0.09   0.01   0.09
  52   5    -0.02   0.02   0.00    -0.01  -0.03  -0.01     0.09  -0.07   0.01
  53   7    -0.00   0.01   0.06     0.00  -0.02  -0.02    -0.07  -0.08  -0.12
  54   5    -0.05   0.08   0.03     0.01  -0.01  -0.03    -0.11  -0.00  -0.11
  55   7    -0.07   0.07   0.00    -0.00   0.07   0.11    -0.12   0.08  -0.06
  56   5    -0.08   0.06  -0.03    -0.00   0.06   0.06     0.01   0.07   0.10
  57   5    -0.06   0.06   0.15    -0.11  -0.11   0.00     0.03   0.01  -0.01
  58   7     0.01   0.07  -0.00    -0.00  -0.12  -0.11     0.07   0.02  -0.02
  59   5    -0.03  -0.07  -0.01     0.11   0.00  -0.11    -0.01  -0.01  -0.03
  60   7    -0.01   0.01   0.01     0.12   0.11  -0.01     0.00   0.04   0.07
  61   5     0.07   0.03  -0.01     0.00   0.11   0.10    -0.01   0.03   0.05
  62   7    -0.07  -0.01  -0.01    -0.12  -0.01   0.11     0.03   0.14   0.05
  63   7     0.09  -0.03   0.08    -0.07   0.00   0.05     0.10  -0.03   0.11
  64   5     0.03   0.04   0.07    -0.08   0.04   0.07    -0.06   0.03   0.05
  65   7     0.01  -0.01  -0.00     0.10   0.08  -0.02    -0.08  -0.01   0.01
  66   5    -0.04  -0.03  -0.08     0.03  -0.01  -0.02    -0.07   0.10  -0.07
  67   7     0.03  -0.09  -0.08     0.02  -0.08  -0.08     0.02  -0.03  -0.09
  68   5     0.03  -0.03   0.00    -0.07  -0.04   0.08     0.04   0.02  -0.04
  69   7     0.22   0.03   0.02    -0.00   0.08   0.08     0.00  -0.15  -0.11
  70   5     0.05   0.07   0.01    -0.11  -0.09   0.06    -0.09   0.05  -0.07
  71   7    -0.05   0.10  -0.05     0.00  -0.14  -0.14    -0.00   0.07   0.11
  72   5     0.17   0.05  -0.01     0.11   0.06  -0.09     0.09  -0.10   0.08
                     52                     53                     54
                        a                      a                      a 
 Frequencies --   504.7915               508.9695               508.9697
 Red. masses --    12.6652                12.1056                12.1056
 Frc consts  --     0.0000                 0.0000                 0.0000
 IR Inten    --     0.0000                 0.0931                 0.0931
 Raman Activ --     0.0000                 0.0000                 0.0000
 Depolar     --     0.0000                 0.0000                 0.0000
 Atom AN      X      Y      Z        X      Y      Z        X      Y      Z
   1   5     0.08  -0.08   0.11    -0.02   0.14   0.04    -0.05   0.16   0.05
   2   7    -0.16   0.00   0.16     0.03  -0.11   0.01     0.00   0.12  -0.01
   3   5    -0.11   0.08  -0.08    -0.04  -0.18   0.06     0.00  -0.01  -0.00
   4   7     0.12  -0.00  -0.12     0.03   0.05   0.01     0.01   0.12  -0.00
   5   7    -0.00  -0.05   0.02     0.06   0.03  -0.00     0.06   0.01   0.03
   6   5    -0.13   0.06   0.01    -0.21  -0.05   0.06     0.10   0.03  -0.01
   7   7     0.00   0.08  -0.11    -0.04   0.03  -0.00    -0.12   0.02   0.03
   8   5     0.13  -0.03  -0.07     0.22  -0.05   0.06    -0.14   0.05  -0.03
   9   5     0.09   0.00  -0.09     0.01  -0.03  -0.07     0.09   0.13   0.04
  10   7     0.09  -0.12   0.04     0.03   0.04  -0.16     0.05   0.02  -0.01
  11   5     0.00  -0.12   0.10     0.02   0.06  -0.06    -0.02  -0.06   0.00
  12   7    -0.11  -0.00   0.11     0.03   0.08   0.01     0.05  -0.15   0.03
  13   5    -0.10   0.12  -0.00     0.05   0.08   0.13     0.07  -0.05   0.04
  14   7    -0.04   0.12  -0.09     0.02   0.04   0.01     0.09   0.02   0.03
  15   7     0.11  -0.08  -0.00    -0.01  -0.00   0.13     0.03  -0.00  -0.02
  16   5    -0.02  -0.06   0.13    -0.01   0.01   0.02    -0.05   0.07   0.23
  17   7    -0.02   0.05   0.00    -0.00   0.00   0.11     0.03   0.00   0.08
  18   5     0.08   0.04  -0.13     0.04  -0.04   0.14    -0.04   0.05  -0.19
  19   5     0.06  -0.06  -0.02    -0.04   0.03  -0.03    -0.05  -0.14   0.04
  20   7    -0.02   0.12  -0.07    -0.09  -0.02  -0.05     0.04  -0.08  -0.04
  21   5    -0.01   0.05   0.03     0.02   0.04  -0.14     0.06  -0.02  -0.05
  22   7    -0.06   0.02   0.05    -0.06  -0.09  -0.04     0.06   0.02  -0.06
  23   5     0.09  -0.08   0.04    -0.03  -0.05   0.00     0.04  -0.02  -0.06
  24   7     0.03  -0.10  -0.01    -0.08  -0.04   0.08     0.04  -0.08  -0.04
  25   7    -0.12  -0.04  -0.00     0.01  -0.01   0.15    -0.03   0.01  -0.05
  26   5     0.01  -0.03   0.05     0.02   0.02   0.05     0.03   0.05   0.15
  27   7     0.01   0.10   0.00     0.01  -0.00   0.10    -0.03   0.02   0.12
  28   5    -0.08   0.06  -0.05    -0.03  -0.04   0.11     0.01   0.03  -0.10
  29   7     0.07  -0.11  -0.02     0.07  -0.05   0.09    -0.01  -0.06  -0.08
  30   5     0.01  -0.00  -0.01     0.04   0.02  -0.02     0.05  -0.13   0.02
  31   7     0.02   0.11  -0.07     0.11  -0.04  -0.04    -0.07  -0.05  -0.07
  32   5    -0.06   0.07   0.09    -0.03   0.04  -0.13    -0.05   0.01  -0.05
  33   7    -0.04   0.00   0.04     0.05  -0.10  -0.04    -0.03   0.06  -0.08
  34   5    -0.09  -0.07   0.06     0.00  -0.04  -0.00     0.03  -0.04  -0.04
  35   5    -0.04   0.08  -0.09     0.05  -0.04  -0.14    -0.03  -0.01  -0.02
  36   7    -0.05  -0.02   0.06    -0.03   0.06  -0.07    -0.06   0.10   0.05
  37   5    -0.03  -0.05   0.01    -0.02   0.06  -0.02     0.02  -0.01   0.03
  38   7     0.06  -0.12   0.02    -0.05   0.07   0.04    -0.05  -0.03   0.11
  39   5     0.02   0.06  -0.06    -0.06   0.05  -0.01     0.03  -0.13  -0.03
  40   7     0.01   0.10  -0.03    -0.05   0.05  -0.07    -0.11  -0.03   0.04
  41   7    -0.03  -0.09   0.12    -0.03   0.03  -0.17    -0.05   0.04   0.01
  42   5    -0.00  -0.09   0.08     0.01   0.05  -0.07    -0.04  -0.03   0.03
  43   7     0.04  -0.07   0.08    -0.03   0.08   0.00    -0.05  -0.13   0.05
  44   5     0.03   0.07  -0.01    -0.06   0.08   0.13    -0.04  -0.03   0.05
  45   7     0.04   0.06  -0.04    -0.04   0.03   0.00    -0.01   0.04   0.05
  46   5    -0.02   0.01  -0.04    -0.02  -0.03  -0.08    -0.06   0.13   0.05
  47   5    -0.08  -0.00   0.08     0.03   0.17   0.05     0.02   0.08   0.03
  48   7     0.17   0.00   0.11    -0.03  -0.10   0.01    -0.01   0.08   0.01
  49   5     0.11   0.00  -0.11     0.05  -0.21   0.06    -0.03   0.07  -0.02
  50   7    -0.11  -0.00  -0.16    -0.03   0.03   0.00    -0.01   0.15   0.01
  51   7    -0.08   0.07  -0.04    -0.05   0.00   0.02     0.02  -0.17  -0.02
  52   5    -0.08   0.09   0.00    -0.08  -0.05   0.14     0.03  -0.08   0.03
  53   7    -0.12   0.09   0.02    -0.07  -0.04   0.02     0.07  -0.00  -0.02
  54   5     0.04  -0.01   0.01    -0.06  -0.04  -0.05     0.07   0.13  -0.07
  55   7     0.03  -0.06  -0.04    -0.05  -0.04  -0.15     0.02  -0.00  -0.07
  56   5     0.01  -0.07  -0.03     0.00  -0.01  -0.06    -0.03  -0.08  -0.04
  57   5     0.00   0.04   0.01     0.07  -0.05   0.14    -0.00  -0.07   0.03
  58   7     0.12   0.03  -0.03     0.04  -0.05   0.03     0.01   0.01  -0.04
  59   5     0.03  -0.00  -0.04     0.05  -0.04  -0.04    -0.04   0.13  -0.09
  60   7     0.03  -0.03  -0.12     0.05  -0.05  -0.14    -0.03   0.01  -0.09
  61   5    -0.01  -0.04  -0.00     0.02  -0.03  -0.04    -0.04  -0.05  -0.07
  62   7     0.02   0.00  -0.01     0.05  -0.01   0.03    -0.03  -0.15  -0.04
  63   7    -0.05  -0.00   0.05     0.02   0.07  -0.07     0.08   0.06   0.03
  64   5     0.03  -0.07   0.03    -0.00   0.05  -0.03     0.05   0.01   0.05
  65   7     0.04  -0.10   0.01     0.04   0.08   0.05     0.07  -0.05   0.07
  66   5     0.04   0.00  -0.05     0.06   0.05   0.00    -0.02  -0.13  -0.05
  67   7    -0.01   0.10  -0.04     0.06   0.06  -0.06     0.08  -0.06   0.01
  68   5    -0.03   0.07  -0.03    -0.05  -0.03  -0.14     0.04  -0.04  -0.03
  69   7     0.00   0.03   0.12     0.10  -0.03   0.02    -0.08  -0.00  -0.03
  70   5     0.05  -0.06   0.08    -0.12   0.02   0.04    -0.23   0.07   0.05
  71   7    -0.00  -0.09  -0.01    -0.08  -0.03   0.01     0.02  -0.00  -0.03
  72   5    -0.05   0.02  -0.01     0.14   0.02   0.05     0.20   0.05   0.04
                     55                     56                     57
                        a                      a                      a 
 Frequencies --   508.9698               524.8269               524.8269
 Red. masses --    12.1056                11.8500                11.8500
 Frc consts  --     0.0000                 0.0000                 0.0000
 IR Inten    --     0.0930                 0.0000                 0.0000
 Raman Activ --     0.0000                 0.0000                 0.0000
 Depolar     --     0.0000                 0.0000                 0.0000
 Atom AN      X      Y      Z        X      Y      Z        X      Y      Z
   1   5     0.05  -0.16  -0.03     0.02  -0.01   0.01     0.10  -0.29  -0.06
   2   7     0.01  -0.04   0.03     0.03  -0.07   0.03    -0.02   0.00   0.02
   3   5     0.06   0.20  -0.04     0.02   0.01   0.01     0.06   0.29  -0.10
   4   7     0.01   0.10   0.03     0.03   0.07   0.03     0.03  -0.00  -0.03
   5   7     0.14   0.00   0.01    -0.04  -0.10   0.07    -0.04   0.06  -0.10
   6   5     0.13   0.04  -0.04    -0.15   0.01   0.10    -0.10  -0.10  -0.05
   7   7     0.11  -0.00   0.00     0.04   0.06  -0.10     0.04  -0.11   0.07
   8   5     0.03  -0.01   0.02     0.15  -0.11  -0.03     0.10   0.03   0.08
   9   5    -0.04   0.04   0.05    -0.01  -0.01  -0.01     0.02   0.00  -0.02
  10   7     0.03   0.04   0.06    -0.03  -0.03  -0.01     0.05   0.04   0.02
  11   5     0.14   0.05   0.07     0.00  -0.01   0.02     0.01   0.01  -0.00
  12   7     0.03   0.00   0.05     0.07   0.03   0.07    -0.01  -0.00   0.00
  13   5    -0.05   0.02   0.01     0.02  -0.01   0.00    -0.00  -0.01  -0.01
  14   7    -0.14   0.04   0.05    -0.02  -0.03  -0.03    -0.02  -0.04  -0.05
  15   7     0.02   0.03  -0.09    -0.10   0.07   0.03    -0.06   0.11  -0.05
  16   5     0.04  -0.02  -0.13     0.10   0.02  -0.14     0.04   0.10   0.11
  17   7     0.02   0.03   0.09     0.07  -0.11  -0.03     0.10  -0.05   0.05
  18   5     0.04  -0.02   0.13    -0.03  -0.11   0.14    -0.08  -0.02  -0.11
  19   5    -0.02  -0.02  -0.04     0.05   0.00   0.04     0.14   0.05  -0.13
  20   7     0.09   0.05  -0.07    -0.00   0.12   0.02    -0.00   0.02  -0.04
  21   5    -0.00   0.04  -0.01     0.01   0.12  -0.03    -0.11  -0.07   0.03
  22   7    -0.04   0.10  -0.06    -0.06   0.00  -0.05    -0.11   0.00   0.09
  23   5    -0.14  -0.04   0.02    -0.03  -0.13   0.01    -0.02  -0.04   0.05
  24   7    -0.04   0.03  -0.10     0.02  -0.12  -0.00     0.09   0.05   0.00
  25   7    -0.00  -0.03   0.05     0.07   0.11  -0.03     0.09   0.06   0.03
  26   5     0.06   0.05   0.22    -0.03   0.11   0.14    -0.11   0.00  -0.19
  27   7    -0.00  -0.03  -0.06    -0.10  -0.07   0.03    -0.07  -0.10  -0.03
  28   5     0.06   0.05  -0.22     0.10  -0.02  -0.14     0.01  -0.12   0.19
  29   7    -0.07  -0.06   0.06    -0.07   0.03   0.00    -0.04  -0.11  -0.00
  30   5    -0.01  -0.05   0.06    -0.14   0.05  -0.14    -0.05  -0.00   0.06
  31   7     0.04  -0.07   0.05     0.00   0.04  -0.07     0.00   0.11   0.04
  32   5    -0.03  -0.05   0.01     0.08  -0.05   0.03     0.01   0.11  -0.02
  33   7    -0.07  -0.06   0.03     0.11   0.00   0.10     0.06  -0.00  -0.07
  34   5    -0.14   0.03  -0.05     0.03  -0.06   0.08     0.02  -0.11  -0.02
  35   5    -0.03  -0.05  -0.00     0.01  -0.12  -0.03    -0.06   0.04   0.02
  36   7    -0.07  -0.06  -0.03    -0.06  -0.00  -0.05    -0.09  -0.00   0.12
  37   5    -0.14   0.03   0.05    -0.03   0.13   0.02    -0.03   0.06   0.11
  38   7    -0.06  -0.06  -0.06     0.02   0.12  -0.00     0.04  -0.03   0.00
  39   5    -0.00  -0.05  -0.06     0.05  -0.00   0.04     0.12  -0.05  -0.14
  40   7     0.05  -0.08  -0.05    -0.00  -0.12   0.02    -0.00  -0.04  -0.09
  41   7     0.01  -0.04  -0.03    -0.04   0.03   0.01     0.02  -0.02  -0.01
  42   5     0.13  -0.08  -0.05    -0.00   0.01   0.00    -0.01  -0.01   0.02
  43   7     0.01  -0.08  -0.03     0.00   0.00   0.01    -0.07   0.03   0.07
  44   5    -0.07  -0.05  -0.01     0.00  -0.01  -0.00    -0.02  -0.02   0.00
  45   7    -0.16  -0.04  -0.03     0.02  -0.03  -0.04     0.02  -0.04  -0.04
  46   5    -0.07   0.03  -0.02    -0.01  -0.00  -0.01     0.01  -0.01  -0.01
  47   5     0.06   0.19   0.04    -0.08  -0.30  -0.08    -0.03   0.01   0.04
  48   7     0.01   0.10  -0.03    -0.01  -0.00  -0.01    -0.01  -0.07   0.06
  49   5     0.04  -0.15   0.03    -0.08   0.30  -0.08     0.01  -0.01  -0.00
  50   7     0.01  -0.04  -0.03    -0.01   0.00  -0.01    -0.06   0.07   0.01
  51   7     0.03   0.00  -0.05     0.00  -0.00   0.01    -0.07  -0.03   0.07
  52   5    -0.05   0.02  -0.01     0.00   0.01  -0.00    -0.02   0.01   0.01
  53   7    -0.14   0.05  -0.05     0.02   0.03  -0.04     0.01   0.02  -0.02
  54   5    -0.04   0.04  -0.05    -0.01   0.00  -0.01     0.01   0.01  -0.01
  55   7     0.03   0.05  -0.05    -0.04  -0.03   0.01     0.04   0.04  -0.02
  56   5     0.14   0.05  -0.07    -0.00  -0.01   0.00    -0.00   0.02   0.02
  57   5    -0.07  -0.05   0.00     0.02   0.01   0.00    -0.00   0.01  -0.00
  58   7    -0.16  -0.03   0.03    -0.02   0.03  -0.03    -0.01   0.02  -0.03
  59   5    -0.08   0.03   0.02    -0.01   0.01  -0.01     0.01  -0.00  -0.01
  60   7     0.00  -0.03   0.03    -0.03   0.03  -0.01     0.03  -0.02   0.01
  61   5     0.13  -0.08   0.06     0.00   0.01   0.02     0.00  -0.01   0.00
  62   7     0.00  -0.08   0.03     0.07  -0.03   0.07    -0.01   0.00   0.00
  63   7    -0.04   0.09   0.06     0.11  -0.00   0.10     0.04   0.00  -0.04
  64   5    -0.14  -0.04  -0.02     0.03   0.06   0.08     0.03   0.13   0.04
  65   7    -0.05   0.03   0.10    -0.07  -0.03   0.00     0.01   0.13  -0.00
  66   5    -0.02  -0.02   0.04    -0.14  -0.05  -0.14    -0.03   0.00   0.04
  67   7     0.08   0.05   0.07     0.00  -0.04  -0.07     0.00  -0.13  -0.00
  68   5    -0.00   0.05   0.02     0.08   0.05   0.03    -0.04  -0.14  -0.03
  69   7     0.10  -0.00  -0.01    -0.04   0.10   0.07    -0.02  -0.07  -0.09
  70   5     0.04  -0.01  -0.02    -0.15  -0.01   0.10    -0.18   0.12  -0.02
  71   7     0.14   0.01  -0.01     0.04  -0.06  -0.10     0.02   0.10   0.08
  72   5     0.12   0.04   0.03     0.15   0.11  -0.03     0.18  -0.01   0.11
                     58                     59                     60
                        a                      a                      a 
 Frequencies --   524.8274               538.7738               538.7739
 Red. masses --    11.8500                11.7634                11.7634
 Frc consts  --     0.0000                 0.0000                 0.0000
 IR Inten    --     0.0000                 0.0000                 0.0000
 Raman Activ --     0.0000                 0.0000                 0.0000
 Depolar     --     0.0000                 0.0000                 0.0000
 Atom AN      X      Y      Z        X      Y      Z        X      Y      Z
   1   5    -0.07  -0.06  -0.11    -0.02  -0.09   0.02    -0.04  -0.00  -0.04
   2   7     0.12   0.00  -0.12     0.03  -0.00   0.03     0.06  -0.00  -0.06
   3   5     0.11   0.06   0.07     0.02  -0.09  -0.02     0.04   0.00   0.04
   4   7    -0.12  -0.00   0.12    -0.03  -0.00  -0.03    -0.06   0.00   0.06
   5   7     0.04   0.03   0.01     0.00   0.07  -0.04     0.00  -0.01   0.05
   6   5    -0.24  -0.07   0.06     0.04  -0.05  -0.03     0.08   0.01   0.04
   7   7    -0.04  -0.00   0.04     0.00  -0.07   0.04     0.00   0.01  -0.05
   8   5     0.24  -0.04   0.09     0.04   0.05   0.03     0.08  -0.01  -0.04
   9   5    -0.01   0.00   0.01     0.13   0.20   0.13     0.01   0.00  -0.01
  10   7    -0.04  -0.04  -0.02    -0.04   0.02   0.04     0.01   0.04  -0.07
  11   5    -0.00  -0.01   0.00    -0.10  -0.08  -0.05    -0.18  -0.11  -0.12
  12   7    -0.00  -0.00   0.00     0.02  -0.08   0.02    -0.03  -0.00   0.03
  13   5    -0.00   0.01   0.00    -0.05  -0.08  -0.10     0.12   0.11   0.18
  14   7     0.02   0.04   0.04     0.04   0.02  -0.04     0.07  -0.04  -0.01
  15   7    -0.04   0.00   0.04     0.04  -0.07   0.00     0.05  -0.01  -0.00
  16   5    -0.06   0.07   0.24    -0.03  -0.05   0.04    -0.04  -0.01  -0.08
  17   7    -0.01  -0.03  -0.04    -0.04   0.07   0.00    -0.05   0.01  -0.00
  18   5    -0.09   0.04  -0.24     0.03   0.05   0.04     0.04   0.01  -0.08
  19   5    -0.02   0.01  -0.08     0.11   0.06  -0.11     0.02   0.00   0.02
  20   7    -0.00   0.04  -0.12    -0.02  -0.07   0.05    -0.03  -0.10   0.11
  21   5     0.11   0.05  -0.03    -0.04  -0.07   0.03     0.10   0.08  -0.06
  22   7     0.04   0.00   0.08     0.12   0.04  -0.12     0.02  -0.00   0.02
  23   5    -0.04  -0.08   0.14    -0.03  -0.07   0.03    -0.06  -0.08   0.10
  24   7    -0.10  -0.03  -0.00    -0.05  -0.07   0.02     0.11   0.10  -0.03
  25   7     0.05  -0.01   0.06     0.04   0.07  -0.00     0.05   0.01   0.00
  26   5     0.05   0.05   0.18    -0.03   0.05  -0.04    -0.04   0.01   0.08
  27   7     0.02  -0.04  -0.06    -0.04  -0.07  -0.00    -0.05  -0.01   0.00
  28   5     0.07   0.02  -0.18     0.03  -0.05  -0.04     0.04  -0.01   0.08
  29   7     0.11  -0.06  -0.00    -0.05   0.07  -0.02     0.11  -0.10   0.03
  30   5     0.04  -0.00  -0.04     0.11  -0.06   0.11     0.02  -0.00  -0.02
  31   7     0.00   0.06  -0.11    -0.02   0.07  -0.05    -0.03   0.10  -0.11
  32   5    -0.13   0.09  -0.04    -0.03   0.07  -0.03     0.10  -0.08   0.06
  33   7    -0.05  -0.00   0.05     0.12  -0.04   0.12     0.02  -0.00  -0.02
  34   5     0.04  -0.09   0.13    -0.03   0.07  -0.03    -0.06   0.08  -0.10
  35   5    -0.14   0.08   0.04     0.03  -0.07  -0.03    -0.10   0.08   0.06
  36   7    -0.08  -0.00  -0.04    -0.12   0.04   0.12    -0.02   0.00  -0.02
  37   5     0.03  -0.06  -0.11     0.03  -0.07  -0.04     0.06  -0.08  -0.10
  38   7     0.12  -0.04   0.00     0.05  -0.07  -0.02    -0.11   0.10   0.03
  39   5     0.08  -0.01   0.02    -0.11   0.06   0.11    -0.02   0.00  -0.02
  40   7     0.00   0.03   0.10     0.02  -0.07  -0.05     0.03  -0.10  -0.11
  41   7     0.05  -0.06  -0.02    -0.04  -0.02  -0.04     0.01  -0.04   0.07
  42   5     0.00  -0.02   0.01    -0.10   0.08   0.05    -0.18   0.11   0.12
  43   7    -0.01   0.01   0.02     0.02   0.08  -0.02    -0.03   0.00  -0.03
  44   5    -0.00   0.01   0.01    -0.05   0.08   0.10     0.12  -0.11  -0.18
  45   7    -0.02   0.04   0.04     0.04  -0.02   0.04     0.07   0.04   0.01
  46   5     0.02  -0.00   0.01     0.13  -0.20  -0.13     0.01   0.00   0.01
  47   5     0.09   0.00  -0.09    -0.02   0.09  -0.02    -0.04   0.00   0.04
  48   7    -0.12  -0.01  -0.11     0.03   0.00  -0.03     0.06   0.00   0.06
  49   5    -0.09  -0.00   0.09     0.02   0.09   0.02     0.04   0.00  -0.04
  50   7     0.11   0.01   0.12    -0.03   0.00   0.03    -0.06  -0.00  -0.06
  51   7    -0.02  -0.01   0.01    -0.02   0.08   0.02     0.03  -0.00   0.03
  52   5    -0.01   0.02  -0.00     0.05   0.08  -0.10    -0.12  -0.11   0.18
  53   7     0.02   0.06  -0.05    -0.04  -0.02  -0.04    -0.07   0.04  -0.01
  54   5    -0.01   0.00  -0.02    -0.13  -0.20   0.13    -0.01  -0.00  -0.01
  55   7    -0.04  -0.04   0.02     0.04  -0.02   0.04    -0.01  -0.04  -0.07
  56   5    -0.01  -0.01   0.00     0.10   0.08  -0.05     0.18   0.11  -0.12
  57   5     0.00   0.02  -0.01     0.05  -0.08   0.10    -0.12   0.11  -0.18
  58   7    -0.02   0.06  -0.05    -0.04   0.02   0.04    -0.07  -0.04   0.01
  59   5     0.02  -0.00  -0.02    -0.13   0.20  -0.13    -0.01   0.00   0.01
  60   7     0.05  -0.06   0.02     0.04   0.02  -0.04    -0.01   0.04   0.07
  61   5     0.01  -0.02  -0.00     0.10  -0.08   0.05     0.18  -0.11   0.12
  62   7     0.00   0.00  -0.00    -0.02  -0.08  -0.02     0.03  -0.00  -0.03
  63   7     0.07   0.00  -0.07    -0.12  -0.04  -0.12    -0.02  -0.00   0.02
  64   5    -0.03  -0.04  -0.12     0.03   0.07   0.03     0.06   0.08   0.10
  65   7    -0.11  -0.01   0.00     0.05   0.07   0.02    -0.11  -0.10  -0.03
  66   5    -0.06   0.00   0.06    -0.11  -0.06  -0.11    -0.02  -0.00   0.02
  67   7    -0.00   0.01   0.11     0.02   0.07   0.05     0.03   0.10   0.11
  68   5     0.12   0.04   0.03     0.03   0.07   0.03    -0.10  -0.08  -0.06
  69   7    -0.06   0.01  -0.05    -0.00   0.07   0.04    -0.00  -0.01  -0.05
  70   5     0.18  -0.02  -0.07    -0.04  -0.05   0.03    -0.08   0.01  -0.04
  71   7     0.06   0.04  -0.01    -0.00  -0.07  -0.04    -0.00   0.01   0.05
  72   5    -0.18  -0.05  -0.05    -0.04   0.05  -0.03    -0.08  -0.01   0.04
                     61                     62                     63
                        a                      a                      a 
 Frequencies --   540.4881               540.4884               540.4885
 Red. masses --    11.8318                11.8318                11.8318
 Frc consts  --     0.0000                 0.0000                 0.0000
 IR Inten    --     0.0000                 0.0000                 0.0000
 Raman Activ --     0.0000                 0.0000                 0.0000
 Depolar     --     0.0000                 0.0000                 0.0000
 Atom AN      X      Y      Z        X      Y      Z        X      Y      Z
   1   5    -0.01  -0.01   0.02     0.03   0.02  -0.01    -0.01   0.00  -0.02
   2   7     0.01   0.00  -0.01     0.03   0.03  -0.00    -0.03  -0.10  -0.04
   3   5    -0.02   0.01   0.01     0.02  -0.02  -0.02    -0.01  -0.00  -0.02
   4   7    -0.02  -0.00   0.02     0.01  -0.03   0.02    -0.04   0.10  -0.03
   5   7     0.09  -0.04  -0.02     0.01   0.01  -0.02    -0.05   0.00   0.03
   6   5     0.01  -0.03  -0.01     0.01  -0.01   0.02     0.02  -0.01   0.02
   7   7    -0.09  -0.03  -0.04    -0.01  -0.02   0.01     0.05   0.02   0.01
   8   5    -0.01  -0.02  -0.01    -0.01  -0.02   0.01    -0.02  -0.00   0.03
   9   5    -0.01   0.00   0.02    -0.03   0.04   0.14    -0.20  -0.11  -0.14
  10   7    -0.01   0.01   0.00    -0.10   0.10  -0.00    -0.02   0.02   0.00
  11   5    -0.10  -0.16  -0.16    -0.01   0.06  -0.11     0.05   0.10   0.06
  12   7    -0.01   0.00   0.01     0.10   0.00  -0.09     0.03  -0.01  -0.03
  13   5     0.15   0.16   0.10     0.05  -0.11  -0.02     0.12   0.06   0.06
  14   7    -0.00  -0.01   0.01    -0.00  -0.09   0.09     0.00  -0.04   0.04
  15   7     0.04   0.03   0.09    -0.02   0.01  -0.02     0.00   0.03   0.05
  16   5     0.01   0.03  -0.01    -0.03   0.01  -0.02     0.01  -0.00   0.00
  17   7     0.02   0.04  -0.09    -0.01  -0.01   0.02     0.03   0.00  -0.05
  18   5     0.01   0.02   0.01    -0.02   0.02   0.02     0.02   0.01  -0.00
  19   5    -0.02  -0.01   0.15     0.19   0.01  -0.05    -0.04   0.00  -0.11
  20   7    -0.01   0.07   0.11    -0.02   0.01   0.10    -0.02  -0.13  -0.03
  21   5     0.07   0.19  -0.01    -0.09   0.03   0.00     0.16  -0.01  -0.01
  22   7    -0.08  -0.02  -0.01    -0.01   0.03  -0.12     0.12   0.01   0.09
  23   5    -0.00  -0.10  -0.01    -0.01  -0.16   0.02    -0.01  -0.03   0.19
  24   7     0.12  -0.00  -0.03     0.08  -0.11   0.01    -0.04   0.10  -0.02
  25   7    -0.01   0.01   0.03    -0.03   0.04   0.09     0.03   0.01  -0.02
  26   5     0.01   0.03  -0.02    -0.02   0.01   0.00     0.02   0.00  -0.01
  27   7     0.00   0.02  -0.03    -0.04   0.03  -0.09    -0.00  -0.02   0.02
  28   5     0.02   0.02   0.02    -0.02   0.02  -0.00     0.01   0.01   0.01
  29   7    -0.15  -0.10  -0.01    -0.02   0.10  -0.03    -0.00  -0.03   0.01
  30   5    -0.11  -0.00   0.12     0.08  -0.00   0.01    -0.14   0.01  -0.15
  31   7     0.01   0.11   0.15     0.02  -0.07   0.02     0.02  -0.08   0.02
  32   5     0.06   0.16  -0.00    -0.18   0.10  -0.01     0.02  -0.05   0.00
  33   7     0.11  -0.00  -0.11    -0.05  -0.01   0.09    -0.09   0.03  -0.05
  34   5     0.00  -0.16  -0.07     0.01  -0.05   0.14     0.01  -0.10   0.12
  35   5     0.00   0.10   0.00    -0.13   0.15   0.01     0.14   0.08  -0.00
  36   7     0.00   0.02   0.08     0.04  -0.03  -0.07     0.14  -0.01   0.11
  37   5     0.01  -0.19  -0.08     0.00  -0.02  -0.02    -0.01  -0.04   0.18
  38   7    -0.11  -0.06   0.01    -0.06   0.07   0.03    -0.09  -0.12  -0.01
  39   5    -0.14   0.01   0.03     0.11  -0.01  -0.13    -0.07  -0.00  -0.14
  40   7     0.03  -0.01  -0.12     0.00   0.03  -0.05    -0.02   0.15  -0.08
  41   7     0.06   0.06   0.00    -0.00   0.00   0.01     0.08   0.08  -0.00
  42   5     0.10  -0.12  -0.20     0.01  -0.03  -0.02    -0.05   0.16   0.01
  43   7    -0.04   0.00  -0.03     0.00  -0.00   0.00    -0.09  -0.00  -0.09
  44   5    -0.09   0.03   0.04    -0.17   0.16   0.11    -0.04  -0.12  -0.03
  45   7     0.00  -0.04   0.04     0.00  -0.02   0.02    -0.00  -0.09   0.09
  46   5    -0.06   0.07   0.15     0.15  -0.09  -0.13     0.12  -0.03   0.03
  47   5    -0.02  -0.00   0.02     0.02  -0.01  -0.00    -0.02   0.02  -0.02
  48   7    -0.04   0.06   0.01     0.02  -0.08  -0.04    -0.00  -0.02  -0.02
  49   5    -0.00   0.00   0.01     0.03   0.01  -0.01    -0.02  -0.02  -0.03
  50   7    -0.01  -0.06   0.04     0.04   0.08  -0.02     0.01   0.02  -0.01
  51   7     0.04  -0.00   0.04     0.05   0.00   0.05    -0.07   0.00  -0.08
  52   5     0.20   0.11  -0.10     0.01  -0.07   0.02     0.03   0.15  -0.06
  53   7    -0.00  -0.06  -0.06    -0.00  -0.05  -0.05    -0.00   0.06   0.07
  54   5    -0.15  -0.07   0.05     0.09   0.09  -0.19     0.09   0.03   0.01
  55   7    -0.05   0.05  -0.00    -0.07   0.07   0.00     0.06  -0.06  -0.00
  56   5    -0.03  -0.02   0.09    -0.07  -0.06   0.16    -0.09  -0.19   0.07
  57   5    -0.14  -0.02  -0.04    -0.13   0.20  -0.11     0.06  -0.02   0.03
  58   7     0.00  -0.10  -0.09     0.00   0.02   0.03     0.00   0.02   0.02
  59   5     0.09  -0.00  -0.08     0.03  -0.04   0.08    -0.18   0.11  -0.17
  60   7     0.09   0.10  -0.00    -0.03  -0.03  -0.01     0.01   0.00   0.00
  61   5     0.03   0.03   0.13     0.07  -0.15   0.08     0.09  -0.13   0.13
  62   7    -0.09  -0.00   0.09     0.05  -0.00  -0.05     0.01   0.01  -0.01
  63   7     0.03   0.00  -0.02    -0.10   0.01   0.15    -0.10  -0.03  -0.03
  64   5    -0.01  -0.13  -0.13    -0.00  -0.14   0.10     0.01   0.04   0.10
  65   7     0.08   0.04   0.03     0.12  -0.14  -0.01     0.05   0.02   0.02
  66   5     0.01   0.00  -0.00     0.16   0.00  -0.07    -0.11  -0.01  -0.18
  67   7    -0.03  -0.04  -0.08    -0.00   0.11  -0.12     0.02   0.10  -0.03
  68   5     0.13   0.13   0.01    -0.14   0.09  -0.00     0.03   0.12   0.01
  69   7    -0.03  -0.01   0.01    -0.06  -0.04   0.01    -0.07  -0.01   0.04
  70   5    -0.02  -0.02  -0.02    -0.00  -0.02   0.01     0.01  -0.00   0.02
  71   7     0.03  -0.02  -0.00     0.06  -0.01   0.04     0.07  -0.03   0.02
  72   5     0.02  -0.03  -0.01     0.00  -0.01   0.00    -0.01  -0.01   0.03
                     64                     65                     66
                        a                      a                      a 
 Frequencies --   543.4679               543.4688               543.4692
 Red. masses --    11.6963                11.6963                11.6963
 Frc consts  --     0.0000                 0.0000                 0.0000
 IR Inten    --     0.7913                 0.7924                 0.7929
 Raman Activ --     0.0000                 0.0000                 0.0000
 Depolar     --     0.0000                 0.0000                 0.0000
 Atom AN      X      Y      Z        X      Y      Z        X      Y      Z
   1   5     0.01  -0.09   0.02     0.02  -0.01  -0.03    -0.02  -0.10  -0.00
   2   7    -0.02   0.07   0.05    -0.02   0.03  -0.02    -0.05  -0.06   0.03
   3   5     0.00   0.09   0.02    -0.03  -0.02   0.02    -0.02   0.11  -0.01
   4   7    -0.02  -0.06   0.05     0.01   0.05   0.01    -0.05   0.05   0.02
   5   7    -0.06  -0.03   0.05     0.07  -0.05   0.02     0.03   0.02   0.02
   6   5     0.11   0.01   0.02     0.09  -0.02  -0.01    -0.02  -0.02   0.03
   7   7     0.05  -0.03   0.05    -0.06  -0.05   0.02     0.05  -0.01  -0.01
   8   5    -0.11   0.00   0.02    -0.09  -0.02  -0.01    -0.02   0.03  -0.02
   9   5     0.09   0.04   0.04    -0.08  -0.07  -0.07    -0.03  -0.03  -0.09
  10   7     0.05   0.06  -0.08    -0.03  -0.01  -0.03     0.00  -0.02  -0.04
  11   5     0.04   0.10   0.03    -0.05  -0.05  -0.11    -0.06  -0.05  -0.05
  12   7     0.02   0.05  -0.00    -0.06   0.07  -0.06     0.00  -0.04  -0.02
  13   5     0.05   0.06   0.07    -0.11  -0.05  -0.05    -0.03  -0.09  -0.03
  14   7     0.03   0.03   0.00    -0.04  -0.01  -0.03     0.08  -0.05  -0.05
  15   7     0.02   0.01  -0.04     0.02  -0.05  -0.06    -0.05   0.03  -0.06
  16   5    -0.03   0.02   0.03    -0.01  -0.02   0.09    -0.02  -0.00  -0.10
  17   7    -0.01  -0.02  -0.04     0.02  -0.05   0.07    -0.05   0.02   0.05
  18   5     0.03  -0.03   0.00    -0.01  -0.02  -0.09    -0.02  -0.01   0.11
  19   5     0.06   0.02  -0.07    -0.21   0.04   0.21     0.11   0.01  -0.10
  20   7     0.05  -0.07  -0.02     0.03   0.03   0.08    -0.09  -0.09   0.07
  21   5    -0.20  -0.20  -0.04     0.11   0.12  -0.01     0.07   0.06  -0.02
  22   7    -0.08   0.03  -0.02    -0.07  -0.09   0.09     0.03   0.05   0.07
  23   5     0.01   0.10  -0.11     0.02   0.07  -0.06     0.04  -0.21   0.21
  24   7    -0.09  -0.07   0.09    -0.07   0.03  -0.06     0.03  -0.08  -0.03
  25   7    -0.02   0.01  -0.05    -0.02  -0.05  -0.05    -0.05  -0.02   0.06
  26   5     0.03   0.02   0.02     0.00  -0.02   0.10    -0.02   0.01   0.09
  27   7     0.02  -0.02  -0.03    -0.03  -0.05   0.06    -0.05  -0.02  -0.07
  28   5    -0.02  -0.03   0.01     0.01  -0.02  -0.11    -0.02   0.01  -0.09
  29   7     0.08  -0.08   0.08     0.07   0.04  -0.05     0.03   0.07   0.05
  30   5    -0.07   0.02  -0.08     0.22   0.03   0.22     0.07  -0.02   0.06
  31   7    -0.04  -0.08  -0.01    -0.05   0.04   0.07    -0.09   0.07  -0.09
  32   5     0.19  -0.19  -0.04    -0.10   0.11  -0.01     0.11  -0.10   0.01
  33   7     0.08   0.04  -0.01     0.07  -0.10   0.08     0.03  -0.03  -0.08
  34   5    -0.02   0.08  -0.09    -0.01   0.10  -0.09     0.04   0.21  -0.21
  35   5    -0.22   0.22  -0.04    -0.05   0.07   0.02     0.09  -0.08  -0.02
  36   7    -0.07  -0.05  -0.04     0.09  -0.09  -0.07     0.02  -0.04   0.08
  37   5     0.01  -0.08  -0.10    -0.01   0.12   0.11     0.04   0.20   0.20
  38   7    -0.07   0.08   0.10     0.08   0.02   0.03     0.02   0.08  -0.04
  39   5     0.10  -0.01  -0.11     0.21   0.04  -0.20     0.08  -0.02  -0.07
  40   7     0.04   0.07  -0.04    -0.05   0.02  -0.07    -0.08   0.08   0.08
  41   7    -0.05   0.05  -0.08     0.03  -0.01  -0.03    -0.01   0.03   0.04
  42   5    -0.03   0.09   0.02     0.04  -0.04  -0.10    -0.07   0.07   0.07
  43   7    -0.02   0.04  -0.00     0.06   0.08  -0.05    -0.01   0.04   0.03
  44   5    -0.05   0.05   0.06     0.10  -0.04  -0.04    -0.05   0.11   0.05
  45   7    -0.04   0.02  -0.00     0.05  -0.00  -0.02     0.07   0.06   0.06
  46   5    -0.09   0.03   0.02     0.07  -0.07  -0.06    -0.05   0.05   0.11
  47   5    -0.01  -0.10   0.02    -0.03   0.00  -0.03    -0.02   0.09   0.01
  48   7     0.03   0.06   0.05     0.01   0.04  -0.02    -0.05   0.06  -0.02
  49   5    -0.00   0.10   0.02     0.02  -0.03   0.02    -0.02  -0.09   0.01
  50   7     0.02  -0.05   0.05    -0.02   0.04   0.01    -0.05  -0.07  -0.02
  51   7    -0.03  -0.03   0.01    -0.05   0.08   0.06    -0.00  -0.05   0.02
  52   5    -0.07  -0.06   0.07    -0.10  -0.04   0.04    -0.03  -0.10   0.04
  53   7    -0.05  -0.02   0.00    -0.03  -0.00   0.03     0.08  -0.06   0.05
  54   5    -0.10  -0.05   0.04    -0.06  -0.07   0.07    -0.04  -0.04   0.10
  55   7    -0.06  -0.05  -0.08    -0.02   0.00   0.05    -0.00  -0.03   0.03
  56   5    -0.04  -0.10   0.04    -0.04  -0.03   0.10    -0.07  -0.07   0.06
  57   5     0.08  -0.07   0.07     0.09  -0.02   0.03    -0.04   0.10  -0.04
  58   7     0.04  -0.03   0.01     0.04   0.00   0.02     0.08   0.05  -0.06
  59   5     0.11  -0.05   0.05     0.05  -0.06   0.05    -0.03   0.04  -0.10
  60   7     0.06  -0.06  -0.07     0.02   0.00   0.04    -0.00   0.02  -0.05
  61   5     0.05  -0.11   0.05     0.03  -0.02   0.09    -0.07   0.06  -0.07
  62   7     0.03  -0.03   0.01     0.05   0.08   0.05    -0.01   0.03  -0.03
  63   7     0.07  -0.05  -0.03    -0.08  -0.08  -0.08     0.04   0.05  -0.07
  64   5    -0.02  -0.06  -0.07     0.02   0.09   0.08     0.04  -0.22  -0.22
  65   7     0.07   0.09   0.09    -0.08   0.01   0.04     0.04  -0.07   0.05
  66   5    -0.11  -0.01  -0.12    -0.19   0.04  -0.19     0.10   0.01   0.09
  67   7    -0.03   0.08  -0.03     0.04   0.01  -0.08    -0.09  -0.08  -0.08
  68   5     0.21   0.21  -0.04     0.07   0.08   0.02     0.10   0.09   0.01
  69   7    -0.07   0.02   0.05    -0.05  -0.05  -0.03     0.04  -0.01   0.02
  70   5     0.09  -0.01   0.02    -0.11  -0.02   0.01    -0.00   0.03   0.03
  71   7     0.06   0.02   0.05     0.06  -0.05  -0.03     0.04   0.02  -0.01
  72   5    -0.09  -0.01   0.02     0.11  -0.02   0.00    -0.03  -0.02  -0.02
                     67                     68                     69
                        a                      a                      a 
 Frequencies --   548.0354               548.0356               548.0356
 Red. masses --    11.6133                11.6133                11.6132
 Frc consts  --     0.0000                 0.0000                 0.0000
 IR Inten    --    21.4090                21.4084                21.4077
 Raman Activ --     0.0000                 0.0000                 0.0000
 Depolar     --     0.0000                 0.0000                 0.0000
 Atom AN      X      Y      Z        X      Y      Z        X      Y      Z
   1   5     0.03  -0.05   0.04     0.08  -0.19  -0.07    -0.01  -0.12  -0.04
   2   7     0.06   0.03   0.05    -0.02   0.01  -0.02    -0.02  -0.03  -0.02
   3   5     0.08   0.14  -0.01    -0.02   0.01   0.04     0.02   0.18  -0.08
   4   7     0.03  -0.03   0.03     0.04  -0.01   0.04    -0.04   0.03  -0.04
   5   7    -0.01   0.02   0.02    -0.04   0.04   0.04     0.00  -0.04  -0.04
   6   5     0.17   0.04  -0.01    -0.03   0.04   0.04     0.16   0.07  -0.08
   7   7     0.01   0.01   0.01     0.04   0.06   0.06    -0.01   0.02   0.02
   8   5    -0.22   0.07  -0.04     0.08   0.02   0.07     0.05  -0.06   0.04
   9   5    -0.09  -0.16  -0.14     0.11   0.05   0.05     0.06   0.07  -0.03
  10   7     0.04   0.05  -0.10     0.02  -0.00  -0.03     0.03   0.02  -0.04
  11   5    -0.03   0.05  -0.06    -0.17  -0.12  -0.09    -0.06  -0.08  -0.11
  12   7    -0.03   0.08  -0.05     0.04  -0.08   0.03     0.01   0.01  -0.01
  13   5     0.08   0.14   0.10     0.06  -0.03  -0.03     0.11   0.06   0.15
  14   7    -0.01   0.01  -0.01     0.06  -0.04  -0.03     0.09  -0.03  -0.04
  15   7    -0.04  -0.04  -0.00     0.01   0.01   0.02    -0.05  -0.05  -0.04
  16   5     0.03  -0.04   0.00     0.08  -0.04  -0.21    -0.01  -0.07  -0.11
  17   7     0.02   0.02   0.01     0.04   0.04  -0.02    -0.04  -0.04   0.04
  18   5    -0.08   0.07  -0.19     0.02   0.02   0.11    -0.02  -0.05   0.09
  19   5    -0.03   0.01   0.06    -0.08  -0.06   0.09    -0.09  -0.00   0.07
  20   7    -0.05  -0.12   0.12     0.02   0.05  -0.03     0.00  -0.00   0.00
  21   5     0.01  -0.00  -0.04     0.05   0.08  -0.04    -0.11  -0.10   0.02
  22   7    -0.04  -0.02   0.05    -0.09  -0.04   0.09    -0.08  -0.03   0.08
  23   5    -0.03  -0.11   0.12     0.02   0.06  -0.02     0.04  -0.01   0.00
  24   7     0.01   0.01  -0.01     0.06   0.08  -0.03    -0.11  -0.10   0.05
  25   7     0.05  -0.05  -0.02    -0.02   0.02   0.03    -0.02   0.02   0.02
  26   5    -0.03  -0.07  -0.06    -0.08  -0.02  -0.14     0.01   0.05   0.17
  27   7    -0.01   0.01   0.02    -0.06   0.05  -0.03    -0.03   0.03  -0.02
  28   5     0.08   0.04  -0.13    -0.02   0.04   0.04     0.02   0.07  -0.19
  29   7     0.03  -0.03   0.01    -0.10   0.11  -0.05    -0.07   0.05  -0.03
  30   5     0.07   0.00   0.09     0.04  -0.05   0.05    -0.10   0.03  -0.07
  31   7     0.05  -0.10   0.11    -0.01   0.03  -0.02     0.03  -0.07   0.06
  32   5     0.03  -0.03  -0.03    -0.10   0.11  -0.04    -0.07   0.04  -0.02
  33   7     0.08  -0.03   0.08     0.05  -0.03   0.05    -0.09   0.04  -0.08
  34   5     0.01  -0.10   0.11     0.00   0.04  -0.01     0.06  -0.06   0.06
  35   5     0.08  -0.08  -0.06    -0.07   0.09  -0.01    -0.07   0.04   0.01
  36   7    -0.07   0.03   0.08    -0.03   0.01   0.03    -0.10   0.05   0.09
  37   5    -0.02   0.03   0.06    -0.01   0.11   0.10     0.05  -0.05  -0.04
  38   7     0.08  -0.09  -0.04    -0.07   0.08   0.03    -0.06   0.05   0.02
  39   5    -0.05   0.03   0.08    -0.03  -0.03   0.04    -0.11   0.03   0.09
  40   7    -0.02   0.04   0.05    -0.05   0.11   0.10     0.03  -0.05  -0.05
  41   7    -0.05   0.05  -0.11    -0.01  -0.01  -0.02     0.02   0.00   0.01
  42   5     0.07   0.01  -0.11     0.13  -0.07  -0.04    -0.11   0.14   0.10
  43   7     0.02   0.06  -0.04    -0.03  -0.07   0.02     0.04   0.06  -0.02
  44   5    -0.13   0.15   0.15    -0.02  -0.04  -0.08     0.08   0.03  -0.07
  45   7    -0.04  -0.01  -0.03    -0.01  -0.02  -0.01     0.11   0.05   0.04
  46   5     0.04  -0.11  -0.14    -0.07  -0.00   0.04     0.13  -0.14  -0.06
  47   5    -0.03  -0.11   0.01    -0.08  -0.13  -0.04     0.01   0.16   0.08
  48   7    -0.04   0.02   0.04     0.00   0.02  -0.00    -0.05   0.03   0.05
  49   5    -0.08   0.21  -0.04     0.03  -0.05   0.07    -0.02  -0.09   0.04
  50   7    -0.01  -0.02   0.01    -0.05  -0.02   0.05    -0.03  -0.03   0.03
  51   7    -0.02   0.03  -0.00     0.05  -0.11  -0.05     0.02   0.00   0.00
  52   5    -0.12  -0.06   0.05    -0.05  -0.14   0.11     0.09   0.04  -0.13
  53   7    -0.06   0.03  -0.04     0.03  -0.03   0.00     0.09  -0.03   0.04
  54   5    -0.06   0.04  -0.04     0.13   0.15  -0.15     0.07   0.09   0.01
  55   7    -0.04  -0.03  -0.09    -0.02  -0.04  -0.07     0.03   0.01   0.03
  56   5     0.17   0.08  -0.12    -0.06  -0.11  -0.01    -0.04  -0.08   0.09
  57   5     0.07  -0.05   0.00     0.09  -0.15   0.16     0.10   0.00   0.08
  58   7     0.01   0.01  -0.02     0.01  -0.01  -0.02     0.11   0.05  -0.05
  59   5     0.01   0.09  -0.05    -0.08   0.10  -0.14     0.13  -0.12   0.04
  60   7     0.03  -0.02  -0.07     0.03  -0.05  -0.08     0.03  -0.00  -0.03
  61   5    -0.13   0.03  -0.07     0.02  -0.06  -0.06    -0.13   0.14  -0.12
  62   7     0.00   0.01  -0.01    -0.04  -0.10  -0.05     0.04   0.05   0.02
  63   7     0.10   0.05   0.11    -0.01  -0.01  -0.00    -0.07  -0.03  -0.06
  64   5    -0.00   0.02   0.05     0.04   0.12   0.12     0.05   0.00   0.01
  65   7    -0.04  -0.05  -0.03     0.03   0.04   0.01    -0.11  -0.11  -0.05
  66   5     0.10   0.04   0.11    -0.01  -0.04   0.01    -0.08   0.00  -0.05
  67   7     0.01   0.02   0.04     0.06   0.12   0.12     0.01   0.01   0.02
  68   5    -0.03  -0.05  -0.05     0.03   0.05  -0.01    -0.12  -0.10  -0.03
  69   7    -0.04  -0.06   0.05     0.01   0.02  -0.02    -0.01   0.02  -0.02
  70   5     0.04  -0.04   0.04     0.22  -0.04  -0.07     0.07  -0.07  -0.04
  71   7     0.04  -0.04   0.04    -0.01   0.01  -0.01     0.01  -0.05   0.05
  72   5    -0.09  -0.07   0.01    -0.17  -0.02  -0.04     0.13   0.06   0.08
                     70                     71                     72
                        a                      a                      a 
 Frequencies --   576.2695               576.2698               583.9457
 Red. masses --    12.1698                12.1698                11.9131
 Frc consts  --     0.0000                 0.0000                 0.0000
 IR Inten    --     0.0000                 0.0000                 0.0219
 Raman Activ --     0.0000                 0.0000                 0.0000
 Depolar     --     0.0000                 0.0000                 0.0000
 Atom AN      X      Y      Z        X      Y      Z        X      Y      Z
   1   5     0.09  -0.00   0.09    -0.01   0.07   0.01     0.03  -0.05  -0.01
   2   7    -0.13   0.00   0.13    -0.01  -0.05  -0.01     0.02   0.03  -0.00
   3   5    -0.09   0.00  -0.09     0.01   0.07  -0.01    -0.01  -0.11   0.02
   4   7     0.13  -0.00  -0.13     0.01  -0.05   0.01     0.02  -0.06  -0.00
   5   7     0.04   0.06  -0.07     0.02  -0.12   0.11     0.05  -0.03   0.01
   6   5    -0.06  -0.06  -0.03    -0.04   0.07   0.08     0.14   0.01  -0.02
   7   7     0.04  -0.06   0.07     0.02   0.12  -0.11    -0.01  -0.02   0.01
   8   5    -0.06   0.06   0.03    -0.04  -0.07  -0.08     0.03  -0.03   0.02
   9   5    -0.01   0.00   0.01     0.02  -0.02   0.02     0.14   0.14   0.17
  10   7    -0.08  -0.10   0.06     0.07   0.04  -0.04    -0.03   0.03  -0.02
  11   5     0.02  -0.03  -0.01     0.01   0.00  -0.02    -0.13  -0.11  -0.16
  12   7     0.02  -0.00  -0.02    -0.11   0.07  -0.11     0.06   0.09   0.08
  13   5     0.01   0.03  -0.02    -0.02   0.00   0.01    -0.06   0.01  -0.03
  14   7    -0.06   0.10   0.08    -0.04   0.04   0.07    -0.09  -0.02  -0.06
  15   7    -0.07   0.06  -0.04    -0.11   0.12   0.02     0.03  -0.03   0.00
  16   5     0.03   0.06   0.06     0.08   0.07  -0.04     0.00  -0.00   0.11
  17   7     0.07  -0.06  -0.04     0.11  -0.12   0.02     0.03  -0.03   0.00
  18   5    -0.03  -0.06   0.06    -0.08  -0.07  -0.04     0.01  -0.01  -0.06
  19   5    -0.01  -0.00  -0.01     0.19  -0.03  -0.19     0.03   0.11  -0.07
  20   7    -0.05   0.02   0.02    -0.03  -0.03  -0.03    -0.03  -0.05   0.10
  21   5     0.16   0.17   0.03    -0.10  -0.09  -0.02    -0.02   0.03  -0.02
  22   7     0.04  -0.00   0.04     0.00   0.06  -0.00     0.02   0.03  -0.11
  23   5     0.03  -0.17   0.16     0.02  -0.09   0.10    -0.13  -0.07   0.09
  24   7     0.02  -0.02  -0.05     0.03  -0.03   0.03    -0.06   0.08  -0.01
  25   7    -0.07  -0.06   0.04    -0.11  -0.12  -0.02     0.01  -0.01  -0.07
  26   5     0.03  -0.06  -0.06     0.08  -0.07   0.04     0.02  -0.01   0.02
  27   7     0.07   0.06   0.04     0.11   0.12  -0.02     0.01  -0.01   0.08
  28   5    -0.03   0.06  -0.06    -0.08   0.07   0.04     0.01  -0.02   0.02
  29   7     0.02   0.02   0.05     0.03   0.03  -0.03     0.02  -0.02  -0.04
  30   5    -0.01   0.00   0.01     0.19   0.03   0.19     0.05   0.05   0.07
  31   7    -0.05  -0.02  -0.02    -0.03   0.03   0.03    -0.06   0.06  -0.00
  32   5     0.16  -0.17  -0.03    -0.10   0.09   0.02     0.11  -0.11   0.04
  33   7     0.04  -0.00  -0.04     0.00  -0.06   0.00    -0.06   0.06  -0.00
  34   5     0.03   0.17  -0.16     0.02   0.09  -0.10    -0.05  -0.05   0.07
  35   5    -0.16   0.17  -0.03     0.10  -0.09   0.02     0.11  -0.11  -0.09
  36   7    -0.04   0.00  -0.04    -0.00   0.06   0.00    -0.08   0.05  -0.01
  37   5    -0.03  -0.17  -0.16    -0.02  -0.09  -0.10    -0.07  -0.01  -0.05
  38   7    -0.02  -0.02   0.05    -0.03  -0.03  -0.03     0.05  -0.05   0.01
  39   5     0.01   0.00   0.01    -0.19  -0.03   0.19     0.01   0.07  -0.05
  40   7     0.05   0.02  -0.02     0.03  -0.03   0.03    -0.05   0.08  -0.01
  41   7    -0.08   0.10  -0.06     0.07  -0.04   0.04     0.12  -0.12  -0.03
  42   5     0.02   0.03   0.01     0.01  -0.00   0.02    -0.11   0.10   0.05
  43   7     0.02  -0.00   0.02    -0.11  -0.07   0.11     0.03   0.09  -0.07
  44   5     0.01  -0.03   0.02    -0.02  -0.00  -0.01     0.11  -0.11  -0.07
  45   7    -0.06  -0.10  -0.08    -0.04  -0.04  -0.07    -0.09  -0.03  -0.07
  46   5    -0.01   0.00  -0.01     0.02   0.02  -0.02    -0.10   0.11   0.05
  47   5     0.09  -0.00  -0.09    -0.01  -0.07  -0.01    -0.01  -0.14  -0.02
  48   7    -0.13   0.00  -0.13    -0.01   0.05   0.01     0.03  -0.05   0.01
  49   5    -0.09   0.00   0.09     0.01  -0.07   0.01     0.03  -0.03   0.02
  50   7     0.13  -0.00   0.13     0.01   0.05  -0.01     0.02   0.01   0.01
  51   7    -0.02   0.00  -0.02     0.11  -0.07  -0.11     0.02   0.09  -0.06
  52   5    -0.01  -0.03  -0.02     0.02  -0.00   0.01    -0.01   0.06  -0.03
  53   7     0.06  -0.10   0.08     0.04  -0.04   0.07    -0.09  -0.06   0.08
  54   5     0.01  -0.00   0.01    -0.02   0.02   0.02     0.11   0.13  -0.16
  55   7     0.08   0.10   0.06    -0.07  -0.04  -0.04    -0.03   0.03  -0.02
  56   5    -0.02   0.03  -0.01    -0.01  -0.00  -0.02    -0.14  -0.14   0.17
  57   5    -0.01   0.03   0.02     0.02   0.00  -0.01     0.05  -0.05   0.00
  58   7     0.06   0.10  -0.08     0.04   0.04  -0.07    -0.08  -0.07   0.09
  59   5     0.01  -0.00  -0.01    -0.02  -0.02  -0.02    -0.07   0.10  -0.04
  60   7     0.08  -0.10  -0.06    -0.07   0.04   0.04     0.12  -0.12  -0.02
  61   5    -0.02  -0.03   0.01    -0.01   0.00   0.02    -0.10   0.07  -0.04
  62   7    -0.02   0.00   0.02     0.11   0.07   0.11     0.07   0.08   0.09
  63   7    -0.04   0.00   0.04    -0.00  -0.06  -0.00     0.05   0.03   0.10
  64   5    -0.03   0.17   0.16    -0.02   0.09   0.10    -0.11  -0.03  -0.07
  65   7    -0.02   0.02  -0.05    -0.03   0.03   0.03    -0.08   0.06  -0.01
  66   5     0.01  -0.00  -0.01    -0.19   0.03  -0.19     0.07   0.13   0.09
  67   7     0.05  -0.02   0.02     0.03   0.03  -0.03    -0.03  -0.02  -0.11
  68   5    -0.16  -0.17   0.03     0.10   0.09  -0.02    -0.03   0.02  -0.02
  69   7    -0.04   0.06   0.07    -0.02  -0.12  -0.11    -0.03  -0.02  -0.00
  70   5     0.06  -0.06   0.03     0.04   0.07  -0.08     0.05  -0.03  -0.01
  71   7    -0.04  -0.06  -0.07    -0.02   0.12   0.11     0.06  -0.02  -0.00
  72   5     0.06   0.06  -0.03     0.04  -0.07   0.08     0.11   0.01   0.02
                     73                     74                     75
                        a                      a                      a 
 Frequencies --   583.9458               583.9461               589.5785
 Red. masses --    11.9131                11.9131                11.9398
 Frc consts  --     0.0000                 0.0000                 0.0000
 IR Inten    --     0.0219                 0.0219                 0.0000
 Raman Activ --     0.0000                 0.0000                 0.0000
 Depolar     --     0.0000                 0.0000                 0.0000
 Atom AN      X      Y      Z        X      Y      Z        X      Y      Z
   1   5    -0.01   0.14   0.02     0.00   0.01  -0.02     0.08  -0.13  -0.08
   2   7     0.03   0.04  -0.02     0.01  -0.06  -0.03    -0.04   0.06  -0.04
   3   5     0.02   0.01  -0.02    -0.01  -0.09  -0.00    -0.08  -0.13   0.08
   4   7     0.03  -0.01  -0.02     0.01   0.05  -0.03     0.04   0.06   0.04
   5   7     0.00   0.02  -0.02     0.07   0.00  -0.03    -0.03  -0.12   0.08
   6   5     0.03   0.02  -0.02    -0.05  -0.01  -0.01     0.07   0.11   0.03
   7   7     0.04   0.03  -0.02    -0.07  -0.00  -0.03    -0.03   0.12  -0.08
   8   5     0.14  -0.01   0.02     0.03  -0.01  -0.02     0.07  -0.11  -0.03
   9   5    -0.10  -0.10  -0.05    -0.03   0.03   0.02     0.11   0.10   0.11
  10   7     0.11   0.12   0.05    -0.05  -0.04   0.12    -0.04  -0.03  -0.06
  11   5    -0.11  -0.11  -0.06    -0.02  -0.07  -0.04    -0.05  -0.05  -0.07
  12   7     0.02  -0.08   0.06    -0.11   0.04  -0.08     0.07   0.12   0.07
  13   5     0.12   0.12   0.09     0.11   0.12   0.15    -0.07  -0.05  -0.05
  14   7    -0.09   0.02   0.06     0.01  -0.13  -0.10    -0.06  -0.03  -0.04
  15   7     0.02   0.01   0.06     0.00  -0.01  -0.05    -0.08   0.12  -0.03
  16   5     0.02   0.00  -0.03     0.02  -0.03  -0.10     0.03   0.11   0.07
  17   7     0.02   0.01  -0.08     0.00  -0.01  -0.00     0.08  -0.12  -0.03
  18   5     0.00   0.02  -0.04    -0.03   0.02  -0.13    -0.03  -0.11   0.07
  19   5     0.06  -0.04  -0.08     0.09   0.08  -0.05    -0.09  -0.12   0.09
  20   7    -0.06  -0.05   0.01    -0.00   0.09   0.04     0.00  -0.01  -0.02
  21   5     0.10   0.10  -0.02    -0.05  -0.04   0.14     0.04   0.05  -0.06
  22   7    -0.04  -0.06   0.00     0.10   0.01   0.01    -0.02  -0.01   0.02
  23   5    -0.05   0.06  -0.07     0.04   0.07  -0.02     0.06   0.05  -0.04
  24   7     0.01   0.01   0.04    -0.09  -0.07   0.05     0.02  -0.01  -0.00
  25   7     0.03   0.03  -0.01    -0.01  -0.01  -0.04    -0.08  -0.12   0.03
  26   5    -0.00  -0.00  -0.12    -0.02  -0.03  -0.08     0.03  -0.11  -0.07
  27   7     0.03   0.03  -0.00    -0.01  -0.01  -0.01     0.08   0.12   0.03
  28   5     0.01   0.01   0.05     0.02   0.02  -0.14    -0.03   0.11  -0.07
  29   7    -0.05  -0.09   0.02     0.10  -0.05   0.05     0.02   0.01   0.00
  30   5     0.02  -0.10   0.06    -0.10   0.09  -0.07    -0.09   0.12  -0.09
  31   7    -0.03   0.06  -0.09     0.02   0.07   0.06     0.00   0.01   0.02
  32   5    -0.02  -0.04   0.04     0.04  -0.02   0.13     0.04  -0.05   0.06
  33   7     0.00  -0.03   0.11    -0.09   0.00  -0.01    -0.02   0.01  -0.02
  34   5    -0.13   0.08  -0.09    -0.01   0.07  -0.02     0.06  -0.05   0.04
  35   5    -0.02  -0.03   0.04     0.01   0.00   0.11    -0.04   0.05   0.06
  36   7     0.05  -0.02  -0.09     0.05   0.03   0.06     0.02  -0.01  -0.02
  37   5    -0.11   0.02   0.05     0.07  -0.11  -0.09    -0.06   0.05   0.04
  38   7    -0.09  -0.05   0.02    -0.04   0.09   0.06    -0.02  -0.01   0.00
  39   5     0.08  -0.13  -0.10     0.08   0.01  -0.04     0.09  -0.12  -0.09
  40   7    -0.04   0.01   0.11    -0.02  -0.07  -0.01    -0.00  -0.01   0.02
  41   7    -0.02  -0.04   0.04     0.04  -0.02   0.12    -0.04   0.03   0.06
  42   5    -0.13   0.10   0.15     0.05  -0.10  -0.07    -0.05   0.05   0.07
  43   7     0.07  -0.09  -0.09     0.10   0.04  -0.05     0.07  -0.12  -0.07
  44   5    -0.08   0.00   0.05    -0.12   0.14   0.15    -0.07   0.05   0.05
  45   7    -0.09   0.00   0.04     0.02  -0.12  -0.10    -0.06   0.03   0.04
  46   5     0.14  -0.13  -0.16     0.02   0.04   0.03     0.11  -0.10  -0.11
  47   5     0.03   0.05   0.01    -0.00   0.02  -0.02     0.08   0.13   0.08
  48   7     0.02  -0.04  -0.00    -0.01  -0.05  -0.03    -0.04  -0.06   0.04
  49   5    -0.01   0.10  -0.02     0.01  -0.10  -0.00    -0.08   0.13  -0.08
  50   7     0.02   0.07  -0.00    -0.01   0.04  -0.03     0.04  -0.06  -0.04
  51   7     0.09  -0.08  -0.10     0.09   0.05  -0.05    -0.07  -0.12   0.07
  52   5     0.03   0.03   0.02    -0.17  -0.16   0.17     0.07   0.05  -0.05
  53   7    -0.09   0.08  -0.10     0.02   0.08  -0.02     0.06   0.03  -0.04
  54   5    -0.05  -0.08   0.03     0.13   0.08  -0.07    -0.11  -0.10   0.11
  55   7     0.12   0.12   0.03    -0.03  -0.02   0.12     0.04   0.03  -0.06
  56   5    -0.10  -0.06   0.05     0.03   0.08  -0.01     0.05   0.05  -0.07
  57   5     0.01  -0.09   0.05     0.17  -0.14   0.17     0.07  -0.05   0.05
  58   7    -0.10   0.07  -0.08     0.01   0.08  -0.03     0.06  -0.03   0.04
  59   5     0.09  -0.12   0.15    -0.13   0.08  -0.09    -0.11   0.10  -0.11
  60   7    -0.03  -0.03   0.04     0.02  -0.00   0.12     0.04  -0.03   0.06
  61   5    -0.15   0.15  -0.17     0.00   0.05   0.02     0.05  -0.05   0.07
  62   7     0.01  -0.08   0.05    -0.11   0.05  -0.07    -0.07   0.12  -0.07
  63   7    -0.09  -0.04   0.02    -0.04   0.04   0.04     0.02   0.01   0.02
  64   5    -0.08  -0.00   0.04    -0.05  -0.11  -0.09    -0.06  -0.05  -0.04
  65   7     0.05   0.06  -0.01     0.05   0.07   0.06    -0.02   0.01  -0.00
  66   5     0.00  -0.06   0.04    -0.09  -0.00  -0.06     0.09   0.12   0.09
  67   7    -0.05  -0.09   0.00     0.03  -0.05   0.01    -0.00   0.01  -0.02
  68   5     0.11   0.11   0.10    -0.03  -0.02   0.10    -0.04  -0.05  -0.06
  69   7     0.07   0.02  -0.00     0.03  -0.02  -0.04     0.03  -0.12  -0.08
  70   5     0.11  -0.01  -0.02    -0.09   0.00  -0.01    -0.07   0.11  -0.03
  71   7    -0.03   0.02  -0.00    -0.03  -0.02  -0.04     0.03   0.12   0.08
  72   5     0.06   0.03   0.01     0.07  -0.00  -0.01    -0.07  -0.11   0.03
                     76                     77                     78
                        a                      a                      a 
 Frequencies --   589.5786               590.3026               590.3033
 Red. masses --    11.9398                12.3547                12.3547
 Frc consts  --     0.0000                 0.0000                 0.0000
 IR Inten    --     0.0000                 0.0000                 0.0000
 Raman Activ --     0.0000                 0.0000                 0.0000
 Depolar     --     0.0000                 0.0000                 0.0000
 Atom AN      X      Y      Z        X      Y      Z        X      Y      Z
   1   5     0.08   0.00   0.08    -0.10   0.10   0.04    -0.03   0.09   0.09
   2   7    -0.11   0.00   0.11    -0.09   0.02  -0.00     0.02  -0.02   0.09
   3   5    -0.08  -0.00  -0.08    -0.10  -0.10   0.05    -0.03  -0.09   0.10
   4   7     0.11  -0.00  -0.11    -0.09  -0.02  -0.01     0.02   0.02   0.09
   5   7    -0.05   0.02  -0.10     0.00  -0.02   0.02    -0.02  -0.00  -0.09
   6   5     0.11   0.03  -0.11     0.01   0.00  -0.02     0.11   0.05  -0.10
   7   7    -0.05  -0.02   0.10    -0.00   0.03  -0.03     0.02  -0.00  -0.09
   8   5     0.11  -0.03   0.11    -0.01   0.02  -0.00    -0.11   0.05  -0.10
   9   5    -0.01  -0.00   0.01     0.09   0.08  -0.00    -0.01  -0.09  -0.10
  10   7     0.06   0.06   0.10     0.10  -0.04   0.02     0.04  -0.06  -0.00
  11   5    -0.09  -0.10  -0.09    -0.00  -0.07   0.07     0.08   0.01   0.08
  12   7    -0.00  -0.00   0.00    -0.10  -0.02   0.04    -0.03   0.03   0.10
  13   5     0.09   0.10   0.09    -0.09   0.00  -0.08    -0.06   0.08   0.02
  14   7    -0.10  -0.06  -0.06     0.00   0.06  -0.06    -0.02   0.03  -0.10
  15   7    -0.10   0.02   0.05     0.09   0.00  -0.02     0.02  -0.03   0.00
  16   5     0.11  -0.03  -0.11     0.10  -0.04  -0.10     0.00  -0.00  -0.00
  17   7     0.10  -0.02   0.05     0.09   0.01   0.02    -0.03   0.01  -0.00
  18   5    -0.11   0.03  -0.11     0.10  -0.05   0.10    -0.01  -0.01   0.00
  19   5    -0.01   0.00  -0.01     0.03   0.01  -0.15     0.14   0.01  -0.02
  20   7     0.01   0.03  -0.01    -0.02  -0.11  -0.09    -0.12  -0.03   0.14
  21   5    -0.08  -0.07   0.10    -0.01  -0.14   0.01    -0.03   0.06  -0.00
  22   7     0.02   0.00   0.02     0.13   0.11  -0.02     0.02   0.10  -0.11
  23   5     0.10   0.07  -0.08    -0.00   0.04   0.06    -0.01  -0.15   0.03
  24   7    -0.01  -0.03   0.01    -0.12  -0.02   0.10     0.11  -0.08  -0.02
  25   7    -0.10  -0.02  -0.05     0.09  -0.02   0.02    -0.03  -0.03   0.00
  26   5     0.11   0.03   0.11     0.09   0.03   0.09    -0.02  -0.01  -0.02
  27   7     0.10   0.02  -0.05     0.09  -0.02  -0.02     0.02   0.02  -0.00
  28   5    -0.11  -0.03   0.11     0.10   0.03  -0.09    -0.01  -0.02   0.02
  29   7    -0.01   0.03  -0.01    -0.13   0.02  -0.11    -0.09  -0.09  -0.00
  30   5    -0.01  -0.00   0.01     0.02  -0.01   0.14    -0.14   0.01  -0.04
  31   7     0.01  -0.03   0.01     0.02   0.09   0.11     0.12  -0.04   0.12
  32   5    -0.08   0.07  -0.10    -0.03   0.15  -0.01     0.04   0.04  -0.00
  33   7     0.02  -0.00  -0.02     0.12  -0.10   0.02    -0.04   0.11  -0.12
  34   5     0.10  -0.07   0.08     0.00  -0.06  -0.04     0.01  -0.14   0.04
  35   5     0.08  -0.07  -0.10    -0.04   0.14   0.01    -0.06  -0.06   0.00
  36   7    -0.02  -0.00  -0.02     0.12  -0.11  -0.04     0.00  -0.10  -0.13
  37   5    -0.10   0.07   0.08     0.00  -0.04   0.04    -0.01   0.14   0.00
  38   7     0.01  -0.03  -0.01    -0.12   0.04   0.11     0.10   0.11   0.00
  39   5     0.01  -0.00   0.01     0.04  -0.01  -0.14     0.15  -0.01  -0.01
  40   7    -0.01   0.03   0.01     0.00   0.09  -0.09    -0.10   0.00   0.13
  41   7     0.06  -0.06  -0.10     0.09   0.02  -0.03    -0.06  -0.06  -0.00
  42   5    -0.09   0.10   0.09     0.00   0.06  -0.06    -0.08  -0.00   0.09
  43   7    -0.00   0.00  -0.00    -0.09   0.03  -0.02     0.04   0.02   0.10
  44   5     0.09  -0.10  -0.09    -0.08   0.02   0.09     0.07   0.08   0.00
  45   7    -0.10   0.06   0.06    -0.00  -0.04   0.04     0.02   0.04  -0.10
  46   5    -0.01  -0.00  -0.01     0.08  -0.09  -0.02    -0.00  -0.08  -0.09
  47   5     0.08  -0.00  -0.08    -0.09  -0.09  -0.03     0.05   0.10   0.10
  48   7    -0.11  -0.00  -0.11    -0.09  -0.02   0.02    -0.00  -0.02   0.09
  49   5    -0.08   0.00   0.08    -0.10   0.09  -0.03     0.04  -0.10   0.10
  50   7     0.11   0.00   0.11    -0.09   0.02   0.02    -0.01   0.02   0.09
  51   7     0.00  -0.00   0.00    -0.10  -0.03  -0.02     0.03  -0.02   0.09
  52   5    -0.09  -0.10   0.09    -0.08  -0.01   0.08     0.07  -0.06  -0.02
  53   7     0.10   0.06  -0.06     0.00   0.05   0.04     0.03  -0.02  -0.10
  54   5     0.01   0.00   0.01     0.09   0.09  -0.01     0.01   0.08  -0.08
  55   7    -0.06  -0.06   0.10     0.10  -0.03  -0.02    -0.05   0.04   0.00
  56   5     0.09   0.10  -0.09    -0.01  -0.07  -0.06    -0.10  -0.01   0.09
  57   5    -0.09   0.10  -0.09    -0.09   0.01  -0.09    -0.06  -0.06  -0.00
  58   7     0.10  -0.06   0.06    -0.00  -0.04  -0.05    -0.03  -0.01  -0.09
  59   5     0.01  -0.00  -0.01     0.08  -0.08   0.01    -0.02   0.09  -0.08
  60   7    -0.06   0.06  -0.10     0.10   0.02   0.03     0.04   0.04   0.00
  61   5     0.09  -0.10   0.09     0.01   0.06   0.07     0.10  -0.02   0.08
  62   7     0.00  -0.00  -0.00    -0.10   0.02   0.03    -0.02  -0.03   0.09
  63   7    -0.02   0.00   0.02     0.13   0.10   0.01    -0.02  -0.11  -0.14
  64   5    -0.10  -0.07  -0.08    -0.00   0.06  -0.06     0.01   0.14   0.01
  65   7     0.01   0.03   0.01    -0.13  -0.01  -0.10    -0.08   0.11   0.02
  66   5     0.01  -0.00  -0.01     0.01   0.01   0.15    -0.15  -0.01  -0.03
  67   7    -0.01  -0.03  -0.01    -0.00  -0.11   0.10     0.10   0.02   0.12
  68   5     0.08   0.07   0.10    -0.01  -0.15  -0.01     0.07  -0.03   0.00
  69   7     0.05   0.02   0.10    -0.00   0.03   0.02    -0.02   0.02  -0.09
  70   5    -0.11   0.03   0.11    -0.00   0.01  -0.01     0.09  -0.03  -0.09
  71   7     0.05  -0.02  -0.10     0.00  -0.02  -0.03     0.02   0.02  -0.09
  72   5    -0.11  -0.03  -0.11     0.00  -0.00   0.00    -0.09  -0.03  -0.09
                     79                     80                     81
                        a                      a                      a 
 Frequencies --   590.3044               606.8770               613.8794
 Red. masses --    12.3547                11.8020                12.5638
 Frc consts  --     0.0000                 0.0000                 0.0000
 IR Inten    --     0.0000                 0.0000                 0.0000
 Raman Activ --     0.0000                 0.0000                 0.0000
 Depolar     --     0.0000                 0.0000                 0.0000
 Atom AN      X      Y      Z        X      Y      Z        X      Y      Z
   1   5    -0.00   0.02   0.02    -0.06   0.06   0.06    -0.08  -0.00  -0.08
   2   7     0.02  -0.00  -0.01     0.03  -0.08   0.03     0.11  -0.00  -0.11
   3   5    -0.02  -0.02   0.01     0.06   0.06  -0.06     0.08   0.00   0.08
   4   7    -0.03   0.00   0.03    -0.03  -0.08  -0.03    -0.11   0.00   0.11
   5   7    -0.02  -0.09  -0.02    -0.08  -0.03  -0.03     0.08  -0.13  -0.02
   6   5    -0.09  -0.09   0.03     0.06   0.06  -0.06    -0.05   0.11  -0.03
   7   7     0.02  -0.09  -0.02    -0.08   0.03   0.03     0.08   0.13   0.02
   8   5     0.09  -0.09   0.03     0.06  -0.06   0.06    -0.05  -0.11   0.03
   9   5    -0.06  -0.00   0.06     0.05   0.07   0.05    -0.01  -0.00   0.01
  10   7    -0.02   0.09   0.03    -0.03  -0.03   0.02     0.02  -0.04   0.04
  11   5     0.10   0.08   0.02     0.07   0.05   0.05     0.05  -0.12  -0.10
  12   7     0.04   0.00  -0.04    -0.03   0.02  -0.03     0.06  -0.00  -0.06
  13   5    -0.02  -0.08  -0.09     0.05   0.05   0.07     0.10   0.12  -0.05
  14   7    -0.03  -0.09   0.01     0.02  -0.03  -0.03    -0.04   0.04  -0.02
  15   7     0.02   0.09  -0.02     0.03   0.03  -0.08    -0.02  -0.13  -0.08
  16   5    -0.03   0.10   0.09    -0.06   0.06   0.06     0.03  -0.11   0.05
  17   7     0.01   0.09   0.02    -0.03  -0.03  -0.08     0.02   0.13  -0.08
  18   5    -0.03   0.09  -0.09     0.06  -0.06   0.06    -0.03   0.11   0.05
  19   5     0.07   0.00   0.04    -0.13  -0.05   0.13    -0.06   0.00  -0.06
  20   7     0.09   0.12  -0.01     0.07   0.07  -0.07    -0.11   0.09  -0.07
  21   5    -0.15  -0.03   0.01    -0.13  -0.13   0.05    -0.01   0.05   0.03
  22   7    -0.09   0.02  -0.11     0.07   0.07  -0.07     0.01  -0.00   0.01
  23   5     0.01   0.01  -0.14    -0.05  -0.13   0.13     0.03  -0.05  -0.01
  24   7    -0.02  -0.14   0.11     0.07   0.07  -0.07    -0.07  -0.09  -0.11
  25   7    -0.01   0.09  -0.02     0.03  -0.03   0.08    -0.02   0.13   0.08
  26   5     0.04   0.10   0.10    -0.06  -0.06  -0.06     0.03   0.11  -0.05
  27   7    -0.00   0.09   0.02    -0.03   0.03   0.08     0.02  -0.13   0.08
  28   5     0.05   0.10  -0.10     0.06   0.06  -0.06    -0.03  -0.11  -0.05
  29   7     0.00  -0.13   0.10     0.07  -0.07   0.07    -0.07   0.09   0.11
  30   5    -0.06   0.00   0.06    -0.13   0.05  -0.13    -0.06   0.00   0.06
  31   7    -0.09   0.13  -0.00     0.07  -0.07   0.07    -0.11  -0.09   0.07
  32   5     0.15  -0.01   0.01    -0.13   0.13  -0.05    -0.01  -0.05  -0.03
  33   7     0.10   0.00  -0.11     0.07  -0.07   0.07     0.01  -0.00  -0.01
  34   5    -0.01   0.00  -0.14    -0.05   0.13  -0.13     0.03   0.05   0.01
  35   5     0.14  -0.02  -0.01     0.13  -0.13  -0.05     0.01   0.05  -0.03
  36   7     0.11  -0.02   0.08    -0.07   0.07   0.07    -0.01   0.00  -0.01
  37   5    -0.01   0.03   0.15     0.05  -0.13  -0.13    -0.03  -0.05   0.01
  38   7     0.02  -0.11  -0.10    -0.07   0.07   0.07     0.07  -0.09   0.11
  39   5    -0.03  -0.00  -0.06     0.13  -0.05  -0.13     0.06  -0.00   0.06
  40   7    -0.12   0.13   0.03    -0.07   0.07   0.07     0.11   0.09   0.07
  41   7     0.03   0.09   0.02    -0.03   0.03  -0.02     0.03   0.04  -0.04
  42   5    -0.10   0.09   0.01     0.07  -0.05  -0.05     0.05   0.12   0.10
  43   7    -0.05   0.00  -0.04    -0.03  -0.02   0.03     0.06   0.00   0.06
  44   5     0.01  -0.08  -0.08     0.05  -0.05  -0.07     0.10  -0.12   0.05
  45   7     0.03  -0.10   0.02     0.02   0.03   0.03    -0.04  -0.04   0.02
  46   5     0.07  -0.02   0.06     0.05  -0.07  -0.05    -0.01   0.00  -0.01
  47   5    -0.01   0.00   0.01    -0.06  -0.06  -0.06    -0.08   0.00   0.08
  48   7    -0.03  -0.00  -0.01     0.03   0.08  -0.03     0.11   0.00   0.11
  49   5     0.00  -0.00   0.00     0.06  -0.06   0.06     0.08  -0.00  -0.08
  50   7     0.02   0.00   0.03    -0.03   0.08   0.03    -0.11  -0.00  -0.11
  51   7     0.05  -0.00   0.06     0.03  -0.02  -0.03    -0.06  -0.00  -0.06
  52   5    -0.01  -0.10   0.09    -0.05  -0.05   0.07    -0.10  -0.12  -0.05
  53   7    -0.02  -0.10  -0.04    -0.02   0.03  -0.03     0.04  -0.04  -0.03
  54   5    -0.06   0.02  -0.08    -0.05  -0.07   0.05     0.01  -0.00   0.01
  55   7    -0.03   0.10  -0.03     0.03   0.03   0.02    -0.02   0.04   0.04
  56   5     0.08   0.08  -0.00    -0.07  -0.05   0.05    -0.05   0.12  -0.10
  57   5    -0.00  -0.09   0.08    -0.05   0.05  -0.07    -0.10   0.12   0.05
  58   7     0.02  -0.10  -0.04    -0.02  -0.03   0.03     0.04   0.04   0.03
  59   5     0.07   0.00  -0.08    -0.05   0.07  -0.05     0.01  -0.00  -0.01
  60   7     0.04   0.10  -0.02     0.03  -0.03  -0.02    -0.03  -0.04  -0.04
  61   5    -0.08   0.09   0.00    -0.07   0.05  -0.05    -0.05  -0.12   0.10
  62   7    -0.06  -0.00   0.06     0.03   0.02   0.03    -0.06   0.00   0.06
  63   7    -0.09  -0.00   0.08    -0.07  -0.07  -0.07    -0.01  -0.00   0.01
  64   5     0.01   0.04   0.14     0.05   0.13   0.13    -0.03   0.05  -0.01
  65   7    -0.04  -0.12  -0.11    -0.07  -0.07  -0.07     0.07   0.09  -0.11
  66   5     0.03  -0.00  -0.04     0.13   0.05   0.13     0.06  -0.00  -0.06
  67   7     0.12   0.12   0.04    -0.07  -0.07  -0.07     0.11  -0.09  -0.07
  68   5    -0.14  -0.04  -0.01     0.13   0.13   0.05     0.01  -0.05   0.03
  69   7     0.02  -0.09   0.00     0.08  -0.03   0.03    -0.08  -0.13   0.02
  70   5     0.11  -0.10  -0.05    -0.06   0.06   0.06     0.05   0.11   0.03
  71   7    -0.02  -0.09   0.00     0.08   0.03  -0.03    -0.08   0.13  -0.02
  72   5    -0.11  -0.10  -0.05    -0.06  -0.06  -0.06     0.05  -0.11  -0.03
                     82                     83                     84
                        a                      a                      a 
 Frequencies --   613.8796               616.1476               616.1478
 Red. masses --    12.5639                11.7624                11.7624
 Frc consts  --     0.0000                 0.0000                 0.0000
 IR Inten    --     0.0000                 0.0000                 0.0000
 Raman Activ --     0.0000                 0.0000                 0.0000
 Depolar     --     0.0000                 0.0000                 0.0000
 Atom AN      X      Y      Z        X      Y      Z        X      Y      Z
   1   5    -0.08  -0.06   0.08     0.01  -0.05   0.02     0.05   0.02   0.04
   2   7     0.09   0.10   0.09    -0.05   0.03   0.03     0.00  -0.07   0.06
   3   5     0.08  -0.06  -0.08    -0.04   0.05  -0.03    -0.00  -0.02  -0.00
   4   7    -0.09   0.10  -0.09     0.01  -0.03  -0.03     0.06   0.07  -0.00
   5   7    -0.05  -0.05   0.14    -0.06   0.00  -0.06    -0.07  -0.06   0.01
   6   5     0.03   0.02   0.11     0.02  -0.05  -0.05     0.01   0.01   0.01
   7   7    -0.05   0.05  -0.14     0.06  -0.06   0.01     0.07   0.00  -0.06
   8   5     0.03  -0.02  -0.11    -0.02   0.01   0.01    -0.01  -0.05  -0.05
   9   5    -0.13   0.06  -0.13     0.06   0.05   0.04    -0.16  -0.14  -0.10
  10   7    -0.06   0.05   0.02    -0.11  -0.14  -0.03    -0.02   0.04   0.00
  11   5    -0.03   0.05   0.07     0.12   0.10   0.13     0.13   0.15   0.09
  12   7     0.01  -0.04   0.01     0.03   0.01   0.05    -0.06  -0.02  -0.14
  13   5     0.07   0.05  -0.03    -0.18  -0.15  -0.17     0.04  -0.02   0.01
  14   7     0.02   0.05  -0.06     0.02   0.11   0.07     0.02   0.06   0.13
  15   7    -0.14   0.05  -0.05     0.03   0.05  -0.09    -0.03   0.03   0.01
  16   5     0.11   0.02   0.03     0.04   0.04   0.00     0.01   0.02  -0.06
  17   7     0.14  -0.05  -0.05     0.05   0.02   0.09     0.00  -0.01  -0.01
  18   5    -0.11  -0.02   0.03     0.02   0.01  -0.00    -0.02  -0.01   0.06
  19   5    -0.02   0.04   0.02    -0.14  -0.05   0.12     0.04   0.02  -0.04
  20   7     0.06  -0.04   0.06    -0.01  -0.03   0.00    -0.01   0.00   0.03
  21   5     0.07  -0.04   0.02     0.17   0.17  -0.07    -0.02  -0.00   0.00
  22   7     0.09  -0.12  -0.09    -0.06  -0.02   0.04     0.00   0.01  -0.03
  23   5    -0.02  -0.04  -0.07    -0.02  -0.05   0.03    -0.01  -0.03   0.03
  24   7    -0.06  -0.04  -0.06     0.07   0.06  -0.03     0.01  -0.01   0.00
  25   7    -0.14  -0.05   0.05     0.03   0.02   0.01    -0.02   0.06  -0.09
  26   5     0.11  -0.02  -0.03    -0.01   0.02  -0.06    -0.04   0.04   0.00
  27   7     0.14   0.05   0.05     0.00  -0.00  -0.01    -0.06   0.02   0.09
  28   5    -0.11   0.02  -0.03     0.02  -0.01   0.06    -0.01   0.01  -0.00
  29   7    -0.06   0.04   0.06    -0.00  -0.01   0.00    -0.07   0.06  -0.03
  30   5    -0.02  -0.04  -0.02    -0.05   0.02  -0.05     0.14  -0.05   0.13
  31   7     0.06   0.04  -0.06     0.01   0.00   0.03     0.01  -0.03  -0.00
  32   5     0.07   0.04  -0.02     0.02  -0.00   0.00    -0.17   0.16  -0.07
  33   7     0.09   0.12   0.09    -0.01   0.01  -0.04     0.06  -0.02   0.04
  34   5    -0.02   0.04   0.07     0.02  -0.04   0.04     0.01  -0.04   0.02
  35   5    -0.07  -0.04  -0.02     0.02   0.00  -0.00    -0.16   0.17   0.07
  36   7    -0.09  -0.12   0.09    -0.04   0.02   0.06     0.03  -0.01  -0.00
  37   5     0.02  -0.04   0.07     0.05  -0.11  -0.12     0.05  -0.13  -0.12
  38   7     0.06  -0.04   0.06     0.01   0.00  -0.00    -0.06   0.07   0.03
  39   5     0.02   0.04  -0.02    -0.13   0.05   0.13     0.05  -0.02  -0.03
  40   7    -0.06  -0.04  -0.06     0.02  -0.03  -0.06     0.02  -0.06  -0.03
  41   7    -0.06  -0.05  -0.02     0.02   0.04   0.00     0.11  -0.14  -0.03
  42   5    -0.03  -0.05  -0.07    -0.12   0.15   0.08    -0.13   0.11   0.14
  43   7     0.01   0.04  -0.01     0.06  -0.02  -0.14    -0.02   0.01   0.04
  44   5     0.07  -0.05   0.03    -0.04  -0.02   0.01     0.18  -0.15  -0.17
  45   7     0.02  -0.05   0.06    -0.02   0.05   0.13    -0.02   0.11   0.07
  46   5    -0.13  -0.06   0.13     0.16  -0.13  -0.09    -0.05   0.04   0.03
  47   5    -0.08   0.06  -0.08    -0.05   0.02   0.04    -0.01  -0.05   0.02
  48   7     0.09  -0.10  -0.09    -0.00  -0.07   0.06     0.05   0.02   0.03
  49   5     0.08   0.06   0.08     0.00  -0.02  -0.01     0.04   0.05  -0.03
  50   7    -0.09  -0.10   0.09    -0.06   0.07  -0.00    -0.01  -0.02  -0.03
  51   7    -0.01   0.04   0.01     0.11   0.02  -0.08     0.03  -0.01   0.09
  52   5    -0.07  -0.05  -0.03    -0.16  -0.17   0.17     0.06  -0.04  -0.01
  53   7    -0.02  -0.05  -0.06     0.01   0.03  -0.03     0.01  -0.04  -0.09
  54   5     0.13  -0.06  -0.13     0.12   0.13  -0.13    -0.09  -0.04  -0.01
  55   7     0.06  -0.05   0.02    -0.14  -0.12   0.03    -0.05   0.07  -0.00
  56   5     0.03  -0.05   0.07     0.04   0.04  -0.04     0.03   0.08   0.02
  57   5    -0.07   0.05   0.03    -0.06  -0.04  -0.01     0.15  -0.17   0.17
  58   7    -0.02   0.05   0.06    -0.01  -0.03  -0.09    -0.01   0.02  -0.03
  59   5     0.13   0.06   0.13     0.10  -0.05   0.00    -0.12   0.14  -0.14
  60   7     0.06   0.05  -0.02     0.05   0.07  -0.00     0.14  -0.11   0.03
  61   5     0.03   0.05  -0.07    -0.04   0.09   0.01    -0.03   0.04  -0.02
  62   7    -0.01  -0.04  -0.01    -0.02  -0.01   0.10    -0.12   0.02  -0.09
  63   7    -0.09   0.12  -0.09    -0.03  -0.01  -0.01     0.04   0.02   0.07
  64   5     0.02   0.04  -0.07    -0.05  -0.12  -0.11    -0.05  -0.12  -0.13
  65   7     0.06   0.04  -0.06     0.06   0.07   0.03    -0.01   0.00  -0.00
  66   5     0.02  -0.04   0.02    -0.06  -0.02  -0.04     0.13   0.05   0.14
  67   7    -0.06   0.04   0.06    -0.02  -0.06  -0.03    -0.02  -0.03  -0.06
  68   5    -0.07   0.04   0.02     0.17   0.17   0.07    -0.02   0.00  -0.00
  69   7     0.05  -0.05  -0.14     0.02  -0.05  -0.03     0.02   0.02   0.03
  70   5    -0.03   0.02  -0.11    -0.04   0.02  -0.03    -0.05  -0.04   0.03
  71   7     0.05   0.05   0.14    -0.02   0.02   0.03    -0.02  -0.05  -0.03
  72   5    -0.03  -0.02   0.11     0.04  -0.04   0.03     0.05   0.02  -0.03
                     85                     86                     87
                        a                      a                      a 
 Frequencies --   616.1479               621.6130               621.6133
 Red. masses --    11.7624                12.4967                12.4967
 Frc consts  --     0.0000                 0.0000                 0.0000
 IR Inten    --     0.0000                11.4684                11.4683
 Raman Activ --     0.0000                 0.0000                 0.0000
 Depolar     --     0.0000                 0.0000                 0.0000
 Atom AN      X      Y      Z        X      Y      Z        X      Y      Z
   1   5    -0.01  -0.04   0.00     0.06  -0.18  -0.03    -0.01  -0.02   0.02
   2   7     0.04  -0.06   0.01    -0.00   0.22   0.02    -0.06  -0.03   0.07
   3   5     0.03   0.04   0.04    -0.03  -0.16   0.06     0.02   0.12  -0.01
   4   7    -0.01   0.06   0.06     0.00   0.09   0.02    -0.06  -0.06   0.07
   5   7    -0.03   0.00  -0.03    -0.04   0.04  -0.06    -0.12  -0.05   0.03
   6   5    -0.06  -0.01  -0.01     0.03   0.01  -0.04     0.20   0.03  -0.05
   7   7     0.03  -0.00  -0.02    -0.14   0.05  -0.06    -0.17  -0.04   0.04
   8   5     0.06  -0.00  -0.01     0.15  -0.04   0.01     0.11  -0.05   0.03
   9   5    -0.06  -0.11  -0.15    -0.04   0.04  -0.03    -0.06  -0.04   0.06
  10   7     0.09  -0.01   0.01    -0.07   0.04  -0.04     0.02   0.06   0.11
  11   5     0.05   0.01   0.09    -0.01   0.07  -0.02    -0.05  -0.01   0.06
  12   7    -0.13  -0.02  -0.03     0.04   0.09   0.06    -0.06   0.01   0.04
  13   5     0.01   0.10   0.05    -0.04   0.07  -0.00    -0.06  -0.01  -0.01
  14   7     0.01   0.09  -0.01    -0.07   0.02  -0.07    -0.06  -0.07  -0.01
  15   7    -0.05   0.02   0.03    -0.07   0.06  -0.08    -0.01   0.04   0.20
  16   5     0.03   0.03   0.02    -0.02   0.00  -0.02     0.06  -0.01  -0.15
  17   7     0.03  -0.06  -0.03    -0.07   0.06  -0.02    -0.01   0.04   0.02
  18   5    -0.04  -0.05  -0.02     0.00  -0.02   0.12    -0.01   0.06  -0.09
  19   5    -0.11  -0.05   0.13     0.03  -0.05   0.02    -0.06  -0.12   0.07
  20   7     0.03   0.07  -0.07    -0.04  -0.10   0.03     0.13  -0.02  -0.03
  21   5    -0.04  -0.06   0.02     0.07  -0.03  -0.02    -0.03  -0.07   0.07
  22   7    -0.04  -0.02   0.05     0.09  -0.06   0.00     0.06   0.12  -0.04
  23   5     0.07   0.17  -0.17     0.12   0.02  -0.06    -0.04  -0.06   0.04
  24   7    -0.00  -0.04   0.01     0.08  -0.09   0.05     0.06  -0.01  -0.12
  25   7     0.05   0.02   0.04     0.04   0.00  -0.16    -0.04  -0.06   0.06
  26   5    -0.03   0.02   0.02     0.05  -0.02   0.03    -0.02  -0.04  -0.06
  27   7    -0.03  -0.06  -0.04     0.04  -0.00   0.06    -0.04  -0.05   0.15
  28   5     0.04  -0.05  -0.02     0.02  -0.05   0.07     0.04   0.02  -0.17
  29   7     0.01  -0.04   0.01     0.02  -0.07   0.11     0.11   0.02  -0.01
  30   5     0.09  -0.04   0.11    -0.04   0.03  -0.05     0.05   0.03  -0.06
  31   7    -0.03   0.07  -0.06     0.12  -0.07  -0.01     0.01   0.05  -0.09
  32   5     0.05  -0.07   0.03    -0.08   0.05  -0.11     0.03   0.05  -0.07
  33   7     0.03  -0.02   0.05     0.01  -0.12  -0.01     0.11   0.01  -0.07
  34   5    -0.07   0.17  -0.17    -0.08   0.03  -0.08     0.11  -0.04   0.01
  35   5     0.07  -0.06  -0.03    -0.07   0.04   0.13     0.01   0.07   0.02
  36   7    -0.06   0.02   0.03     0.02  -0.09   0.07     0.08  -0.07  -0.06
  37   5     0.02  -0.04  -0.06    -0.03  -0.01   0.08     0.00   0.06  -0.00
  38   7     0.04  -0.01  -0.01     0.04  -0.09  -0.07     0.07   0.07  -0.09
  39   5    -0.11   0.05   0.12     0.01  -0.02   0.05    -0.05   0.14   0.06
  40   7     0.01  -0.02  -0.02     0.08  -0.08   0.06     0.09   0.07  -0.04
  41   7    -0.10  -0.00   0.01     0.04  -0.01  -0.12    -0.06  -0.02  -0.03
  42   5    -0.05   0.01   0.09    -0.09   0.05  -0.04    -0.10  -0.04   0.03
  43   7     0.13  -0.02  -0.04    -0.07   0.01   0.01     0.02  -0.13  -0.04
  44   5    -0.02   0.10   0.07    -0.02   0.06   0.06    -0.05  -0.04   0.09
  45   7    -0.01   0.08  -0.00     0.03   0.06  -0.03     0.00  -0.00   0.06
  46   5     0.07  -0.12  -0.15    -0.02   0.10  -0.04    -0.05   0.07   0.03
  47   5     0.00  -0.04   0.00    -0.04  -0.13  -0.05     0.05   0.06  -0.02
  48   7    -0.04  -0.06   0.01    -0.03   0.14  -0.04     0.01  -0.16  -0.03
  49   5    -0.03   0.04   0.04     0.05  -0.21   0.04     0.02   0.04  -0.05
  50   7     0.00   0.06   0.06    -0.04   0.17  -0.03     0.01   0.07  -0.03
  51   7     0.10   0.02  -0.08     0.01   0.05  -0.07    -0.00   0.11  -0.01
  52   5     0.07   0.04  -0.05    -0.05   0.06  -0.05    -0.04   0.01   0.13
  53   7    -0.03  -0.14   0.12    -0.11  -0.01   0.06     0.04  -0.01   0.04
  54   5     0.10   0.12  -0.12    -0.05   0.07  -0.01    -0.04  -0.12   0.02
  55   7     0.02   0.06  -0.01    -0.04   0.06   0.02    -0.04   0.01  -0.07
  56   5    -0.17  -0.15   0.18     0.03   0.06  -0.01    -0.13   0.01   0.02
  57   5    -0.08   0.05  -0.07    -0.01   0.05  -0.11    -0.07  -0.02   0.02
  58   7     0.03  -0.14   0.11     0.08   0.03   0.01    -0.10   0.06  -0.03
  59   5    -0.09   0.11  -0.12    -0.01   0.13   0.01    -0.07  -0.01   0.05
  60   7    -0.03   0.07  -0.01     0.02   0.01   0.11    -0.01  -0.07   0.07
  61   5     0.17  -0.15   0.18    -0.12   0.05   0.01    -0.02  -0.02   0.05
  62   7    -0.09   0.02  -0.07    -0.04  -0.03  -0.02    -0.04  -0.03   0.07
  63   7     0.05   0.02   0.03     0.08  -0.02   0.05     0.09   0.03  -0.09
  64   5    -0.02  -0.04  -0.06     0.07  -0.03   0.06     0.06   0.03  -0.03
  65   7    -0.04  -0.00  -0.01     0.06  -0.11  -0.00     0.10   0.03   0.02
  66   5     0.10   0.04   0.11    -0.01  -0.10  -0.03     0.04  -0.01  -0.06
  67   7    -0.01  -0.02  -0.02    -0.00  -0.12   0.03     0.04   0.01  -0.10
  68   5    -0.06  -0.05  -0.02     0.06  -0.04   0.05    -0.01  -0.06  -0.12
  69   7    -0.09   0.03  -0.05    -0.18   0.01   0.04    -0.07   0.03   0.00
  70   5    -0.02   0.03  -0.03     0.13  -0.05   0.00     0.18  -0.02  -0.06
  71   7     0.09   0.04  -0.04     0.01   0.01   0.05    -0.22   0.03   0.01
  72   5     0.02   0.02  -0.03     0.06  -0.00   0.05     0.14   0.06   0.02
                     88                     89                     90
                        a                      a                      a 
 Frequencies --   621.6135               623.3862               647.0280
 Red. masses --    12.4968                11.9511                11.9290
 Frc consts  --     0.0000                 0.0000                 0.0000
 IR Inten    --    11.4683                 0.0000               105.6726
 Raman Activ --     0.0000                 0.0000                 0.0000
 Depolar     --     0.0000                 0.0000                 0.0000
 Atom AN      X      Y      Z        X      Y      Z        X      Y      Z
   1   5    -0.00  -0.11  -0.05     0.07  -0.14  -0.07     0.09  -0.10  -0.11
   2   7    -0.04  -0.01  -0.00    -0.04   0.09  -0.04    -0.08  -0.03  -0.06
   3   5    -0.05  -0.08  -0.00    -0.07  -0.14   0.07    -0.08   0.01   0.06
   4   7    -0.03   0.19   0.00     0.04   0.09   0.04     0.05   0.08   0.07
   5   7     0.19  -0.03  -0.00     0.09   0.04   0.04    -0.01  -0.05   0.01
   6   5    -0.07  -0.05  -0.01    -0.14  -0.07   0.07     0.18   0.06  -0.06
   7   7    -0.03  -0.03  -0.01     0.09  -0.04  -0.04    -0.00  -0.01   0.05
   8   5    -0.10  -0.01  -0.05    -0.14   0.07  -0.07    -0.15   0.02  -0.01
   9   5     0.01   0.13   0.04     0.08   0.10   0.08    -0.01  -0.07   0.01
  10   7     0.02   0.03  -0.05    -0.09  -0.09  -0.01     0.00  -0.06   0.03
  11   5     0.13   0.01   0.04     0.10   0.08   0.08     0.02  -0.04   0.04
  12   7    -0.01  -0.09   0.02    -0.09  -0.01  -0.09     0.03  -0.04   0.06
  13   5     0.01   0.01   0.14     0.08   0.08   0.10     0.02  -0.03   0.06
  14   7    -0.09  -0.01   0.02    -0.01  -0.09  -0.09     0.01  -0.05   0.04
  15   7    -0.02  -0.01   0.07    -0.04  -0.04   0.09     0.08   0.04   0.01
  16   5     0.02  -0.06  -0.16     0.07  -0.07  -0.14    -0.10   0.11   0.15
  17   7    -0.01  -0.01   0.22     0.04   0.04   0.09    -0.04  -0.08  -0.06
  18   5    -0.06   0.02  -0.15    -0.07   0.07  -0.14     0.06  -0.05  -0.07
  19   5    -0.05  -0.05  -0.04     0.00   0.02  -0.00     0.12   0.03  -0.18
  20   7    -0.02  -0.05  -0.11     0.03   0.03  -0.03    -0.11  -0.08   0.09
  21   5     0.03   0.02  -0.12     0.00   0.00  -0.02     0.11   0.18  -0.03
  22   7    -0.04  -0.02  -0.11     0.03   0.03  -0.03    -0.10   0.02   0.05
  23   5    -0.05  -0.05  -0.04     0.02   0.00  -0.00    -0.00   0.10  -0.10
  24   7    -0.07  -0.07  -0.00     0.03   0.03  -0.03    -0.10  -0.05  -0.01
  25   7     0.05   0.04   0.14    -0.04   0.04  -0.09    -0.08   0.05   0.04
  26   5    -0.04  -0.04  -0.21     0.07   0.07   0.14     0.08   0.10   0.11
  27   7     0.04   0.05   0.15     0.04  -0.04  -0.09     0.05  -0.07  -0.09
  28   5     0.04   0.04  -0.11    -0.07  -0.07   0.14    -0.07  -0.05  -0.02
  29   7    -0.03  -0.09  -0.06     0.03  -0.03   0.03     0.12  -0.09   0.01
  30   5     0.06  -0.13   0.03     0.00  -0.02   0.00    -0.17   0.03  -0.20
  31   7    -0.06  -0.08  -0.08     0.03  -0.03   0.03     0.08  -0.11   0.11
  32   5    -0.02  -0.05  -0.04     0.00  -0.00   0.02    -0.16   0.20  -0.03
  33   7    -0.05   0.04  -0.09     0.03  -0.03   0.03     0.12  -0.01   0.09
  34   5     0.01  -0.07  -0.03     0.02  -0.00   0.00    -0.01   0.16  -0.16
  35   5    -0.05  -0.02  -0.03    -0.00   0.00   0.02     0.03   0.01  -0.02
  36   7    -0.08  -0.07  -0.07    -0.03   0.03   0.03    -0.01   0.08  -0.04
  37   5    -0.13   0.06   0.04    -0.02   0.00   0.00    -0.01   0.08  -0.01
  38   7    -0.09  -0.03  -0.07    -0.03   0.03   0.03     0.04  -0.01  -0.11
  39   5    -0.07   0.01  -0.02    -0.00   0.02   0.00    -0.09   0.03   0.03
  40   7     0.05  -0.05  -0.09    -0.03   0.03   0.03    -0.01   0.02  -0.05
  41   7     0.00   0.07   0.02    -0.09   0.09   0.01     0.03  -0.06   0.04
  42   5    -0.04   0.03   0.05     0.10  -0.08  -0.08     0.02  -0.03   0.05
  43   7     0.03  -0.01   0.07    -0.09   0.01   0.09     0.00  -0.03   0.05
  44   5     0.05   0.03   0.08     0.08  -0.08  -0.10    -0.02  -0.01   0.06
  45   7     0.12  -0.05  -0.02    -0.01   0.09   0.09     0.00  -0.05   0.04
  46   5     0.05   0.07   0.05     0.08  -0.10  -0.08     0.02  -0.06   0.03
  47   5    -0.02  -0.16  -0.03     0.07   0.14   0.07    -0.10  -0.15  -0.12
  48   7     0.06   0.06   0.05    -0.04  -0.09   0.04     0.09  -0.01  -0.05
  49   5     0.03  -0.03   0.02    -0.07   0.14  -0.07     0.07   0.05   0.06
  50   7     0.06   0.12   0.05     0.04  -0.09  -0.04    -0.05   0.06   0.08
  51   7     0.07   0.05   0.02     0.09   0.01  -0.09     0.02  -0.01   0.04
  52   5     0.04   0.04   0.02    -0.08  -0.08   0.10     0.05   0.00   0.05
  53   7     0.04   0.07   0.03     0.01   0.09  -0.09     0.04  -0.06   0.05
  54   5     0.03   0.02   0.07    -0.08  -0.10   0.08     0.05  -0.06  -0.00
  55   7    -0.05  -0.04   0.11     0.09   0.09  -0.01     0.02  -0.04   0.00
  56   5     0.02   0.04   0.07    -0.10  -0.08   0.08     0.02   0.02  -0.03
  57   5     0.02   0.05   0.07    -0.08   0.08  -0.10    -0.05   0.02   0.05
  58   7    -0.01   0.03   0.07     0.01  -0.09   0.09    -0.03  -0.05   0.05
  59   5     0.02  -0.03   0.05    -0.08   0.10  -0.08    -0.05  -0.06  -0.02
  60   7     0.07  -0.00   0.03     0.09  -0.09   0.01     0.01  -0.05  -0.01
  61   5     0.06   0.05   0.05    -0.10   0.08  -0.08     0.01   0.03  -0.04
  62   7    -0.05   0.12  -0.02     0.09  -0.01   0.09     0.01   0.01   0.04
  63   7    -0.01  -0.12  -0.06    -0.03  -0.03  -0.03     0.03   0.11   0.00
  64   5     0.10   0.07   0.05    -0.02  -0.00  -0.00    -0.01   0.03  -0.07
  65   7    -0.01  -0.01  -0.13    -0.03  -0.03  -0.03    -0.02   0.03  -0.08
  66   5     0.07   0.09   0.05    -0.00  -0.02  -0.00     0.04   0.03   0.01
  67   7    -0.12  -0.02  -0.06    -0.03  -0.03  -0.03    -0.02   0.05  -0.03
  68   5     0.05   0.05   0.05    -0.00  -0.00  -0.02    -0.08  -0.02  -0.03
  69   7     0.10   0.06   0.06    -0.09   0.04  -0.04     0.09   0.02  -0.02
  70   5    -0.02   0.03   0.02     0.14  -0.07  -0.07     0.01  -0.00  -0.04
  71   7     0.05   0.07   0.05    -0.09  -0.04   0.04    -0.10  -0.02   0.01
  72   5    -0.15  -0.02  -0.03     0.14   0.07   0.07     0.02   0.04   0.01
                     91                     92                     93
                        a                      a                      a 
 Frequencies --   647.0284               647.0293               662.8063
 Red. masses --    11.9290                11.9290                12.2942
 Frc consts  --     0.0000                 0.0000                 0.0000
 IR Inten    --   105.6812               105.6831                 1.6712
 Raman Activ --     0.0000                 0.0000                 0.0000
 Depolar     --     0.0000                 0.0000                 0.0000
 Atom AN      X      Y      Z        X      Y      Z        X      Y      Z
   1   5    -0.04  -0.10   0.03    -0.08   0.11   0.06     0.00   0.03   0.02
   2   7     0.02  -0.04   0.07     0.05  -0.09   0.02     0.01  -0.07   0.03
   3   5     0.09   0.17  -0.10     0.02  -0.05  -0.04     0.01  -0.01   0.01
   4   7    -0.08   0.00  -0.03    -0.03   0.06  -0.06     0.00   0.06   0.03
   5   7     0.10   0.03   0.04     0.01  -0.08  -0.09     0.08   0.02   0.04
   6   5    -0.01  -0.06   0.03     0.03   0.09  -0.11    -0.03   0.00   0.02
   7   7    -0.07  -0.05  -0.04    -0.07   0.08   0.07    -0.07   0.01   0.03
   8   5    -0.05   0.04  -0.07     0.08  -0.12   0.10     0.01   0.01   0.01
   9   5    -0.05   0.05   0.01    -0.01   0.03  -0.05    -0.13  -0.11  -0.09
  10   7    -0.03   0.03   0.02     0.06   0.03  -0.03     0.16   0.16   0.06
  11   5    -0.04  -0.02  -0.01     0.07  -0.03  -0.04    -0.13  -0.15  -0.11
  12   7    -0.03   0.01   0.04     0.06  -0.02   0.02     0.07  -0.02   0.09
  13   5    -0.05   0.01   0.06    -0.02  -0.05   0.01    -0.02  -0.01  -0.02
  14   7    -0.05   0.05   0.06     0.00   0.02   0.01    -0.04   0.05   0.07
  15   7     0.04   0.09  -0.03     0.02   0.00  -0.10     0.03   0.03  -0.06
  16   5    -0.06   0.06  -0.07    -0.05   0.02   0.07    -0.05   0.05   0.09
  17   7    -0.09  -0.05  -0.02    -0.01  -0.03   0.08    -0.03  -0.03  -0.06
  18   5     0.11  -0.11   0.16    -0.00  -0.03  -0.04     0.05  -0.05   0.08
  19   5     0.02  -0.02  -0.04    -0.16  -0.02   0.09     0.00  -0.02  -0.01
  20   7     0.02  -0.07   0.00    -0.05   0.05  -0.09     0.05   0.04  -0.06
  21   5     0.13   0.06  -0.03    -0.11  -0.08  -0.00    -0.11  -0.12   0.04
  22   7    -0.05  -0.12   0.04     0.04   0.02  -0.10     0.04   0.05  -0.06
  23   5     0.02   0.03  -0.12    -0.04  -0.17   0.13    -0.03  -0.02   0.01
  24   7    -0.01  -0.06  -0.06     0.07   0.09  -0.10     0.03   0.03  -0.06
  25   7    -0.06   0.07  -0.09     0.01   0.05   0.03    -0.04   0.04  -0.07
  26   5     0.09   0.07   0.03    -0.02  -0.01  -0.14     0.05   0.05   0.08
  27   7     0.07  -0.07   0.04     0.05   0.01  -0.04     0.03  -0.03  -0.05
  28   5    -0.08  -0.10   0.06    -0.07  -0.05   0.17    -0.05  -0.05   0.08
  29   7    -0.03   0.02  -0.12     0.01  -0.08   0.02    -0.02   0.02  -0.05
  30   5     0.09  -0.02   0.01    -0.06  -0.01  -0.01    -0.00  -0.02  -0.01
  31   7     0.04  -0.02  -0.05    -0.08  -0.06   0.02    -0.04   0.03  -0.05
  32   5    -0.02   0.01  -0.03    -0.12   0.03  -0.01     0.11  -0.11   0.03
  33   7     0.02  -0.06  -0.04     0.03  -0.11   0.07    -0.03   0.04  -0.05
  34   5     0.02  -0.09   0.00    -0.04   0.09  -0.13     0.02   0.00  -0.01
  35   5     0.19  -0.20  -0.03    -0.06  -0.03  -0.01    -0.12   0.12   0.04
  36   7    -0.12   0.04   0.11    -0.01  -0.08  -0.05     0.05  -0.06  -0.07
  37   5     0.02  -0.17  -0.19    -0.03   0.06   0.08    -0.03   0.02   0.01
  38   7    -0.12   0.11   0.01    -0.02  -0.06  -0.05     0.04  -0.04  -0.07
  39   5     0.18  -0.03  -0.20    -0.04  -0.01  -0.04    -0.02   0.03   0.01
  40   7    -0.06   0.12   0.11    -0.11  -0.02  -0.00     0.06  -0.05  -0.07
  41   7    -0.03   0.03  -0.01     0.06   0.02   0.02    -0.17   0.17   0.05
  42   5    -0.03  -0.04  -0.03     0.08   0.01   0.00     0.14  -0.15  -0.11
  43   7    -0.03  -0.02   0.05     0.07   0.03   0.00    -0.08  -0.03   0.10
  44   5     0.04  -0.03   0.06     0.03   0.04   0.02     0.04  -0.04  -0.04
  45   7     0.03   0.04   0.05     0.04   0.04   0.03     0.03   0.08   0.10
  46   5     0.05   0.04  -0.03     0.03   0.04   0.04     0.15  -0.14  -0.11
  47   5     0.07   0.00   0.04     0.01  -0.10   0.03    -0.00   0.03   0.02
  48   7    -0.04  -0.10   0.05    -0.02   0.03   0.07    -0.02  -0.08   0.04
  49   5    -0.06   0.07  -0.09    -0.09   0.16  -0.07    -0.01  -0.01   0.01
  50   7     0.06   0.06  -0.05     0.06  -0.06  -0.01    -0.01   0.07   0.03
  51   7    -0.04   0.05   0.06     0.06  -0.01   0.01    -0.05   0.04   0.07
  52   5    -0.01   0.04   0.06    -0.01  -0.04   0.02     0.01   0.02  -0.02
  53   7    -0.01   0.04   0.04     0.02   0.02   0.02     0.02  -0.07   0.09
  54   5     0.02   0.05  -0.00     0.01   0.03   0.06     0.15   0.13  -0.11
  55   7    -0.02   0.04   0.02     0.07   0.04   0.04    -0.16  -0.16   0.06
  56   5    -0.04   0.05   0.02     0.07  -0.01   0.04     0.11   0.13  -0.09
  57   5     0.01  -0.00   0.07     0.02   0.05   0.02     0.00  -0.00   0.01
  58   7    -0.02   0.03   0.05     0.03   0.04   0.00    -0.04  -0.03   0.06
  59   5    -0.03   0.05   0.04     0.01   0.04  -0.03    -0.13   0.11  -0.08
  60   7    -0.04   0.05   0.05     0.06   0.03  -0.01     0.14  -0.14   0.06
  61   5    -0.04   0.03   0.04     0.08   0.03   0.00    -0.11   0.13  -0.08
  62   7    -0.02   0.02   0.05     0.07   0.04   0.02     0.04   0.04   0.06
  63   7     0.09  -0.02   0.02     0.08   0.04   0.12    -0.03  -0.05  -0.06
  64   5     0.01  -0.05  -0.06    -0.04  -0.20  -0.18     0.02  -0.00  -0.01
  65   7     0.08   0.03  -0.04     0.09   0.12   0.07    -0.03  -0.03  -0.06
  66   5    -0.07  -0.02  -0.15    -0.19  -0.02  -0.14     0.02   0.03   0.01
  67   7     0.12   0.07   0.06    -0.02   0.09   0.10    -0.05  -0.04  -0.06
  68   5    -0.08  -0.15  -0.03    -0.17  -0.13  -0.01     0.12   0.11   0.04
  69   7     0.03  -0.01   0.07    -0.05   0.09  -0.07     0.07  -0.01   0.03
  70   5     0.12   0.02   0.01     0.13  -0.12  -0.12    -0.03  -0.00   0.02
  71   7     0.00   0.07  -0.01    -0.01  -0.07   0.10    -0.06  -0.00   0.03
  72   5    -0.18  -0.08  -0.09    -0.02   0.08   0.09     0.01  -0.01   0.01
                     94                     95                     96
                        a                      a                      a 
 Frequencies --   662.8065               662.8066               679.2191
 Red. masses --    12.2942                12.2942                11.5803
 Frc consts  --     0.0000                 0.0000                 0.0000
 IR Inten    --     1.6699                 1.6704                 0.0000
 Raman Activ --     0.0000                 0.0000                 0.0000
 Depolar     --     0.0000                 0.0000                 0.0000
 Atom AN      X      Y      Z        X      Y      Z        X      Y      Z
   1   5     0.05  -0.08  -0.05     0.01  -0.01   0.01    -0.13   0.22   0.13
   2   7    -0.03   0.05  -0.03     0.04  -0.08   0.02     0.06  -0.12   0.06
   3   5    -0.05  -0.08   0.05     0.02   0.03   0.00     0.13   0.22  -0.13
   4   7     0.04   0.07   0.04     0.03   0.07   0.01    -0.06  -0.12  -0.06
   5   7    -0.07  -0.03  -0.01    -0.05  -0.03  -0.03     0.06   0.01   0.05
   6   5    -0.01  -0.01  -0.01     0.08   0.05  -0.05    -0.11  -0.06   0.07
   7   7     0.06  -0.03  -0.00    -0.07   0.04   0.04     0.06  -0.01  -0.05
   8   5     0.03  -0.02  -0.00     0.08  -0.05   0.05    -0.11   0.06  -0.07
   9   5    -0.00  -0.01  -0.00    -0.11  -0.14  -0.15     0.09   0.09   0.09
  10   7    -0.03  -0.06   0.04     0.10   0.08  -0.03     0.01  -0.04  -0.01
  11   5     0.11   0.08   0.13    -0.04  -0.04  -0.04    -0.05  -0.06  -0.04
  12   7    -0.14  -0.06  -0.14     0.10  -0.03   0.08     0.04   0.02   0.04
  13   5     0.13   0.08   0.11    -0.11  -0.15  -0.14    -0.04  -0.06  -0.05
  14   7     0.03  -0.06  -0.04     0.05   0.17   0.17    -0.01  -0.04   0.01
  15   7    -0.00  -0.03   0.06     0.04   0.02  -0.08    -0.05  -0.01   0.06
  16   5    -0.01  -0.01  -0.01     0.02   0.01  -0.01     0.07  -0.06  -0.11
  17   7    -0.01  -0.03  -0.07     0.03   0.01   0.07     0.05   0.01   0.06
  18   5    -0.00  -0.02   0.03     0.02   0.00   0.03    -0.07   0.06  -0.11
  19   5    -0.12  -0.04   0.11     0.01   0.03  -0.02    -0.07  -0.04   0.07
  20   7     0.05   0.06  -0.04    -0.06  -0.03   0.03     0.05  -0.01  -0.05
  21   5    -0.02  -0.01   0.03    -0.01  -0.00  -0.03     0.07   0.00  -0.02
  22   7     0.03   0.06  -0.03    -0.06  -0.05   0.04    -0.04  -0.09   0.04
  23   5    -0.03   0.01  -0.00     0.04   0.11  -0.12     0.02   0.00  -0.07
  24   7     0.04   0.06  -0.05    -0.06  -0.04   0.05     0.05  -0.01  -0.05
  25   7     0.01  -0.03   0.07     0.03  -0.00   0.06    -0.05   0.01  -0.06
  26   5     0.01  -0.01  -0.01     0.02  -0.00   0.03     0.07   0.06   0.11
  27   7     0.02  -0.04  -0.08     0.03  -0.01  -0.07     0.05  -0.01  -0.06
  28   5     0.00  -0.03   0.03     0.01  -0.01  -0.01    -0.07  -0.06   0.11
  29   7    -0.05   0.07  -0.06    -0.06   0.03  -0.05     0.05   0.01   0.05
  30   5     0.12  -0.04   0.12    -0.01  -0.02  -0.00    -0.07   0.04  -0.07
  31   7    -0.06   0.07  -0.05    -0.06   0.03  -0.03     0.05   0.01   0.05
  32   5     0.02  -0.01   0.03     0.01  -0.02   0.03     0.07  -0.00   0.02
  33   7    -0.04   0.07  -0.04    -0.06   0.05  -0.04    -0.04   0.09  -0.04
  34   5     0.03  -0.01   0.02     0.04  -0.12   0.11     0.02  -0.00   0.07
  35   5    -0.00   0.01  -0.02    -0.01   0.00  -0.02    -0.07   0.00   0.02
  36   7    -0.03   0.06   0.03    -0.05   0.04   0.03     0.04  -0.09  -0.04
  37   5     0.03  -0.01  -0.02     0.03  -0.11  -0.11    -0.02   0.00   0.07
  38   7    -0.04   0.06   0.05    -0.05   0.03   0.04    -0.05  -0.01   0.05
  39   5     0.11  -0.04  -0.12    -0.01  -0.02   0.00     0.07  -0.04  -0.07
  40   7    -0.05   0.06   0.03    -0.05   0.02   0.02    -0.05  -0.01   0.05
  41   7     0.05  -0.07   0.04     0.06  -0.04   0.03     0.01   0.04   0.01
  42   5    -0.11   0.08   0.13     0.01  -0.00  -0.00    -0.05   0.06   0.04
  43   7     0.16  -0.06  -0.16     0.06   0.04  -0.04     0.04  -0.02  -0.04
  44   5    -0.14   0.11   0.13    -0.08   0.13   0.11    -0.04   0.06   0.05
  45   7    -0.02  -0.09  -0.06     0.06  -0.15  -0.15    -0.01   0.04  -0.01
  46   5    -0.01   0.02   0.02    -0.08   0.11   0.13     0.09  -0.09  -0.09
  47   5    -0.05  -0.08  -0.05     0.02   0.03  -0.00    -0.13  -0.22  -0.13
  48   7     0.03   0.06  -0.03     0.03   0.06  -0.00     0.06   0.12  -0.06
  49   5     0.05  -0.09   0.05     0.01  -0.01  -0.01     0.13  -0.22   0.13
  50   7    -0.03   0.06   0.04     0.03  -0.07  -0.01    -0.06   0.12   0.06
  51   7    -0.16  -0.06   0.16     0.09  -0.02  -0.07    -0.04  -0.02   0.04
  52   5     0.13   0.09  -0.11    -0.11  -0.15   0.13     0.04   0.06  -0.05
  53   7     0.04  -0.07   0.05     0.06   0.16  -0.16     0.01   0.04   0.01
  54   5     0.02   0.02  -0.02    -0.09  -0.11   0.13    -0.09  -0.09   0.09
  55   7    -0.07  -0.09  -0.02     0.07   0.05   0.04    -0.01   0.04  -0.01
  56   5     0.14   0.11  -0.15    -0.02  -0.02   0.02     0.05   0.06  -0.04
  57   5    -0.15   0.11  -0.14    -0.08   0.13  -0.11     0.04  -0.06   0.05
  58   7    -0.03  -0.10   0.08     0.06  -0.16   0.16     0.01  -0.04  -0.01
  59   5    -0.04   0.04  -0.04    -0.11   0.13  -0.14    -0.09   0.09  -0.09
  60   7     0.08  -0.10  -0.03     0.09  -0.06  -0.02    -0.01  -0.04   0.01
  61   5    -0.14   0.11  -0.15    -0.02   0.02  -0.01     0.05  -0.06   0.04
  62   7     0.17  -0.05   0.17     0.07   0.04   0.05    -0.04   0.02  -0.04
  63   7     0.02   0.05   0.02    -0.07  -0.06  -0.05     0.04   0.09   0.04
  64   5    -0.02   0.01   0.00     0.04   0.12   0.12    -0.02  -0.00  -0.07
  65   7     0.03   0.05   0.04    -0.07  -0.05  -0.06    -0.05   0.01  -0.05
  66   5    -0.11  -0.03  -0.11     0.01   0.03   0.02     0.07   0.04   0.07
  67   7     0.04   0.05   0.03    -0.07  -0.04  -0.04    -0.05   0.01  -0.05
  68   5     0.00   0.01  -0.02     0.01   0.02   0.03    -0.07  -0.00  -0.02
  69   7     0.07  -0.03   0.01    -0.06   0.03  -0.03    -0.06   0.01  -0.05
  70   5     0.03  -0.02   0.00     0.08  -0.05  -0.05     0.11  -0.06  -0.07
  71   7    -0.08  -0.04   0.02    -0.06  -0.03   0.03    -0.06  -0.01   0.05
  72   5    -0.01  -0.02   0.01     0.09   0.05   0.05     0.11   0.06   0.07
                     97                     98                     99
                        a                      a                      a 
 Frequencies --   679.2204               694.4099               694.4099
 Red. masses --    11.5803                12.4177                12.4177
 Frc consts  --     0.0000                 0.0000                 0.0000
 IR Inten    --     0.0000               215.7999               215.7754
 Raman Activ --     0.0000                 0.0000                 0.0000
 Depolar     --     0.0000                 0.0000                 0.0000
 Atom AN      X      Y      Z        X      Y      Z        X      Y      Z
   1   5     0.01   0.00   0.01     0.11  -0.02  -0.12     0.02   0.02  -0.01
   2   7    -0.02   0.00   0.02    -0.11  -0.02  -0.11     0.03   0.01  -0.04
   3   5    -0.01  -0.00  -0.01    -0.12  -0.02   0.11     0.01  -0.02   0.01
   4   7     0.02  -0.00  -0.02     0.10   0.00   0.09     0.05  -0.01  -0.02
   5   7     0.10   0.06   0.04    -0.01  -0.05   0.01    -0.02  -0.01  -0.06
   6   5    -0.19  -0.12   0.11     0.03   0.04  -0.02    -0.01   0.07  -0.05
   7   7     0.10  -0.06  -0.04     0.02   0.01   0.07     0.03   0.08   0.04
   8   5    -0.19   0.12  -0.11    -0.01  -0.04   0.06     0.02  -0.03   0.06
   9   5     0.01  -0.00  -0.01     0.05  -0.08   0.06    -0.04  -0.01   0.05
  10   7     0.04   0.02   0.01     0.07   0.02  -0.08     0.01  -0.01   0.08
  11   5    -0.08  -0.07  -0.09     0.02   0.02  -0.05     0.03  -0.05   0.00
  12   7     0.03  -0.00  -0.03    -0.01   0.10  -0.01     0.07  -0.06   0.01
  13   5     0.09   0.07   0.08    -0.05   0.03   0.01     0.04   0.07  -0.08
  14   7    -0.01  -0.02  -0.04    -0.10   0.02   0.07    -0.14   0.08   0.05
  15   7     0.04   0.06  -0.10     0.06  -0.00   0.02    -0.09  -0.12  -0.02
  16   5    -0.11   0.12   0.19    -0.01   0.03   0.03     0.11  -0.12  -0.01
  17   7    -0.04  -0.06  -0.10     0.02  -0.05  -0.01     0.11   0.08   0.00
  18   5     0.11  -0.12   0.19     0.04  -0.03  -0.02    -0.12   0.11  -0.03
  19   5     0.04  -0.00   0.04    -0.06  -0.06   0.04     0.14  -0.13  -0.12
  20   7     0.08   0.05  -0.02    -0.01   0.00  -0.07    -0.09  -0.04  -0.04
  21   5    -0.04  -0.08   0.04    -0.10  -0.05  -0.05     0.08   0.10  -0.02
  22   7     0.03   0.00   0.03    -0.02   0.13   0.07    -0.05  -0.03   0.01
  23   5     0.04   0.08  -0.04     0.13  -0.08   0.11    -0.06   0.13  -0.09
  24   7    -0.02  -0.05   0.08     0.06  -0.05  -0.05     0.05   0.01   0.14
  25   7     0.04  -0.06   0.10    -0.06   0.02   0.03     0.10  -0.08   0.00
  26   5    -0.11  -0.12  -0.19     0.00   0.04   0.02    -0.12  -0.10  -0.03
  27   7    -0.04   0.06   0.10    -0.01  -0.02  -0.03    -0.10   0.11  -0.02
  28   5     0.11   0.12  -0.19    -0.05  -0.01  -0.01     0.11   0.12  -0.01
  29   7    -0.02   0.05  -0.08    -0.04  -0.01  -0.07    -0.03   0.07   0.12
  30   5     0.04  -0.00  -0.04     0.11  -0.00   0.11    -0.07  -0.05  -0.02
  31   7     0.08  -0.05   0.02    -0.08  -0.02  -0.04    -0.04  -0.08  -0.01
  32   5    -0.04   0.08  -0.04     0.15  -0.12  -0.11    -0.02   0.00  -0.10
  33   7     0.03  -0.00  -0.03     0.04   0.15   0.03     0.07  -0.00  -0.04
  34   5     0.04  -0.08   0.04    -0.09  -0.12   0.15     0.10   0.08  -0.04
  35   5     0.04  -0.08  -0.04     0.12  -0.10   0.13     0.10  -0.11  -0.00
  36   7    -0.03  -0.00  -0.03     0.06   0.14  -0.02    -0.04   0.05   0.00
  37   5    -0.04   0.08   0.04    -0.05  -0.07  -0.12    -0.07  -0.14  -0.10
  38   7     0.02  -0.05  -0.08    -0.06   0.01   0.00     0.05  -0.02   0.15
  39   5    -0.04   0.00  -0.04     0.06  -0.04  -0.08     0.15   0.12  -0.12
  40   7    -0.08   0.05   0.02    -0.07  -0.05   0.05    -0.09   0.04  -0.04
  41   7     0.04  -0.02  -0.01    -0.10   0.08  -0.16    -0.06   0.08  -0.02
  42   5    -0.08   0.07   0.09     0.04   0.05  -0.02     0.05  -0.00   0.05
  43   7     0.03  -0.00   0.03    -0.03   0.03   0.05    -0.12  -0.16   0.10
  44   5     0.09  -0.07  -0.08     0.03   0.01   0.00    -0.06   0.04  -0.10
  45   7    -0.01   0.02   0.04     0.08   0.04   0.09     0.10   0.11   0.07
  46   5     0.01  -0.00   0.01    -0.07  -0.09   0.04     0.01  -0.02   0.02
  47   5     0.01  -0.00  -0.01    -0.11  -0.03  -0.11    -0.03   0.01   0.01
  48   7    -0.02  -0.00  -0.02     0.11  -0.01  -0.09    -0.02   0.03  -0.00
  49   5    -0.01  -0.00   0.01     0.12  -0.01   0.12    -0.01  -0.01   0.02
  50   7     0.02   0.00   0.02    -0.09  -0.01   0.12    -0.04  -0.03   0.01
  51   7    -0.03   0.00  -0.03     0.03   0.05  -0.01    -0.11   0.17   0.09
  52   5    -0.09  -0.07   0.08    -0.03   0.05   0.03    -0.07  -0.04  -0.09
  53   7     0.01   0.02  -0.04    -0.15   0.06  -0.09     0.09  -0.10   0.06
  54   5    -0.01   0.00  -0.01     0.04  -0.09  -0.07     0.02   0.01   0.01
  55   7    -0.04  -0.02   0.01     0.08   0.03   0.07    -0.05  -0.07  -0.01
  56   5     0.08   0.07  -0.09     0.01   0.01   0.04     0.05   0.01   0.05
  57   5    -0.09   0.07  -0.08     0.01   0.03   0.04     0.04  -0.06  -0.08
  58   7     0.01  -0.02   0.04     0.13   0.08  -0.11    -0.12  -0.07   0.03
  59   5    -0.01   0.00   0.01    -0.05  -0.10  -0.05    -0.05   0.00   0.04
  60   7    -0.04   0.02  -0.01    -0.12   0.09   0.14    -0.00   0.01   0.10
  61   5     0.08  -0.07   0.09     0.05   0.04   0.01     0.03   0.05   0.01
  62   7    -0.03   0.00   0.03    -0.07  -0.03  -0.07     0.06   0.06   0.01
  63   7    -0.03   0.00   0.03    -0.05   0.12  -0.06     0.06   0.02  -0.05
  64   5    -0.04  -0.08  -0.04     0.09  -0.03  -0.08     0.12  -0.09  -0.05
  65   7     0.02   0.05   0.08     0.07  -0.03  -0.01    -0.03  -0.07   0.12
  66   5    -0.04   0.00   0.04    -0.01  -0.10  -0.00    -0.08   0.04  -0.02
  67   7    -0.08  -0.05  -0.02    -0.03  -0.02   0.08    -0.03   0.07   0.00
  68   5     0.04   0.08   0.04    -0.08  -0.02   0.07    -0.03  -0.01  -0.08
  69   7    -0.10   0.06  -0.04     0.03   0.03  -0.07    -0.02   0.01  -0.06
  70   5     0.19  -0.12  -0.11    -0.01  -0.03  -0.06    -0.01  -0.07  -0.05
  71   7    -0.10  -0.06   0.04    -0.02  -0.04   0.00     0.02  -0.08   0.03
  72   5     0.19   0.12   0.11     0.02   0.05   0.02     0.03   0.03   0.06
                    100                    101                    102
                        a                      a                      a 
 Frequencies --   694.4101               698.3350               698.3351
 Red. masses --    12.4177                12.6760                12.6760
 Frc consts  --     0.0000                 0.0000                 0.0000
 IR Inten    --   215.7729                 0.0000                 0.0000
 Raman Activ --     0.0000                 0.0000                 0.0000
 Depolar     --     0.0000                 0.0000                 0.0000
 Atom AN      X      Y      Z        X      Y      Z        X      Y      Z
   1   5    -0.06   0.02   0.03     0.06  -0.02   0.01     0.08  -0.03  -0.01
   2   7     0.04  -0.03   0.01     0.03  -0.01   0.06    -0.08   0.00   0.03
   3   5     0.03  -0.00  -0.07     0.04   0.02  -0.01    -0.01   0.03  -0.10
   4   7    -0.04   0.03  -0.07     0.07   0.01   0.02     0.05  -0.00  -0.10
   5   7     0.03  -0.10  -0.10    -0.01   0.01  -0.07     0.00  -0.13   0.15
   6   5     0.02   0.10  -0.12    -0.03  -0.09  -0.01    -0.02   0.07   0.12
   7   7    -0.01   0.08   0.08     0.01  -0.09   0.03    -0.00   0.13  -0.12
   8   5     0.02  -0.12   0.10     0.03  -0.03   0.06     0.02  -0.12  -0.06
   9   5    -0.04   0.05  -0.00    -0.09  -0.07   0.02    -0.10   0.04   0.13
  10   7    -0.10  -0.12   0.14    -0.08   0.08   0.03    -0.12   0.12  -0.03
  11   5     0.09  -0.05  -0.05     0.05   0.08  -0.03    -0.01   0.11  -0.12
  12   7    -0.10   0.14  -0.12     0.06  -0.07  -0.06     0.13   0.04  -0.12
  13   5    -0.04  -0.00   0.05     0.07  -0.04   0.02     0.10  -0.13  -0.03
  14   7     0.05  -0.09  -0.09     0.05  -0.05   0.05    -0.01  -0.14   0.14
  15   7     0.04   0.01  -0.03     0.13  -0.16   0.00     0.04  -0.01  -0.00
  16   5    -0.06   0.03   0.02    -0.10  -0.12  -0.00    -0.07   0.04   0.03
  17   7    -0.04  -0.07   0.03    -0.16   0.13  -0.00    -0.03   0.06   0.00
  18   5     0.03  -0.07  -0.00     0.10   0.08   0.00    -0.02   0.09  -0.03
  19   5     0.04  -0.03  -0.10     0.07  -0.03   0.07    -0.07  -0.06  -0.07
  20   7    -0.13   0.07  -0.01     0.06   0.10   0.08     0.04  -0.09  -0.10
  21   5     0.09   0.11   0.14    -0.07   0.07   0.02     0.07  -0.07  -0.02
  22   7     0.06  -0.07   0.05    -0.09  -0.03  -0.08     0.08  -0.06   0.09
  23   5     0.05   0.04  -0.07     0.05  -0.07  -0.08     0.03   0.07   0.07
  24   7    -0.02  -0.06  -0.02     0.10  -0.10   0.02    -0.07   0.08  -0.02
  25   7    -0.01   0.08   0.01    -0.15  -0.13  -0.00     0.01  -0.09   0.01
  26   5     0.05   0.06  -0.01     0.11  -0.08   0.01     0.03  -0.07  -0.01
  27   7     0.07  -0.00  -0.01     0.14   0.16   0.00     0.08  -0.02  -0.01
  28   5    -0.04  -0.03   0.03    -0.09   0.12  -0.01    -0.02  -0.02   0.01
  29   7     0.06   0.05  -0.07    -0.06  -0.05  -0.01    -0.04  -0.07   0.07
  30   5     0.09   0.14   0.11    -0.03  -0.06   0.04    -0.05   0.03   0.04
  31   7    -0.13  -0.01   0.07    -0.06   0.04   0.02    -0.04   0.07   0.06
  32   5     0.04  -0.10  -0.03     0.03   0.03  -0.01     0.05   0.04   0.07
  33   7    -0.02  -0.02  -0.06     0.05  -0.07  -0.03     0.04   0.03  -0.05
  34   5     0.05  -0.07   0.04    -0.05  -0.03  -0.04    -0.03  -0.04  -0.05
  35   5    -0.00  -0.05   0.07    -0.09  -0.09   0.01     0.02   0.01  -0.07
  36   7     0.03  -0.04   0.08    -0.11   0.03  -0.10    -0.00   0.06   0.02
  37   5     0.12   0.02   0.02     0.04   0.09  -0.09    -0.01  -0.01   0.01
  38   7     0.03   0.08  -0.04     0.11   0.12   0.01    -0.00  -0.02  -0.07
  39   5    -0.00   0.07  -0.05     0.09   0.03   0.09    -0.02   0.06  -0.01
  40   7    -0.11  -0.05  -0.05     0.04  -0.11   0.10    -0.01   0.03  -0.03
  41   7    -0.00   0.05  -0.08     0.13   0.13  -0.01    -0.01  -0.01   0.08
  42   5     0.07   0.05   0.05    -0.05   0.12  -0.08     0.01  -0.02   0.01
  43   7    -0.00  -0.08   0.05    -0.10  -0.04  -0.11     0.01  -0.07   0.00
  44   5    -0.02  -0.06   0.03    -0.10  -0.11  -0.01    -0.02   0.05   0.07
  45   7    -0.13  -0.03  -0.03    -0.05  -0.11   0.11     0.01   0.04  -0.04
  46   5    -0.02   0.03  -0.06     0.12  -0.04   0.08     0.01  -0.06  -0.05
  47   5     0.05  -0.01   0.06    -0.07  -0.03  -0.03    -0.04   0.02   0.09
  48   7    -0.01   0.01   0.08    -0.02  -0.00   0.03     0.03  -0.01   0.11
  49   5    -0.04   0.03  -0.03    -0.05   0.03  -0.05     0.05  -0.02   0.00
  50   7     0.07  -0.01  -0.00    -0.05   0.00  -0.00    -0.10   0.01  -0.02
  51   7    -0.03   0.04   0.08    -0.08   0.04  -0.08     0.09   0.07   0.09
  52   5     0.01   0.04   0.02    -0.07   0.10  -0.02     0.07  -0.09   0.03
  53   7    -0.04  -0.01   0.04    -0.06   0.09   0.09    -0.04  -0.10  -0.10
  54   5    -0.06   0.04  -0.02     0.10   0.04   0.07    -0.05   0.06  -0.11
  55   7    -0.07  -0.09  -0.17     0.11  -0.11  -0.03    -0.07   0.07   0.03
  56   5     0.08  -0.07   0.02    -0.06  -0.11  -0.06    -0.04   0.06   0.10
  57   5    -0.06  -0.02   0.04     0.04   0.03   0.01     0.02   0.09  -0.07
  58   7    -0.04   0.04  -0.01     0.06   0.03   0.03     0.04   0.07   0.07
  59   5     0.01   0.02   0.04    -0.07   0.07   0.00    -0.03  -0.04   0.07
  60   7    -0.03   0.08   0.04    -0.06  -0.06   0.01    -0.06  -0.06  -0.08
  61   5     0.08   0.02  -0.07     0.06  -0.07  -0.01     0.04  -0.07  -0.03
  62   7    -0.07  -0.17  -0.09     0.03   0.07  -0.04     0.04  -0.04  -0.04
  63   7     0.01  -0.09  -0.03     0.07   0.07  -0.05     0.11  -0.03  -0.13
  64   5    -0.02   0.13   0.13    -0.04   0.05  -0.05     0.01   0.10  -0.10
  65   7     0.01  -0.03  -0.09    -0.07   0.07  -0.02    -0.11   0.12   0.02
  66   5     0.13  -0.10   0.15    -0.05   0.06   0.05    -0.10  -0.03   0.10
  67   7    -0.15   0.02   0.02    -0.04  -0.06   0.04     0.01  -0.13   0.13
  68   5     0.13   0.15  -0.10     0.05  -0.05  -0.02     0.10  -0.10   0.02
  69   7     0.01   0.11  -0.07    -0.01  -0.00  -0.08    -0.00   0.16   0.11
  70   5     0.03  -0.10  -0.10    -0.02   0.09  -0.02     0.00  -0.09   0.07
  71   7     0.01  -0.07   0.11     0.01   0.09   0.01     0.00  -0.11  -0.16
  72   5     0.01   0.11   0.11     0.02   0.02   0.05    -0.00   0.10  -0.11
                    103                    104                    105
                        a                      a                      a 
 Frequencies --   698.3352               710.4368               710.4371
 Red. masses --    12.6760                12.1210                12.1210
 Frc consts  --     0.0000                 0.0000                 0.0000
 IR Inten    --     0.0000              1024.7457              1024.7587
 Raman Activ --     0.0000                 0.0000                 0.0000
 Depolar     --     0.0000                 0.0000                 0.0000
 Atom AN      X      Y      Z        X      Y      Z        X      Y      Z
   1   5    -0.07  -0.02  -0.12     0.06  -0.15  -0.05     0.01  -0.01  -0.01
   2   7     0.14   0.00  -0.15    -0.01   0.16  -0.01    -0.01   0.01   0.01
   3   5     0.12   0.02   0.07    -0.05  -0.15   0.06    -0.01  -0.03   0.01
   4   7    -0.14  -0.00   0.13     0.02   0.12   0.02    -0.01   0.02   0.01
   5   7    -0.01  -0.09   0.01    -0.06  -0.02  -0.00     0.12   0.01   0.02
   6   5     0.02   0.04  -0.01     0.07   0.03  -0.03    -0.15  -0.05   0.05
   7   7     0.01   0.02  -0.11    -0.09  -0.00   0.01     0.14  -0.01  -0.01
   8   5    -0.02  -0.04  -0.09     0.09  -0.03   0.03    -0.14   0.05  -0.05
   9   5     0.03   0.01  -0.02    -0.09  -0.04  -0.09    -0.06  -0.01   0.02
  10   7     0.01  -0.02  -0.08     0.01   0.03   0.05     0.05   0.04   0.11
  11   5     0.06   0.01   0.05     0.02   0.01   0.08    -0.04  -0.11  -0.07
  12   7    -0.04   0.01   0.04    -0.04  -0.11  -0.04     0.02   0.01  -0.00
  13   5    -0.06  -0.01  -0.07     0.08   0.00   0.02     0.04   0.08   0.02
  14   7     0.07   0.01  -0.01     0.06   0.03   0.01    -0.08  -0.01  -0.03
  15   7     0.09   0.01  -0.01     0.01  -0.00  -0.08     0.00   0.01  -0.13
  16   5     0.02  -0.02  -0.01    -0.03   0.02   0.06    -0.05   0.04   0.13
  17   7     0.02   0.08   0.01    -0.00  -0.01  -0.06    -0.02  -0.01  -0.09
  18   5     0.07   0.03   0.01     0.03  -0.03   0.08     0.04  -0.04   0.12
  19   5     0.05  -0.03   0.05     0.01   0.02  -0.02    -0.07  -0.12   0.07
  20   7    -0.04   0.04   0.05     0.01   0.01   0.03     0.06   0.07  -0.12
  21   5    -0.05   0.05  -0.07    -0.02  -0.01   0.02    -0.03  -0.04   0.06
  22   7    -0.08  -0.03  -0.07     0.05   0.05  -0.11     0.05   0.04  -0.04
  23   5    -0.03  -0.05  -0.05    -0.12  -0.07   0.08    -0.05  -0.03   0.02
  24   7     0.07  -0.05  -0.07    -0.00   0.10  -0.03     0.11   0.06  -0.06
  25   7    -0.07  -0.03  -0.00    -0.00  -0.00  -0.10    -0.02   0.01  -0.09
  26   5    -0.04  -0.07  -0.03     0.03   0.02   0.07     0.04   0.04   0.11
  27   7     0.00   0.04   0.00     0.01  -0.01  -0.03     0.00  -0.01  -0.13
  28   5    -0.09  -0.02   0.03    -0.02  -0.03   0.08    -0.05  -0.04   0.13
  29   7    -0.12  -0.11  -0.03    -0.06   0.09  -0.06    -0.01   0.08  -0.02
  30   5    -0.10   0.01   0.10     0.03  -0.05   0.03     0.00   0.01  -0.02
  31   7     0.04   0.11   0.12    -0.06   0.09  -0.06     0.03  -0.08   0.03
  32   5     0.10   0.10  -0.03     0.06  -0.06   0.10    -0.04   0.05  -0.07
  33   7     0.12   0.01  -0.13    -0.11   0.07  -0.10     0.05   0.00  -0.06
  34   5     0.03  -0.10  -0.10     0.09  -0.05   0.06     0.08  -0.06   0.05
  35   5     0.07   0.07   0.03     0.08  -0.07  -0.12    -0.02   0.03   0.04
  36   7     0.09   0.03   0.10    -0.12   0.05   0.05     0.03  -0.03  -0.02
  37   5     0.06  -0.07   0.06     0.03  -0.01  -0.02    -0.03   0.02   0.01
  38   7    -0.08  -0.07   0.03     0.02   0.01   0.01     0.12  -0.05  -0.06
  39   5    -0.07   0.03  -0.07    -0.02   0.02   0.01    -0.08   0.13   0.08
  40   7     0.06   0.07  -0.09    -0.04   0.10   0.01     0.06  -0.06  -0.12
  41   7    -0.07  -0.07  -0.03    -0.06   0.07   0.14     0.06  -0.04  -0.05
  42   5    -0.06  -0.05   0.11     0.06  -0.13  -0.05    -0.09   0.12   0.17
  43   7     0.10  -0.04   0.10    -0.02  -0.02   0.01     0.08  -0.15  -0.08
  44   5     0.09   0.06  -0.03    -0.01  -0.01  -0.02    -0.16   0.11   0.09
  45   7    -0.07   0.09  -0.09    -0.03   0.04   0.02     0.03  -0.04  -0.05
  46   5    -0.06  -0.03  -0.09     0.15  -0.08  -0.11    -0.06   0.05   0.05
  47   5     0.09   0.00  -0.08    -0.05  -0.15  -0.05    -0.01  -0.02  -0.00
  48   7    -0.16  -0.00  -0.11     0.02   0.14  -0.01    -0.00   0.05   0.00
  49   5    -0.10  -0.00   0.11     0.06  -0.16   0.06     0.00  -0.02   0.01
  50   7     0.12   0.00   0.16    -0.01   0.14   0.02    -0.01  -0.02   0.01
  51   7    -0.08   0.04  -0.08     0.00  -0.03  -0.02     0.08   0.14  -0.08
  52   5    -0.09   0.02   0.07    -0.04  -0.12   0.05    -0.16  -0.12   0.09
  53   7     0.04   0.05   0.05     0.14   0.07  -0.06     0.05   0.05  -0.06
  54   5     0.07   0.03   0.04    -0.10  -0.07   0.15    -0.09  -0.07   0.08
  55   7     0.06  -0.06   0.08     0.02   0.04  -0.03     0.06   0.05  -0.07
  56   5     0.04  -0.04  -0.07    -0.01  -0.00  -0.02    -0.10  -0.14   0.17
  57   5     0.13   0.10   0.03     0.11  -0.13   0.09     0.04  -0.09   0.03
  58   7    -0.04   0.12   0.12    -0.11   0.08  -0.07    -0.10   0.03  -0.04
  59   5    -0.11  -0.01   0.12     0.17  -0.11   0.17    -0.03  -0.00   0.05
  60   7    -0.12  -0.12   0.03    -0.07   0.08  -0.11     0.04  -0.02   0.09
  61   5    -0.04  -0.09  -0.13     0.09  -0.14   0.11    -0.04   0.10  -0.07
  62   7     0.14  -0.01  -0.13    -0.06   0.06  -0.06     0.02  -0.02  -0.01
  63   7    -0.04  -0.01   0.04     0.06   0.03   0.06     0.07   0.01  -0.04
  64   5    -0.06  -0.02   0.02    -0.05  -0.02  -0.04     0.07   0.05   0.04
  65   7     0.03  -0.01   0.07    -0.08   0.02  -0.01    -0.01  -0.07  -0.02
  66   5     0.02  -0.01  -0.02     0.06   0.09   0.06     0.01  -0.01  -0.01
  67   7    -0.06   0.00  -0.02    -0.01   0.02  -0.08     0.03   0.09   0.03
  68   5    -0.02   0.02   0.07    -0.04  -0.02  -0.04    -0.05  -0.06  -0.09
  69   7     0.00   0.04   0.09    -0.11   0.00  -0.00     0.11  -0.01   0.02
  70   5    -0.03  -0.01   0.10     0.08  -0.03  -0.03    -0.15   0.05   0.05
  71   7    -0.00  -0.07  -0.02    -0.04  -0.01   0.01     0.15   0.01  -0.01
  72   5     0.03   0.07   0.02     0.08   0.03   0.03    -0.14  -0.05  -0.05
                    106                    107                    108
                        a                      a                      a 
 Frequencies --   710.4372               734.1599               734.1600
 Red. masses --    12.1210                13.1204                13.1204
 Frc consts  --     0.0000                 0.0000                 0.0000
 IR Inten    --  1024.7653                 0.0000                 0.0000
 Raman Activ --     0.0000                 0.0000                 0.0000
 Depolar     --     0.0000                 0.0000                 0.0000
 Atom AN      X      Y      Z        X      Y      Z        X      Y      Z
   1   5     0.04  -0.11  -0.04     0.00   0.05  -0.00     0.03   0.00   0.03
   2   7    -0.01   0.07  -0.01    -0.08   0.19  -0.08     0.01   0.00  -0.01
   3   5    -0.04  -0.11   0.04    -0.00   0.05   0.00    -0.03  -0.00  -0.03
   4   7     0.01   0.13   0.00     0.08   0.19   0.08    -0.01   0.00   0.01
   5   7     0.12   0.00   0.00    -0.09  -0.05  -0.03     0.16   0.06   0.07
   6   5    -0.09  -0.04   0.03    -0.03  -0.02  -0.02     0.05  -0.01  -0.01
   7   7     0.05  -0.01  -0.01    -0.09   0.05   0.03     0.16  -0.06  -0.07
   8   5    -0.09   0.03  -0.04    -0.03   0.02   0.02     0.05   0.01   0.01
   9   5    -0.14  -0.10  -0.15     0.02  -0.04   0.02    -0.09   0.00   0.09
  10   7     0.07   0.07   0.09     0.13  -0.08   0.05    -0.02   0.11   0.08
  11   5    -0.10  -0.13  -0.14     0.02  -0.09   0.07    -0.04  -0.03   0.06
  12   7     0.07   0.10   0.08    -0.05  -0.09  -0.05    -0.12   0.00   0.12
  13   5    -0.15  -0.16  -0.10     0.07  -0.09   0.02    -0.06   0.03   0.04
  14   7     0.11   0.08   0.08     0.05  -0.08   0.13    -0.08  -0.11   0.02
  15   7    -0.01  -0.01   0.09     0.03   0.05  -0.09     0.07   0.06  -0.16
  16   5     0.04  -0.05  -0.13    -0.02  -0.02  -0.03     0.01   0.01  -0.05
  17   7     0.01   0.01   0.14    -0.03  -0.05  -0.09    -0.07  -0.06  -0.16
  18   5    -0.05   0.04  -0.12     0.02   0.02  -0.03    -0.01  -0.01  -0.05
  19   5     0.03   0.03  -0.01    -0.03  -0.06   0.03    -0.09   0.00  -0.09
  20   7     0.03   0.10   0.00    -0.00  -0.12  -0.06     0.00  -0.00  -0.11
  21   5    -0.07  -0.07   0.11     0.10  -0.07  -0.03    -0.02   0.07  -0.05
  22   7     0.10   0.03  -0.01     0.06   0.00  -0.06    -0.11   0.00  -0.11
  23   5     0.02   0.02  -0.01     0.03  -0.07  -0.10    -0.05  -0.07  -0.02
  24   7    -0.04  -0.03   0.01     0.06  -0.12   0.00    -0.11   0.00   0.00
  25   7     0.00  -0.02   0.11     0.03  -0.05   0.09     0.07  -0.06   0.16
  26   5    -0.05  -0.05  -0.13    -0.02   0.02   0.03     0.01  -0.01   0.05
  27   7    -0.02   0.00   0.12    -0.03   0.05   0.09    -0.07   0.06   0.16
  28   5     0.04   0.04  -0.12     0.02  -0.02   0.03    -0.01   0.01   0.05
  29   7     0.11  -0.02   0.04     0.06   0.12  -0.00    -0.11  -0.00  -0.00
  30   5    -0.07   0.12  -0.07    -0.03   0.06  -0.03    -0.09   0.00   0.09
  31   7     0.03  -0.00   0.10    -0.00   0.12   0.06     0.00   0.00   0.11
  32   5     0.02  -0.01   0.02     0.10   0.07   0.03    -0.02  -0.07   0.05
  33   7    -0.03   0.00  -0.02     0.06  -0.00   0.06    -0.11   0.00   0.11
  34   5     0.00   0.00   0.01     0.03   0.07   0.10    -0.05   0.07   0.02
  35   5    -0.00   0.01   0.01    -0.10  -0.07   0.03     0.02   0.07   0.05
  36   7    -0.01   0.04   0.11    -0.06   0.00   0.06     0.11  -0.00   0.11
  37   5     0.12  -0.08  -0.07    -0.03  -0.07   0.10     0.05  -0.07   0.02
  38   7    -0.03   0.11   0.04    -0.06  -0.12  -0.00     0.11   0.00  -0.00
  39   5     0.01  -0.00   0.01     0.03  -0.06  -0.03     0.09  -0.00   0.09
  40   7    -0.00  -0.02  -0.01     0.00  -0.12   0.06    -0.00  -0.00   0.11
  41   7    -0.01   0.02  -0.01     0.13   0.08  -0.05    -0.02  -0.11  -0.08
  42   5     0.01   0.02   0.01     0.02   0.09  -0.07    -0.04   0.03  -0.06
  43   7    -0.01  -0.00   0.03    -0.05   0.09   0.05    -0.12   0.00  -0.12
  44   5     0.08  -0.14  -0.06     0.07   0.09  -0.02    -0.06  -0.03  -0.04
  45   7    -0.14   0.06   0.07     0.05   0.08  -0.13    -0.08   0.11  -0.02
  46   5     0.06  -0.06  -0.13     0.02   0.04  -0.02    -0.09   0.00  -0.09
  47   5    -0.04  -0.12  -0.04     0.00  -0.05   0.00     0.03  -0.00  -0.03
  48   7     0.00   0.09  -0.02    -0.08  -0.19   0.08     0.01  -0.00   0.01
  49   5     0.04  -0.10   0.04    -0.00  -0.05  -0.00    -0.03   0.00   0.03
  50   7    -0.01   0.10   0.00     0.08  -0.19  -0.08    -0.01  -0.00  -0.01
  51   7     0.01  -0.04   0.01     0.05   0.09  -0.05     0.12  -0.00   0.12
  52   5     0.05   0.05  -0.01    -0.07   0.09   0.02     0.06  -0.03   0.04
  53   7    -0.03   0.01   0.01    -0.05   0.08   0.13     0.08   0.11   0.02
  54   5    -0.12  -0.04   0.05    -0.02   0.04   0.02     0.09  -0.00   0.09
  55   7     0.05   0.05  -0.13    -0.13   0.08   0.05     0.02  -0.11   0.08
  56   5    -0.04  -0.11   0.03    -0.02   0.09   0.07     0.04   0.03   0.06
  57   5    -0.13   0.07  -0.06    -0.07  -0.09  -0.02     0.06   0.03  -0.04
  58   7    -0.01  -0.00   0.02    -0.05  -0.08  -0.13     0.08  -0.11  -0.02
  59   5     0.04  -0.00   0.03    -0.02  -0.04  -0.02     0.09  -0.00  -0.09
  60   7     0.01   0.00  -0.03    -0.13  -0.08  -0.05     0.02   0.11  -0.08
  61   5    -0.05   0.04  -0.12    -0.02  -0.09  -0.07     0.04  -0.03  -0.06
  62   7     0.06  -0.14   0.06     0.05  -0.09   0.05     0.12  -0.00  -0.12
  63   7     0.08   0.06   0.10    -0.06  -0.00  -0.06     0.11  -0.00  -0.11
  64   5    -0.10  -0.06  -0.06    -0.03   0.07  -0.10     0.05   0.07  -0.02
  65   7     0.09   0.10   0.07    -0.06   0.12   0.00     0.11  -0.00   0.00
  66   5    -0.05  -0.09  -0.05     0.03   0.06   0.03     0.09  -0.00  -0.09
  67   7     0.06   0.08   0.09     0.00   0.12  -0.06    -0.00   0.00  -0.11
  68   5    -0.05  -0.04  -0.08    -0.10   0.07  -0.03     0.02  -0.07  -0.05
  69   7     0.09  -0.01   0.00     0.09  -0.05   0.03    -0.16   0.06  -0.07
  70   5    -0.08   0.03   0.03     0.03  -0.02   0.02    -0.05  -0.01   0.01
  71   7     0.08   0.00  -0.01     0.09   0.05  -0.03    -0.16  -0.06   0.07
  72   5    -0.10  -0.03  -0.03     0.03   0.02  -0.02    -0.05   0.01  -0.01
                    109                    110                    111
                        a                      a                      a 
 Frequencies --   754.9711               778.4774               781.2759
 Red. masses --    12.1738                12.5814                12.7581
 Frc consts  --     0.0000                 0.0000                 0.0000
 IR Inten    --     0.0000                 0.0000                 0.0000
 Raman Activ --     0.0000                 0.0000                 0.0000
 Depolar     --     0.0000                 0.0000                 0.0000
 Atom AN      X      Y      Z        X      Y      Z        X      Y      Z
   1   5    -0.05   0.09   0.05     0.07   0.08  -0.07    -0.07  -0.00  -0.07
   2   7     0.03  -0.09   0.03    -0.09  -0.09  -0.09     0.10  -0.00  -0.10
   3   5     0.05   0.09  -0.05    -0.07   0.08   0.07     0.07   0.00   0.07
   4   7    -0.03  -0.09  -0.03     0.09  -0.09   0.09    -0.10   0.00   0.10
   5   7    -0.09  -0.03  -0.03    -0.09   0.09   0.09     0.00   0.10  -0.10
   6   5     0.09   0.05  -0.05     0.08  -0.07   0.07    -0.00  -0.07  -0.07
   7   7    -0.09   0.03   0.03    -0.09  -0.09  -0.09     0.00  -0.10   0.10
   8   5     0.09  -0.05   0.05     0.08   0.07  -0.07     0.00   0.07   0.07
   9   5     0.07   0.06   0.07     0.07  -0.07   0.07     0.08  -0.00  -0.08
  10   7    -0.09  -0.09   0.02     0.02   0.02  -0.07     0.09  -0.09   0.00
  11   5     0.06   0.07   0.07    -0.07   0.07   0.07    -0.00  -0.08   0.08
  12   7    -0.09   0.02  -0.09     0.02  -0.07   0.02    -0.09   0.00   0.09
  13   5     0.07   0.07   0.06     0.07   0.07  -0.07    -0.08   0.08   0.00
  14   7     0.02  -0.09  -0.09    -0.07   0.02   0.02    -0.00   0.09  -0.09
  15   7     0.03   0.03  -0.09    -0.09  -0.09  -0.09    -0.10   0.10  -0.00
  16   5    -0.05   0.05   0.09     0.07  -0.07   0.08     0.07   0.07   0.00
  17   7    -0.03  -0.03  -0.09     0.09   0.09  -0.09     0.10  -0.10  -0.00
  18   5     0.05  -0.05   0.09    -0.07   0.07   0.08    -0.07  -0.07   0.00
  19   5     0.10  -0.01  -0.10    -0.03   0.06   0.03     0.07  -0.00   0.07
  20   7    -0.06  -0.05   0.05     0.10  -0.06   0.06     0.00   0.09   0.09
  21   5     0.10   0.10   0.01    -0.03  -0.03  -0.06    -0.07   0.07  -0.00
  22   7    -0.05  -0.06   0.05    -0.06   0.10   0.06    -0.09  -0.00  -0.09
  23   5    -0.01   0.10  -0.10     0.06  -0.03   0.03    -0.00  -0.07  -0.07
  24   7    -0.05  -0.05   0.06    -0.06  -0.06  -0.10     0.09  -0.09  -0.00
  25   7     0.03  -0.03   0.09    -0.09   0.09   0.09    -0.10  -0.10   0.00
  26   5    -0.05  -0.05  -0.09     0.07   0.07  -0.08     0.07  -0.07  -0.00
  27   7    -0.03   0.03   0.09     0.09  -0.09   0.09     0.10   0.10   0.00
  28   5     0.05   0.05  -0.09    -0.07  -0.07  -0.08    -0.07   0.07   0.00
  29   7    -0.05   0.05  -0.06    -0.06   0.06   0.10     0.09   0.09  -0.00
  30   5     0.10   0.01   0.10    -0.03  -0.06  -0.03     0.07  -0.00  -0.07
  31   7    -0.06   0.05  -0.05     0.10   0.06  -0.06    -0.00  -0.09  -0.09
  32   5     0.10  -0.10  -0.01    -0.03   0.03   0.06    -0.07  -0.07   0.00
  33   7    -0.05   0.06  -0.05    -0.06  -0.10  -0.06    -0.09   0.00   0.09
  34   5    -0.01  -0.10   0.10     0.06   0.03  -0.03     0.00   0.07   0.07
  35   5    -0.10   0.10  -0.01     0.03  -0.03   0.06     0.07   0.07  -0.00
  36   7     0.05  -0.06  -0.05     0.06   0.10  -0.06     0.09   0.00   0.09
  37   5     0.01   0.10   0.10    -0.06  -0.03  -0.03     0.00  -0.07   0.07
  38   7     0.05  -0.05  -0.06     0.06  -0.06   0.10    -0.09  -0.09  -0.00
  39   5    -0.10  -0.01   0.10     0.03   0.06  -0.03    -0.07   0.00  -0.07
  40   7     0.06  -0.05  -0.05    -0.10  -0.06  -0.06     0.00   0.09  -0.09
  41   7    -0.09   0.09  -0.02     0.02  -0.02   0.07     0.09   0.09  -0.00
  42   5     0.06  -0.07  -0.07    -0.07  -0.07  -0.07    -0.00   0.08  -0.08
  43   7    -0.09  -0.02   0.09     0.02   0.07  -0.02    -0.09   0.00  -0.09
  44   5     0.07  -0.07  -0.06     0.07  -0.07   0.07    -0.08  -0.08   0.00
  45   7     0.02   0.09   0.09    -0.07  -0.02  -0.02    -0.00  -0.09   0.09
  46   5     0.07  -0.06  -0.07     0.07   0.07  -0.07     0.08  -0.00   0.08
  47   5    -0.05  -0.09  -0.05     0.07  -0.08   0.07    -0.07   0.00   0.07
  48   7     0.03   0.09  -0.03    -0.09   0.09   0.09     0.10  -0.00   0.10
  49   5     0.05  -0.09   0.05    -0.07  -0.08  -0.07     0.07  -0.00  -0.07
  50   7    -0.03   0.09   0.03     0.09   0.09  -0.09    -0.10   0.00  -0.10
  51   7     0.09  -0.02  -0.09    -0.02   0.07   0.02     0.09  -0.00   0.09
  52   5    -0.07  -0.07   0.06    -0.07  -0.07  -0.07     0.08  -0.08   0.00
  53   7    -0.02   0.09  -0.09     0.07  -0.02   0.02    -0.00  -0.09  -0.09
  54   5    -0.07  -0.06   0.07    -0.07   0.07   0.07    -0.08   0.00  -0.08
  55   7     0.09   0.09   0.02    -0.02  -0.02  -0.07    -0.09   0.09   0.00
  56   5    -0.06  -0.07   0.07     0.07  -0.07   0.07     0.00   0.08   0.08
  57   5    -0.07   0.07  -0.06    -0.07   0.07   0.07     0.08   0.08  -0.00
  58   7    -0.02  -0.09   0.09     0.07   0.02  -0.02     0.00   0.09   0.09
  59   5    -0.07   0.06  -0.07    -0.07  -0.07  -0.07    -0.08   0.00   0.08
  60   7     0.09  -0.09  -0.02    -0.02   0.02   0.07    -0.09  -0.09   0.00
  61   5    -0.06   0.07  -0.07     0.07   0.07  -0.07    -0.00  -0.08  -0.08
  62   7     0.09   0.02   0.09    -0.02  -0.07  -0.02     0.09  -0.00  -0.09
  63   7     0.05   0.06   0.05     0.06  -0.10   0.06     0.09  -0.00  -0.09
  64   5     0.01  -0.10  -0.10    -0.06   0.03   0.03     0.00   0.07  -0.07
  65   7     0.05   0.05   0.06     0.06   0.06  -0.10    -0.09   0.09   0.00
  66   5    -0.10   0.01  -0.10     0.03  -0.06   0.03    -0.07   0.00   0.07
  67   7     0.06   0.05   0.05    -0.10   0.06   0.06    -0.00  -0.09   0.09
  68   5    -0.10  -0.10   0.01     0.03   0.03  -0.06     0.07  -0.07  -0.00
  69   7     0.09  -0.03   0.03     0.09   0.09  -0.09     0.00   0.10   0.10
  70   5    -0.09   0.05   0.05    -0.08  -0.07  -0.07    -0.00  -0.07   0.07
  71   7     0.09   0.03  -0.03     0.09  -0.09   0.09    -0.00  -0.10  -0.10
  72   5    -0.09  -0.05  -0.05    -0.08   0.07   0.07     0.00   0.07  -0.07
                    112                    113                    114
                        a                      a                      a 
 Frequencies --   794.1031               794.1032               794.1033
 Red. masses --    12.8121                12.8121                12.8121
 Frc consts  --     0.0000                 0.0000                 0.0000
 IR Inten    --     0.0000                 0.0000                 0.0000
 Raman Activ --     0.0000                 0.0000                 0.0000
 Depolar     --     0.0000                 0.0000                 0.0000
 Atom AN      X      Y      Z        X      Y      Z        X      Y      Z
   1   5     0.05  -0.10  -0.01    -0.01  -0.01  -0.01     0.01   0.07   0.05
   2   7    -0.11   0.05   0.11     0.01  -0.08  -0.00     0.09   0.07  -0.09
   3   5     0.04   0.10  -0.02    -0.04   0.01  -0.04    -0.01  -0.07   0.03
   4   7    -0.13  -0.05   0.13    -0.02   0.08   0.02     0.07  -0.07  -0.07
   5   7     0.10   0.05  -0.05     0.02  -0.13   0.13     0.05  -0.04   0.05
   6   5    -0.05  -0.05  -0.02     0.10   0.01  -0.05     0.05   0.02  -0.01
   7   7    -0.10   0.06  -0.06    -0.02  -0.11   0.11    -0.05  -0.07   0.08
   8   5     0.05  -0.04  -0.01    -0.10   0.03  -0.03    -0.05  -0.02  -0.05
   9   5    -0.10   0.01   0.10    -0.07  -0.01   0.07    -0.01   0.01   0.01
  10   7    -0.06   0.09   0.06     0.06   0.01   0.12    -0.05   0.04  -0.02
  11   5    -0.01   0.01  -0.01    -0.00  -0.12   0.12    -0.01   0.04  -0.04
  12   7    -0.05   0.06   0.08    -0.09  -0.09   0.03     0.00   0.08   0.04
  13   5    -0.09   0.09   0.01     0.03  -0.03   0.01    -0.08   0.08  -0.00
  14   7    -0.12  -0.04  -0.03    -0.03  -0.09   0.07    -0.06   0.03  -0.06
  15   7     0.01  -0.01   0.05    -0.03   0.03   0.10    -0.14   0.14  -0.02
  16   5     0.04   0.03  -0.01     0.03   0.02  -0.02     0.03  -0.04  -0.12
  17   7    -0.03   0.02  -0.05    -0.01   0.01  -0.10    -0.14   0.14   0.02
  18   5    -0.00  -0.00   0.01     0.05   0.04   0.02     0.03  -0.04   0.12
  19   5    -0.05  -0.06   0.02    -0.13  -0.00  -0.12    -0.01   0.04  -0.06
  20   7     0.02  -0.16  -0.11    -0.04  -0.03  -0.13    -0.02   0.06   0.01
  21   5     0.12  -0.08  -0.03    -0.02   0.10  -0.06    -0.06   0.05   0.01
  22   7     0.07  -0.04  -0.04    -0.16  -0.00  -0.16    -0.03   0.03   0.04
  23   5     0.03  -0.07  -0.10    -0.06  -0.11  -0.04    -0.03   0.05   0.09
  24   7     0.06  -0.11  -0.02    -0.12   0.01  -0.04    -0.11   0.13   0.01
  25   7     0.05   0.05   0.01     0.14   0.14   0.02    -0.02  -0.02   0.11
  26   5    -0.04   0.00  -0.05    -0.03  -0.04  -0.11    -0.03   0.04   0.02
  27   7     0.08   0.08  -0.01     0.12   0.12  -0.02    -0.02  -0.02  -0.11
  28   5     0.00  -0.03   0.05    -0.05  -0.02   0.11    -0.03   0.04  -0.02
  29   7    -0.04  -0.04  -0.00     0.16   0.15  -0.01     0.04  -0.08  -0.05
  30   5     0.01  -0.03   0.02     0.05   0.05  -0.11     0.13  -0.04  -0.08
  31   7    -0.02  -0.10  -0.06     0.04   0.08  -0.02     0.02  -0.11  -0.16
  32   5    -0.08  -0.08  -0.00     0.10   0.11  -0.01    -0.05   0.03  -0.07
  33   7    -0.09  -0.02   0.04     0.11   0.03  -0.03     0.09  -0.03  -0.17
  34   5    -0.03  -0.00  -0.03     0.06   0.02   0.08     0.03  -0.14  -0.10
  35   5     0.13   0.13   0.00    -0.01   0.00   0.01    -0.05   0.03   0.07
  36   7     0.14   0.04   0.04    -0.00   0.00  -0.01     0.10  -0.03   0.17
  37   5     0.06   0.02  -0.09     0.01   0.01  -0.02     0.03  -0.14   0.10
  38   7     0.15   0.14   0.00     0.07   0.05   0.01     0.04  -0.08   0.05
  39   5     0.03   0.06   0.10     0.04   0.00   0.05     0.13  -0.04   0.08
  40   7     0.04   0.13  -0.02     0.01  -0.03   0.06     0.02  -0.11   0.16
  41   7     0.09   0.09   0.01     0.00   0.01   0.02    -0.04   0.03   0.13
  42   5     0.01   0.05  -0.06     0.00  -0.02   0.02     0.01  -0.11   0.11
  43   7     0.02   0.11   0.08     0.02   0.01   0.03     0.10  -0.08   0.05
  44   5     0.12   0.12   0.00     0.03   0.03   0.00    -0.01  -0.01   0.02
  45   7     0.12   0.01  -0.07     0.03  -0.01  -0.01     0.06  -0.10   0.07
  46   5     0.07   0.01   0.07     0.01   0.00   0.01     0.10  -0.01   0.10
  47   5    -0.05  -0.05   0.02     0.01   0.08   0.04    -0.01  -0.07  -0.03
  48   7     0.06   0.09   0.06    -0.11   0.01  -0.11     0.07  -0.06   0.07
  49   5    -0.04   0.05   0.01     0.04  -0.08   0.01     0.01   0.07  -0.05
  50   7     0.07  -0.09   0.07    -0.09  -0.01  -0.09     0.09   0.06   0.10
  51   7    -0.04  -0.11   0.02    -0.09  -0.01  -0.09     0.00   0.08  -0.04
  52   5     0.08  -0.08  -0.01    -0.05   0.05  -0.01    -0.08   0.08   0.00
  53   7     0.05  -0.05  -0.08    -0.11  -0.08  -0.02    -0.06   0.03   0.06
  54   5     0.00  -0.01   0.01    -0.12  -0.00  -0.12    -0.00   0.01  -0.01
  55   7     0.08  -0.05  -0.06    -0.01   0.08  -0.12    -0.05   0.04   0.02
  56   5     0.01  -0.10  -0.10    -0.01  -0.06  -0.06    -0.01   0.04   0.04
  57   5    -0.04  -0.04  -0.00     0.11   0.11  -0.00    -0.01  -0.01  -0.02
  58   7    -0.05  -0.01  -0.04     0.11  -0.00   0.06     0.06  -0.10  -0.07
  59   5    -0.04  -0.01   0.04     0.06   0.01  -0.06     0.10  -0.01  -0.10
  60   7    -0.05  -0.05  -0.01     0.07   0.08  -0.02    -0.05   0.03  -0.13
  61   5    -0.01  -0.05  -0.05     0.01   0.03   0.03     0.01  -0.11  -0.11
  62   7     0.01  -0.06   0.03     0.03   0.09  -0.08     0.10  -0.08  -0.05
  63   7    -0.17   0.02   0.11    -0.04  -0.03   0.13    -0.03   0.03  -0.04
  64   5    -0.06  -0.05  -0.03    -0.01  -0.12   0.10    -0.03   0.05  -0.09
  65   7    -0.13   0.07   0.02    -0.03  -0.09   0.04    -0.11   0.13  -0.01
  66   5    -0.07   0.03   0.11    -0.12  -0.05   0.06    -0.01   0.04   0.06
  67   7    -0.04   0.07   0.04    -0.01  -0.14   0.17    -0.02   0.06  -0.01
  68   5    -0.09   0.13   0.03     0.08  -0.01   0.06    -0.06   0.05  -0.01
  69   7     0.04  -0.12  -0.12    -0.09  -0.02  -0.02    -0.05  -0.08  -0.08
  70   5    -0.11   0.05   0.01    -0.02  -0.01   0.03    -0.05  -0.02   0.05
  71   7    -0.04  -0.13  -0.13     0.09  -0.04  -0.04     0.05  -0.05  -0.05
  72   5     0.11   0.04   0.02     0.02  -0.03   0.05     0.05   0.02   0.01
                    115                    116                    117
                        a                      a                      a 
 Frequencies --   848.5001               858.2839               858.2840
 Red. masses --    12.8552                12.9891                12.9891
 Frc consts  --     0.0000                 0.0000                 0.0000
 IR Inten    --     0.0000                40.9379                40.9377
 Raman Activ --     0.0000                 0.0000                 0.0000
 Depolar     --     0.0000                 0.0000                 0.0000
 Atom AN      X      Y      Z        X      Y      Z        X      Y      Z
   1   5    -0.04  -0.02   0.04     0.02   0.05   0.04    -0.03   0.04   0.04
   2   7     0.05   0.02   0.05     0.06   0.09  -0.05    -0.14   0.13  -0.04
   3   5     0.04  -0.02  -0.04     0.04  -0.01   0.02     0.04   0.10  -0.03
   4   7    -0.05   0.02  -0.05     0.11  -0.03   0.00     0.05   0.11   0.14
   5   7     0.02  -0.05  -0.05     0.12   0.12   0.11    -0.11   0.03  -0.02
   6   5    -0.02   0.04  -0.04     0.07   0.05  -0.03    -0.04   0.03   0.05
   7   7     0.02   0.05   0.05     0.16  -0.09  -0.10     0.03   0.09   0.04
   8   5    -0.02  -0.04   0.04     0.08  -0.03   0.05    -0.01   0.05   0.03
   9   5     0.02   0.07   0.02    -0.02  -0.05   0.00     0.06  -0.08   0.05
  10   7     0.04   0.04  -0.20    -0.08   0.08   0.05     0.11  -0.14   0.07
  11   5     0.07   0.02   0.02    -0.09   0.06   0.06    -0.01  -0.05  -0.04
  12   7     0.04  -0.20   0.04    -0.10   0.06   0.08     0.05   0.12  -0.11
  13   5     0.02   0.02   0.07    -0.03  -0.01  -0.04     0.03   0.00  -0.05
  14   7    -0.20   0.04   0.04     0.14  -0.05  -0.03    -0.01  -0.03   0.06
  15   7     0.05   0.05   0.02     0.07  -0.03   0.09    -0.11   0.04   0.10
  16   5    -0.04   0.04  -0.02     0.03   0.04   0.04     0.00   0.04  -0.00
  17   7    -0.05  -0.05   0.02     0.10  -0.00  -0.05    -0.01   0.14   0.03
  18   5     0.04  -0.04  -0.02     0.04   0.03  -0.02     0.04  -0.00   0.08
  19   5    -0.03   0.14   0.03    -0.10   0.02  -0.09    -0.04   0.09   0.01
  20   7    -0.08  -0.01   0.01    -0.07   0.08  -0.09     0.02  -0.06   0.02
  21   5    -0.03  -0.03  -0.14    -0.06   0.07   0.02     0.11  -0.08   0.05
  22   7    -0.01  -0.08   0.01    -0.02  -0.01  -0.01     0.10  -0.06  -0.11
  23   5     0.14  -0.03   0.03     0.09  -0.06  -0.00    -0.03  -0.10  -0.12
  24   7    -0.01  -0.01   0.08    -0.07  -0.04  -0.01    -0.04  -0.08  -0.03
  25   7     0.05  -0.05  -0.02     0.11   0.04  -0.02     0.06   0.02   0.13
  26   5    -0.04  -0.04   0.02     0.03  -0.02  -0.03    -0.02   0.05   0.01
  27   7    -0.05   0.05  -0.02     0.08   0.07   0.06    -0.04   0.12   0.00
  28   5     0.04   0.04   0.02     0.02  -0.03   0.05    -0.05   0.02   0.06
  29   7    -0.01   0.01  -0.08    -0.03  -0.00  -0.01     0.07  -0.09  -0.04
  30   5    -0.03  -0.14  -0.03    -0.06   0.03   0.08     0.09   0.09  -0.03
  31   7    -0.08   0.01  -0.01    -0.07  -0.10   0.09     0.02  -0.01  -0.03
  32   5    -0.03   0.03   0.14    -0.11  -0.10   0.01    -0.07  -0.03   0.05
  33   7    -0.01   0.08  -0.01    -0.07  -0.02  -0.05    -0.07  -0.06  -0.10
  34   5     0.14   0.03  -0.03     0.10  -0.00  -0.06    -0.02  -0.12  -0.10
  35   5     0.03  -0.03   0.14    -0.10  -0.11   0.02    -0.04  -0.06   0.04
  36   7     0.01  -0.08  -0.01    -0.07  -0.02   0.03    -0.06  -0.06   0.05
  37   5    -0.14  -0.03  -0.03     0.10   0.02   0.04    -0.02  -0.04   0.03
  38   7     0.01  -0.01  -0.08    -0.06   0.02  -0.01    -0.01  -0.01  -0.03
  39   5     0.03   0.14  -0.03    -0.09   0.03  -0.10     0.01   0.08  -0.04
  40   7     0.08  -0.01  -0.01    -0.07  -0.10  -0.10     0.02  -0.03  -0.01
  41   7     0.04  -0.04   0.20    -0.13  -0.14   0.00    -0.05  -0.08   0.09
  42   5     0.07  -0.02  -0.02    -0.08  -0.08  -0.07     0.06  -0.02  -0.01
  43   7     0.04   0.20  -0.04    -0.11   0.01  -0.13     0.01   0.13  -0.05
  44   5     0.02  -0.02  -0.07    -0.04   0.01   0.01    -0.01  -0.00  -0.07
  45   7    -0.20  -0.04  -0.04     0.12   0.03   0.05    -0.07  -0.06   0.04
  46   5     0.02  -0.07  -0.02    -0.05  -0.00   0.02    -0.05  -0.09   0.04
  47   5    -0.04   0.02  -0.04     0.04  -0.02  -0.02     0.01   0.06   0.06
  48   7     0.05  -0.02  -0.05     0.12  -0.01   0.02     0.08   0.16  -0.06
  49   5     0.04   0.02   0.04     0.02   0.06  -0.04    -0.06   0.08  -0.01
  50   7    -0.05  -0.02   0.05     0.07   0.08   0.08    -0.10   0.08   0.12
  51   7    -0.04   0.20   0.04    -0.13   0.05  -0.11    -0.05   0.10   0.02
  52   5    -0.02  -0.02   0.07    -0.05  -0.03   0.02    -0.03  -0.06  -0.02
  53   7     0.20  -0.04   0.04     0.13  -0.08  -0.00    -0.03  -0.13  -0.15
  54   5    -0.02  -0.07   0.02    -0.02  -0.04  -0.01     0.07  -0.06  -0.08
  55   7    -0.04  -0.04  -0.20    -0.07   0.09  -0.01     0.14  -0.11   0.05
  56   5    -0.07  -0.02   0.02    -0.09   0.06  -0.07     0.01  -0.04   0.01
  57   5    -0.02   0.02  -0.07    -0.02  -0.01  -0.03     0.05  -0.06  -0.01
  58   7     0.20   0.04  -0.04     0.13  -0.00  -0.08    -0.05  -0.15  -0.13
  59   5    -0.02   0.07  -0.02    -0.05   0.01  -0.03    -0.05  -0.07  -0.07
  60   7    -0.04   0.04   0.20    -0.14  -0.13   0.04    -0.08  -0.05   0.03
  61   5    -0.07   0.02  -0.02    -0.08  -0.07   0.06     0.03  -0.01  -0.03
  62   7    -0.04  -0.20  -0.04    -0.08   0.01   0.10     0.11   0.11  -0.05
  63   7     0.01   0.08   0.01    -0.03  -0.01  -0.00     0.08  -0.06   0.06
  64   5    -0.14   0.03   0.03     0.09  -0.04  -0.02    -0.03  -0.03   0.05
  65   7     0.01   0.01   0.08    -0.04  -0.02  -0.01     0.04   0.00  -0.03
  66   5     0.03  -0.14   0.03    -0.08   0.02   0.07     0.03   0.08  -0.09
  67   7     0.08   0.01   0.01    -0.07   0.07   0.08     0.02  -0.08  -0.06
  68   5     0.03   0.03  -0.14    -0.06   0.06   0.01     0.08  -0.11   0.04
  69   7    -0.02  -0.05   0.05     0.14  -0.08   0.13    -0.02   0.13   0.04
  70   5     0.02   0.04   0.04     0.09  -0.04  -0.04     0.02   0.02  -0.00
  71   7    -0.02   0.05  -0.05     0.13   0.13  -0.08    -0.06   0.07   0.10
  72   5     0.02  -0.04  -0.04     0.07   0.04   0.04    -0.07   0.00  -0.03
                    118                    119                    120
                        a                      a                      a 
 Frequencies --   858.2841               913.1036               913.1037
 Red. masses --    12.9891                13.0948                13.0948
 Frc consts  --     0.0000                 0.0000                 0.0000
 IR Inten    --    40.9374                 0.0000                 0.0000
 Raman Activ --     0.0000                 0.0000                 0.0000
 Depolar     --     0.0000                 0.0000                 0.0000
 Atom AN      X      Y      Z        X      Y      Z        X      Y      Z
   1   5    -0.05   0.07  -0.01     0.02   0.03   0.07     0.00  -0.04  -0.05
   2   7    -0.01   0.02  -0.13     0.08   0.03  -0.06    -0.13  -0.07   0.11
   3   5    -0.01   0.00  -0.05    -0.03  -0.03   0.01    -0.03   0.04  -0.09
   4   7     0.09   0.11  -0.03     0.11  -0.03  -0.09    -0.11   0.07   0.09
   5   7     0.03   0.08  -0.10     0.13   0.02  -0.06    -0.03   0.17  -0.16
   6   5    -0.05  -0.01  -0.01    -0.01  -0.09  -0.07    -0.06  -0.02   0.06
   7   7    -0.02   0.08  -0.10    -0.13   0.01  -0.06     0.03   0.18  -0.17
   8   5     0.05  -0.01  -0.01     0.01  -0.08  -0.06     0.06  -0.03   0.06
   9   5     0.04  -0.02   0.06    -0.09   0.00   0.06     0.03  -0.01   0.02
  10   7     0.08  -0.01  -0.11    -0.09   0.15  -0.00     0.10  -0.07  -0.00
  11   5     0.01  -0.01   0.03    -0.01   0.02   0.06     0.00  -0.06   0.04
  12   7    -0.12   0.04   0.08    -0.16  -0.00   0.18    -0.04   0.00   0.00
  13   5    -0.07  -0.08   0.07    -0.08   0.03   0.01     0.01  -0.04   0.00
  14   7    -0.01  -0.15   0.15     0.00  -0.08   0.01    -0.00  -0.07   0.09
  15   7     0.08   0.14  -0.10     0.09  -0.06   0.09     0.10  -0.08   0.04
  16   5     0.05  -0.02  -0.09     0.05   0.09   0.03    -0.02   0.02   0.03
  17   7    -0.11  -0.05  -0.15     0.11  -0.07  -0.09     0.07  -0.05  -0.04
  18   5    -0.02   0.05  -0.06     0.02   0.06  -0.03     0.03   0.07  -0.03
  19   5     0.06   0.04   0.09     0.05  -0.06   0.04     0.07   0.08   0.08
  20   7     0.00  -0.04   0.05     0.02  -0.09  -0.04     0.09  -0.08   0.11
  21   5     0.01  -0.07  -0.09    -0.01  -0.00  -0.09     0.09  -0.09  -0.04
  22   7     0.02  -0.03   0.00    -0.06   0.04   0.04     0.02  -0.06  -0.11
  23   5    -0.01   0.04   0.04    -0.03   0.08   0.08    -0.12  -0.01  -0.03
  24   7     0.07   0.06   0.06     0.06   0.09   0.06    -0.01   0.08   0.03
  25   7    -0.08   0.14  -0.10    -0.13  -0.10   0.06    -0.08  -0.06   0.06
  26   5    -0.05  -0.02  -0.09    -0.02   0.08   0.04     0.01   0.02   0.02
  27   7     0.12  -0.05  -0.15    -0.14  -0.12  -0.06    -0.05  -0.03  -0.06
  28   5     0.02   0.05  -0.06     0.01   0.05  -0.04    -0.04   0.07  -0.02
  29   7    -0.07   0.06   0.06    -0.02   0.08   0.04     0.00   0.09   0.04
  30   5    -0.06   0.04   0.09    -0.03  -0.03   0.03    -0.08   0.07   0.09
  31   7    -0.01  -0.04   0.06    -0.02  -0.08  -0.03    -0.09  -0.09   0.11
  32   5    -0.01  -0.07  -0.09    -0.01  -0.02  -0.06    -0.08  -0.09  -0.05
  33   7    -0.02  -0.03   0.00     0.02   0.02   0.03    -0.00  -0.05  -0.11
  34   5     0.01   0.04   0.03     0.03   0.06   0.05     0.12   0.00  -0.02
  35   5    -0.07  -0.01  -0.09    -0.08  -0.09   0.06     0.04   0.03   0.05
  36   7    -0.06  -0.04   0.09    -0.01  -0.04   0.09     0.05   0.06  -0.08
  37   5    -0.00  -0.12   0.12     0.11   0.01   0.01    -0.03   0.07  -0.07
  38   7     0.09  -0.10   0.07     0.01   0.10  -0.04    -0.05   0.04  -0.04
  39   5     0.09   0.05   0.06    -0.07   0.06  -0.08    -0.01  -0.08   0.01
  40   7     0.00  -0.01   0.03    -0.09  -0.11  -0.09     0.02  -0.04   0.08
  41   7    -0.09  -0.02  -0.11     0.12   0.16  -0.00    -0.11  -0.08  -0.00
  42   5    -0.01  -0.01   0.03     0.01   0.04   0.04    -0.00  -0.06   0.05
  43   7     0.12   0.04   0.08     0.12  -0.00   0.16     0.06   0.00   0.00
  44   5     0.07  -0.08   0.07     0.09   0.05   0.01    -0.01  -0.05   0.01
  45   7     0.01  -0.15   0.15    -0.00  -0.03  -0.04     0.00  -0.09   0.10
  46   5    -0.04  -0.02   0.06     0.08   0.01   0.04    -0.02  -0.01   0.03
  47   5     0.05   0.07  -0.01    -0.05   0.02   0.07     0.01  -0.03  -0.06
  48   7     0.02   0.02  -0.13    -0.04   0.07  -0.02     0.12  -0.08   0.09
  49   5     0.01   0.01  -0.05     0.00  -0.02   0.02     0.04   0.03  -0.09
  50   7    -0.08   0.12  -0.03    -0.07  -0.07  -0.05     0.10   0.08   0.07
  51   7     0.08   0.08   0.11    -0.12   0.00  -0.08    -0.10  -0.00  -0.15
  52   5     0.06   0.05   0.09    -0.02  -0.03  -0.01    -0.09   0.06  -0.00
  53   7     0.03   0.05   0.05     0.00  -0.12  -0.10     0.00  -0.01   0.07
  54   5     0.02  -0.06  -0.00    -0.02  -0.01  -0.06    -0.09   0.01  -0.03
  55   7     0.02  -0.08  -0.13     0.06  -0.01   0.00    -0.15   0.17   0.00
  56   5    -0.03  -0.02   0.04    -0.00  -0.05  -0.07    -0.01   0.06  -0.02
  57   5    -0.06   0.05   0.09     0.03  -0.01  -0.01     0.08   0.05  -0.01
  58   7    -0.03   0.05   0.05    -0.00  -0.07  -0.05    -0.00  -0.03   0.05
  59   5    -0.02  -0.06  -0.00     0.01  -0.00  -0.03     0.09   0.01  -0.04
  60   7    -0.02  -0.09  -0.13    -0.03   0.01   0.00     0.14   0.17   0.00
  61   5     0.03  -0.03   0.04     0.00  -0.03  -0.05     0.01   0.05  -0.03
  62   7    -0.08   0.08   0.12     0.09   0.00  -0.07     0.11  -0.00  -0.16
  63   7     0.06  -0.04   0.09    -0.03  -0.02   0.08    -0.03   0.05  -0.08
  64   5     0.00  -0.12   0.11    -0.11   0.04  -0.02     0.03   0.06  -0.06
  65   7    -0.09  -0.11   0.07     0.03   0.11  -0.06     0.03   0.04  -0.03
  66   5    -0.09   0.05   0.06     0.09   0.03  -0.10     0.00  -0.07   0.01
  67   7    -0.00  -0.00   0.04     0.09  -0.11  -0.08    -0.02  -0.04   0.08
  68   5     0.07  -0.01  -0.09     0.06  -0.08   0.09    -0.04   0.03   0.04
  69   7     0.08   0.01  -0.06    -0.03   0.16   0.17    -0.13  -0.06  -0.01
  70   5    -0.01   0.04  -0.04     0.06  -0.05  -0.03    -0.01  -0.07   0.08
  71   7    -0.07   0.01  -0.07     0.03   0.16   0.18     0.13  -0.06  -0.02
  72   5     0.02   0.04  -0.04    -0.06  -0.06  -0.02     0.01  -0.06   0.08
                    121                    122                    123
                        a                      a                      a 
 Frequencies --   913.1038               949.8046               949.8048
 Red. masses --    13.0948                13.1022                13.1022
 Frc consts  --     0.0000                 0.0000                 0.0000
 IR Inten    --     0.0000                 0.0000                 0.0000
 Raman Activ --     0.0000                 0.0000                 0.0000
 Depolar     --     0.0000                 0.0000                 0.0000
 Atom AN      X      Y      Z        X      Y      Z        X      Y      Z
   1   5     0.09  -0.04   0.04     0.06  -0.04  -0.06     0.01   0.00   0.01
   2   7    -0.09   0.11   0.12     0.09  -0.10   0.09     0.02  -0.00  -0.02
   3   5     0.08   0.04   0.03    -0.06  -0.04   0.06    -0.01  -0.00  -0.01
   4   7    -0.08  -0.11   0.12    -0.09  -0.10  -0.09    -0.02  -0.00   0.02
   5   7     0.02  -0.03   0.02     0.05   0.03   0.07    -0.08  -0.09  -0.07
   6   5     0.00   0.02   0.02     0.02   0.02  -0.04    -0.04  -0.06   0.04
   7   7    -0.02   0.01  -0.02     0.05  -0.03  -0.07    -0.08   0.09   0.07
   8   5    -0.00  -0.04  -0.04     0.02  -0.02   0.04    -0.04   0.06  -0.04
   9   5    -0.01   0.01  -0.06    -0.07   0.09  -0.07    -0.08   0.00   0.08
  10   7    -0.11   0.06   0.00    -0.03   0.04   0.07     0.03  -0.01   0.13
  11   5    -0.00   0.07  -0.05    -0.05  -0.03   0.10     0.08  -0.10  -0.02
  12   7     0.07  -0.00  -0.00    -0.01  -0.14  -0.01     0.04  -0.00  -0.04
  13   5    -0.02   0.08  -0.01     0.10  -0.03  -0.05     0.02   0.10  -0.08
  14   7     0.00   0.14  -0.15     0.07   0.04  -0.03    -0.13   0.01  -0.03
  15   7     0.12  -0.15  -0.08    -0.07  -0.03   0.05    -0.07  -0.09   0.08
  16   5    -0.08  -0.01   0.05    -0.04   0.02   0.02    -0.04   0.06   0.04
  17   7     0.12  -0.15   0.08     0.07   0.03   0.05     0.07   0.09   0.08
  18   5    -0.08  -0.02  -0.05     0.04  -0.02   0.02     0.04  -0.06   0.04
  19   5    -0.05   0.07  -0.04    -0.01  -0.09   0.01     0.01  -0.00   0.01
  20   7    -0.00   0.02   0.01    -0.06  -0.07  -0.16     0.10  -0.14   0.01
  21   5     0.05  -0.04   0.07    -0.00   0.02  -0.05     0.02   0.01  -0.08
  22   7     0.10  -0.05  -0.01    -0.09   0.12   0.09    -0.13   0.00  -0.13
  23   5     0.00  -0.06  -0.06     0.05   0.02   0.00    -0.08  -0.01   0.02
  24   7    -0.10  -0.02  -0.06     0.16  -0.07   0.06     0.01   0.14   0.10
  25   7     0.09   0.13   0.10    -0.07   0.03  -0.05    -0.07   0.09  -0.08
  26   5    -0.09   0.04  -0.04    -0.04  -0.02  -0.02    -0.04  -0.06  -0.04
  27   7     0.09   0.12  -0.10     0.07  -0.03  -0.05     0.07  -0.09  -0.08
  28   5    -0.08   0.03   0.04     0.04   0.02  -0.02     0.04   0.06  -0.04
  29   7    -0.12   0.04   0.07     0.16   0.07  -0.06     0.01  -0.14  -0.10
  30   5    -0.06  -0.10   0.04    -0.01   0.09  -0.01     0.01   0.00  -0.01
  31   7     0.00  -0.04  -0.04    -0.06   0.07   0.16     0.10   0.14  -0.01
  32   5     0.06   0.04  -0.09    -0.00  -0.02   0.05     0.02  -0.01   0.08
  33   7     0.12   0.07   0.04    -0.09  -0.12  -0.09    -0.13   0.00   0.13
  34   5    -0.00   0.08   0.08     0.05  -0.02  -0.00    -0.08   0.01  -0.02
  35   5     0.04   0.02   0.09     0.00   0.02   0.05    -0.02   0.01   0.08
  36   7     0.11   0.05  -0.01     0.09   0.12  -0.09     0.13  -0.00   0.13
  37   5     0.02   0.07  -0.07    -0.05   0.02  -0.00     0.08  -0.01  -0.02
  38   7    -0.11   0.04  -0.07    -0.16  -0.07  -0.06    -0.01   0.14  -0.10
  39   5    -0.07  -0.07  -0.06     0.01  -0.09  -0.01    -0.01   0.00  -0.01
  40   7    -0.02  -0.04   0.01     0.06  -0.07   0.16    -0.10  -0.14  -0.01
  41   7    -0.06  -0.00  -0.00    -0.03  -0.04  -0.07     0.03   0.01  -0.13
  42   5     0.00  -0.05   0.06    -0.05   0.03  -0.10     0.08   0.10   0.02
  43   7     0.11   0.00   0.06    -0.01   0.14   0.01     0.04   0.00   0.04
  44   5     0.01  -0.06   0.01     0.10   0.03   0.05     0.02  -0.10   0.08
  45   7    -0.00  -0.15   0.14     0.07  -0.04   0.03    -0.13  -0.01   0.03
  46   5     0.02  -0.01   0.07    -0.07  -0.09   0.07    -0.08  -0.00  -0.08
  47   5     0.08   0.05  -0.01     0.06   0.04   0.06     0.01   0.00  -0.01
  48   7    -0.12  -0.08  -0.15     0.09   0.10  -0.09     0.02   0.00   0.02
  49   5     0.08  -0.05  -0.01    -0.06   0.04  -0.06    -0.01   0.00   0.01
  50   7    -0.13   0.08  -0.15    -0.09   0.10   0.09    -0.02   0.00  -0.02
  51   7     0.08  -0.00   0.03     0.01   0.14  -0.01    -0.04   0.00  -0.04
  52   5    -0.01   0.06   0.01    -0.10   0.03  -0.05    -0.02  -0.10  -0.08
  53   7    -0.00   0.13   0.13    -0.07  -0.04  -0.03     0.13  -0.01  -0.03
  54   5     0.01   0.01   0.06     0.07  -0.09  -0.07     0.08  -0.00   0.08
  55   7    -0.07   0.02  -0.00     0.03  -0.04   0.07    -0.03   0.01   0.13
  56   5     0.00   0.05   0.05     0.05   0.03   0.10    -0.08   0.10  -0.02
  57   5    -0.01  -0.07  -0.01    -0.10  -0.03   0.05    -0.02   0.10   0.08
  58   7     0.00  -0.16  -0.16    -0.07   0.04   0.03     0.13   0.01   0.03
  59   5     0.01  -0.01  -0.07     0.07   0.09   0.07     0.08  -0.00  -0.08
  60   7    -0.11  -0.04   0.00     0.03   0.04  -0.07    -0.03  -0.01  -0.13
  61   5    -0.00  -0.07  -0.07     0.05  -0.03  -0.10    -0.08  -0.10   0.02
  62   7     0.10   0.00  -0.04     0.01  -0.14   0.01    -0.04  -0.00   0.04
  63   7     0.11  -0.07   0.05     0.09  -0.12   0.09     0.13  -0.00  -0.13
  64   5    -0.02  -0.07   0.08    -0.05  -0.02   0.00     0.08   0.01   0.02
  65   7    -0.11  -0.01   0.06    -0.16   0.07   0.06    -0.01  -0.14   0.10
  66   5    -0.04   0.10   0.02     0.01   0.09   0.01    -0.01   0.00   0.01
  67   7     0.02   0.01  -0.05     0.06   0.07  -0.16    -0.10   0.14   0.01
  68   5     0.07  -0.06  -0.07     0.00  -0.02  -0.05    -0.02  -0.01  -0.08
  69   7     0.00   0.05   0.05    -0.05   0.03  -0.07     0.08  -0.09   0.07
  70   5     0.01  -0.04   0.02    -0.02   0.02   0.04     0.04  -0.06  -0.04
  71   7    -0.00   0.01   0.01    -0.05  -0.03   0.07     0.08   0.09  -0.07
  72   5    -0.01   0.02  -0.04    -0.02  -0.02  -0.04     0.04   0.06   0.04
                    124                    125                    126
                        a                      a                      a 
 Frequencies --   957.7267               957.7268               957.7268
 Red. masses --    13.1989                13.1989                13.1989
 Frc consts  --     0.0000                 0.0000                 0.0000
 IR Inten    --    29.7040                29.7040                29.7037
 Raman Activ --     0.0000                 0.0000                 0.0000
 Depolar     --     0.0000                 0.0000                 0.0000
 Atom AN      X      Y      Z        X      Y      Z        X      Y      Z
   1   5    -0.05   0.04   0.01     0.11   0.03  -0.12    -0.04  -0.04  -0.02
   2   7     0.07  -0.07  -0.12    -0.13  -0.09   0.03    -0.00   0.01   0.08
   3   5    -0.12   0.01   0.08    -0.01   0.06  -0.01     0.04  -0.02  -0.09
   4   7     0.13  -0.02  -0.06    -0.03  -0.07   0.14    -0.07   0.09   0.02
   5   7    -0.08   0.12   0.01     0.08   0.00  -0.03    -0.02  -0.10   0.15
   6   5     0.05  -0.11   0.10    -0.02  -0.02  -0.04     0.04   0.05  -0.06
   7   7    -0.10  -0.01  -0.11    -0.02   0.04   0.01    -0.05  -0.14   0.10
   8   5     0.06   0.02  -0.04    -0.01  -0.06   0.00     0.00   0.10  -0.12
   9   5     0.06  -0.04  -0.05    -0.05  -0.04   0.05    -0.01  -0.00   0.04
  10   7     0.00  -0.07   0.17    -0.09   0.08   0.06     0.08  -0.06  -0.01
  11   5    -0.05   0.03  -0.03    -0.02   0.02   0.00    -0.02  -0.07   0.07
  12   7     0.07   0.10  -0.10    -0.07   0.04   0.07    -0.07   0.14   0.00
  13   5     0.04  -0.01  -0.02    -0.06   0.06  -0.04     0.04  -0.05  -0.03
  14   7     0.05   0.05  -0.05     0.17  -0.02  -0.05     0.04  -0.11   0.10
  15   7     0.06  -0.03  -0.04    -0.14   0.06  -0.08     0.02  -0.14  -0.08
  16   5    -0.07   0.01  -0.00     0.10  -0.12   0.02     0.01  -0.00   0.06
  17   7     0.04  -0.04   0.06    -0.06   0.14  -0.04     0.13  -0.03  -0.09
  18   5    -0.05  -0.01  -0.01     0.01  -0.03   0.05    -0.11   0.12   0.04
  19   5    -0.02  -0.06  -0.04    -0.03   0.02   0.01    -0.05   0.04  -0.04
  20   7     0.15  -0.08   0.04    -0.01  -0.08  -0.07    -0.11   0.05  -0.08
  21   5     0.00   0.04   0.07     0.05  -0.03   0.01    -0.03   0.03  -0.03
  22   7    -0.12   0.16   0.03     0.01  -0.02  -0.05    -0.02  -0.10  -0.10
  23   5    -0.05  -0.01  -0.02    -0.00  -0.05  -0.06     0.06  -0.03   0.01
  24   7    -0.11  -0.06  -0.16     0.05  -0.07   0.01    -0.01   0.08   0.10
  25   7     0.12   0.13   0.03     0.08   0.01  -0.10     0.05  -0.07  -0.05
  26   5    -0.09  -0.07  -0.03    -0.05  -0.10   0.03    -0.07  -0.03   0.05
  27   7     0.14   0.12  -0.01    -0.00   0.09  -0.02    -0.06   0.04  -0.11
  28   5    -0.11  -0.08   0.01     0.04  -0.01   0.04     0.05   0.09   0.05
  29   7    -0.10  -0.05   0.04     0.02  -0.07  -0.06    -0.07   0.08   0.17
  30   5    -0.03   0.03   0.05     0.04  -0.01  -0.03     0.03   0.07  -0.00
  31   7     0.03  -0.02  -0.01    -0.05  -0.09  -0.05     0.18   0.07  -0.10
  32   5    -0.04  -0.06  -0.02    -0.04   0.00   0.04     0.01  -0.00  -0.07
  33   7    -0.09  -0.04   0.02     0.05   0.04  -0.04    -0.06  -0.18  -0.11
  34   5     0.00   0.00  -0.03     0.02  -0.05  -0.05    -0.08  -0.03   0.01
  35   5    -0.04  -0.06   0.03    -0.03  -0.00  -0.07     0.02  -0.01   0.02
  36   7    -0.09  -0.07   0.01     0.06   0.17  -0.09    -0.05   0.00  -0.08
  37   5    -0.01  -0.01   0.03     0.08   0.01   0.03     0.01   0.06  -0.04
  38   7    -0.10  -0.04  -0.06     0.05  -0.11   0.18    -0.02   0.03  -0.01
  39   5    -0.01   0.04  -0.05    -0.02  -0.07  -0.00    -0.05  -0.01  -0.04
  40   7     0.05  -0.02   0.04    -0.18  -0.10  -0.08    -0.00   0.06  -0.08
  41   7     0.10   0.12  -0.06     0.06   0.02   0.14    -0.04   0.02  -0.10
  42   5    -0.03   0.04  -0.03     0.04   0.02   0.00    -0.01  -0.07   0.07
  43   7     0.03  -0.13   0.09     0.04   0.12   0.01     0.11   0.05   0.08
  44   5     0.08   0.07   0.02     0.02   0.03  -0.05     0.00  -0.02  -0.02
  45   7    -0.03   0.03  -0.06    -0.17  -0.02  -0.05    -0.04  -0.12   0.10
  46   5     0.05   0.00   0.03     0.01  -0.06   0.02     0.06   0.01   0.07
  47   5    -0.11   0.02  -0.06    -0.06   0.04  -0.10    -0.03  -0.05  -0.05
  48   7     0.11  -0.01   0.04     0.07  -0.11  -0.02     0.07   0.03   0.15
  49   5    -0.04   0.04   0.01     0.06   0.05   0.02    -0.10  -0.01  -0.12
  50   7     0.05  -0.08   0.10    -0.03  -0.04   0.08     0.14   0.07   0.08
  51   7     0.04   0.13   0.09     0.05  -0.11  -0.00     0.10  -0.06   0.09
  52   5     0.04  -0.01   0.04    -0.05   0.06  -0.02     0.05  -0.05  -0.04
  53   7     0.08   0.02   0.03     0.02   0.11   0.12    -0.16   0.06  -0.01
  54   5     0.05  -0.04   0.03     0.01  -0.02   0.03     0.06   0.03   0.07
  55   7     0.01  -0.07  -0.17    -0.11   0.07  -0.05     0.07  -0.07   0.03
  56   5    -0.05   0.02   0.01     0.01   0.08   0.07     0.01   0.01   0.03
  57   5     0.08   0.07  -0.00     0.02   0.04  -0.00    -0.00  -0.01  -0.06
  58   7    -0.06   0.00   0.05    -0.02   0.11   0.11     0.17   0.06  -0.00
  59   5     0.06  -0.00  -0.05    -0.04  -0.03   0.05    -0.02   0.05   0.03
  60   7     0.10   0.12   0.06     0.07   0.01  -0.13    -0.02   0.00   0.11
  61   5    -0.03   0.02   0.01     0.02   0.07   0.07    -0.05   0.01   0.03
  62   7     0.06  -0.09  -0.11    -0.09  -0.03   0.06    -0.06  -0.15   0.01
  63   7    -0.11   0.13  -0.00     0.01   0.11  -0.09    -0.03   0.08  -0.08
  64   5    -0.04  -0.02   0.02    -0.06   0.02   0.03    -0.03   0.05  -0.05
  65   7    -0.10  -0.05   0.14     0.01  -0.10   0.11    -0.06   0.03   0.06
  66   5    -0.03  -0.05   0.05     0.04  -0.04  -0.03     0.04  -0.05   0.00
  67   7     0.12  -0.08  -0.01     0.12  -0.08  -0.06     0.07   0.04  -0.10
  68   5     0.00   0.04  -0.07     0.05  -0.04  -0.04    -0.04   0.03  -0.01
  69   7    -0.11  -0.03   0.09     0.02   0.15   0.11     0.01  -0.00   0.06
  70   5     0.06   0.03   0.06     0.00  -0.11  -0.10     0.03   0.04  -0.02
  71   7    -0.07   0.09  -0.03     0.04   0.11   0.15    -0.09   0.05   0.01
  72   5     0.05  -0.10  -0.08    -0.04  -0.07  -0.06     0.02  -0.02  -0.08
                    127                    128                    129
                        a                      a                      a 
 Frequencies --   983.2472               983.2473               983.2473
 Red. masses --    13.4840                13.4840                13.4840
 Frc consts  --     0.0000                 0.0000                 0.0000
 IR Inten    --     0.0000                 0.0000                 0.0000
 Raman Activ --     0.0000                 0.0000                 0.0000
 Depolar     --     0.0000                 0.0000                 0.0000
 Atom AN      X      Y      Z        X      Y      Z        X      Y      Z
   1   5    -0.00  -0.00  -0.06     0.07   0.00   0.09    -0.08   0.00   0.02
   2   7    -0.03  -0.01   0.03     0.04   0.11   0.00     0.09  -0.02  -0.10
   3   5     0.05   0.00  -0.01     0.08  -0.00   0.10    -0.05  -0.00   0.05
   4   7    -0.07   0.01   0.07     0.03  -0.11   0.01     0.07   0.02  -0.08
   5   7    -0.04   0.10  -0.09     0.03   0.03  -0.04    -0.10  -0.01   0.05
   6   5    -0.00  -0.03   0.07    -0.00  -0.04   0.03     0.00   0.10   0.07
   7   7     0.04   0.08  -0.07    -0.03   0.07  -0.08     0.10   0.01   0.03
   8   5     0.00  -0.00   0.09     0.00  -0.08  -0.02    -0.00   0.07   0.05
   9   5     0.02  -0.00  -0.01    -0.06   0.02  -0.04    -0.03  -0.00   0.05
  10   7     0.06  -0.06   0.08    -0.13   0.11   0.16     0.08  -0.10   0.16
  11   5     0.01  -0.05   0.01    -0.01  -0.01   0.04     0.02  -0.04  -0.05
  12   7     0.05   0.02  -0.05     0.04  -0.23  -0.03     0.15   0.05  -0.15
  13   5    -0.02   0.05  -0.01     0.06   0.01  -0.02     0.03   0.04  -0.02
  14   7    -0.09   0.05  -0.04     0.07   0.15  -0.15    -0.20   0.04  -0.03
  15   7     0.08  -0.09  -0.04    -0.07   0.05  -0.08     0.01  -0.03  -0.08
  16   5    -0.07   0.03   0.00    -0.01  -0.07  -0.00    -0.08  -0.08   0.00
  17   7     0.09  -0.11   0.04    -0.05   0.02   0.08    -0.03   0.00   0.08
  18   5    -0.09   0.02  -0.00    -0.05  -0.10   0.00    -0.04  -0.04  -0.00
  19   5     0.01   0.04  -0.02    -0.02  -0.01  -0.01    -0.02  -0.07   0.02
  20   7     0.09  -0.03   0.08     0.05  -0.12  -0.05    -0.02  -0.11  -0.14
  21   5    -0.01   0.02  -0.03     0.02   0.01  -0.06     0.02   0.01  -0.06
  22   7    -0.08  -0.05  -0.14    -0.10   0.01  -0.08    -0.10   0.09   0.00
  23   5    -0.07  -0.02   0.01    -0.04  -0.01   0.01     0.02  -0.01  -0.02
  24   7    -0.08   0.13   0.03    -0.01   0.09   0.07     0.14  -0.06   0.07
  25   7    -0.01  -0.04  -0.10    -0.06  -0.05   0.05    -0.09  -0.09  -0.00
  26   5     0.09  -0.05   0.00    -0.01   0.09   0.00     0.06   0.02   0.00
  27   7    -0.02  -0.06   0.10    -0.09  -0.07  -0.05    -0.05  -0.05   0.00
  28   5     0.10  -0.06  -0.00     0.02   0.06  -0.00     0.02   0.06  -0.00
  29   7     0.01   0.12   0.09     0.16   0.10  -0.05    -0.05  -0.05   0.00
  30   5     0.01  -0.01  -0.01    -0.02   0.08  -0.02    -0.00  -0.02   0.01
  31   7    -0.09  -0.14  -0.03    -0.05   0.10   0.16     0.02   0.01  -0.01
  32   5    -0.01   0.02  -0.08     0.02   0.00   0.04     0.00   0.00  -0.00
  33   7     0.16   0.01  -0.15    -0.05  -0.10  -0.07     0.02   0.02   0.01
  34   5     0.07  -0.02   0.01     0.04  -0.00   0.02    -0.02  -0.00  -0.01
  35   5    -0.02   0.02   0.08     0.01  -0.00  -0.04     0.01   0.01   0.00
  36   7     0.15   0.05   0.09    -0.06  -0.01  -0.04     0.02  -0.09   0.13
  37   5     0.03  -0.02   0.00    -0.03   0.00   0.01     0.07  -0.01  -0.02
  38   7    -0.07   0.04  -0.09    -0.00  -0.06   0.05     0.15   0.15  -0.00
  39   5     0.02  -0.04  -0.00    -0.01   0.01  -0.01    -0.01   0.07   0.02
  40   7    -0.04  -0.14   0.09     0.03   0.09  -0.05    -0.09   0.02  -0.13
  41   7     0.01  -0.01   0.21    -0.01   0.00  -0.11    -0.16  -0.16   0.00
  42   5    -0.01  -0.06   0.02     0.01  -0.00   0.03    -0.02  -0.03  -0.06
  43   7    -0.11  -0.12  -0.11     0.09   0.03   0.09    -0.07   0.20  -0.09
  44   5    -0.03   0.06  -0.02     0.05   0.00   0.01     0.03   0.03  -0.00
  45   7     0.09   0.14  -0.13    -0.07  -0.04   0.03     0.20  -0.07   0.08
  46   5     0.03   0.01  -0.02    -0.05  -0.00  -0.03    -0.03  -0.02   0.06
  47   5    -0.01   0.00   0.02    -0.04  -0.00  -0.07     0.10   0.00  -0.07
  48   7    -0.04   0.06  -0.02     0.10  -0.02   0.09    -0.01  -0.10  -0.05
  49   5    -0.06  -0.00   0.07    -0.05   0.00  -0.06     0.07  -0.00  -0.05
  50   7     0.00  -0.06   0.02     0.11   0.02   0.10     0.01   0.10  -0.03
  51   7     0.09   0.12   0.10     0.13  -0.03   0.12     0.04  -0.20   0.03
  52   5    -0.02   0.06   0.01     0.05   0.02   0.02     0.04   0.03   0.02
  53   7    -0.20   0.00  -0.01    -0.13   0.07   0.06     0.04   0.15   0.15
  54   5     0.02  -0.01  -0.03    -0.05   0.00  -0.04    -0.04   0.02   0.05
  55   7     0.13  -0.14  -0.08     0.01  -0.03  -0.16    -0.09   0.08  -0.16
  56   5     0.02  -0.06   0.03     0.01  -0.02   0.04    -0.00  -0.03  -0.05
  57   5    -0.03   0.06   0.02     0.06   0.01  -0.01     0.02   0.02   0.00
  58   7     0.20   0.10   0.08     0.13  -0.12  -0.13    -0.04   0.04   0.04
  59   5     0.03   0.00  -0.02    -0.06  -0.02  -0.05    -0.02   0.00   0.04
  60   7    -0.06  -0.08  -0.21    -0.15  -0.14   0.11     0.02   0.02  -0.00
  61   5    -0.02  -0.06   0.02    -0.01  -0.01   0.05     0.00  -0.02  -0.04
  62   7    -0.16  -0.02   0.16     0.01   0.23   0.01     0.03  -0.05  -0.04
  63   7    -0.08  -0.01   0.09    -0.09   0.10  -0.03    -0.11  -0.02   0.14
  64   5    -0.03  -0.02  -0.00     0.03  -0.01   0.02    -0.07  -0.02  -0.02
  65   7    -0.00   0.04  -0.03     0.15  -0.07  -0.07    -0.06   0.14  -0.07
  66   5     0.00   0.01   0.00    -0.02  -0.08  -0.02    -0.01   0.02   0.02
  67   7     0.04  -0.03  -0.02    -0.03  -0.13   0.16     0.09  -0.10  -0.01
  68   5    -0.00   0.02   0.03     0.02   0.00   0.06     0.01   0.02   0.06
  69   7     0.09   0.05   0.01     0.06  -0.00  -0.02    -0.02   0.10   0.10
  70   5     0.00   0.06  -0.10    -0.00   0.04  -0.01     0.00  -0.08  -0.02
  71   7    -0.09   0.07   0.03    -0.06  -0.04  -0.06     0.02   0.07   0.08
  72   5    -0.00   0.04  -0.08     0.00   0.08  -0.05    -0.00  -0.05  -0.05
                    130                    131                    132
                        a                      a                      a 
 Frequencies --  1008.5075              1008.5077              1008.5078
 Red. masses --    13.6189                13.6189                13.6189
 Frc consts  --     0.0000                 0.0000                 0.0000
 IR Inten    --     3.8160                 3.8159                 3.8158
 Raman Activ --     0.0000                 0.0000                 0.0000
 Depolar     --     0.0000                 0.0000                 0.0000
 Atom AN      X      Y      Z        X      Y      Z        X      Y      Z
   1   5    -0.03  -0.00   0.02     0.07   0.00  -0.07     0.03   0.00  -0.04
   2   7     0.04   0.01  -0.01    -0.13   0.01   0.13    -0.02  -0.03   0.06
   3   5    -0.00  -0.00  -0.01     0.09  -0.00  -0.08     0.01   0.00  -0.02
   4   7     0.04   0.03  -0.01    -0.13   0.01   0.13    -0.02  -0.00   0.06
   5   7    -0.01   0.12  -0.13    -0.03  -0.06   0.03    -0.01  -0.01   0.04
   6   5     0.00  -0.08   0.09     0.00   0.02  -0.01     0.00  -0.00  -0.01
   7   7    -0.01   0.12  -0.13    -0.00  -0.06   0.03    -0.03  -0.01   0.04
   8   5    -0.00  -0.07   0.07     0.00   0.04  -0.03     0.00   0.03  -0.04
   9   5     0.00  -0.03   0.01     0.03   0.00  -0.01    -0.01  -0.03  -0.02
  10   7     0.01  -0.01   0.09     0.01  -0.00  -0.15    -0.03  -0.04   0.23
  11   5     0.01  -0.02   0.01     0.03   0.00  -0.01    -0.02  -0.01  -0.02
  12   7    -0.01  -0.07  -0.01     0.02  -0.09  -0.00    -0.03   0.26  -0.04
  13   5     0.01  -0.02   0.01     0.02  -0.00  -0.01    -0.01  -0.02  -0.04
  14   7     0.07  -0.01   0.01     0.01   0.02   0.01     0.28  -0.03  -0.03
  15   7    -0.11   0.10  -0.01    -0.08   0.09   0.01     0.01   0.03  -0.02
  16   5     0.08  -0.07   0.01     0.04  -0.04  -0.00     0.01  -0.02   0.00
  17   7    -0.11   0.10  -0.02    -0.08   0.09   0.02     0.01   0.03   0.01
  18   5     0.06  -0.05   0.00     0.07  -0.07  -0.01    -0.01  -0.01   0.00
  19   5    -0.02   0.06  -0.03     0.04  -0.04  -0.03    -0.03  -0.06  -0.03
  20   7     0.15  -0.07   0.11    -0.02   0.15   0.11    -0.00  -0.10  -0.12
  21   5    -0.03   0.03  -0.05    -0.03   0.02   0.06     0.03   0.03   0.04
  22   7    -0.12  -0.01  -0.11     0.11  -0.15  -0.07    -0.11  -0.02  -0.15
  23   5     0.03  -0.03   0.04    -0.06   0.03   0.03    -0.06  -0.03  -0.02
  24   7    -0.15   0.11  -0.01    -0.10   0.12  -0.00     0.07   0.10   0.15
  25   7     0.05   0.02  -0.00    -0.01  -0.04   0.03    -0.13  -0.13  -0.01
  26   5    -0.04  -0.03   0.00     0.03   0.04  -0.00     0.07   0.07  -0.00
  27   7     0.06   0.02  -0.03    -0.01  -0.04   0.01    -0.13  -0.13  -0.01
  28   5    -0.02  -0.01   0.00    -0.00   0.01  -0.00     0.08   0.09   0.00
  29   7     0.11  -0.02  -0.09     0.03  -0.10  -0.12    -0.16  -0.17  -0.00
  30   5     0.02   0.09   0.00    -0.04   0.01   0.03     0.02   0.01   0.04
  31   7    -0.12  -0.06   0.10     0.07   0.16   0.09     0.06  -0.09  -0.14
  32   5     0.02  -0.01  -0.08     0.02  -0.03   0.01    -0.04  -0.03  -0.03
  33   7     0.08   0.06   0.03    -0.18  -0.03   0.15     0.02   0.13   0.12
  34   5    -0.08  -0.02   0.03    -0.02   0.04   0.01    -0.03  -0.01  -0.04
  35   5     0.04  -0.02   0.01     0.00  -0.02   0.09    -0.03  -0.04  -0.01
  36   7    -0.13  -0.05  -0.09     0.10   0.12  -0.06    -0.09   0.07  -0.16
  37   5    -0.03   0.03  -0.03    -0.08  -0.03  -0.00    -0.01   0.02   0.04
  38   7     0.12  -0.03   0.13     0.02  -0.08   0.06    -0.15  -0.17   0.03
  39   5    -0.04   0.04  -0.01     0.03   0.08  -0.02    -0.01  -0.02  -0.04
  40   7    -0.00   0.15  -0.17    -0.08  -0.12  -0.01     0.12   0.03   0.10
  41   7    -0.02   0.01   0.01    -0.03   0.03  -0.28     0.01   0.01   0.06
  42   5    -0.00  -0.01   0.03    -0.03   0.02   0.01     0.03   0.01   0.00
  43   7     0.00  -0.15   0.01    -0.04  -0.22   0.03     0.01   0.09   0.01
  44   5    -0.00  -0.01   0.03    -0.01   0.02   0.02     0.02   0.01   0.00
  45   7     0.10  -0.00   0.02     0.26   0.04   0.03     0.07  -0.01  -0.01
  46   5     0.00  -0.01   0.02    -0.02   0.04   0.01     0.02   0.01   0.01
  47   5     0.07  -0.01   0.07    -0.01  -0.00   0.00     0.05   0.00   0.05
  48   7    -0.09   0.01  -0.09     0.04   0.02  -0.01    -0.10  -0.01  -0.11
  49   5     0.04  -0.00   0.04    -0.02  -0.00  -0.01     0.07   0.01   0.08
  50   7    -0.09   0.02  -0.09     0.04  -0.01  -0.01    -0.09  -0.02  -0.11
  51   7     0.02  -0.20  -0.01    -0.03   0.08   0.02    -0.01   0.19   0.03
  52   5     0.03  -0.00  -0.01    -0.00  -0.03   0.00    -0.00  -0.00   0.04
  53   7    -0.07   0.02  -0.03     0.19  -0.03   0.01     0.20  -0.01   0.02
  54   5     0.03   0.00  -0.00    -0.01  -0.04   0.00     0.00  -0.01   0.03
  55   7     0.03   0.01   0.18    -0.01  -0.02  -0.21    -0.02  -0.03  -0.08
  56   5     0.04  -0.00  -0.00    -0.01  -0.03  -0.00    -0.01  -0.00   0.03
  57   5    -0.02   0.01  -0.03     0.01  -0.00  -0.03     0.01   0.03  -0.00
  58   7     0.23   0.03  -0.04     0.08  -0.01  -0.01     0.14   0.01   0.00
  59   5    -0.02   0.02  -0.02     0.01  -0.01  -0.02     0.01   0.03  -0.00
  60   7    -0.04   0.03   0.26    -0.01   0.01  -0.07     0.00   0.02   0.09
  61   5    -0.03   0.01  -0.02     0.01  -0.01  -0.02     0.01   0.02   0.00
  62   7    -0.03  -0.28  -0.03     0.01  -0.05  -0.01    -0.01   0.02  -0.02
  63   7     0.09  -0.12   0.04    -0.17   0.01   0.15     0.01  -0.08   0.11
  64   5    -0.02   0.03  -0.04     0.01  -0.04  -0.02    -0.09   0.00   0.02
  65   7    -0.16   0.10   0.06    -0.08   0.13  -0.06     0.07   0.10  -0.12
  66   5     0.03   0.01   0.02    -0.03   0.03   0.03     0.00  -0.08   0.02
  67   7     0.03   0.14  -0.17     0.13  -0.13  -0.02    -0.06   0.02   0.09
  68   5    -0.04   0.01  -0.02    -0.01   0.04   0.04     0.02   0.03  -0.08
  69   7     0.01  -0.01   0.04    -0.02   0.11   0.10    -0.02  -0.08  -0.09
  70   5     0.00   0.00  -0.01     0.00  -0.05  -0.05     0.01   0.07   0.07
  71   7    -0.02  -0.01   0.04    -0.01   0.11   0.10    -0.01  -0.08  -0.09
  72   5     0.00  -0.01  -0.02     0.01  -0.08  -0.07     0.00   0.04   0.04
                    133                    134                    135
                        a                      a                      a 
 Frequencies --  1010.2352              1010.2356              1011.7972
 Red. masses --    11.8875                11.8875                11.9203
 Frc consts  --     0.0000                 0.0000                 0.0000
 IR Inten    --     0.0000                 0.0000                 0.0000
 Raman Activ --     0.0000                 0.0000                 0.0000
 Depolar     --     0.0000                 0.0000                 0.0000
 Atom AN      X      Y      Z        X      Y      Z        X      Y      Z
   1   5    -0.00  -0.01   0.00     0.23  -0.00   0.23    -0.23   0.00  -0.23
   2   7     0.01   0.00   0.01     0.16  -0.00  -0.16    -0.16   0.00   0.16
   3   5     0.00  -0.01  -0.00    -0.23   0.00  -0.23     0.23  -0.00   0.23
   4   7    -0.01   0.00  -0.01    -0.16   0.00   0.16     0.17  -0.00  -0.17
   5   7    -0.00  -0.13   0.14     0.00  -0.09   0.07     0.00  -0.09   0.09
   6   5     0.00  -0.20  -0.20    -0.01  -0.11  -0.12     0.00  -0.12  -0.12
   7   7    -0.00   0.13  -0.14     0.00   0.09  -0.07    -0.00   0.07  -0.08
   8   5     0.00   0.20   0.20    -0.01   0.11   0.12    -0.00   0.12   0.11
   9   5    -0.00   0.01  -0.00    -0.01   0.00   0.01    -0.01   0.00   0.01
  10   7     0.00  -0.00  -0.03    -0.00   0.00  -0.06    -0.01   0.02   0.01
  11   5    -0.00  -0.00   0.01     0.01  -0.01  -0.00    -0.00   0.02  -0.01
  12   7     0.00   0.07   0.00    -0.00   0.00   0.00     0.00   0.00  -0.00
  13   5     0.01  -0.00  -0.00     0.00   0.01  -0.01     0.01  -0.02   0.00
  14   7    -0.03  -0.00   0.00     0.06  -0.00   0.00    -0.01  -0.02   0.01
  15   7    -0.14   0.13  -0.00     0.07  -0.09  -0.00     0.08  -0.07   0.00
  16   5    -0.20  -0.20   0.00     0.12   0.11   0.01     0.12   0.12  -0.00
  17   7     0.14  -0.13  -0.00    -0.07   0.09  -0.00    -0.09   0.09  -0.00
  18   5     0.20   0.20   0.00    -0.12  -0.11   0.01    -0.11  -0.12   0.00
  19   5    -0.00   0.06   0.00     0.01   0.00   0.01    -0.00   0.03   0.00
  20   7    -0.00   0.02   0.01     0.00   0.01   0.01    -0.01   0.01   0.00
  21   5    -0.01   0.01   0.03     0.01  -0.00   0.05    -0.01   0.01  -0.01
  22   7    -0.00   0.01   0.00     0.02   0.00   0.02    -0.01   0.01  -0.00
  23   5    -0.03   0.01   0.01     0.05   0.00   0.01    -0.04   0.00  -0.01
  24   7    -0.01   0.02   0.00     0.01  -0.01   0.00     0.01  -0.01  -0.00
  25   7    -0.14  -0.13   0.00     0.07   0.09   0.00    -0.08  -0.08   0.01
  26   5    -0.20   0.20  -0.00     0.12  -0.11  -0.01    -0.12   0.12  -0.00
  27   7     0.14   0.13   0.00    -0.07  -0.09   0.00     0.08   0.09  -0.01
  28   5     0.20  -0.20  -0.00    -0.12   0.11  -0.01     0.11  -0.11   0.00
  29   7    -0.01  -0.02  -0.00     0.01   0.01  -0.00     0.00  -0.01  -0.01
  30   5    -0.00  -0.06  -0.00     0.01  -0.00  -0.01     0.01  -0.00  -0.01
  31   7    -0.00  -0.02  -0.01     0.00  -0.01  -0.01     0.01   0.01  -0.00
  32   5    -0.01  -0.01  -0.03     0.01   0.00  -0.05     0.01  -0.00  -0.04
  33   7    -0.00  -0.01  -0.00     0.02  -0.00  -0.02    -0.00  -0.00   0.00
  34   5    -0.03  -0.01  -0.01     0.05  -0.00  -0.01     0.04   0.00  -0.01
  35   5     0.01   0.01  -0.03    -0.01  -0.00  -0.05     0.01  -0.00   0.04
  36   7     0.00   0.01  -0.00    -0.02  -0.00  -0.02     0.00  -0.01   0.01
  37   5     0.03   0.01  -0.01    -0.05   0.00  -0.01     0.01  -0.01   0.01
  38   7     0.01   0.02  -0.00    -0.01  -0.01  -0.00    -0.00  -0.01   0.01
  39   5     0.00   0.06  -0.00    -0.01  -0.00  -0.01    -0.00  -0.03   0.00
  40   7     0.00   0.02  -0.01    -0.00   0.01  -0.01     0.00   0.01  -0.01
  41   7     0.00   0.00   0.03    -0.00  -0.00   0.06    -0.00   0.00   0.03
  42   5    -0.00   0.00  -0.01     0.01   0.01   0.00     0.00   0.01  -0.01
  43   7     0.00  -0.07  -0.00    -0.00  -0.00  -0.00     0.02  -0.02   0.01
  44   5     0.01   0.00   0.00     0.00  -0.01   0.01    -0.00  -0.01   0.01
  45   7    -0.03   0.00  -0.00     0.06   0.00  -0.00     0.01  -0.03   0.03
  46   5    -0.00  -0.01   0.00    -0.01  -0.00  -0.01     0.00  -0.00   0.01
  47   5    -0.00   0.01  -0.00     0.23  -0.00  -0.23     0.24  -0.00  -0.24
  48   7     0.01  -0.00  -0.01     0.16  -0.00   0.16     0.17  -0.01   0.16
  49   5     0.00   0.01   0.00    -0.23   0.00   0.23    -0.23   0.00   0.23
  50   7    -0.01  -0.00   0.01    -0.16   0.00  -0.16    -0.16   0.01  -0.17
  51   7    -0.00  -0.07   0.00     0.00   0.00   0.00    -0.01   0.02  -0.02
  52   5    -0.01   0.00  -0.00    -0.00  -0.01  -0.01     0.01  -0.01  -0.00
  53   7     0.03   0.00   0.00    -0.06   0.00   0.00    -0.03  -0.00   0.00
  54   5     0.00  -0.01  -0.00     0.01   0.00   0.01    -0.01   0.00  -0.00
  55   7    -0.00   0.00  -0.03     0.00  -0.00  -0.06    -0.03   0.03  -0.01
  56   5     0.00   0.00   0.01    -0.01   0.01  -0.00    -0.01   0.01   0.00
  57   5    -0.01  -0.00   0.00    -0.00   0.01   0.01     0.00  -0.01  -0.01
  58   7     0.03  -0.00  -0.00    -0.06  -0.00  -0.00     0.03  -0.02  -0.01
  59   5     0.00   0.01   0.00     0.01  -0.00  -0.01    -0.00  -0.00   0.00
  60   7    -0.00  -0.00   0.03     0.00   0.00   0.06     0.01   0.02  -0.03
  61   5     0.00  -0.00  -0.01    -0.01  -0.01   0.00     0.01   0.01  -0.00
  62   7    -0.00   0.07  -0.00     0.00  -0.00  -0.00     0.03  -0.00  -0.03
  63   7     0.00  -0.01   0.00    -0.02   0.00   0.02    -0.01   0.00   0.01
  64   5     0.03  -0.01   0.01    -0.05  -0.00   0.01    -0.01  -0.01   0.01
  65   7     0.01  -0.02   0.00    -0.01   0.01   0.00     0.01  -0.02   0.00
  66   5     0.00  -0.06   0.00    -0.01   0.00   0.01     0.00   0.00  -0.00
  67   7     0.00  -0.02   0.01    -0.00  -0.01   0.01    -0.00   0.02  -0.01
  68   5     0.01  -0.01   0.03    -0.01   0.00   0.05    -0.01   0.01   0.01
  69   7     0.00  -0.13  -0.14    -0.00  -0.09  -0.07    -0.01   0.08   0.08
  70   5    -0.00  -0.20   0.20     0.01  -0.11   0.12    -0.00   0.11  -0.11
  71   7     0.00   0.13   0.14    -0.00   0.09   0.07     0.01  -0.09  -0.08
  72   5    -0.00   0.20  -0.20     0.01   0.11  -0.12     0.00  -0.12   0.12
                    136                    137                    138
                        a                      a                      a 
 Frequencies --  1011.7985              1011.7991              1013.7638
 Red. masses --    11.9203                11.9203                11.8917
 Frc consts  --     0.0000                 0.0000                 0.0000
 IR Inten    --     0.0000                 0.0000                 0.0000
 Raman Activ --     0.0000                 0.0000                 0.0000
 Depolar     --     0.0000                 0.0000                 0.0000
 Atom AN      X      Y      Z        X      Y      Z        X      Y      Z
   1   5     0.01   0.00   0.01     0.16   0.00   0.17    -0.17  -0.00  -0.17
   2   7     0.01   0.01   0.01     0.13  -0.00  -0.13    -0.12   0.00   0.12
   3   5     0.01  -0.00   0.01    -0.17  -0.00  -0.16     0.17   0.00   0.17
   4   7     0.01  -0.01   0.01    -0.11   0.00   0.11     0.12  -0.00  -0.12
   5   7     0.01  -0.14   0.14    -0.01  -0.11   0.12     0.00  -0.12   0.12
   6   5    -0.00  -0.21  -0.20     0.00  -0.16  -0.16    -0.00  -0.17  -0.17
   7   7    -0.01   0.15  -0.15     0.01   0.12  -0.11     0.00   0.12  -0.12
   8   5     0.00   0.19   0.20    -0.00   0.17   0.17    -0.00   0.17   0.17
   9   5    -0.01   0.01  -0.01    -0.01  -0.00   0.01    -0.01   0.00   0.01
  10   7    -0.03   0.02  -0.02     0.01  -0.01  -0.03    -0.01   0.01  -0.00
  11   5    -0.00   0.00   0.01     0.01  -0.00  -0.01     0.00   0.01  -0.01
  12   7     0.00   0.04   0.00     0.03  -0.00  -0.03     0.01  -0.00  -0.01
  13   5     0.01   0.00  -0.00     0.01   0.00  -0.01     0.01  -0.01  -0.00
  14   7    -0.02   0.02  -0.03     0.03   0.01  -0.01     0.00  -0.01   0.01
  15   7    -0.15   0.15  -0.01     0.11  -0.12  -0.01     0.12  -0.12  -0.00
  16   5    -0.20  -0.21  -0.00     0.16   0.16   0.00     0.17   0.17   0.00
  17   7     0.14  -0.14   0.01    -0.12   0.11   0.01    -0.12   0.12  -0.00
  18   5     0.20   0.19   0.00    -0.17  -0.17  -0.00    -0.17  -0.17   0.00
  19   5     0.01   0.00   0.01    -0.00   0.04   0.00     0.01   0.00   0.01
  20   7     0.01   0.01   0.02    -0.00  -0.01  -0.01     0.00   0.02   0.02
  21   5    -0.00   0.01   0.03     0.00   0.00   0.04    -0.01   0.01   0.00
  22   7    -0.01   0.00  -0.01     0.00   0.01   0.01    -0.02   0.00  -0.02
  23   5     0.03  -0.01  -0.00    -0.00   0.01   0.01     0.00  -0.01  -0.01
  24   7     0.02  -0.01   0.01    -0.00   0.01   0.01     0.02  -0.02   0.00
  25   7     0.14   0.14   0.01    -0.13  -0.13  -0.00     0.12   0.12  -0.00
  26   5     0.20  -0.19   0.00    -0.16   0.17   0.00     0.17  -0.17  -0.00
  27   7    -0.15  -0.15  -0.01     0.11   0.11   0.00    -0.12  -0.12   0.00
  28   5    -0.20   0.21  -0.00     0.17  -0.16  -0.00    -0.17   0.17  -0.00
  29   7     0.00  -0.00  -0.01     0.02   0.02   0.00     0.02   0.02  -0.00
  30   5    -0.00  -0.05  -0.00     0.01   0.00  -0.01     0.01  -0.00  -0.01
  31   7    -0.01  -0.00   0.00     0.00  -0.02  -0.02     0.00  -0.02  -0.02
  32   5    -0.00  -0.01  -0.03    -0.01  -0.01   0.00    -0.01  -0.01  -0.00
  33   7    -0.01  -0.01  -0.01    -0.02   0.00   0.02    -0.02   0.00   0.02
  34   5    -0.03  -0.01  -0.00     0.00   0.01   0.01     0.00   0.01   0.01
  35   5    -0.00  -0.01   0.03    -0.01  -0.01  -0.00     0.01   0.01  -0.00
  36   7    -0.01  -0.00  -0.01    -0.01  -0.01  -0.00     0.02  -0.00   0.02
  37   5     0.03   0.01  -0.00    -0.04  -0.00  -0.00    -0.00  -0.01   0.01
  38   7     0.02   0.01   0.01     0.01   0.01  -0.00    -0.02  -0.02  -0.00
  39   5     0.01  -0.00   0.01    -0.00  -0.04   0.00    -0.01  -0.00  -0.01
  40   7     0.01  -0.01   0.02    -0.01  -0.01   0.00    -0.00   0.02  -0.02
  41   7    -0.00   0.00   0.02    -0.03  -0.03  -0.00    -0.01  -0.01   0.00
  42   5     0.00  -0.01   0.02    -0.01  -0.01  -0.00     0.00  -0.01   0.01
  43   7     0.02  -0.00   0.02    -0.01  -0.03  -0.01     0.01  -0.00   0.01
  44   5     0.02   0.01   0.00     0.01   0.01  -0.00     0.01   0.01   0.00
  45   7     0.02  -0.00  -0.00    -0.03  -0.01   0.01     0.00   0.01  -0.01
  46   5    -0.01  -0.00  -0.01    -0.01  -0.01   0.00    -0.01   0.00  -0.01
  47   5    -0.00  -0.00  -0.00    -0.16   0.00   0.16    -0.17   0.00   0.17
  48   7     0.01  -0.00   0.01    -0.11  -0.01  -0.12    -0.12   0.00  -0.12
  49   5    -0.00   0.00  -0.00     0.17  -0.00  -0.17     0.17  -0.00  -0.17
  50   7     0.01   0.00   0.01     0.12   0.01   0.11     0.12  -0.00   0.12
  51   7     0.02   0.00   0.02     0.01   0.03   0.01    -0.01   0.00  -0.01
  52   5     0.02  -0.01   0.00     0.00   0.01   0.01    -0.01   0.01  -0.00
  53   7     0.02   0.00  -0.00    -0.00   0.03   0.03    -0.00   0.01   0.01
  54   5    -0.01   0.00  -0.01    -0.00   0.01   0.01     0.01  -0.00   0.01
  55   7    -0.00  -0.00   0.02    -0.01   0.01   0.03     0.01  -0.01  -0.00
  56   5     0.00   0.01   0.02    -0.00  -0.01  -0.01    -0.00  -0.01  -0.01
  57   5     0.01  -0.00  -0.00     0.02   0.02   0.00    -0.01  -0.01   0.00
  58   7    -0.02  -0.02  -0.03     0.00   0.01   0.01    -0.00  -0.01  -0.01
  59   5    -0.01  -0.01  -0.01    -0.02   0.00   0.02     0.01  -0.00  -0.01
  60   7    -0.03  -0.02  -0.02    -0.01  -0.01   0.00     0.01   0.01   0.00
  61   5    -0.00  -0.00   0.01     0.00  -0.02  -0.02    -0.00   0.01   0.01
  62   7     0.00  -0.04   0.00     0.01   0.00  -0.01    -0.01   0.00   0.01
  63   7    -0.01   0.01  -0.01    -0.01  -0.00   0.01     0.02  -0.00  -0.02
  64   5    -0.03   0.01  -0.00     0.04  -0.00  -0.00    -0.00   0.01  -0.01
  65   7     0.00   0.00  -0.01     0.01  -0.00  -0.01    -0.02   0.02   0.00
  66   5    -0.00   0.05  -0.00     0.01  -0.00  -0.01    -0.01   0.00   0.01
  67   7    -0.01   0.00   0.00     0.01   0.00  -0.01    -0.00  -0.02   0.02
  68   5    -0.00   0.01  -0.03     0.00   0.00  -0.04     0.01  -0.01   0.00
  69   7     0.01   0.14   0.14    -0.00   0.12   0.12    -0.00  -0.12  -0.12
  70   5    -0.00   0.21  -0.20     0.00   0.16  -0.17     0.00  -0.17   0.17
  71   7    -0.01  -0.15  -0.15     0.00  -0.11  -0.11     0.00   0.12   0.12
  72   5     0.00  -0.19   0.20    -0.00  -0.17   0.16     0.00   0.17  -0.17
                    139                    140                    141
                        a                      a                      a 
 Frequencies --  1028.3994              1048.3542              1048.3542
 Red. masses --    13.0126                13.0779                13.0779
 Frc consts  --     0.0000                 0.0000                 0.0000
 IR Inten    --     0.0000                 4.6169                 4.6169
 Raman Activ --     0.0000                 0.0000                 0.0000
 Depolar     --     0.0000                 0.0000                 0.0000
 Atom AN      X      Y      Z        X      Y      Z        X      Y      Z
   1   5     0.05  -0.04  -0.05     0.01  -0.04  -0.06    -0.03   0.06   0.01
   2   7     0.10  -0.05   0.10     0.05  -0.04   0.11    -0.17   0.01  -0.09
   3   5    -0.05  -0.04   0.05    -0.04  -0.04  -0.01     0.04   0.05  -0.06
   4   7    -0.10  -0.05  -0.10    -0.12   0.02  -0.06     0.09   0.03   0.17
   5   7    -0.05  -0.10  -0.10     0.01   0.17   0.10     0.03   0.04   0.14
   6   5    -0.04  -0.05   0.05     0.06   0.03  -0.01     0.04   0.03  -0.06
   7   7    -0.05   0.10   0.10     0.02  -0.09  -0.17    -0.00  -0.15  -0.05
   8   5    -0.04   0.05  -0.05     0.05  -0.05   0.06     0.04  -0.02  -0.01
   9   5    -0.06   0.10  -0.06     0.01   0.07  -0.05     0.11  -0.13   0.03
  10   7     0.00   0.00  -0.00     0.13  -0.13  -0.02    -0.04   0.01  -0.00
  11   5     0.10  -0.06  -0.06    -0.12   0.02   0.10    -0.09   0.11   0.00
  12   7     0.00  -0.00   0.00     0.03   0.03  -0.08     0.09  -0.07  -0.05
  13   5    -0.06  -0.06   0.10     0.09  -0.05  -0.03     0.00   0.02   0.02
  14   7    -0.00   0.00   0.00    -0.06  -0.05   0.10    -0.06   0.10  -0.08
  15   7     0.10   0.10  -0.05    -0.11   0.03  -0.00     0.03   0.01  -0.04
  16   5     0.05  -0.05  -0.04     0.01  -0.02   0.02    -0.03  -0.03  -0.01
  17   7    -0.10  -0.10  -0.05    -0.04   0.10   0.01    -0.02  -0.05   0.03
  18   5    -0.05   0.05  -0.04     0.03  -0.04   0.01    -0.04  -0.02  -0.01
  19   5     0.00  -0.01  -0.00     0.02   0.02   0.03     0.03  -0.09  -0.01
  20   7     0.14  -0.09   0.09    -0.11   0.05  -0.07    -0.13   0.12  -0.08
  21   5     0.00   0.00   0.01     0.03  -0.03  -0.01     0.00   0.01   0.07
  22   7    -0.09   0.14   0.09    -0.00   0.07   0.07     0.13  -0.16  -0.10
  23   5    -0.01   0.00  -0.00    -0.03   0.01  -0.02    -0.08   0.03  -0.00
  24   7    -0.09  -0.09  -0.14     0.04  -0.06  -0.03     0.06   0.08   0.08
  25   7     0.10  -0.10   0.05     0.01  -0.04   0.04    -0.10  -0.04  -0.01
  26   5     0.05   0.05   0.04    -0.02   0.05   0.01     0.03   0.02  -0.01
  27   7    -0.10   0.10   0.05    -0.06   0.03  -0.03    -0.04  -0.10   0.00
  28   5    -0.05  -0.05   0.04    -0.03   0.03   0.01     0.04   0.03  -0.01
  29   7    -0.09   0.09   0.14     0.08  -0.06  -0.08     0.02   0.08   0.04
  30   5     0.00   0.01   0.00     0.03   0.08   0.00     0.00  -0.05  -0.03
  31   7     0.14   0.09  -0.09    -0.17  -0.13   0.11    -0.06  -0.01   0.05
  32   5     0.00  -0.00  -0.01     0.02  -0.00  -0.07     0.03   0.04   0.02
  33   7    -0.09  -0.14  -0.09     0.12   0.13   0.08    -0.05  -0.12  -0.10
  34   5    -0.01  -0.00   0.00    -0.09  -0.03   0.01    -0.00   0.01   0.02
  35   5    -0.00   0.00  -0.01     0.01   0.01   0.04     0.03   0.03   0.00
  36   7     0.09   0.14  -0.09     0.12   0.11  -0.04    -0.05  -0.11   0.08
  37   5     0.01   0.00   0.00    -0.08  -0.03  -0.00    -0.02   0.01  -0.03
  38   7     0.09  -0.09   0.14     0.04  -0.02   0.01     0.06   0.04   0.02
  39   5    -0.00  -0.01   0.00     0.04   0.07   0.01    -0.00  -0.03   0.02
  40   7    -0.14  -0.09  -0.09    -0.15  -0.13  -0.08    -0.07  -0.01  -0.07
  41   7     0.00  -0.00   0.00     0.01   0.04   0.00     0.14   0.13   0.01
  42   5     0.10   0.06   0.06    -0.13  -0.11  -0.03    -0.08   0.02  -0.08
  43   7     0.00   0.00  -0.00     0.11   0.05   0.09     0.01  -0.06   0.07
  44   5    -0.06   0.06  -0.10     0.02   0.01  -0.02     0.08   0.06   0.03
  45   7    -0.00  -0.00  -0.00    -0.07  -0.09   0.05    -0.04   0.07  -0.12
  46   5    -0.06  -0.10   0.06     0.11   0.09   0.00    -0.03  -0.12   0.07
  47   5     0.05   0.04   0.05    -0.02  -0.04   0.01     0.03   0.05   0.06
  48   7     0.10   0.05  -0.10    -0.14   0.01   0.04     0.11   0.03  -0.15
  49   5    -0.05   0.04  -0.05     0.03  -0.03   0.06    -0.05   0.05  -0.01
  50   7    -0.10   0.05   0.10     0.03  -0.03  -0.14    -0.16  -0.00   0.11
  51   7    -0.00   0.00   0.00     0.08   0.04   0.12     0.05  -0.08   0.02
  52   5     0.06   0.06   0.10     0.06  -0.08  -0.03     0.03   0.05   0.04
  53   7     0.00  -0.00   0.00    -0.06  -0.00  -0.06    -0.06   0.07   0.05
  54   5     0.06  -0.10  -0.06     0.02   0.08   0.08     0.10  -0.13  -0.05
  55   7    -0.00  -0.00  -0.00     0.12  -0.14  -0.01    -0.03   0.02   0.03
  56   5    -0.10   0.06  -0.06    -0.12   0.03  -0.07    -0.09   0.10  -0.03
  57   5     0.06  -0.06  -0.10     0.06  -0.03  -0.04     0.05   0.09   0.03
  58   7     0.00   0.00  -0.00    -0.08  -0.05  -0.02    -0.03   0.04   0.08
  59   5     0.06   0.10   0.06     0.09   0.09   0.03    -0.01  -0.12  -0.09
  60   7    -0.00   0.00   0.00     0.02   0.03  -0.04     0.13   0.14   0.02
  61   5    -0.10  -0.06   0.06    -0.13  -0.09   0.06    -0.08   0.01   0.06
  62   7    -0.00  -0.00  -0.00     0.06   0.06  -0.05     0.05  -0.06  -0.10
  63   7     0.09  -0.14   0.09    -0.00   0.05  -0.04     0.13  -0.15   0.08
  64   5     0.01  -0.00  -0.00    -0.05  -0.00   0.03    -0.07   0.04  -0.01
  65   7     0.09   0.09  -0.14     0.08  -0.01  -0.05     0.02   0.04  -0.02
  66   5    -0.00   0.01  -0.00     0.01   0.00  -0.02     0.03  -0.08   0.00
  67   7    -0.14   0.09   0.09    -0.13   0.05   0.10    -0.12   0.12   0.05
  68   5    -0.00  -0.00   0.01     0.04  -0.03  -0.03    -0.00   0.01  -0.04
  69   7     0.05  -0.10   0.10     0.03  -0.11   0.15    -0.01  -0.13   0.07
  70   5     0.04  -0.05  -0.05     0.05  -0.03  -0.06     0.04  -0.04   0.01
  71   7     0.05   0.10  -0.10    -0.00   0.15  -0.12     0.04   0.06  -0.12
  72   5     0.04   0.05   0.05     0.06   0.05   0.01     0.04   0.02   0.06
                    142                    143                    144
                        a                      a                      a 
 Frequencies --  1048.3542              1058.6871              1058.6871
 Red. masses --    13.0779                13.3295                13.3295
 Frc consts  --     0.0000                 0.0000                 0.0000
 IR Inten    --     4.6169                 0.0000                 0.0000
 Raman Activ --     0.0000                 0.0000                 0.0000
 Depolar     --     0.0000                 0.0000                 0.0000
 Atom AN      X      Y      Z        X      Y      Z        X      Y      Z
   1   5    -0.05   0.02   0.01    -0.01   0.00  -0.01     0.04   0.08  -0.04
   2   7     0.00  -0.02  -0.10    -0.05  -0.00   0.05    -0.13  -0.07  -0.13
   3   5    -0.03   0.02  -0.01     0.01   0.00   0.01    -0.04   0.08   0.04
   4   7     0.09   0.03  -0.02     0.05  -0.00  -0.05     0.13  -0.07   0.13
   5   7     0.03   0.02  -0.06     0.06  -0.09  -0.13     0.04  -0.10  -0.02
   6   5    -0.00  -0.05  -0.01    -0.07   0.03  -0.03    -0.04   0.01  -0.02
   7   7    -0.03   0.04  -0.03     0.06   0.09   0.13     0.04   0.10   0.02
   8   5    -0.01  -0.04  -0.02    -0.07  -0.03   0.03    -0.04  -0.01   0.02
   9   5    -0.02  -0.05   0.09    -0.08  -0.00   0.08     0.03  -0.08   0.03
  10   7    -0.01   0.06  -0.08    -0.06   0.11  -0.12    -0.16   0.13   0.07
  11   5     0.00  -0.02   0.05     0.07  -0.06   0.02     0.04   0.05  -0.08
  12   7    -0.10  -0.03   0.10    -0.17  -0.00   0.17     0.03  -0.14   0.03
  13   5     0.06   0.10  -0.15    -0.02   0.06  -0.07    -0.08   0.05   0.04
  14   7    -0.01  -0.08   0.05     0.12  -0.11   0.06     0.07   0.13  -0.16
  15   7    -0.14  -0.17   0.01    -0.13  -0.09  -0.06     0.02   0.10   0.04
  16   5    -0.06   0.05   0.06     0.03  -0.03   0.07    -0.02   0.01  -0.04
  17   7     0.17   0.14   0.02     0.13   0.09  -0.06    -0.02  -0.10   0.04
  18   5     0.03  -0.04   0.07    -0.03   0.03   0.07     0.02  -0.01  -0.04
  19   5     0.02   0.02   0.02     0.05   0.00   0.05    -0.01   0.02   0.01
  20   7     0.04   0.01   0.08     0.03  -0.00   0.06     0.02  -0.07  -0.03
  21   5    -0.03  -0.01  -0.07     0.02  -0.04  -0.02     0.05  -0.04   0.01
  22   7     0.02  -0.01   0.04     0.06  -0.00   0.06     0.04  -0.03  -0.04
  23   5     0.03   0.02   0.03    -0.02   0.04   0.02    -0.01  -0.04  -0.05
  24   7    -0.11  -0.09  -0.16     0.06   0.00   0.03     0.03  -0.07  -0.02
  25   7     0.15  -0.17   0.01    -0.13   0.09   0.06     0.02  -0.10  -0.04
  26   5     0.06   0.04   0.06     0.03   0.03  -0.07    -0.02  -0.01   0.04
  27   7    -0.16   0.15   0.03     0.13  -0.09   0.06    -0.02   0.10  -0.04
  28   5    -0.03  -0.05   0.07    -0.03  -0.03  -0.07     0.02   0.01   0.04
  29   7     0.10  -0.09  -0.15     0.06  -0.00  -0.03     0.03   0.07   0.02
  30   5    -0.03   0.02   0.02     0.05  -0.00  -0.05    -0.01  -0.02  -0.01
  31   7    -0.01   0.03   0.06     0.03   0.00  -0.06     0.02   0.07   0.03
  32   5     0.02  -0.01  -0.06     0.02   0.04   0.02     0.05   0.04  -0.01
  33   7    -0.03  -0.01   0.04     0.06   0.00  -0.06     0.04   0.03   0.04
  34   5    -0.02   0.03   0.03    -0.02  -0.04  -0.02    -0.01   0.04   0.05
  35   5    -0.02   0.03  -0.09    -0.02  -0.04   0.02    -0.05  -0.04  -0.01
  36   7    -0.04  -0.08   0.10    -0.06  -0.00  -0.06    -0.04  -0.03   0.04
  37   5     0.06  -0.01   0.02     0.02   0.04  -0.02     0.01  -0.04   0.05
  38   7    -0.11   0.13  -0.18    -0.06   0.00  -0.03    -0.03  -0.07   0.02
  39   5     0.01  -0.06   0.03    -0.05   0.00  -0.05     0.01   0.02  -0.01
  40   7     0.06   0.03   0.08    -0.03  -0.00  -0.06    -0.02  -0.07   0.03
  41   7    -0.01   0.04  -0.08    -0.06  -0.11   0.12    -0.16  -0.13  -0.07
  42   5     0.02  -0.01   0.07     0.07   0.06  -0.02     0.04  -0.05   0.08
  43   7     0.09  -0.04   0.08    -0.17   0.00  -0.17     0.03   0.14  -0.03
  44   5    -0.07   0.09  -0.15    -0.02  -0.06   0.07    -0.08  -0.05  -0.04
  45   7     0.02  -0.08   0.06     0.12   0.11  -0.06     0.07  -0.13   0.16
  46   5     0.01  -0.05   0.09    -0.08   0.00  -0.08     0.03   0.08  -0.03
  47   5     0.05   0.02   0.01    -0.01  -0.00   0.01     0.04  -0.08   0.04
  48   7     0.00  -0.02  -0.09    -0.05   0.00  -0.05    -0.13   0.07   0.13
  49   5     0.03   0.02  -0.02     0.01  -0.00  -0.01    -0.04  -0.08  -0.04
  50   7    -0.08   0.03  -0.01     0.05   0.00   0.05     0.13   0.07  -0.13
  51   7     0.10  -0.01   0.07     0.17   0.00   0.17    -0.03   0.14   0.03
  52   5    -0.09  -0.05  -0.15     0.02  -0.06  -0.07     0.08  -0.05   0.04
  53   7     0.02   0.12   0.11    -0.12   0.11   0.06    -0.07  -0.13  -0.16
  54   5     0.05  -0.03   0.05     0.08   0.00   0.08    -0.03   0.08   0.03
  55   7    -0.06   0.00  -0.08     0.06  -0.11  -0.12     0.16  -0.13   0.07
  56   5     0.02   0.05   0.08    -0.07   0.06   0.02    -0.04  -0.05  -0.08
  57   5     0.08  -0.06  -0.14     0.02   0.06   0.07     0.08   0.05  -0.04
  58   7    -0.00   0.13   0.11    -0.12  -0.11  -0.06    -0.07   0.13   0.16
  59   5    -0.06  -0.03   0.05     0.08  -0.00  -0.08    -0.03  -0.08  -0.03
  60   7     0.05  -0.01  -0.07     0.06   0.11   0.12     0.16   0.13  -0.07
  61   5     0.01   0.06   0.07    -0.07  -0.06  -0.02    -0.04   0.05   0.08
  62   7    -0.11  -0.01   0.09     0.17  -0.00  -0.17    -0.03  -0.14  -0.03
  63   7     0.02  -0.08   0.10    -0.06   0.00   0.06    -0.04   0.03  -0.04
  64   5    -0.04  -0.01   0.02     0.02  -0.04   0.02     0.01   0.04  -0.05
  65   7     0.10   0.12  -0.17    -0.06  -0.00   0.03    -0.03   0.07  -0.02
  66   5    -0.01  -0.06   0.03    -0.05  -0.00   0.05     0.01  -0.02   0.01
  67   7    -0.03   0.01   0.06    -0.03   0.00   0.06    -0.02   0.07  -0.03
  68   5     0.01   0.03  -0.08    -0.02   0.04  -0.02    -0.05   0.04   0.01
  69   7     0.02  -0.05  -0.08    -0.06  -0.09   0.13    -0.04  -0.10   0.02
  70   5    -0.00   0.04   0.01     0.07   0.03   0.03     0.04   0.01   0.02
  71   7    -0.02  -0.07  -0.05    -0.06   0.09  -0.13    -0.04   0.10  -0.02
  72   5    -0.01   0.04   0.01     0.07  -0.03  -0.03     0.04  -0.01  -0.02
                    145                    146                    147
                        a                      a                      a 
 Frequencies --  1127.9110              1127.9111              1127.9111
 Red. masses --    12.1703                12.1703                12.1703
 Frc consts  --     0.0000                 0.0000                 0.0000
 IR Inten    --     0.0000                 0.0000                 0.0000
 Raman Activ --     0.0000                 0.0000                 0.0000
 Depolar     --     0.0000                 0.0000                 0.0000
 Atom AN      X      Y      Z        X      Y      Z        X      Y      Z
   1   5    -0.02   0.01  -0.03    -0.00   0.00  -0.00     0.04   0.01   0.03
   2   7     0.01   0.00  -0.01     0.04   0.02   0.03     0.02  -0.00  -0.04
   3   5     0.03  -0.01   0.02    -0.02  -0.00  -0.02    -0.03  -0.01  -0.03
   4   7     0.03  -0.00  -0.03     0.03  -0.02   0.03    -0.01   0.00  -0.00
   5   7    -0.02   0.04   0.01     0.01   0.01  -0.04     0.00  -0.02   0.01
   6   5    -0.00   0.02   0.02    -0.01   0.04   0.03     0.01   0.01   0.02
   7   7     0.02   0.01   0.04    -0.01  -0.02  -0.01    -0.00  -0.03   0.02
   8   5     0.00  -0.03  -0.03     0.01  -0.02  -0.02    -0.01  -0.01  -0.00
   9   5    -0.13   0.00   0.13    -0.01   0.02  -0.01    -0.03  -0.00   0.03
  10   7     0.05  -0.02  -0.19    -0.01   0.03  -0.09     0.05  -0.06   0.09
  11   5     0.02  -0.04   0.02    -0.01  -0.07   0.09    -0.00   0.11  -0.11
  12   7     0.01   0.01  -0.01    -0.03   0.22  -0.01    -0.06  -0.04   0.07
  13   5    -0.02   0.03  -0.02     0.12  -0.11  -0.01     0.07  -0.08   0.01
  14   7     0.18   0.02  -0.05    -0.13   0.05  -0.02    -0.05   0.05  -0.04
  15   7    -0.04  -0.01  -0.02    -0.02  -0.01  -0.01    -0.02   0.04   0.01
  16   5    -0.01  -0.01  -0.00     0.03   0.03  -0.01    -0.03  -0.02  -0.01
  17   7    -0.02  -0.04   0.02    -0.04   0.02   0.01     0.00   0.02  -0.01
  18   5     0.03   0.03   0.00    -0.02  -0.02   0.01     0.01   0.02   0.01
  19   5    -0.04   0.26   0.04    -0.01   0.02  -0.01    -0.03   0.17   0.03
  20   7     0.00  -0.13  -0.13     0.02  -0.05  -0.03    -0.05   0.01  -0.04
  21   5     0.04   0.04   0.26     0.03   0.01   0.13    -0.01  -0.02  -0.12
  22   7    -0.08   0.05  -0.04    -0.06   0.00  -0.06     0.09   0.03   0.12
  23   5     0.00  -0.01  -0.01     0.11  -0.01   0.02    -0.29   0.05  -0.04
  24   7     0.08  -0.04   0.05    -0.01   0.03   0.02     0.11  -0.13  -0.02
  25   7    -0.01  -0.01   0.00    -0.04  -0.00   0.01    -0.00   0.04   0.01
  26   5     0.02  -0.03   0.01    -0.02   0.02   0.01     0.03  -0.03  -0.01
  27   7    -0.03  -0.03  -0.00    -0.02   0.02  -0.01    -0.03   0.02  -0.01
  28   5    -0.03   0.02  -0.01     0.03  -0.03  -0.01    -0.01   0.01   0.01
  29   7     0.00   0.00  -0.00     0.12   0.09  -0.04    -0.07  -0.11  -0.04
  30   5    -0.01  -0.01   0.01    -0.05  -0.31  -0.05     0.01   0.06   0.01
  31   7    -0.00   0.00   0.00    -0.02   0.12   0.13     0.05   0.07   0.02
  32   5     0.01   0.01  -0.01     0.03  -0.03  -0.20     0.03  -0.04  -0.24
  33   7    -0.00  -0.00   0.00    -0.05  -0.06  -0.00    -0.13   0.01   0.14
  34   5    -0.00  -0.01  -0.01    -0.11  -0.01   0.02     0.29   0.05  -0.04
  35   5     0.01   0.00   0.01     0.04  -0.03   0.20     0.03  -0.04   0.24
  36   7     0.04  -0.05   0.08    -0.10  -0.00  -0.09    -0.09  -0.03  -0.06
  37   5    -0.25  -0.04  -0.04     0.18   0.02   0.03     0.06   0.02   0.00
  38   7     0.13   0.13   0.00    -0.02  -0.05   0.04     0.05   0.01   0.04
  39   5    -0.04  -0.26   0.04    -0.01  -0.02  -0.00    -0.02  -0.17   0.03
  40   7    -0.05   0.05  -0.08     0.03   0.07  -0.04     0.01   0.11  -0.10
  41   7    -0.01  -0.01   0.01     0.07   0.04   0.15    -0.03  -0.06   0.17
  42   5    -0.02   0.02  -0.04     0.01  -0.00   0.01     0.00   0.14  -0.13
  43   7    -0.05  -0.19  -0.02    -0.02  -0.02  -0.02     0.04  -0.13   0.07
  44   5     0.13   0.13   0.00     0.03   0.02   0.01    -0.02  -0.03   0.02
  45   7    -0.18  -0.05   0.02     0.13  -0.05   0.07     0.05   0.02  -0.01
  46   5     0.02  -0.02   0.03    -0.14  -0.00  -0.13    -0.02  -0.01  -0.01
  47   5     0.01  -0.00  -0.01    -0.00  -0.02   0.01    -0.04   0.00   0.04
  48   7     0.04  -0.02  -0.01     0.02  -0.00   0.02    -0.00  -0.01  -0.04
  49   5    -0.03   0.00   0.03     0.01   0.02  -0.00     0.02  -0.00  -0.03
  50   7     0.02   0.02  -0.04     0.03   0.00   0.02     0.03   0.01  -0.01
  51   7     0.02   0.19   0.05    -0.04   0.02  -0.04    -0.06   0.13  -0.03
  52   5     0.04  -0.02   0.02     0.06  -0.05   0.01     0.12  -0.13  -0.01
  53   7     0.00   0.01   0.01     0.08   0.06   0.07    -0.21   0.04   0.00
  54   5    -0.04   0.02  -0.02    -0.12   0.00  -0.12     0.06   0.01   0.07
  55   7    -0.02   0.05   0.19     0.07  -0.05   0.09    -0.02   0.00  -0.09
  56   5     0.00  -0.13  -0.13     0.01   0.03   0.04    -0.02   0.02   0.00
  57   5     0.08   0.08  -0.00     0.09   0.08  -0.01    -0.07  -0.08  -0.02
  58   7    -0.00  -0.06  -0.06    -0.08  -0.04  -0.02     0.21   0.01  -0.03
  59   5    -0.08  -0.00   0.08    -0.03  -0.02   0.01    -0.11   0.00   0.11
  60   7     0.06   0.06  -0.01    -0.01  -0.04  -0.15     0.04   0.00  -0.17
  61   5    -0.00  -0.07  -0.07    -0.01   0.11   0.11     0.02   0.05   0.03
  62   7    -0.06  -0.01   0.06    -0.01  -0.22  -0.03     0.04   0.04  -0.03
  63   7    -0.13   0.00   0.13    -0.01   0.06  -0.04     0.05  -0.01  -0.04
  64   5     0.25  -0.04  -0.04    -0.18   0.03   0.03    -0.06   0.02   0.00
  65   7    -0.04   0.08  -0.05     0.13  -0.11  -0.02    -0.01  -0.01   0.02
  66   5    -0.01   0.01   0.00    -0.05   0.31  -0.05     0.00  -0.06   0.02
  67   7     0.05  -0.08   0.05    -0.03  -0.09   0.12    -0.01   0.05  -0.04
  68   5     0.04   0.04  -0.26     0.02   0.02  -0.13    -0.01  -0.03   0.12
  69   7     0.00   0.01   0.01     0.01  -0.02  -0.04    -0.02  -0.04   0.02
  70   5     0.01  -0.02   0.03    -0.01  -0.04   0.03    -0.00  -0.00  -0.00
  71   7    -0.00   0.03   0.03    -0.01   0.01  -0.01     0.02  -0.03   0.03
  72   5    -0.01   0.03  -0.02     0.01   0.02  -0.03     0.00   0.02  -0.02
                    148                    149                    150
                        a                      a                      a 
 Frequencies --  1129.7882              1129.7882              1139.6217
 Red. masses --    12.0976                12.0976                12.1821
 Frc consts  --     0.0000                 0.0000                 0.0000
 IR Inten    --     0.0000                 0.0000                 0.0000
 Raman Activ --     0.0000                 0.0000                 0.0000
 Depolar     --     0.0000                 0.0000                 0.0000
 Atom AN      X      Y      Z        X      Y      Z        X      Y      Z
   1   5    -0.04   0.00  -0.04     0.02   0.01  -0.02     0.02   0.00   0.02
   2   7    -0.02  -0.00   0.02    -0.03  -0.03  -0.03     0.00   0.02   0.00
   3   5     0.04  -0.00   0.04    -0.02   0.01   0.02     0.02  -0.00   0.02
   4   7     0.02  -0.00  -0.02     0.03  -0.03   0.03    -0.01  -0.02   0.01
   5   7    -0.03   0.03   0.01     0.02   0.00  -0.03     0.01   0.01  -0.01
   6   5     0.01   0.00   0.04    -0.00   0.04   0.03     0.00  -0.01  -0.00
   7   7    -0.03  -0.03  -0.01     0.02  -0.00   0.03    -0.01  -0.01   0.01
   8   5     0.01  -0.00  -0.04    -0.00  -0.04  -0.03    -0.00  -0.01  -0.00
   9   5    -0.07   0.00   0.07    -0.01   0.02  -0.01     0.14   0.02  -0.17
  10   7     0.03  -0.00  -0.16    -0.02   0.03  -0.09    -0.15   0.16  -0.03
  11   5     0.02  -0.05   0.03    -0.01  -0.06   0.07    -0.01  -0.21   0.22
  12   7     0.03   0.00  -0.03    -0.01   0.19  -0.01     0.14   0.05  -0.16
  13   5    -0.03   0.05  -0.02     0.07  -0.06  -0.01    -0.12   0.14  -0.02
  14   7     0.16   0.00  -0.03    -0.09   0.03  -0.02    -0.01  -0.13   0.14
  15   7     0.01   0.03   0.03     0.03  -0.00   0.02     0.01  -0.01  -0.01
  16   5    -0.04  -0.00  -0.01     0.03   0.04  -0.00    -0.01  -0.01  -0.01
  17   7    -0.01  -0.03   0.03    -0.03   0.00   0.02     0.00  -0.00   0.01
  18   5     0.04   0.00  -0.01    -0.03  -0.04  -0.00    -0.01  -0.01   0.01
  19   5    -0.03   0.00  -0.03    -0.04   0.28   0.04    -0.03   0.04  -0.02
  20   7     0.03  -0.06  -0.05    -0.02  -0.10  -0.10     0.00  -0.01  -0.00
  21   5     0.02   0.05   0.24     0.05  -0.01   0.14     0.02  -0.01   0.03
  22   7    -0.11   0.00  -0.11    -0.01   0.04   0.01    -0.03  -0.02  -0.04
  23   5     0.24  -0.05   0.02    -0.14  -0.01  -0.05    -0.01   0.06   0.06
  24   7    -0.05   0.06   0.03     0.10  -0.10   0.02     0.05  -0.05  -0.01
  25   7     0.01  -0.03  -0.03     0.03   0.00  -0.02     0.00   0.00   0.02
  26   5    -0.04   0.00   0.01     0.03  -0.04   0.00    -0.02   0.02   0.00
  27   7    -0.01   0.03  -0.03    -0.03  -0.00  -0.02     0.00   0.00  -0.02
  28   5     0.04  -0.00   0.01    -0.03   0.04   0.00    -0.02   0.02  -0.00
  29   7    -0.05  -0.06  -0.03     0.10   0.10  -0.02     0.02   0.04   0.02
  30   5    -0.03  -0.00   0.03    -0.04  -0.28  -0.04    -0.00  -0.04  -0.01
  31   7     0.03   0.06   0.05    -0.02   0.10   0.10    -0.00   0.03   0.03
  32   5     0.02  -0.05  -0.24     0.05   0.01  -0.14     0.01  -0.00  -0.05
  33   7    -0.11  -0.00   0.11    -0.01  -0.04  -0.01    -0.04   0.02   0.05
  34   5     0.24   0.05  -0.02    -0.14   0.01   0.05     0.01  -0.05  -0.06
  35   5    -0.02   0.05  -0.24    -0.05  -0.01  -0.14     0.02   0.00   0.05
  36   7     0.11   0.00   0.11     0.01   0.04  -0.01    -0.04   0.02  -0.05
  37   5    -0.24  -0.05  -0.02     0.14  -0.01   0.05     0.01  -0.05   0.06
  38   7     0.05   0.06  -0.03    -0.10  -0.10  -0.02     0.02   0.03  -0.02
  39   5     0.03   0.00   0.03     0.04   0.28  -0.04    -0.00  -0.03   0.01
  40   7    -0.03  -0.06   0.05     0.02  -0.10   0.10    -0.01   0.02  -0.03
  41   7     0.03   0.00   0.16    -0.02  -0.03   0.09    -0.09  -0.11   0.06
  42   5     0.02   0.05  -0.03    -0.01   0.06  -0.07     0.01   0.17  -0.16
  43   7     0.03  -0.00   0.03    -0.01  -0.19   0.01     0.10  -0.04   0.11
  44   5    -0.03  -0.05   0.02     0.07   0.06   0.01    -0.07  -0.10   0.03
  45   7     0.16  -0.00   0.03    -0.09  -0.03   0.02     0.01   0.08  -0.07
  46   5    -0.07  -0.00  -0.07    -0.01  -0.02   0.01     0.05  -0.02   0.07
  47   5    -0.04   0.00   0.04     0.02  -0.01   0.02     0.02  -0.01  -0.01
  48   7    -0.02   0.00  -0.02    -0.03   0.03   0.03    -0.01  -0.02  -0.01
  49   5     0.04  -0.00  -0.04    -0.02  -0.01  -0.02     0.02   0.01  -0.01
  50   7     0.02   0.00   0.02     0.03   0.03  -0.03    -0.00   0.02  -0.00
  51   7    -0.03  -0.00  -0.03     0.01  -0.19  -0.01     0.15   0.04   0.17
  52   5     0.03  -0.05  -0.02    -0.07   0.06  -0.01    -0.14   0.15   0.02
  53   7    -0.16  -0.00  -0.03     0.09  -0.03  -0.02    -0.01  -0.14  -0.15
  54   5     0.07  -0.00   0.07     0.01  -0.02  -0.01     0.15   0.02   0.18
  55   7    -0.03   0.00  -0.16     0.02  -0.03  -0.09    -0.16   0.17   0.03
  56   5    -0.02   0.05   0.03     0.01   0.06   0.07    -0.01  -0.22  -0.23
  57   5     0.03   0.05   0.02    -0.07  -0.06   0.01    -0.06  -0.09  -0.03
  58   7    -0.16   0.00   0.03     0.09   0.03   0.02     0.01   0.07   0.06
  59   5     0.07   0.00  -0.07     0.01   0.02   0.01     0.04  -0.02  -0.07
  60   7    -0.03  -0.00   0.16     0.02   0.03   0.09    -0.08  -0.10  -0.06
  61   5    -0.02  -0.05  -0.03     0.01  -0.06  -0.07     0.01   0.16   0.15
  62   7    -0.03   0.00   0.03     0.01   0.19   0.01     0.08  -0.05  -0.10
  63   7     0.11  -0.00  -0.11     0.01  -0.04   0.01    -0.03  -0.02   0.04
  64   5    -0.24   0.05   0.02     0.14   0.01  -0.05    -0.01   0.06  -0.06
  65   7     0.05  -0.06   0.03    -0.10   0.10   0.02     0.05  -0.05   0.01
  66   5     0.03  -0.00  -0.03     0.04  -0.28   0.04    -0.03   0.04   0.02
  67   7    -0.03   0.06  -0.05     0.02   0.10  -0.10     0.01  -0.01   0.01
  68   5    -0.02  -0.05   0.24    -0.05   0.01   0.14     0.02  -0.01  -0.03
  69   7     0.03   0.03  -0.01    -0.02   0.00   0.03    -0.00  -0.01  -0.01
  70   5    -0.01   0.00  -0.04     0.00   0.04  -0.03    -0.00  -0.00   0.00
  71   7     0.03  -0.03   0.01    -0.02  -0.00  -0.03     0.00   0.01   0.01
  72   5    -0.01  -0.00   0.04     0.00  -0.04   0.03     0.00  -0.00   0.00
                    151                    152                    153
                        a                      a                      a 
 Frequencies --  1139.6218              1139.6220              1140.8540
 Red. masses --    12.1821                12.1821                12.2524
 Frc consts  --     0.0000                 0.0000                 0.0000
 IR Inten    --     0.0000                 0.0000                 0.0000
 Raman Activ --     0.0000                 0.0000                 0.0000
 Depolar     --     0.0000                 0.0000                 0.0000
 Atom AN      X      Y      Z        X      Y      Z        X      Y      Z
   1   5    -0.01   0.00  -0.01    -0.01   0.01  -0.02    -0.01  -0.00  -0.01
   2   7     0.01  -0.01  -0.01    -0.01  -0.01   0.01     0.01  -0.00  -0.01
   3   5    -0.01  -0.00  -0.01    -0.01  -0.01  -0.02     0.01   0.00   0.01
   4   7    -0.01   0.01   0.01    -0.00   0.01   0.00    -0.01   0.00   0.01
   5   7     0.01   0.00  -0.00    -0.02   0.00  -0.00     0.00   0.01  -0.01
   6   5     0.01  -0.01  -0.01     0.00   0.02   0.02    -0.00  -0.01  -0.01
   7   7    -0.01   0.01  -0.01     0.02   0.00  -0.00     0.00  -0.01   0.01
   8   5    -0.01  -0.01  -0.01    -0.00   0.02   0.02     0.00   0.01   0.01
   9   5     0.20  -0.01  -0.18     0.07  -0.02  -0.05     0.14  -0.00  -0.14
  10   7    -0.13   0.11   0.06    -0.08   0.08  -0.02    -0.13   0.13  -0.00
  11   5    -0.02  -0.08   0.10     0.03  -0.11   0.08    -0.00  -0.14   0.14
  12   7     0.11  -0.03  -0.10     0.12  -0.04  -0.10     0.13  -0.00  -0.13
  13   5    -0.15   0.12   0.03    -0.16   0.17  -0.01    -0.14   0.14   0.00
  14   7    -0.03  -0.13   0.14     0.06  -0.11   0.09     0.00  -0.13   0.13
  15   7    -0.00   0.00   0.02    -0.01   0.01  -0.01    -0.01   0.01  -0.00
  16   5     0.02   0.02  -0.00    -0.01  -0.01   0.00     0.01   0.01   0.00
  17   7     0.01  -0.01  -0.02     0.01  -0.01   0.01     0.01  -0.01  -0.00
  18   5     0.02   0.02   0.00    -0.01  -0.01  -0.00    -0.01  -0.01  -0.00
  19   5    -0.05   0.00  -0.05     0.02   0.04   0.03    -0.06   0.00  -0.06
  20   7     0.02   0.02   0.04     0.01  -0.06  -0.05     0.00   0.03   0.03
  21   5    -0.02   0.00  -0.04    -0.06   0.06   0.02     0.06  -0.06   0.00
  22   7     0.04  -0.00   0.04     0.03  -0.02   0.02    -0.03  -0.00  -0.03
  23   5    -0.05   0.00  -0.01    -0.03  -0.00  -0.01    -0.00   0.06   0.06
  24   7     0.04  -0.03   0.02     0.01  -0.01  -0.01     0.03  -0.03  -0.00
  25   7    -0.00  -0.00   0.01     0.01   0.01  -0.00    -0.01  -0.01   0.00
  26   5    -0.01   0.01  -0.01     0.00  -0.00   0.00     0.01  -0.01  -0.00
  27   7    -0.01  -0.01  -0.01    -0.01  -0.01   0.00     0.01   0.01  -0.00
  28   5    -0.01   0.01   0.01     0.00  -0.00  -0.00    -0.01   0.01   0.00
  29   7    -0.06  -0.05   0.01     0.00  -0.00  -0.00     0.03   0.03   0.00
  30   5     0.06   0.02  -0.05    -0.02   0.03   0.04    -0.06   0.00   0.06
  31   7    -0.02   0.01   0.03    -0.01  -0.05  -0.05    -0.00  -0.03  -0.03
  32   5     0.01  -0.00  -0.03     0.06   0.06   0.01     0.06   0.06  -0.00
  33   7    -0.02  -0.01   0.02    -0.04  -0.02   0.03    -0.03   0.00   0.03
  34   5     0.05   0.03   0.01     0.03  -0.02  -0.03     0.00  -0.06  -0.06
  35   5    -0.03  -0.04   0.03    -0.05  -0.05  -0.01    -0.06  -0.06   0.00
  36   7     0.01   0.00   0.01     0.04   0.02   0.03     0.03   0.00   0.03
  37   5     0.02   0.03  -0.03    -0.05  -0.01  -0.01    -0.00   0.06  -0.06
  38   7    -0.05  -0.04  -0.01     0.03   0.03   0.00    -0.03  -0.03  -0.00
  39   5     0.06  -0.00   0.06    -0.01  -0.04  -0.00     0.06  -0.00   0.06
  40   7    -0.01   0.04  -0.05     0.02   0.04  -0.02     0.00   0.03  -0.03
  41   7     0.19   0.18   0.03     0.05   0.05  -0.01    -0.13  -0.13   0.00
  42   5     0.02  -0.18   0.19    -0.03  -0.07   0.04     0.00   0.14  -0.14
  43   7    -0.17  -0.00  -0.17    -0.09  -0.05  -0.07     0.13  -0.00   0.13
  44   5     0.20   0.18   0.02     0.14   0.14  -0.00    -0.14  -0.14   0.00
  45   7     0.03  -0.18   0.19    -0.06  -0.09   0.06    -0.00   0.13  -0.13
  46   5    -0.24  -0.00  -0.24    -0.05  -0.03  -0.02     0.14  -0.00   0.14
  47   5     0.00   0.00  -0.00     0.02   0.00  -0.02    -0.01   0.00   0.01
  48   7    -0.01  -0.00  -0.01     0.01  -0.02   0.01     0.01  -0.00   0.01
  49   5     0.00  -0.00  -0.00     0.02  -0.00  -0.02     0.01  -0.00  -0.01
  50   7     0.01   0.00   0.01    -0.00   0.02  -0.00    -0.01   0.00  -0.01
  51   7     0.03   0.00   0.03    -0.15   0.05  -0.13    -0.13   0.00  -0.13
  52   5    -0.03   0.00  -0.03     0.21  -0.20   0.01     0.14  -0.14  -0.00
  53   7    -0.06  -0.04  -0.07    -0.03   0.16   0.14     0.00   0.13   0.13
  54   5     0.12   0.00   0.12    -0.16   0.03  -0.14    -0.14   0.00  -0.14
  55   7    -0.07   0.05  -0.06     0.13  -0.12   0.02     0.13  -0.13   0.00
  56   5    -0.03  -0.01  -0.04    -0.02   0.12   0.11     0.00   0.14   0.14
  57   5     0.08   0.06  -0.02    -0.23  -0.23   0.00     0.14   0.14  -0.00
  58   7     0.06  -0.10  -0.12     0.03   0.18   0.17    -0.00  -0.13  -0.13
  59   5    -0.17   0.01   0.18     0.19   0.02  -0.17    -0.14   0.00   0.14
  60   7     0.13   0.11  -0.03    -0.16  -0.15   0.01     0.13   0.13  -0.00
  61   5     0.03  -0.10  -0.13     0.02   0.17   0.15    -0.00  -0.14  -0.14
  62   7    -0.09   0.03   0.10     0.18   0.04  -0.16    -0.13   0.00   0.13
  63   7     0.01   0.01  -0.02    -0.05   0.02   0.04     0.03  -0.00  -0.03
  64   5    -0.02   0.00   0.00     0.05   0.01  -0.02     0.00  -0.06   0.06
  65   7     0.03  -0.02  -0.02    -0.03   0.02   0.01    -0.03   0.03   0.00
  66   5    -0.05  -0.02   0.06     0.01  -0.03   0.00     0.06  -0.00  -0.06
  67   7     0.01   0.05  -0.06    -0.02   0.03  -0.02    -0.00  -0.03   0.03
  68   5     0.02  -0.03   0.04     0.06  -0.05  -0.02    -0.06   0.06  -0.00
  69   7    -0.02   0.01   0.01    -0.01  -0.01  -0.01    -0.00   0.01   0.01
  70   5    -0.00  -0.02   0.02     0.01  -0.01   0.01    -0.00  -0.01   0.01
  71   7     0.02  -0.00  -0.00     0.01  -0.00  -0.00    -0.00  -0.01  -0.01
  72   5     0.00  -0.02   0.02    -0.01  -0.01   0.01     0.00   0.01  -0.01
                    154                    155                    156
                        a                      a                      a 
 Frequencies --  1143.9943              1143.9945              1143.9946
 Red. masses --    11.9021                11.9021                11.9021
 Frc consts  --     0.0000                 0.0000                 0.0000
 IR Inten    --    45.3589                45.3591                45.3592
 Raman Activ --     0.0000                 0.0000                 0.0000
 Depolar     --     0.0000                 0.0000                 0.0000
 Atom AN      X      Y      Z        X      Y      Z        X      Y      Z
   1   5     0.08   0.02   0.04    -0.02  -0.02  -0.02    -0.10   0.02  -0.12
   2   7    -0.07  -0.02  -0.07    -0.01  -0.01   0.03     0.08  -0.02   0.07
   3   5     0.04   0.01   0.08    -0.03   0.03  -0.01    -0.12   0.00  -0.10
   4   7    -0.03  -0.03  -0.03     0.00  -0.00   0.04     0.10  -0.00   0.09
   5   7     0.02   0.02   0.05    -0.03  -0.02   0.01    -0.00   0.11   0.09
   6   5     0.01  -0.05  -0.06     0.03   0.01   0.05     0.00  -0.12  -0.10
   7   7     0.01   0.04   0.07    -0.02  -0.06  -0.03    -0.02   0.09   0.07
   8   5    -0.03  -0.06  -0.04    -0.00   0.05   0.01     0.02  -0.10  -0.12
   9   5    -0.01   0.01  -0.02    -0.04   0.00   0.04     0.02  -0.00  -0.00
  10   7    -0.03   0.04   0.04     0.03  -0.01   0.09     0.01   0.01  -0.15
  11   5    -0.01  -0.02   0.04     0.01  -0.03   0.01    -0.00   0.02  -0.00
  12   7    -0.01  -0.15  -0.00     0.04  -0.04  -0.04     0.00  -0.09   0.02
  13   5     0.04  -0.03  -0.01    -0.00   0.03  -0.01     0.00   0.00   0.00
  14   7     0.07   0.04  -0.03    -0.14   0.02  -0.03    -0.09   0.00   0.02
  15   7     0.06   0.02   0.00     0.08   0.10   0.01     0.05   0.05  -0.03
  16   5    -0.04  -0.03   0.02    -0.10  -0.08  -0.02    -0.06  -0.09   0.02
  17   7     0.05   0.01   0.01     0.05   0.07   0.02     0.08   0.08  -0.02
  18   5    -0.03  -0.05  -0.03    -0.08  -0.10   0.00    -0.09  -0.06   0.01
  19   5    -0.01   0.29   0.07    -0.03   0.10   0.01    -0.07   0.15  -0.03
  20   7    -0.08  -0.00  -0.06    -0.05   0.04  -0.00     0.03  -0.08  -0.06
  21   5     0.04  -0.06  -0.09    -0.05  -0.01  -0.21     0.03   0.03   0.25
  22   7     0.03   0.02   0.04     0.02  -0.09  -0.05    -0.08   0.03  -0.06
  23   5    -0.13  -0.01  -0.04     0.28  -0.03   0.05     0.14  -0.07  -0.03
  24   7     0.08  -0.06   0.03    -0.00   0.06   0.07     0.03   0.02   0.07
  25   7    -0.11   0.09  -0.00     0.01  -0.04   0.02     0.00  -0.03  -0.02
  26   5     0.12  -0.11   0.00    -0.04   0.06   0.01    -0.02  -0.02   0.03
  27   7    -0.10   0.08   0.02     0.04  -0.07   0.01    -0.03   0.01  -0.02
  28   5     0.11  -0.12  -0.01    -0.06   0.04  -0.03     0.02   0.01  -0.00
  29   7    -0.06   0.01   0.09    -0.04  -0.07  -0.05    -0.05  -0.05   0.01
  30   5     0.05   0.31   0.04    -0.04   0.07   0.06     0.03   0.13   0.00
  31   7     0.07  -0.00  -0.06     0.07   0.04  -0.00    -0.02  -0.08  -0.06
  32   5     0.00  -0.03  -0.11    -0.02  -0.06  -0.18    -0.07   0.00   0.27
  33   7    -0.01  -0.04  -0.03    -0.07   0.02   0.08     0.05   0.09   0.01
  34   5    -0.16  -0.05   0.00     0.26   0.05  -0.02     0.15  -0.03  -0.07
  35   5    -0.02  -0.01  -0.06    -0.07  -0.01  -0.20     0.00  -0.07   0.27
  36   7     0.03  -0.00   0.04     0.02   0.10  -0.05    -0.08  -0.02  -0.06
  37   5    -0.16  -0.07   0.02     0.28   0.01   0.07     0.13   0.03   0.00
  38   7    -0.06   0.01  -0.10    -0.04  -0.07   0.03    -0.05  -0.05   0.01
  39   5     0.07   0.30  -0.01    -0.00   0.05  -0.01    -0.03   0.16  -0.07
  40   7     0.04  -0.05   0.08    -0.01  -0.05   0.04     0.09   0.05   0.01
  41   7     0.00   0.02   0.03     0.04   0.03   0.11     0.03   0.03  -0.14
  42   5     0.00  -0.03   0.03     0.01  -0.02   0.02     0.01   0.02   0.00
  43   7    -0.02  -0.16  -0.02     0.02  -0.03  -0.01     0.03  -0.08   0.04
  44   5    -0.02   0.00  -0.01    -0.03  -0.03  -0.00    -0.02  -0.03   0.01
  45   7     0.08   0.04  -0.03    -0.14   0.02  -0.03    -0.06   0.00   0.02
  46   5     0.02   0.01   0.01     0.01   0.01  -0.02    -0.03   0.00  -0.03
  47   5    -0.00   0.00  -0.03    -0.13   0.01   0.12     0.02   0.03  -0.04
  48   7     0.02  -0.03   0.00     0.10   0.00  -0.11    -0.03  -0.02  -0.00
  49   5     0.03   0.03   0.00    -0.12  -0.00   0.12     0.04  -0.02  -0.02
  50   7    -0.02  -0.02   0.04     0.09  -0.02  -0.10    -0.05  -0.01   0.02
  51   7    -0.02  -0.15  -0.02     0.02  -0.05  -0.01     0.03  -0.08   0.04
  52   5     0.04  -0.03   0.00    -0.01   0.02   0.00     0.01   0.01   0.01
  53   7     0.07   0.03   0.01    -0.15  -0.00  -0.02    -0.07   0.03   0.04
  54   5     0.01   0.01   0.03     0.00  -0.01  -0.02    -0.04   0.01  -0.03
  55   7    -0.03   0.04   0.05     0.03  -0.01   0.11     0.01   0.01  -0.13
  56   5    -0.01  -0.00  -0.03     0.00   0.01   0.01     0.01  -0.04  -0.03
  57   5    -0.02  -0.00   0.01    -0.02  -0.04  -0.01    -0.03  -0.02   0.01
  58   7     0.09   0.03   0.01    -0.13  -0.00  -0.02    -0.08   0.03   0.04
  59   5     0.01   0.00  -0.00    -0.03   0.00   0.04     0.02   0.01   0.00
  60   7     0.00   0.02   0.06     0.04   0.03   0.09     0.03   0.03  -0.14
  61   5     0.00  -0.01  -0.02     0.01   0.02  -0.00     0.00  -0.03  -0.03
  62   7    -0.01  -0.16  -0.00     0.04  -0.04  -0.04     0.00  -0.07   0.02
  63   7    -0.01   0.06  -0.03    -0.07  -0.01   0.08     0.05  -0.08   0.01
  64   5    -0.14  -0.03   0.06     0.26  -0.07  -0.00     0.17  -0.01  -0.04
  65   7     0.08  -0.06  -0.03    -0.00   0.06  -0.08     0.02   0.02  -0.05
  66   5    -0.03   0.28  -0.04    -0.06   0.08   0.04    -0.01   0.17  -0.04
  67   7    -0.05  -0.04   0.08     0.03  -0.05   0.03    -0.08   0.05   0.01
  68   5     0.06  -0.04  -0.08     0.00   0.04  -0.18    -0.04  -0.04   0.28
  69   7     0.00   0.08  -0.10    -0.03   0.05  -0.03    -0.01  -0.05   0.02
  70   5    -0.02  -0.11   0.09     0.02  -0.05   0.09    -0.02   0.04  -0.02
  71   7     0.02   0.06  -0.08    -0.02   0.08  -0.07    -0.02  -0.03  -0.00
  72   5     0.00  -0.09   0.11     0.01  -0.09   0.05     0.03   0.02  -0.04
                    157                    158                    159
                        a                      a                      a 
 Frequencies --  1154.4514              1154.4517              1154.4519
 Red. masses --    12.1309                12.1309                12.1309
 Frc consts  --     0.0000                 0.0000                 0.0000
 IR Inten    --     0.0000                 0.0000                 0.0000
 Raman Activ --     0.0000                 0.0000                 0.0000
 Depolar     --     0.0000                 0.0000                 0.0000
 Atom AN      X      Y      Z        X      Y      Z        X      Y      Z
   1   5     0.02   0.01  -0.02    -0.05  -0.00  -0.04    -0.01   0.00  -0.02
   2   7    -0.02  -0.00   0.02     0.01  -0.03   0.01     0.01  -0.01  -0.01
   3   5     0.02  -0.01  -0.02    -0.05   0.00  -0.04     0.00  -0.00  -0.01
   4   7    -0.01   0.00   0.01     0.02   0.03   0.01    -0.01   0.01   0.02
   5   7    -0.02   0.00  -0.02    -0.02  -0.01  -0.00     0.01   0.02  -0.01
   6   5     0.00   0.02   0.04     0.00   0.02   0.04     0.01  -0.04  -0.00
   7   7     0.02  -0.01  -0.00     0.02   0.01  -0.02    -0.01   0.02  -0.01
   8   5    -0.00   0.03   0.04    -0.00   0.02   0.03    -0.01  -0.04  -0.00
   9   5    -0.06  -0.00   0.06     0.03  -0.06   0.02    -0.02  -0.01   0.03
  10   7     0.04  -0.03  -0.00    -0.01  -0.00   0.00     0.04  -0.05   0.00
  11   5     0.04   0.00  -0.04     0.04   0.01  -0.03    -0.03   0.07  -0.05
  12   7    -0.03  -0.00   0.03     0.02  -0.01  -0.00    -0.04  -0.00   0.05
  13   5     0.03  -0.00  -0.04    -0.05   0.03   0.03     0.03  -0.06   0.04
  14   7     0.01   0.03  -0.04     0.00  -0.02   0.01    -0.00   0.04  -0.03
  15   7     0.00   0.01  -0.02    -0.02   0.01   0.01    -0.00  -0.01   0.02
  16   5    -0.03  -0.02  -0.00     0.03   0.01   0.00     0.02   0.04  -0.01
  17   7     0.02  -0.00   0.02    -0.01  -0.00  -0.01     0.01  -0.02  -0.02
  18   5    -0.04  -0.03   0.00     0.03   0.00  -0.00     0.01   0.04   0.01
  19   5     0.06  -0.06   0.05     0.21   0.01   0.21    -0.12  -0.02  -0.12
  20   7     0.01  -0.02  -0.01     0.01  -0.20  -0.20     0.02   0.07   0.08
  21   5    -0.08   0.06  -0.05    -0.22   0.23   0.03     0.08  -0.07   0.04
  22   7     0.06  -0.02   0.04     0.18   0.00   0.18    -0.11  -0.01  -0.11
  23   5     0.02  -0.02  -0.02     0.02  -0.23  -0.23     0.06   0.08   0.10
  24   7    -0.07   0.06  -0.02    -0.20   0.20   0.01     0.07  -0.06   0.02
  25   7     0.02   0.02   0.01    -0.01   0.01  -0.02     0.01  -0.01   0.03
  26   5    -0.03   0.00   0.00     0.04  -0.02  -0.00    -0.02   0.05  -0.00
  27   7     0.00  -0.00  -0.01    -0.02  -0.01   0.02    -0.00  -0.02  -0.03
  28   5    -0.02  -0.00  -0.00     0.04  -0.03   0.00    -0.02   0.04   0.00
  29   7     0.21   0.21   0.01     0.04   0.03  -0.02    -0.05  -0.04   0.02
  30   5    -0.23  -0.00   0.23    -0.03  -0.07   0.01     0.10  -0.01  -0.10
  31   7    -0.01  -0.21  -0.21    -0.01   0.02   0.02    -0.02   0.05   0.06
  32   5     0.24   0.24   0.02     0.04   0.03  -0.04    -0.06  -0.05   0.05
  33   7    -0.20  -0.00   0.20    -0.02  -0.02   0.01     0.09  -0.00  -0.09
  34   5    -0.02  -0.24  -0.24    -0.02   0.02   0.02    -0.06   0.05   0.07
  35   5     0.01   0.01  -0.02    -0.17  -0.19   0.04    -0.18  -0.16  -0.05
  36   7    -0.04   0.02  -0.05     0.13  -0.00   0.13     0.17   0.01   0.17
  37   5     0.05  -0.05   0.07     0.04   0.19  -0.18    -0.03   0.15  -0.16
  38   7     0.01   0.01  -0.01    -0.15  -0.16   0.02    -0.15  -0.14  -0.02
  39   5    -0.04   0.06  -0.06     0.15  -0.01   0.15     0.19   0.02   0.19
  40   7     0.02  -0.05   0.06     0.01   0.17  -0.16    -0.01   0.13  -0.14
  41   7     0.00  -0.00   0.00    -0.04  -0.03  -0.00    -0.03  -0.04   0.01
  42   5    -0.04  -0.00  -0.03    -0.04   0.01  -0.04     0.03   0.07  -0.05
  43   7    -0.02  -0.01  -0.00     0.03   0.00   0.03     0.04  -0.00   0.04
  44   5     0.05   0.04   0.02    -0.04  -0.01  -0.04    -0.02  -0.06   0.04
  45   7    -0.01  -0.02   0.01    -0.00   0.03  -0.05     0.00   0.04  -0.03
  46   5    -0.02  -0.06   0.02     0.07   0.00   0.06     0.01  -0.02   0.02
  47   5     0.04   0.00  -0.04    -0.02   0.01  -0.01     0.01   0.00  -0.02
  48   7    -0.01  -0.03   0.02     0.02   0.00   0.01    -0.01  -0.01  -0.01
  49   5     0.05  -0.00  -0.05    -0.02  -0.01  -0.02     0.01  -0.00  -0.01
  50   7    -0.02   0.03   0.01     0.01  -0.00   0.01     0.01   0.01   0.02
  51   7     0.00   0.01   0.02     0.05  -0.00   0.04    -0.03   0.00  -0.02
  52   5     0.03   0.00   0.04    -0.05   0.04  -0.03     0.03  -0.06  -0.04
  53   7    -0.00  -0.00  -0.01    -0.00  -0.05  -0.05    -0.01   0.03   0.01
  54   5    -0.02   0.06   0.02     0.07  -0.00   0.06     0.00   0.02   0.02
  55   7    -0.01   0.02   0.00    -0.05   0.05  -0.00     0.01  -0.02  -0.00
  56   5    -0.02  -0.04  -0.05    -0.02  -0.03  -0.05    -0.06   0.05   0.01
  57   5     0.05   0.04  -0.02    -0.04  -0.01   0.04    -0.02  -0.06  -0.04
  58   7     0.00  -0.05  -0.05     0.00   0.01   0.00     0.01   0.02   0.01
  59   5    -0.06   0.00   0.06     0.03   0.06   0.02    -0.01   0.01   0.02
  60   7     0.05   0.05  -0.00     0.00   0.01   0.00    -0.01  -0.02  -0.01
  61   5     0.02  -0.04  -0.05     0.02  -0.03  -0.05     0.06   0.05   0.01
  62   7    -0.05   0.00   0.05     0.01   0.01   0.01     0.02   0.00  -0.02
  63   7    -0.11   0.00   0.11     0.03   0.02  -0.05    -0.19   0.00   0.18
  64   5    -0.05   0.17  -0.15    -0.04  -0.06   0.07     0.03   0.17  -0.18
  65   7     0.14  -0.15   0.02    -0.01   0.01  -0.01     0.17  -0.16  -0.02
  66   5    -0.12   0.00   0.12     0.03   0.07  -0.05    -0.21   0.01   0.21
  67   7    -0.02   0.15  -0.13    -0.01  -0.05   0.06     0.01   0.15  -0.16
  68   5     0.15  -0.17   0.05    -0.01   0.02  -0.03     0.19  -0.18  -0.04
  69   7    -0.01  -0.01  -0.02    -0.01   0.01  -0.00    -0.03   0.02  -0.01
  70   5     0.01   0.00   0.02     0.00  -0.01   0.03    -0.00  -0.05   0.03
  71   7     0.01   0.00  -0.00     0.01  -0.01  -0.02     0.03   0.02  -0.01
  72   5    -0.01  -0.00   0.03    -0.00  -0.00   0.02     0.00  -0.05   0.03
                    160                    161                    162
                        a                      a                      a 
 Frequencies --  1158.7090              1160.6302              1160.6303
 Red. masses --    12.1126                11.9844                11.9844
 Frc consts  --     0.0000                 0.0000                 0.0000
 IR Inten    --     0.0000                 2.5661                 2.5659
 Raman Activ --     0.0000                 0.0000                 0.0000
 Depolar     --     0.0000                 0.0000                 0.0000
 Atom AN      X      Y      Z        X      Y      Z        X      Y      Z
   1   5    -0.00   0.00  -0.00     0.02  -0.01   0.02    -0.05  -0.06   0.05
   2   7    -0.01   0.00   0.01    -0.06  -0.04  -0.06     0.01  -0.00  -0.01
   3   5     0.00  -0.00   0.00     0.03  -0.02   0.01    -0.05   0.05   0.04
   4   7     0.01  -0.00  -0.01    -0.01   0.01  -0.01     0.02  -0.00  -0.00
   5   7    -0.00  -0.01   0.01    -0.00  -0.00   0.02    -0.01   0.02   0.01
   6   5     0.00  -0.00  -0.00    -0.04   0.03  -0.05     0.04  -0.05  -0.00
   7   7     0.00   0.01  -0.01     0.02   0.02   0.04     0.04   0.07   0.06
   8   5    -0.00   0.00   0.00     0.06   0.03  -0.05    -0.01  -0.04  -0.01
   9   5     0.06  -0.00  -0.06    -0.00   0.01  -0.00    -0.01   0.01  -0.00
  10   7    -0.04   0.04  -0.00     0.02  -0.01  -0.09     0.01  -0.01   0.10
  11   5     0.00  -0.06   0.06    -0.00   0.00  -0.00     0.00  -0.00  -0.00
  12   7     0.04  -0.00  -0.04    -0.00   0.14   0.00     0.02  -0.01  -0.02
  13   5    -0.06   0.06  -0.00    -0.00   0.00  -0.00    -0.01  -0.00   0.01
  14   7     0.00  -0.04   0.04    -0.07  -0.02   0.02    -0.16   0.01  -0.01
  15   7     0.01  -0.01  -0.00     0.05   0.03   0.02    -0.04  -0.06  -0.03
  16   5     0.00   0.00  -0.00    -0.05   0.02  -0.03    -0.01   0.05  -0.05
  17   7    -0.01   0.01   0.00     0.02  -0.00  -0.00     0.01  -0.01   0.00
  18   5    -0.00  -0.00   0.00    -0.06   0.03   0.05    -0.01   0.04   0.02
  19   5     0.15  -0.00   0.15     0.03  -0.07   0.01    -0.05   0.35   0.05
  20   7     0.00  -0.12  -0.12     0.04  -0.03   0.01    -0.07   0.01  -0.04
  21   5    -0.15   0.15  -0.00     0.05  -0.01   0.15    -0.01  -0.05  -0.17
  22   7     0.12  -0.00   0.12    -0.00   0.06   0.04     0.03  -0.05  -0.03
  23   5     0.00  -0.15  -0.15    -0.31   0.03  -0.05     0.18  -0.05   0.01
  24   7    -0.12   0.12  -0.00     0.01  -0.04  -0.05     0.04   0.01   0.07
  25   7     0.01   0.01   0.00    -0.07   0.06   0.04    -0.01   0.02   0.01
  26   5     0.00  -0.00   0.00     0.05  -0.02  -0.01     0.01  -0.04   0.01
  27   7    -0.01  -0.01  -0.00    -0.04   0.03  -0.02    -0.06   0.07  -0.03
  28   5    -0.00   0.00  -0.00     0.05  -0.02   0.03     0.00  -0.05  -0.04
  29   7    -0.12  -0.12   0.00     0.02  -0.04  -0.08     0.02   0.01   0.01
  30   5     0.15  -0.00  -0.15    -0.04  -0.24  -0.03     0.03   0.00  -0.03
  31   7    -0.00   0.12   0.12    -0.08  -0.04   0.02    -0.02  -0.02  -0.02
  32   5    -0.15  -0.15   0.00    -0.06   0.03   0.31    -0.01   0.04   0.17
  33   7     0.12  -0.00  -0.12     0.03   0.09   0.03     0.03   0.01  -0.03
  34   5    -0.00   0.15   0.15     0.34   0.04  -0.06    -0.12  -0.04  -0.01
  35   5     0.15   0.15  -0.00    -0.05   0.02  -0.27    -0.02   0.05  -0.24
  36   7    -0.12   0.00  -0.12     0.03   0.05   0.01     0.03   0.07  -0.03
  37   5     0.00  -0.15   0.15     0.11  -0.02   0.05     0.25   0.05   0.02
  38   7     0.12   0.12  -0.00     0.01  -0.03   0.02     0.04  -0.02   0.08
  39   5    -0.15   0.00  -0.15     0.02  -0.01   0.02    -0.05  -0.36   0.05
  40   7     0.00  -0.12   0.12    -0.04  -0.04   0.02    -0.08  -0.02  -0.04
  41   7    -0.04  -0.04   0.00    -0.01   0.00  -0.21    -0.01   0.02  -0.15
  42   5    -0.00   0.06  -0.06    -0.03  -0.01  -0.02    -0.07  -0.04  -0.03
  43   7     0.04  -0.00   0.04     0.00   0.03   0.02    -0.02  -0.25   0.02
  44   5    -0.06  -0.06   0.00     0.02  -0.01   0.03     0.03  -0.04   0.07
  45   7    -0.00   0.04  -0.04     0.07  -0.01   0.02     0.15   0.02   0.01
  46   5     0.06  -0.00   0.06     0.01   0.03  -0.02     0.03   0.06  -0.03
  47   5    -0.00   0.00   0.00    -0.02   0.01  -0.02     0.04  -0.00  -0.04
  48   7    -0.01  -0.00  -0.01     0.04  -0.02  -0.03    -0.06   0.03   0.06
  49   5     0.00  -0.00  -0.00    -0.03  -0.05  -0.03     0.04  -0.00  -0.04
  50   7     0.01   0.00   0.01    -0.02  -0.01   0.03    -0.07  -0.04   0.07
  51   7    -0.04   0.00  -0.04     0.02  -0.02   0.00    -0.01   0.25   0.01
  52   5     0.06  -0.06   0.00    -0.02  -0.02  -0.04     0.03   0.03   0.06
  53   7    -0.00   0.04   0.04    -0.23   0.01  -0.01     0.11  -0.02   0.00
  54   5    -0.06   0.00  -0.06    -0.02   0.05   0.02     0.03  -0.05  -0.03
  55   7     0.04  -0.04   0.00     0.03  -0.01   0.09    -0.00  -0.02  -0.10
  56   5    -0.00   0.06   0.06     0.04  -0.02   0.02    -0.06   0.03  -0.03
  57   5     0.06   0.06  -0.00     0.04  -0.04  -0.07     0.00  -0.00   0.00
  58   7     0.00  -0.04  -0.04     0.23   0.01  -0.02    -0.11  -0.01  -0.01
  59   5    -0.06   0.00   0.06     0.04   0.07   0.04    -0.00   0.00   0.00
  60   7     0.04   0.04  -0.00    -0.02   0.01   0.21     0.01   0.01   0.15
  61   5     0.00  -0.06  -0.06    -0.07  -0.04   0.04    -0.01  -0.00   0.00
  62   7    -0.04   0.00   0.04    -0.02  -0.14  -0.01     0.02   0.01  -0.02
  63   7    -0.12   0.00   0.12    -0.00   0.02   0.00     0.03   0.01  -0.03
  64   5    -0.00   0.15  -0.15    -0.08  -0.02   0.04    -0.18   0.04   0.01
  65   7     0.12  -0.12   0.00     0.02  -0.03  -0.01     0.02  -0.02   0.02
  66   5    -0.15   0.00   0.15    -0.02   0.16  -0.02     0.04  -0.02  -0.03
  67   7    -0.00   0.12  -0.12    -0.00  -0.03   0.03    -0.01   0.01  -0.02
  68   5     0.15  -0.15   0.00     0.04  -0.02  -0.10     0.01  -0.03   0.10
  69   7    -0.00  -0.01  -0.01     0.04   0.07  -0.07    -0.00  -0.01  -0.00
  70   5     0.00  -0.00   0.00     0.02  -0.03   0.05     0.05   0.05   0.01
  71   7     0.00   0.01   0.01    -0.03   0.05  -0.05     0.03  -0.06   0.04
  72   5    -0.00   0.00  -0.00    -0.01  -0.03   0.05    -0.02   0.04   0.01
                    163                    164                    165
                        a                      a                      a 
 Frequencies --  1160.6303              1164.2954              1164.2956
 Red. masses --    11.9844                11.4861                11.4861
 Frc consts  --     0.0000                 0.0000                 0.0000
 IR Inten    --     2.5657                 0.0000                 0.0000
 Raman Activ --     0.0000                 0.0000                 0.0000
 Depolar     --     0.0000                 0.0000                 0.0000
 Atom AN      X      Y      Z        X      Y      Z        X      Y      Z
   1   5    -0.03  -0.01  -0.04     0.10   0.02  -0.00     0.11  -0.01   0.14
   2   7     0.03   0.02   0.04    -0.07   0.02   0.02    -0.06   0.05  -0.09
   3   5    -0.03  -0.02  -0.04     0.09  -0.02  -0.02     0.11   0.01   0.15
   4   7     0.07  -0.04   0.07    -0.05  -0.02   0.01    -0.06  -0.05  -0.08
   5   7    -0.04   0.07   0.07    -0.03  -0.02  -0.06     0.04   0.04   0.07
   6   5    -0.01  -0.03  -0.04     0.00   0.06   0.06    -0.01  -0.07  -0.13
   7   7     0.02   0.03   0.03     0.03  -0.06  -0.02    -0.04   0.02   0.09
   8   5    -0.01  -0.04  -0.03    -0.00   0.09   0.09     0.01  -0.06  -0.12
   9   5    -0.04   0.08  -0.04    -0.18   0.02   0.15     0.01   0.08  -0.10
  10   7     0.02   0.02  -0.22     0.06   0.00  -0.06    -0.03   0.04  -0.02
  11   5     0.08  -0.04  -0.04     0.04  -0.14   0.09    -0.06  -0.09   0.17
  12   7     0.02  -0.21   0.02    -0.01   0.02  -0.01    -0.03   0.07  -0.03
  13   5    -0.04  -0.04   0.08     0.03   0.06  -0.07     0.19  -0.16  -0.02
  14   7    -0.19   0.02   0.02     0.04   0.03  -0.07    -0.05   0.04   0.01
  15   7     0.04   0.04   0.02     0.07   0.06  -0.04     0.06  -0.02  -0.01
  16   5    -0.04  -0.04  -0.01    -0.13  -0.09  -0.01    -0.07  -0.02  -0.01
  17   7     0.07   0.07  -0.04     0.09   0.04   0.04     0.02   0.02   0.01
  18   5    -0.03  -0.04  -0.01    -0.14  -0.10   0.01    -0.04   0.01   0.01
  19   5    -0.02  -0.06  -0.04     0.08  -0.13   0.05     0.13   0.04   0.14
  20   7     0.04  -0.04  -0.01     0.00   0.04   0.04    -0.04  -0.04  -0.06
  21   5     0.04   0.04   0.28    -0.08   0.05  -0.12    -0.04   0.03  -0.03
  22   7    -0.04   0.04  -0.01     0.05  -0.08   0.00     0.06   0.02   0.07
  23   5    -0.04  -0.02  -0.03     0.00   0.12   0.12    -0.07  -0.08  -0.10
  24   7    -0.02  -0.01  -0.02    -0.05   0.00  -0.07    -0.04   0.02  -0.02
  25   7     0.01  -0.03  -0.01     0.07   0.02   0.02     0.02  -0.04   0.02
  26   5     0.04   0.05  -0.06    -0.10  -0.00   0.02    -0.06   0.03   0.01
  27   7    -0.02   0.00  -0.01     0.05   0.00  -0.02     0.06  -0.00  -0.02
  28   5     0.03   0.04   0.04    -0.09  -0.02  -0.02    -0.09   0.06  -0.01
  29   7    -0.04  -0.02   0.04    -0.07  -0.05   0.03    -0.03  -0.01   0.04
  30   5     0.03   0.27   0.04     0.12   0.04  -0.11    -0.02   0.14   0.05
  31   7     0.04  -0.01  -0.03    -0.00   0.04   0.04     0.04  -0.04  -0.06
  32   5    -0.02  -0.04  -0.05    -0.12  -0.11   0.05    -0.08  -0.06   0.06
  33   7    -0.02  -0.02  -0.01     0.07   0.03  -0.05     0.01   0.08   0.04
  34   5    -0.02  -0.03  -0.02    -0.00   0.05   0.05     0.07  -0.12  -0.14
  35   5    -0.03  -0.03   0.00    -0.15  -0.14  -0.05    -0.01   0.01  -0.06
  36   7    -0.02   0.03  -0.03     0.04   0.08  -0.00     0.06  -0.02   0.07
  37   5     0.24   0.03   0.03     0.08  -0.03   0.05    -0.10   0.04  -0.07
  38   7    -0.02  -0.03   0.03    -0.07  -0.05  -0.03    -0.03  -0.00  -0.04
  39   5    -0.03   0.01  -0.03     0.05   0.13   0.01     0.15  -0.04   0.16
  40   7    -0.00  -0.01  -0.01     0.05   0.01   0.02    -0.06   0.02  -0.05
  41   7    -0.02  -0.01   0.02     0.01  -0.01   0.02     0.07   0.04   0.03
  42   5    -0.01  -0.01  -0.01    -0.04   0.09  -0.15     0.06   0.04   0.03
  43   7    -0.02   0.03  -0.01    -0.06  -0.06   0.00    -0.01   0.02  -0.03
  44   5     0.01  -0.01   0.02     0.18   0.15   0.03    -0.07  -0.12   0.04
  45   7     0.19   0.00   0.00    -0.04  -0.07   0.03     0.05  -0.01   0.07
  46   5     0.01   0.02  -0.01    -0.03  -0.07   0.06    -0.13   0.02  -0.15
  47   5     0.04  -0.06   0.05     0.13  -0.01  -0.09     0.02  -0.03   0.09
  48   7     0.02  -0.01  -0.03    -0.07  -0.04   0.06    -0.02   0.01  -0.06
  49   5     0.03   0.03   0.04     0.14   0.01  -0.10     0.02   0.03   0.10
  50   7    -0.02  -0.01   0.00    -0.09   0.04   0.04    -0.02  -0.01  -0.06
  51   7    -0.01  -0.02  -0.02    -0.02   0.06   0.04    -0.03  -0.02  -0.04
  52   5    -0.01  -0.02  -0.02     0.14  -0.05   0.07    -0.05   0.08   0.02
  53   7    -0.00  -0.01  -0.02    -0.00   0.03   0.03     0.04   0.03   0.06
  54   5    -0.01   0.03   0.02    -0.14   0.07  -0.05    -0.08  -0.02  -0.11
  55   7     0.01   0.01   0.22     0.02   0.04   0.06     0.07  -0.05   0.02
  56   5     0.03  -0.01   0.02    -0.00  -0.18  -0.19     0.04  -0.00   0.05
  57   5    -0.01   0.02   0.03     0.07   0.03  -0.03     0.17   0.13  -0.04
  58   7     0.01  -0.02  -0.01     0.00  -0.06  -0.06    -0.04  -0.02   0.01
  59   5    -0.01  -0.02  -0.01    -0.07  -0.02   0.04    -0.04  -0.08  -0.06
  60   7    -0.01  -0.02  -0.02     0.06   0.03  -0.02    -0.02  -0.06  -0.03
  61   5     0.03   0.02  -0.01     0.00   0.05   0.05    -0.04   0.13   0.18
  62   7     0.00   0.21   0.01    -0.06  -0.02   0.03    -0.02  -0.07  -0.05
  63   7    -0.04   0.09  -0.03     0.07  -0.03  -0.05     0.01  -0.08   0.04
  64   5    -0.30   0.04   0.05    -0.08   0.04  -0.02     0.10   0.08  -0.11
  65   7    -0.04  -0.03   0.09    -0.04  -0.00   0.07    -0.04   0.03   0.02
  66   5     0.04  -0.32   0.05     0.16  -0.04  -0.14    -0.03  -0.14   0.07
  67   7     0.09  -0.03  -0.03    -0.05   0.02   0.01     0.06   0.02  -0.05
  68   5     0.05   0.05  -0.33    -0.05   0.02   0.12    -0.11   0.10   0.03
  69   7    -0.01  -0.03   0.01    -0.00  -0.04  -0.04     0.02  -0.02   0.06
  70   5     0.03   0.03   0.03     0.02   0.05   0.02    -0.02   0.03  -0.12
  71   7    -0.01   0.01  -0.03     0.00  -0.00  -0.01    -0.02   0.00   0.08
  72   5    -0.05   0.04   0.04    -0.02   0.02   0.05     0.02   0.02  -0.10
                    166                    167                    168
                        a                      a                      a 
 Frequencies --  1164.2960              1173.6385              1173.6387
 Red. masses --    11.4861                11.6594                11.6594
 Frc consts  --     0.0000                 0.0000                 0.0000
 IR Inten    --     0.0000                 0.0000                 0.0000
 Raman Activ --     0.0000                 0.0000                 0.0000
 Depolar     --     0.0000                 0.0000                 0.0000
 Atom AN      X      Y      Z        X      Y      Z        X      Y      Z
   1   5    -0.00  -0.01   0.04    -0.03   0.00   0.03     0.01   0.00   0.01
   2   7    -0.00   0.00  -0.00    -0.00   0.04  -0.00    -0.01   0.00   0.01
   3   5    -0.04   0.01   0.01     0.03   0.00  -0.03    -0.01  -0.00  -0.01
   4   7     0.04  -0.00  -0.04     0.00   0.04   0.00     0.01   0.00  -0.01
   5   7    -0.02  -0.08   0.01    -0.02   0.01  -0.01     0.03   0.01  -0.01
   6   5    -0.02   0.11   0.01    -0.00  -0.02   0.01     0.00   0.02  -0.03
   7   7     0.02  -0.06  -0.00    -0.02  -0.01   0.01     0.03  -0.01   0.01
   8   5     0.02   0.10  -0.00    -0.00   0.02  -0.01     0.00  -0.02   0.03
   9   5    -0.08   0.00   0.08     0.04  -0.09   0.04    -0.14   0.00   0.14
  10   7    -0.02   0.06  -0.03    -0.07   0.09  -0.02     0.06  -0.03  -0.03
  11   5     0.03  -0.09   0.05     0.05  -0.14   0.10    -0.08  -0.03   0.11
  12   7     0.06   0.00  -0.06    -0.02   0.03  -0.02     0.09  -0.00  -0.09
  13   5    -0.04   0.08  -0.04     0.10  -0.14   0.05    -0.11   0.03   0.08
  14   7     0.03  -0.05   0.02    -0.02   0.09  -0.07     0.03   0.03  -0.06
  15   7     0.00   0.06  -0.02     0.01  -0.01  -0.02    -0.01   0.01  -0.03
  16   5    -0.02  -0.12   0.02     0.01  -0.02  -0.00     0.03  -0.02  -0.00
  17   7    -0.01   0.08   0.02    -0.01   0.01  -0.02     0.01  -0.01  -0.03
  18   5    -0.01  -0.10  -0.02    -0.01   0.02  -0.00    -0.03   0.02  -0.00
  19   5     0.04   0.06   0.05     0.01  -0.07  -0.01     0.18  -0.00   0.18
  20   7    -0.07   0.05   0.01     0.06  -0.06  -0.01    -0.11   0.02  -0.06
  21   5     0.13  -0.15  -0.07    -0.16   0.15  -0.03     0.08  -0.09  -0.06
  22   7    -0.01   0.04   0.01     0.05  -0.13  -0.05    -0.04  -0.00  -0.04
  23   5    -0.12   0.07   0.04     0.03   0.15   0.16    -0.06   0.09   0.08
  24   7     0.05  -0.07  -0.04     0.01  -0.06  -0.06    -0.06  -0.02  -0.11
  25   7    -0.05   0.08  -0.04     0.01   0.01   0.02    -0.01  -0.01   0.03
  26   5     0.09  -0.14   0.01     0.01   0.02   0.00     0.03   0.02   0.00
  27   7    -0.04   0.09   0.04    -0.01  -0.01   0.02     0.01   0.01   0.03
  28   5     0.08  -0.13  -0.01    -0.01  -0.02   0.00    -0.03  -0.02   0.00
  29   7    -0.01  -0.05  -0.07     0.01   0.06   0.06    -0.06   0.02   0.11
  30   5    -0.10   0.00   0.10     0.01   0.07   0.01     0.18  -0.00  -0.18
  31   7     0.07   0.05   0.01     0.06   0.06   0.01    -0.11  -0.02   0.06
  32   5    -0.07  -0.10  -0.12    -0.16  -0.15   0.03     0.08   0.09   0.06
  33   7    -0.03   0.00   0.03     0.05   0.13   0.05    -0.04   0.00   0.04
  34   5     0.12   0.09   0.06     0.03  -0.15  -0.16    -0.06  -0.09  -0.08
  35   5    -0.04  -0.07   0.12     0.16   0.15   0.03    -0.08  -0.09   0.06
  36   7    -0.01  -0.04   0.01    -0.05  -0.13   0.05     0.04   0.00   0.04
  37   5     0.06   0.15  -0.14    -0.03   0.15  -0.16     0.06   0.09  -0.08
  38   7    -0.01  -0.05   0.07    -0.01  -0.06   0.06     0.06  -0.02   0.11
  39   5    -0.04  -0.06  -0.03    -0.01  -0.07   0.01    -0.18   0.00  -0.18
  40   7     0.04   0.07  -0.05    -0.06  -0.06   0.01     0.11   0.02   0.06
  41   7     0.00   0.06  -0.06    -0.07  -0.09   0.02     0.06   0.03   0.03
  42   5    -0.03  -0.17   0.12     0.05   0.14  -0.10    -0.08   0.03  -0.11
  43   7    -0.04   0.03  -0.07    -0.02  -0.03   0.02     0.09  -0.00   0.09
  44   5    -0.03   0.05  -0.07     0.10   0.14  -0.05    -0.11  -0.03  -0.08
  45   7    -0.03  -0.02  -0.01    -0.02  -0.09   0.07     0.03  -0.03   0.06
  46   5     0.14   0.03   0.10     0.04   0.09  -0.04    -0.14  -0.00  -0.14
  47   5    -0.07  -0.00   0.07    -0.03  -0.00  -0.03     0.01  -0.00  -0.01
  48   7     0.05   0.02  -0.01    -0.00  -0.04   0.00    -0.01  -0.00  -0.01
  49   5    -0.04   0.00   0.04     0.03  -0.00   0.03    -0.01   0.00   0.01
  50   7     0.01  -0.02  -0.05     0.00  -0.04  -0.00     0.01   0.00   0.01
  51   7     0.06  -0.03   0.03     0.02  -0.03  -0.02    -0.09   0.00  -0.09
  52   5    -0.12   0.17   0.04    -0.10   0.14   0.05     0.11  -0.03   0.08
  53   7     0.06  -0.06   0.00     0.02  -0.09  -0.07    -0.03  -0.03  -0.06
  54   5    -0.11  -0.03  -0.15    -0.04   0.09   0.04     0.14   0.00   0.14
  55   7     0.01   0.02   0.03     0.07  -0.09  -0.02    -0.06   0.03  -0.03
  56   5     0.07  -0.06   0.03    -0.05   0.14   0.10     0.08   0.03   0.11
  57   5     0.06   0.14   0.07    -0.10  -0.14  -0.05     0.11   0.03  -0.08
  58   7    -0.06  -0.03   0.03     0.02   0.09   0.07    -0.03   0.03   0.06
  59   5     0.18  -0.00  -0.18    -0.04  -0.09  -0.04     0.14  -0.00  -0.14
  60   7    -0.03   0.03   0.06     0.07   0.09   0.02    -0.06  -0.03   0.03
  61   5    -0.07  -0.13  -0.05    -0.05  -0.14  -0.10     0.08  -0.03  -0.11
  62   7    -0.04  -0.00   0.04     0.02   0.03   0.02    -0.09   0.00   0.09
  63   7    -0.03  -0.00   0.03    -0.05   0.13  -0.05     0.04   0.00  -0.04
  64   5    -0.06   0.13  -0.11    -0.03  -0.15   0.16     0.06  -0.09   0.08
  65   7     0.05  -0.07   0.04    -0.01   0.06  -0.06     0.06   0.02  -0.11
  66   5    -0.02  -0.00   0.03    -0.01   0.07  -0.01    -0.18   0.00   0.18
  67   7    -0.04   0.07  -0.05    -0.06   0.06  -0.01     0.11  -0.02  -0.06
  68   5     0.11  -0.12   0.07     0.16  -0.15  -0.03    -0.08   0.09  -0.06
  69   7     0.04  -0.08   0.05     0.02   0.01   0.01    -0.03   0.01   0.01
  70   5     0.01   0.14  -0.09     0.00  -0.02  -0.01    -0.00   0.02   0.03
  71   7    -0.04  -0.09   0.04     0.02  -0.01  -0.01    -0.03  -0.01  -0.01
  72   5    -0.01   0.15  -0.10     0.00   0.02   0.01    -0.00  -0.02  -0.03
                    169                    170                    171
                        a                      a                      a 
 Frequencies --  1178.0383              1178.0384              1178.0387
 Red. masses --    11.6144                11.6144                11.6144
 Frc consts  --     0.0000                 0.0000                 0.0000
 IR Inten    --   261.6934               261.6942               261.6949
 Raman Activ --     0.0000                 0.0000                 0.0000
 Depolar     --     0.0000                 0.0000                 0.0000
 Atom AN      X      Y      Z        X      Y      Z        X      Y      Z
   1   5     0.09  -0.01   0.09    -0.07  -0.07   0.08    -0.08  -0.02  -0.05
   2   7     0.01   0.10   0.01     0.00   0.01   0.00     0.03  -0.04   0.03
   3   5     0.11  -0.02   0.07    -0.07   0.07   0.08    -0.05  -0.02  -0.08
   4   7    -0.02  -0.07  -0.02    -0.00  -0.00  -0.00    -0.01   0.08  -0.01
   5   7    -0.08  -0.02  -0.02     0.06  -0.01  -0.01    -0.04   0.01   0.01
   6   5    -0.02   0.11   0.08     0.02  -0.07  -0.02     0.07  -0.04   0.10
   7   7     0.11   0.00   0.00    -0.02   0.02   0.02     0.02  -0.01  -0.01
   8   5    -0.01   0.09   0.10    -0.06  -0.10   0.01    -0.05  -0.02   0.09
   9   5    -0.11   0.15  -0.07     0.20   0.01  -0.21     0.06  -0.11   0.07
  10   7     0.01   0.00  -0.05    -0.06  -0.01   0.13     0.03  -0.07   0.07
  11   5     0.16  -0.11  -0.08    -0.08   0.15  -0.06     0.06   0.14  -0.21
  12   7     0.01  -0.03  -0.00    -0.05  -0.01   0.06     0.04  -0.15   0.04
  13   5    -0.09  -0.07   0.14     0.03  -0.16   0.11    -0.21   0.15   0.05
  14   7    -0.02   0.00  -0.00    -0.13   0.00   0.06     0.08  -0.07   0.03
  15   7     0.01   0.01   0.10    -0.02  -0.02   0.04    -0.01  -0.01   0.02
  16   5     0.08   0.09  -0.01     0.04   0.09  -0.02     0.10  -0.04   0.07
  17   7    -0.02  -0.02  -0.06     0.01   0.01  -0.08     0.01   0.01  -0.04
  18   5     0.10   0.07  -0.02     0.02   0.11   0.05     0.09  -0.03  -0.05
  19   5    -0.00   0.03   0.01     0.01  -0.05  -0.01    -0.01   0.04   0.00
  20   7     0.01  -0.05  -0.04    -0.03   0.05  -0.01    -0.07   0.04  -0.07
  21   5     0.01   0.01   0.07     0.00  -0.00   0.00    -0.01   0.01  -0.00
  22   7    -0.05   0.02  -0.03     0.06  -0.07  -0.06     0.02   0.01   0.03
  23   5     0.02   0.00   0.01     0.00  -0.01  -0.00    -0.06   0.01  -0.01
  24   7     0.05   0.05   0.06     0.01   0.06   0.03     0.06  -0.03   0.01
  25   7    -0.02   0.02   0.02     0.01  -0.01  -0.07     0.02  -0.02   0.08
  26   5    -0.05  -0.04   0.04    -0.00  -0.11   0.06    -0.12   0.07   0.03
  27   7     0.02  -0.02   0.01    -0.02   0.02   0.03    -0.00   0.00  -0.10
  28   5    -0.07  -0.06  -0.07     0.02  -0.08  -0.03    -0.11   0.08  -0.01
  29   7    -0.04  -0.03   0.01     0.00  -0.06  -0.04    -0.06   0.04   0.06
  30   5     0.01   0.07   0.01     0.01   0.01  -0.01     0.00   0.00   0.00
  31   7     0.00  -0.04  -0.04     0.05   0.06  -0.02     0.06   0.03  -0.06
  32   5    -0.00   0.01   0.03     0.02  -0.01  -0.05    -0.00   0.01   0.03
  33   7     0.06   0.07   0.05    -0.04   0.01   0.05    -0.03  -0.03  -0.03
  34   5     0.02   0.01   0.00     0.06   0.01  -0.02     0.03   0.01  -0.00
  35   5     0.01   0.00   0.02     0.00   0.01  -0.00    -0.01   0.01  -0.06
  36   7    -0.04   0.00  -0.04     0.06   0.07  -0.06     0.03   0.01   0.03
  37   5     0.07   0.01   0.01     0.01   0.01  -0.00    -0.00   0.01  -0.01
  38   7    -0.04  -0.04   0.01    -0.00  -0.05   0.02    -0.07   0.04  -0.07
  39   5     0.01   0.02   0.00     0.01   0.06  -0.01     0.00   0.03  -0.01
  40   7     0.07   0.06   0.05    -0.02  -0.05   0.01     0.02  -0.02   0.06
  41   7    -0.06  -0.02  -0.09    -0.02  -0.05   0.07     0.02  -0.04   0.10
  42   5    -0.16  -0.11  -0.08     0.07   0.15  -0.06    -0.05   0.14  -0.21
  43   7    -0.06  -0.07  -0.03    -0.03  -0.07   0.02     0.00  -0.11   0.06
  44   5     0.16   0.15   0.01     0.07   0.17  -0.08     0.15  -0.04   0.16
  45   7    -0.12  -0.03  -0.04    -0.08  -0.05   0.01     0.04  -0.04   0.05
  46   5     0.18   0.02   0.15    -0.10  -0.18   0.12    -0.11   0.00  -0.12
  47   5    -0.06   0.05  -0.04     0.11   0.00  -0.11     0.05  -0.06   0.06
  48   7    -0.01   0.03   0.01    -0.01  -0.10   0.01    -0.02   0.03   0.02
  49   5    -0.08  -0.07  -0.06     0.10  -0.01  -0.12     0.02   0.02   0.03
  50   7     0.01   0.01  -0.02    -0.01   0.11   0.01     0.02   0.02  -0.02
  51   7    -0.02  -0.09  -0.07    -0.02   0.04   0.01     0.06  -0.12   0.00
  52   5    -0.09  -0.07  -0.14     0.03  -0.16  -0.11    -0.21   0.15  -0.05
  53   7    -0.07  -0.03  -0.06    -0.07   0.04   0.01     0.11  -0.05   0.01
  54   5     0.18  -0.02   0.15    -0.10   0.18   0.12    -0.11  -0.01  -0.12
  55   7    -0.03  -0.04  -0.13    -0.01   0.04   0.06     0.06  -0.04   0.04
  56   5    -0.01   0.18   0.17     0.09  -0.14  -0.02     0.16  -0.03   0.16
  57   5     0.16   0.15  -0.01     0.07   0.17   0.09     0.15  -0.04  -0.16
  58   7    -0.07  -0.06  -0.03    -0.14  -0.01   0.06     0.01  -0.02  -0.01
  59   5    -0.11  -0.15  -0.07     0.20  -0.01  -0.21     0.06   0.10   0.07
  60   7    -0.02  -0.06  -0.09    -0.06  -0.00   0.12    -0.01  -0.02   0.00
  61   5     0.01   0.18   0.17    -0.10  -0.14  -0.02    -0.15  -0.03   0.16
  62   7    -0.03  -0.13  -0.04    -0.06  -0.02   0.05    -0.01  -0.08  -0.02
  63   7     0.05  -0.05   0.04    -0.04  -0.00   0.05    -0.04   0.05  -0.04
  64   5    -0.02   0.00   0.00     0.05  -0.01  -0.02    -0.03   0.01   0.00
  65   7     0.05   0.04  -0.05     0.02   0.06  -0.05     0.06  -0.02  -0.02
  66   5     0.00  -0.02   0.00     0.01   0.00  -0.01    -0.01   0.07  -0.01
  67   7    -0.06   0.05   0.05     0.04  -0.05  -0.00    -0.03  -0.02   0.06
  68   5     0.00   0.00  -0.01     0.02   0.01  -0.06    -0.00   0.01  -0.03
  69   7     0.01   0.01  -0.01     0.08   0.01  -0.01     0.08  -0.02   0.02
  70   5    -0.07  -0.08  -0.07     0.01   0.07  -0.04    -0.01   0.08  -0.11
  71   7     0.02  -0.01   0.01    -0.03  -0.02   0.02    -0.10   0.00  -0.00
  72   5     0.05  -0.06  -0.05    -0.05   0.10  -0.02     0.03   0.06  -0.12
                    172                    173                    174
                        a                      a                      a 
 Frequencies --  1191.2702              1204.4269              1204.4272
 Red. masses --    12.1012                11.9871                11.9871
 Frc consts  --     0.0000                 0.0000                 0.0000
 IR Inten    --     0.0000                 0.1160                 0.1159
 Raman Activ --     0.0000                 0.0000                 0.0000
 Depolar     --     0.0000                 0.0000                 0.0000
 Atom AN      X      Y      Z        X      Y      Z        X      Y      Z
   1   5    -0.03  -0.02   0.03     0.00   0.02  -0.02    -0.02  -0.01   0.02
   2   7    -0.05  -0.01  -0.05    -0.02  -0.06  -0.05     0.03   0.04   0.04
   3   5     0.03  -0.02  -0.03     0.01  -0.02  -0.02     0.00   0.01  -0.00
   4   7     0.05  -0.01   0.05    -0.04   0.08  -0.06    -0.04   0.03  -0.02
   5   7    -0.01   0.05   0.05     0.04  -0.01  -0.04    -0.09   0.07   0.05
   6   5    -0.02   0.03  -0.03    -0.03   0.01  -0.02    -0.01   0.02   0.00
   7   7    -0.01  -0.05  -0.05    -0.05  -0.02  -0.05     0.07   0.05   0.03
   8   5    -0.02  -0.03   0.03     0.03   0.01  -0.02     0.01   0.02  -0.00
   9   5    -0.01   0.03  -0.01     0.02  -0.15   0.15     0.07  -0.07  -0.01
  10   7     0.01   0.01  -0.16    -0.01   0.04  -0.06    -0.07   0.07   0.03
  11   5     0.03  -0.01  -0.01    -0.07  -0.05   0.14     0.17  -0.14  -0.05
  12   7     0.01  -0.16   0.01     0.04   0.00  -0.06    -0.04   0.06   0.02
  13   5    -0.01  -0.01   0.03    -0.01  -0.07   0.09     0.05  -0.13   0.06
  14   7    -0.16   0.01   0.01    -0.02   0.07  -0.07    -0.00   0.05  -0.03
  15   7    -0.05  -0.05  -0.01    -0.03  -0.02  -0.03     0.02   0.05   0.05
  16   5    -0.03   0.03  -0.02     0.01  -0.00  -0.01    -0.02   0.03  -0.03
  17   7     0.05   0.05  -0.01     0.03   0.04  -0.04     0.00   0.03  -0.03
  18   5     0.03  -0.03  -0.02    -0.02   0.02   0.01    -0.01   0.02   0.02
  19   5     0.03  -0.21  -0.03    -0.15   0.03  -0.14    -0.01   0.03   0.02
  20   7     0.03  -0.00   0.00     0.10   0.00   0.11     0.07  -0.13  -0.06
  21   5     0.03   0.03   0.21    -0.07   0.04  -0.05    -0.15   0.16   0.00
  22   7    -0.00   0.03   0.00     0.06   0.04   0.12     0.05  -0.12  -0.05
  23   5    -0.21   0.03  -0.03     0.01  -0.09  -0.10    -0.00   0.17   0.16
  24   7    -0.00  -0.00  -0.03     0.06  -0.01   0.07     0.06  -0.13  -0.07
  25   7    -0.05   0.05   0.01     0.02  -0.01  -0.01    -0.05   0.07   0.08
  26   5    -0.03  -0.03   0.02    -0.01  -0.01  -0.00     0.00   0.02  -0.01
  27   7     0.05  -0.05   0.01    -0.05   0.05  -0.06    -0.03   0.05  -0.06
  28   5     0.03   0.03   0.02     0.01   0.02   0.00    -0.00   0.02   0.01
  29   7    -0.00   0.00   0.03    -0.02   0.00   0.05     0.00  -0.11  -0.11
  30   5     0.03   0.21   0.03     0.11   0.03  -0.11    -0.06   0.04   0.08
  31   7     0.03   0.00  -0.00    -0.08   0.01   0.10    -0.03  -0.12  -0.08
  32   5     0.03  -0.03  -0.21     0.03   0.01  -0.05     0.08   0.10  -0.01
  33   7    -0.00  -0.03  -0.00    -0.03   0.06   0.11     0.01  -0.08  -0.07
  34   5    -0.21  -0.03   0.03    -0.03  -0.09  -0.09    -0.02   0.16   0.16
  35   5    -0.03   0.03  -0.21     0.00   0.03  -0.04     0.09   0.09   0.03
  36   7     0.00   0.03  -0.00     0.05  -0.08   0.13    -0.01  -0.04   0.00
  37   5     0.21   0.03   0.03     0.01   0.16  -0.17    -0.03   0.08  -0.09
  38   7     0.00  -0.00   0.03     0.03  -0.06   0.11    -0.01  -0.10   0.06
  39   5    -0.03  -0.21   0.03    -0.14  -0.00  -0.15     0.02   0.05  -0.01
  40   7    -0.03  -0.00  -0.00     0.06  -0.07   0.13    -0.07  -0.10   0.01
  41   7     0.01  -0.01   0.16    -0.01   0.02  -0.06     0.04   0.04   0.03
  42   5     0.03   0.01   0.01     0.10  -0.04   0.14    -0.13  -0.12  -0.03
  43   7     0.01   0.16  -0.01    -0.06   0.01  -0.07     0.01   0.07  -0.01
  44   5    -0.01   0.01  -0.03     0.05  -0.07   0.12     0.02  -0.12   0.12
  45   7    -0.16  -0.01  -0.01    -0.00   0.07  -0.08    -0.03   0.04  -0.04
  46   5    -0.01  -0.03   0.01     0.01  -0.12   0.15     0.00  -0.01  -0.01
  47   5    -0.03   0.02  -0.03    -0.01   0.02  -0.02     0.01  -0.00   0.01
  48   7    -0.05   0.01   0.05     0.01  -0.04  -0.04    -0.05   0.07   0.05
  49   5     0.03   0.02   0.03    -0.01  -0.02  -0.03    -0.01   0.00  -0.01
  50   7     0.05   0.01  -0.05     0.03   0.06  -0.06     0.01   0.00  -0.01
  51   7    -0.01   0.16   0.01    -0.06   0.03  -0.06    -0.01   0.05   0.02
  52   5     0.01   0.01   0.03     0.05  -0.00   0.06     0.03  -0.15  -0.11
  53   7     0.16  -0.01   0.01     0.01  -0.03  -0.05    -0.01   0.08   0.06
  54   5     0.01  -0.03  -0.01     0.03   0.08   0.13     0.07  -0.14  -0.07
  55   7    -0.01  -0.01  -0.16    -0.04   0.01  -0.06    -0.06   0.08   0.01
  56   5    -0.03   0.01  -0.01     0.16  -0.04   0.14     0.10  -0.14  -0.04
  57   5     0.01  -0.01  -0.03    -0.02  -0.00   0.03     0.04  -0.14  -0.17
  58   7     0.16   0.01  -0.01    -0.02  -0.04  -0.05    -0.02   0.07   0.07
  59   5     0.01   0.03   0.01     0.01   0.11   0.13     0.00  -0.08  -0.08
  60   7    -0.01   0.01   0.16     0.02  -0.00  -0.07     0.03   0.05   0.00
  61   5    -0.03  -0.01   0.01    -0.14  -0.03   0.13    -0.06  -0.13  -0.05
  62   7    -0.01  -0.16  -0.01     0.05   0.03  -0.05    -0.02   0.06   0.05
  63   7     0.00  -0.03   0.00    -0.01  -0.10   0.12     0.07  -0.08  -0.02
  64   5     0.21  -0.03  -0.03    -0.02   0.16  -0.16     0.01   0.09  -0.08
  65   7     0.00   0.00  -0.03    -0.00  -0.07   0.09     0.08  -0.12   0.03
  66   5    -0.03   0.21  -0.03     0.11  -0.01  -0.12    -0.08   0.04   0.06
  67   7    -0.03   0.00   0.00    -0.04  -0.07   0.13     0.11  -0.11  -0.01
  68   5    -0.03  -0.03   0.21    -0.04   0.07  -0.04    -0.16   0.15   0.02
  69   7     0.01   0.05  -0.05     0.07   0.04  -0.05     0.03   0.03  -0.00
  70   5     0.02   0.03   0.03    -0.01   0.00  -0.02     0.03   0.03   0.02
  71   7     0.01  -0.05   0.05    -0.08   0.04  -0.06    -0.05   0.05  -0.02
  72   5     0.02  -0.03  -0.03     0.01  -0.00  -0.02    -0.03   0.02   0.01
                    175                    176                    177
                        a                      a                      a 
 Frequencies --  1204.4273              1218.0474              1218.0475
 Red. masses --    11.9871                12.0926                12.0926
 Frc consts  --     0.0000                 0.0000                 0.0000
 IR Inten    --     0.1160                 0.0000                 0.0000
 Raman Activ --     0.0000                 0.0000                 0.0000
 Depolar     --     0.0000                 0.0000                 0.0000
 Atom AN      X      Y      Z        X      Y      Z        X      Y      Z
   1   5    -0.02  -0.02   0.00    -0.01  -0.01   0.01     0.05   0.02   0.02
   2   7    -0.06  -0.07  -0.03     0.00   0.01   0.02    -0.10  -0.11  -0.10
   3   5    -0.03   0.02   0.01    -0.02   0.01   0.00     0.05  -0.02   0.02
   4   7    -0.04   0.05  -0.01     0.02  -0.01   0.00    -0.10   0.11  -0.10
   5   7    -0.02   0.02   0.03     0.07  -0.07  -0.07    -0.00   0.01  -0.01
   6   5     0.01  -0.02   0.01    -0.03   0.05  -0.00    -0.01   0.01  -0.01
   7   7    -0.05  -0.05  -0.04    -0.07  -0.06  -0.07     0.00  -0.00   0.01
   8   5    -0.01   0.00  -0.01     0.03   0.05  -0.00     0.01   0.01  -0.01
   9   5     0.13  -0.09  -0.02    -0.07   0.02   0.04     0.08  -0.22   0.16
  10   7    -0.05   0.03  -0.01     0.07  -0.06  -0.02    -0.06   0.08  -0.04
  11   5     0.05   0.01  -0.04    -0.14   0.07   0.10     0.01  -0.08   0.08
  12   7    -0.06  -0.03   0.06     0.06  -0.00  -0.06     0.05   0.04  -0.07
  13   5     0.14   0.04  -0.16    -0.10  -0.04   0.12    -0.08  -0.16   0.21
  14   7    -0.07  -0.01   0.03     0.03   0.04  -0.05    -0.00   0.12  -0.12
  15   7    -0.06  -0.04  -0.08     0.06   0.05   0.06     0.10   0.10   0.10
  16   5    -0.02   0.00  -0.01     0.01  -0.05   0.03    -0.05  -0.02  -0.02
  17   7    -0.06  -0.04   0.08     0.06   0.06  -0.06     0.09   0.10  -0.10
  18   5    -0.02  -0.00   0.01     0.01  -0.05  -0.03    -0.05  -0.02   0.02
  19   5    -0.12  -0.03  -0.12    -0.06   0.01  -0.06    -0.08  -0.01  -0.09
  20   7     0.06   0.00   0.03     0.07  -0.04   0.04     0.03   0.03   0.07
  21   5    -0.09   0.09   0.02    -0.08   0.08  -0.01     0.02  -0.03  -0.02
  22   7     0.11  -0.05   0.04     0.06  -0.03   0.03     0.01   0.05   0.06
  23   5    -0.05  -0.02  -0.04    -0.02  -0.02  -0.03    -0.01  -0.06  -0.06
  24   7     0.11  -0.01   0.09     0.06  -0.01   0.05     0.04   0.04   0.08
  25   7    -0.05   0.01   0.04    -0.11   0.10   0.11     0.06  -0.07  -0.06
  26   5    -0.02  -0.01   0.03     0.02  -0.05   0.02    -0.05  -0.01   0.03
  27   7    -0.04   0.01  -0.04    -0.10   0.10  -0.11     0.06  -0.06   0.06
  28   5    -0.02  -0.01  -0.03     0.02  -0.05  -0.02    -0.05  -0.01  -0.03
  29   7     0.13   0.07  -0.05    -0.07   0.02   0.08    -0.01  -0.06  -0.05
  30   5    -0.14   0.00   0.13     0.09  -0.00  -0.09    -0.02   0.02   0.03
  31   7     0.11   0.06  -0.03    -0.07  -0.01   0.07    -0.03  -0.07  -0.03
  32   5    -0.17  -0.16  -0.01     0.06   0.04  -0.03     0.08   0.09   0.01
  33   7     0.13   0.09  -0.04    -0.06   0.01   0.06    -0.04  -0.08  -0.05
  34   5    -0.04  -0.04  -0.02     0.02  -0.06  -0.07     0.01   0.07   0.06
  35   5    -0.17  -0.17   0.01     0.04   0.02   0.03     0.05   0.05  -0.01
  36   7     0.13   0.10   0.02    -0.04   0.03  -0.07    -0.01  -0.05   0.04
  37   5    -0.04  -0.06   0.03     0.02  -0.08   0.09    -0.00   0.04  -0.04
  38   7     0.13   0.07   0.05    -0.05   0.04  -0.08     0.02  -0.04   0.05
  39   5    -0.13   0.00  -0.12     0.07  -0.01   0.07    -0.05   0.01  -0.06
  40   7     0.10   0.07   0.01    -0.05   0.01  -0.07     0.00  -0.04   0.04
  41   7    -0.08  -0.07   0.01    -0.04  -0.02  -0.04    -0.04  -0.05   0.02
  42   5     0.10   0.07   0.02     0.14   0.03   0.13    -0.01   0.05  -0.05
  43   7    -0.06  -0.01  -0.04    -0.09   0.01  -0.10     0.05  -0.02   0.06
  44   5     0.14   0.05   0.08     0.13  -0.11   0.22    -0.05   0.09  -0.13
  45   7    -0.06  -0.03   0.00    -0.03   0.09  -0.10     0.00  -0.06   0.06
  46   5     0.15   0.15  -0.01     0.03  -0.08   0.11     0.05   0.12  -0.09
  47   5    -0.02   0.02  -0.01    -0.02   0.00   0.01     0.05  -0.03   0.01
  48   7    -0.04   0.05   0.02     0.04  -0.04  -0.03    -0.05   0.06   0.06
  49   5    -0.02  -0.02  -0.00    -0.01  -0.00   0.01     0.05   0.03   0.01
  50   7    -0.06  -0.07   0.04     0.03   0.04  -0.04    -0.06  -0.06   0.06
  51   7    -0.05  -0.03  -0.05     0.08  -0.01   0.08     0.09   0.02   0.10
  52   5     0.14   0.03   0.15    -0.12  -0.02  -0.12    -0.11  -0.12  -0.21
  53   7    -0.07  -0.00  -0.03     0.04   0.02   0.03     0.02   0.08   0.09
  54   5     0.13  -0.10   0.01    -0.11   0.08  -0.02     0.02  -0.12  -0.12
  55   7    -0.05   0.04   0.02     0.09  -0.08   0.02    -0.01   0.03   0.04
  56   5     0.04   0.01   0.03    -0.20   0.11  -0.12    -0.09  -0.02  -0.11
  57   5     0.14   0.04  -0.09     0.16  -0.09  -0.22    -0.02   0.13   0.13
  58   7    -0.06  -0.03   0.00    -0.04   0.07   0.08    -0.02  -0.09  -0.08
  59   5     0.15   0.13  -0.00     0.07  -0.02  -0.09     0.12   0.22   0.13
  60   7    -0.08  -0.07  -0.00    -0.06  -0.05   0.04    -0.09  -0.10  -0.02
  61   5     0.12   0.07  -0.04     0.20   0.07  -0.16     0.09   0.12   0.02
  62   7    -0.07  -0.01   0.05    -0.11   0.00   0.11     0.01  -0.04  -0.03
  63   7     0.11  -0.04  -0.05     0.05  -0.01  -0.04    -0.02   0.08  -0.07
  64   5    -0.05  -0.03   0.06    -0.02  -0.04   0.05     0.00  -0.09   0.09
  65   7     0.11  -0.00  -0.10     0.04   0.01  -0.05     0.01   0.07  -0.08
  66   5    -0.13  -0.03   0.14    -0.04   0.00   0.04    -0.05  -0.02   0.06
  67   7     0.07   0.01  -0.05     0.05  -0.02  -0.04    -0.00   0.06  -0.06
  68   5    -0.09   0.09  -0.02    -0.06   0.06   0.01     0.05  -0.06   0.02
  69   7    -0.06  -0.05   0.04    -0.10  -0.09   0.10    -0.04  -0.05   0.03
  70   5    -0.00   0.00   0.01     0.02   0.05  -0.01    -0.00   0.02  -0.02
  71   7    -0.02   0.02  -0.02     0.10  -0.09   0.09     0.04  -0.03   0.05
  72   5     0.01  -0.02  -0.01    -0.02   0.05  -0.01     0.00   0.01  -0.01
                    178                    179                    180
                        a                      a                      a 
 Frequencies --  1218.0478              1228.5598              1228.5608
 Red. masses --    12.0926                12.0432                12.0432
 Frc consts  --     0.0000                 0.0000                 0.0000
 IR Inten    --     0.0000                 0.0000                 0.0000
 Raman Activ --     0.0000                 0.0000                 0.0000
 Depolar     --     0.0000                 0.0000                 0.0000
 Atom AN      X      Y      Z        X      Y      Z        X      Y      Z
   1   5     0.01   0.03  -0.05    -0.01  -0.02   0.02    -0.09  -0.03  -0.05
   2   7     0.06   0.07   0.06    -0.01   0.00   0.01     0.01  -0.06   0.02
   3   5     0.00  -0.03  -0.05    -0.01   0.02   0.01    -0.09   0.03  -0.05
   4   7     0.07  -0.07   0.06     0.01  -0.00  -0.01     0.01   0.06   0.02
   5   7     0.10  -0.10  -0.10    -0.04  -0.00  -0.02    -0.01  -0.01   0.01
   6   5     0.02   0.02   0.05    -0.06   0.09   0.00     0.02   0.00   0.03
   7   7    -0.10  -0.10  -0.09     0.04  -0.00  -0.02     0.01   0.00  -0.01
   8   5    -0.02   0.02   0.05     0.06   0.09   0.00    -0.02  -0.00   0.03
   9   5    -0.13   0.14  -0.03    -0.02   0.00   0.01     0.09  -0.15   0.08
  10   7     0.09  -0.09  -0.01    -0.00   0.01  -0.03    -0.06   0.04   0.04
  11   5    -0.21   0.13   0.11     0.09  -0.05  -0.05     0.03  -0.00  -0.03
  12   7     0.10  -0.02  -0.09    -0.09   0.00   0.09     0.03  -0.04  -0.01
  13   5    -0.11   0.03   0.08     0.05   0.06  -0.10    -0.07  -0.06   0.12
  14   7     0.04  -0.03   0.02     0.03  -0.02   0.01     0.01   0.10  -0.10
  15   7     0.03   0.04   0.04     0.02   0.00  -0.04    -0.01  -0.02   0.05
  16   5    -0.01  -0.01   0.00    -0.01  -0.09   0.06     0.09   0.03   0.04
  17   7     0.04   0.03  -0.04     0.02   0.00   0.04    -0.00  -0.02  -0.05
  18   5    -0.01  -0.02  -0.00    -0.00  -0.09  -0.06     0.09   0.02  -0.04
  19   5     0.03  -0.02   0.02    -0.18   0.00  -0.18     0.10   0.00   0.11
  20   7    -0.05   0.06   0.01     0.15  -0.07   0.10    -0.05  -0.03  -0.09
  21   5     0.06  -0.07  -0.01    -0.11   0.10  -0.01     0.00   0.01   0.01
  22   7    -0.05   0.08   0.04     0.09  -0.04   0.05    -0.00  -0.08  -0.09
  23   5     0.02  -0.08  -0.08    -0.01  -0.03  -0.04     0.00   0.15   0.16
  24   7    -0.04   0.07   0.03     0.10   0.01   0.11    -0.07  -0.08  -0.13
  25   7     0.01   0.01   0.00    -0.02   0.01  -0.05    -0.00   0.02  -0.04
  26   5    -0.01  -0.01   0.01     0.03  -0.09   0.04     0.09  -0.01  -0.05
  27   7    -0.01  -0.01  -0.00    -0.02   0.01   0.05    -0.01   0.01   0.04
  28   5    -0.01  -0.01  -0.01     0.03  -0.09  -0.04     0.09  -0.01   0.05
  29   7     0.04   0.04   0.00    -0.12   0.04   0.15    -0.01   0.12   0.11
  30   5    -0.06  -0.02   0.05     0.20   0.00  -0.20     0.02  -0.01  -0.03
  31   7     0.05   0.04  -0.01    -0.15  -0.05   0.12     0.05   0.10   0.04
  32   5    -0.04  -0.04  -0.00     0.09   0.08  -0.01    -0.13  -0.13  -0.01
  33   7     0.04   0.05   0.02    -0.08  -0.00   0.08     0.08   0.16   0.10
  34   5    -0.02  -0.06  -0.05     0.01  -0.08  -0.09    -0.00  -0.19  -0.19
  35   5     0.09   0.09   0.00     0.03   0.02   0.01    -0.01  -0.02   0.01
  36   7    -0.07  -0.08   0.02    -0.05   0.04  -0.09     0.01   0.08  -0.08
  37   5     0.02   0.06  -0.05     0.01  -0.10   0.11     0.00  -0.14   0.15
  38   7    -0.06  -0.06  -0.00    -0.09   0.07  -0.15    -0.05   0.07  -0.11
  39   5     0.06   0.02   0.05     0.18  -0.00   0.18     0.07  -0.00   0.07
  40   7    -0.08  -0.07  -0.02    -0.11  -0.01  -0.10    -0.03   0.04  -0.07
  41   7    -0.11  -0.11  -0.00    -0.00   0.01  -0.04     0.00   0.01  -0.03
  42   5     0.21   0.16   0.08    -0.09  -0.06  -0.05    -0.03  -0.03  -0.00
  43   7    -0.07  -0.04  -0.06     0.10   0.01   0.09     0.02   0.02   0.02
  44   5     0.08   0.08   0.00    -0.07   0.07  -0.13    -0.05   0.06  -0.10
  45   7    -0.04  -0.07   0.06    -0.03  -0.04   0.03    -0.01  -0.08   0.08
  46   5     0.16   0.21  -0.08     0.03   0.03  -0.00     0.04   0.07  -0.04
  47   5     0.02   0.02  -0.05    -0.02  -0.00   0.02    -0.08   0.06  -0.01
  48   7    -0.10   0.10   0.10     0.01   0.01   0.00    -0.00   0.03  -0.02
  49   5     0.02  -0.02  -0.05    -0.01   0.00   0.01    -0.08  -0.06  -0.01
  50   7    -0.10  -0.10   0.09    -0.00  -0.01  -0.01    -0.00  -0.03  -0.01
  51   7    -0.03   0.04  -0.02    -0.09  -0.01  -0.10     0.04  -0.02   0.03
  52   5     0.03  -0.11  -0.08     0.05   0.06   0.10    -0.06  -0.07  -0.12
  53   7    -0.02   0.10   0.09     0.04  -0.01   0.00    -0.01   0.09   0.08
  54   5     0.13  -0.21  -0.11     0.00  -0.03  -0.04     0.05  -0.07  -0.04
  55   7    -0.08   0.09   0.01    -0.04   0.05   0.03     0.01  -0.02  -0.04
  56   5     0.13  -0.13   0.02     0.13  -0.07   0.08    -0.05   0.04  -0.01
  57   5    -0.05  -0.06  -0.00    -0.07   0.08   0.13    -0.06   0.05   0.10
  58   7     0.02   0.06   0.05    -0.04  -0.04  -0.02     0.01  -0.09  -0.10
  59   5    -0.10  -0.14  -0.05     0.01  -0.00  -0.02     0.08   0.15   0.08
  60   7     0.06   0.06   0.00     0.03   0.04   0.04    -0.06  -0.05   0.03
  61   5    -0.13  -0.10   0.05    -0.13  -0.08   0.07     0.05   0.01  -0.04
  62   7     0.06   0.02  -0.05     0.10  -0.00  -0.10     0.01   0.04   0.00
  63   7     0.06  -0.05  -0.01     0.06   0.00  -0.06     0.07  -0.16   0.11
  64   5    -0.02   0.03  -0.02    -0.01  -0.05   0.06    -0.00   0.20  -0.20
  65   7     0.07  -0.04  -0.03     0.08   0.04  -0.11    -0.02  -0.12   0.13
  66   5    -0.08   0.02   0.08    -0.16  -0.00   0.16     0.05   0.01  -0.06
  67   7     0.08  -0.05  -0.04     0.11  -0.03  -0.08     0.03  -0.10   0.06
  68   5    -0.07   0.06   0.01    -0.05   0.04   0.01    -0.11   0.12  -0.01
  69   7     0.07   0.06  -0.06     0.05  -0.01   0.02    -0.02   0.01   0.00
  70   5     0.03   0.01   0.05     0.04   0.09  -0.03     0.01  -0.02   0.03
  71   7    -0.07   0.07  -0.06    -0.05  -0.01   0.02     0.02  -0.00  -0.01
  72   5    -0.03   0.00   0.05    -0.04   0.09  -0.03    -0.01  -0.01   0.03
                    181                    182                    183
                        a                      a                      a 
 Frequencies --  1228.5612              1239.0074              1239.0074
 Red. masses --    12.0432                11.7830                11.7830
 Frc consts  --     0.0000                 0.0000                 0.0000
 IR Inten    --     0.0000                 5.4840                 5.4843
 Raman Activ --     0.0000                 0.0000                 0.0000
 Depolar     --     0.0000                 0.0000                 0.0000
 Atom AN      X      Y      Z        X      Y      Z        X      Y      Z
   1   5    -0.01  -0.06   0.08     0.17   0.05   0.06    -0.02  -0.02   0.01
   2   7    -0.01   0.03  -0.00    -0.11  -0.00  -0.07     0.05   0.08   0.08
   3   5    -0.01   0.06   0.08     0.14  -0.02   0.09     0.07  -0.07  -0.09
   4   7    -0.02  -0.03   0.00    -0.07  -0.05  -0.03    -0.07   0.08  -0.04
   5   7     0.05   0.02   0.01    -0.09   0.04   0.05     0.01   0.12   0.10
   6   5    -0.04  -0.03  -0.09     0.04   0.00   0.08     0.03  -0.19  -0.11
   7   7    -0.05   0.02   0.01    -0.07  -0.10  -0.08    -0.06   0.08   0.06
   8   5     0.04  -0.04  -0.09     0.06   0.10  -0.02    -0.00  -0.16  -0.14
   9   5    -0.04   0.07  -0.05    -0.13   0.11  -0.00    -0.00  -0.07   0.09
  10   7     0.09  -0.09   0.02     0.07  -0.05  -0.03     0.10  -0.10   0.02
  11   5    -0.13   0.08   0.07     0.10  -0.08  -0.04    -0.09   0.09   0.02
  12   7     0.04   0.02  -0.05     0.08  -0.03  -0.08     0.07   0.01  -0.05
  13   5    -0.02  -0.05   0.06    -0.11  -0.02   0.11    -0.04   0.13  -0.08
  14   7    -0.04   0.02  -0.01    -0.02   0.01  -0.03     0.03  -0.06   0.03
  15   7     0.00  -0.01   0.02    -0.11  -0.08   0.03     0.04   0.09   0.02
  16   5     0.03   0.02   0.01     0.18   0.11   0.03    -0.03  -0.10   0.02
  17   7    -0.01   0.00  -0.02    -0.10  -0.07  -0.04    -0.01   0.04   0.05
  18   5     0.03   0.03  -0.01     0.18   0.12  -0.02     0.00  -0.14  -0.06
  19   5    -0.01   0.01  -0.00    -0.10   0.04  -0.09     0.01  -0.04   0.00
  20   7     0.10  -0.11  -0.00     0.01   0.01   0.00     0.01  -0.02  -0.03
  21   5    -0.18   0.18   0.00    -0.07   0.06  -0.03    -0.12   0.12  -0.01
  22   7     0.09  -0.16  -0.08     0.02  -0.01   0.03    -0.01  -0.02   0.01
  23   5    -0.01   0.14   0.13     0.07  -0.04  -0.02     0.00   0.12   0.13
  24   7     0.03  -0.10  -0.06     0.00  -0.02   0.02     0.03  -0.02  -0.01
  25   7    -0.01  -0.00  -0.00    -0.07   0.02  -0.02    -0.10   0.12   0.00
  26   5     0.03   0.01  -0.03     0.13  -0.02  -0.04     0.13  -0.15   0.00
  27   7     0.01   0.01   0.00    -0.08   0.02   0.01    -0.05   0.07   0.06
  28   5     0.02   0.02   0.03     0.14  -0.02   0.05     0.09  -0.18  -0.04
  29   7    -0.06  -0.04   0.01     0.02   0.03  -0.01    -0.02  -0.00  -0.02
  30   5     0.05   0.01  -0.05    -0.09  -0.01   0.09    -0.07  -0.05   0.06
  31   7    -0.10  -0.07   0.04     0.02   0.00   0.01    -0.00  -0.02  -0.03
  32   5     0.14   0.14  -0.00    -0.13  -0.12   0.02     0.06   0.06   0.01
  33   7    -0.07  -0.08  -0.02     0.01   0.02  -0.03     0.02  -0.01  -0.01
  34   5     0.01   0.03   0.02     0.05  -0.03  -0.04     0.03   0.13   0.12
  35   5    -0.20  -0.20   0.00    -0.13  -0.12  -0.01     0.05   0.07  -0.05
  36   7     0.12   0.16  -0.05     0.01   0.01   0.03    -0.00  -0.00  -0.00
  37   5    -0.01  -0.11   0.10     0.05  -0.02   0.03     0.05   0.06  -0.05
  38   7     0.07   0.09  -0.01     0.02   0.03   0.01    -0.02  -0.01   0.01
  39   5    -0.09  -0.01  -0.07    -0.10  -0.01  -0.10    -0.00  -0.07   0.02
  40   7     0.15   0.12   0.04     0.02  -0.00  -0.01    -0.01  -0.00   0.02
  41   7    -0.10  -0.10  -0.00     0.11   0.10   0.01    -0.05  -0.06   0.03
  42   5     0.13   0.07   0.08     0.04   0.01   0.04     0.13   0.11   0.04
  43   7    -0.03   0.04  -0.04     0.10   0.02   0.08    -0.01   0.03  -0.00
  44   5    -0.02  -0.01  -0.01    -0.12  -0.05  -0.06    -0.04   0.12  -0.13
  45   7     0.04  -0.04   0.05    -0.00   0.03  -0.01    -0.03  -0.05   0.04
  46   5     0.08   0.14  -0.09    -0.10  -0.06  -0.03    -0.07  -0.12   0.08
  47   5    -0.04  -0.03   0.09     0.14  -0.02  -0.08     0.12  -0.04  -0.03
  48   7     0.02   0.06  -0.01    -0.07  -0.05   0.02    -0.11   0.06   0.11
  49   5    -0.05   0.03   0.09     0.17   0.05  -0.05     0.03  -0.05  -0.13
  50   7     0.02  -0.06  -0.01    -0.11  -0.00   0.06     0.02   0.09  -0.01
  51   7     0.01  -0.04  -0.00     0.09  -0.02   0.08     0.01  -0.01  -0.02
  52   5    -0.05  -0.02  -0.06    -0.11  -0.02  -0.11    -0.07   0.10   0.03
  53   7     0.03   0.05   0.06    -0.02   0.02   0.04     0.01  -0.12  -0.10
  54   5     0.08  -0.14  -0.08    -0.13   0.10  -0.01     0.01  -0.00   0.00
  55   7    -0.10   0.09  -0.02     0.07  -0.05   0.03     0.09  -0.11  -0.01
  56   5     0.09  -0.04   0.06     0.09  -0.08   0.03    -0.03   0.10   0.07
  57   5     0.01   0.02   0.01    -0.12  -0.05   0.06    -0.00   0.09   0.08
  58   7    -0.03  -0.01  -0.00    -0.00   0.04   0.02    -0.02  -0.11  -0.11
  59   5    -0.04  -0.07  -0.04    -0.10  -0.07   0.02    -0.08  -0.06   0.01
  60   7     0.08   0.08   0.00     0.11   0.11  -0.02    -0.04  -0.06  -0.02
  61   5    -0.09  -0.05   0.05     0.05   0.00  -0.05     0.07   0.13   0.05
  62   7     0.00  -0.02  -0.01     0.09   0.02  -0.07     0.05   0.01  -0.07
  63   7    -0.10   0.08   0.01     0.01  -0.01  -0.02     0.01  -0.01  -0.02
  64   5     0.01  -0.00  -0.01     0.07  -0.03   0.02    -0.01   0.05  -0.05
  65   7    -0.10   0.03   0.06     0.00  -0.02  -0.01     0.03  -0.02   0.00
  66   5     0.12  -0.01  -0.12    -0.10   0.04   0.09    -0.06  -0.06   0.07
  67   7    -0.15   0.08   0.08     0.01   0.01  -0.00     0.02  -0.00   0.02
  68   5     0.17  -0.16  -0.00    -0.07   0.06   0.04    -0.11   0.12  -0.04
  69   7     0.03  -0.01   0.00    -0.08  -0.09   0.08    -0.04   0.05   0.01
  70   5    -0.06  -0.00  -0.08     0.06   0.10   0.03    -0.03  -0.10   0.02
  71   7    -0.03  -0.02  -0.00    -0.09   0.04  -0.05    -0.01   0.09  -0.03
  72   5     0.06  -0.00  -0.08     0.04  -0.00  -0.06     0.06  -0.13  -0.01
                    184                    185                    186
                        a                      a                      a 
 Frequencies --  1239.0075              1267.2589              1267.2591
 Red. masses --    11.7830                12.1069                12.1069
 Frc consts  --     0.0000                 0.0000                 0.0000
 IR Inten    --     5.4843                 0.0000                 0.0000
 Raman Activ --     0.0000                 0.0000                 0.0000
 Depolar     --     0.0000                 0.0000                 0.0000
 Atom AN      X      Y      Z        X      Y      Z        X      Y      Z
   1   5    -0.06   0.05  -0.18    -0.04  -0.05   0.04     0.01   0.00   0.01
   2   7     0.03  -0.06   0.07     0.08   0.09   0.08    -0.02  -0.00   0.02
   3   5    -0.10  -0.01  -0.14     0.04  -0.05  -0.04    -0.01   0.00  -0.01
   4   7     0.08  -0.01   0.12    -0.08   0.09  -0.08     0.02  -0.00  -0.02
   5   7     0.02   0.01   0.06    -0.04   0.02   0.06    -0.08   0.08   0.06
   6   5    -0.05  -0.00  -0.13     0.02  -0.01   0.03     0.04  -0.04   0.03
   7   7    -0.01   0.02   0.08    -0.04  -0.02  -0.06    -0.08  -0.08  -0.06
   8   5     0.04  -0.01  -0.12     0.02   0.01  -0.03     0.04   0.04  -0.03
   9   5    -0.02  -0.06   0.10     0.05  -0.10   0.05    -0.15   0.00   0.15
  10   7    -0.03   0.05   0.00     0.04  -0.06   0.04     0.05  -0.01  -0.07
  11   5    -0.06  -0.06   0.12     0.05   0.10  -0.15     0.08  -0.12   0.03
  12   7     0.06   0.02  -0.09     0.03  -0.08   0.03     0.06   0.00  -0.06
  13   5     0.06  -0.01  -0.04    -0.15   0.10   0.05    -0.03   0.12  -0.08
  14   7     0.01   0.11  -0.12     0.04  -0.06   0.04     0.07   0.01  -0.05
  15   7     0.05   0.03   0.09    -0.06  -0.02  -0.04     0.06   0.08   0.08
  16   5    -0.04   0.10  -0.06     0.03  -0.01   0.02    -0.03   0.04  -0.04
  17   7    -0.08  -0.09   0.07     0.06   0.02  -0.04    -0.06  -0.08   0.08
  18   5     0.06   0.01  -0.03    -0.03   0.01   0.02     0.03  -0.04  -0.04
  19   5     0.09   0.05   0.11    -0.02   0.11   0.02    -0.11  -0.00  -0.11
  20   7    -0.02  -0.02  -0.00     0.00  -0.10  -0.11     0.00   0.07   0.05
  21   5     0.04  -0.05  -0.07    -0.08   0.10   0.05    -0.07   0.04  -0.09
  22   7    -0.03  -0.01  -0.02    -0.01  -0.00   0.01     0.12  -0.00   0.12
  23   5     0.03   0.05   0.06    -0.05   0.10   0.08    -0.09  -0.04  -0.07
  24   7    -0.01   0.01  -0.01     0.11  -0.10  -0.00     0.05  -0.07   0.00
  25   7    -0.04   0.03   0.09    -0.06   0.02   0.04     0.06  -0.08  -0.08
  26   5     0.01   0.11  -0.06     0.03   0.01  -0.02    -0.03  -0.04   0.04
  27   7     0.09  -0.10   0.07     0.06  -0.02   0.04    -0.06   0.08  -0.08
  28   5    -0.09   0.02  -0.04    -0.03  -0.01  -0.02     0.03   0.04   0.04
  29   7     0.01   0.01  -0.01     0.11   0.10   0.00     0.05   0.07  -0.00
  30   5    -0.08   0.05   0.09    -0.02  -0.11  -0.02    -0.11   0.00   0.11
  31   7     0.01  -0.02  -0.00     0.00   0.10   0.11     0.00  -0.07  -0.05
  32   5    -0.02  -0.04  -0.07    -0.08  -0.10  -0.05    -0.07  -0.04   0.09
  33   7     0.02  -0.01  -0.01    -0.01   0.00  -0.01     0.12  -0.00  -0.12
  34   5    -0.04   0.05   0.06    -0.05  -0.10  -0.08    -0.09   0.04   0.07
  35   5    -0.03  -0.02  -0.05     0.08   0.10  -0.05     0.07   0.04   0.09
  36   7    -0.03   0.01  -0.01     0.01  -0.00  -0.01    -0.12   0.00  -0.12
  37   5     0.01  -0.13   0.13     0.05   0.10  -0.08     0.09  -0.04   0.07
  38   7     0.01  -0.00  -0.02    -0.11  -0.10   0.00    -0.05  -0.07  -0.00
  39   5     0.10   0.00   0.10     0.02   0.11  -0.02     0.11  -0.00   0.11
  40   7    -0.01   0.03  -0.02    -0.00  -0.10   0.11    -0.00   0.07  -0.05
  41   7     0.01   0.04   0.00     0.04   0.06  -0.04     0.05   0.01   0.07
  42   5     0.05  -0.06   0.12     0.05  -0.10   0.15     0.08   0.12  -0.03
  43   7    -0.08   0.02  -0.10     0.03   0.08  -0.03     0.06  -0.00   0.06
  44   5    -0.04  -0.00  -0.03    -0.15  -0.10  -0.05    -0.03  -0.12   0.08
  45   7    -0.01   0.11  -0.12     0.04   0.06  -0.04     0.07  -0.01   0.05
  46   5     0.04  -0.05   0.10     0.05   0.10  -0.05    -0.15  -0.00  -0.15
  47   5     0.03   0.05  -0.17    -0.04   0.05  -0.04     0.01  -0.00  -0.01
  48   7    -0.01  -0.05   0.06     0.08  -0.09  -0.08    -0.02   0.00  -0.02
  49   5     0.07  -0.02  -0.13     0.04   0.05   0.04    -0.01  -0.00   0.01
  50   7    -0.06  -0.01   0.11    -0.08  -0.09   0.08     0.02   0.00   0.02
  51   7    -0.09  -0.02  -0.09    -0.03   0.08   0.03    -0.06  -0.00  -0.06
  52   5    -0.02  -0.08  -0.09     0.15  -0.10   0.05     0.03  -0.12  -0.08
  53   7    -0.03  -0.04  -0.06    -0.04   0.06   0.04    -0.07  -0.01  -0.05
  54   5     0.01   0.10   0.13    -0.05   0.10   0.05     0.15  -0.00   0.15
  55   7    -0.05   0.03   0.02    -0.04   0.06   0.04    -0.05   0.01  -0.07
  56   5     0.11  -0.02   0.10    -0.05  -0.10  -0.15    -0.08   0.12   0.03
  57   5     0.04  -0.08  -0.11     0.15   0.10  -0.05     0.03   0.12   0.08
  58   7     0.03  -0.04  -0.06    -0.04  -0.06  -0.04    -0.07   0.01   0.05
  59   5     0.01   0.12   0.13    -0.05  -0.10  -0.05     0.15   0.00  -0.15
  60   7     0.03   0.02   0.02    -0.04  -0.06  -0.04    -0.05  -0.01   0.07
  61   5    -0.12  -0.03   0.11    -0.05   0.10   0.15    -0.08  -0.12  -0.03
  62   7     0.07  -0.03  -0.08    -0.03  -0.08  -0.03    -0.06   0.00   0.06
  63   7     0.03   0.02  -0.01     0.01   0.00   0.01    -0.12   0.00   0.12
  64   5    -0.02  -0.13   0.13     0.05  -0.10   0.08     0.09   0.04  -0.07
  65   7    -0.01   0.00  -0.02    -0.11   0.10  -0.00    -0.05   0.07   0.00
  66   5    -0.08  -0.00   0.08     0.02  -0.11   0.02     0.11   0.00  -0.11
  67   7     0.01   0.03  -0.02    -0.00   0.10  -0.11    -0.00  -0.07   0.05
  68   5     0.05  -0.04  -0.05     0.08  -0.10   0.05     0.07  -0.04  -0.09
  69   7     0.04  -0.08   0.10     0.04   0.02  -0.06     0.08   0.08  -0.06
  70   5    -0.02   0.12  -0.18    -0.02  -0.01  -0.03    -0.04  -0.04  -0.03
  71   7    -0.03  -0.09   0.11     0.04  -0.02   0.06     0.08  -0.08   0.06
  72   5     0.02   0.13  -0.17    -0.02   0.01   0.03    -0.04   0.04   0.03
                    187                    188                    189
                        a                      a                      a 
 Frequencies --  1274.7938              1274.7941              1274.7946
 Red. masses --    12.0420                12.0420                12.0420
 Frc consts  --     0.0000                 0.0000                 0.0000
 IR Inten    --     0.0000                 0.0000                 0.0000
 Raman Activ --     0.0000                 0.0000                 0.0000
 Depolar     --     0.0000                 0.0000                 0.0000
 Atom AN      X      Y      Z        X      Y      Z        X      Y      Z
   1   5    -0.16  -0.12   0.11    -0.16   0.01  -0.19     0.08   0.08  -0.11
   2   7     0.08   0.01  -0.04     0.15   0.04   0.16    -0.03   0.00   0.05
   3   5    -0.15   0.12   0.11    -0.16  -0.01  -0.19     0.09  -0.08  -0.09
   4   7     0.08  -0.01  -0.04     0.15  -0.04   0.16    -0.04  -0.00   0.05
   5   7     0.03  -0.14  -0.13     0.01  -0.10  -0.02     0.01   0.01  -0.12
   6   5    -0.01   0.17   0.14    -0.08   0.15  -0.03     0.12  -0.08   0.19
   7   7    -0.03  -0.14  -0.13    -0.01  -0.10  -0.02    -0.01   0.01  -0.11
   8   5     0.01   0.16   0.13     0.08   0.16  -0.02    -0.12  -0.08   0.20
   9   5     0.05   0.00  -0.05    -0.01   0.00   0.00     0.03   0.00  -0.03
  10   7    -0.06   0.05  -0.02    -0.06   0.07   0.02    -0.01   0.01  -0.01
  11   5    -0.00   0.03  -0.02    -0.00  -0.05   0.05    -0.00  -0.00   0.01
  12   7    -0.08  -0.00   0.07     0.00  -0.02  -0.02    -0.04  -0.00   0.04
  13   5     0.03  -0.04   0.00     0.05  -0.04  -0.00    -0.00  -0.00   0.00
  14   7     0.02  -0.02   0.04     0.01   0.08  -0.07     0.01  -0.00   0.01
  15   7     0.12   0.11   0.03    -0.06  -0.13  -0.02     0.11  -0.02   0.01
  16   5    -0.14  -0.13  -0.01     0.03   0.18  -0.07    -0.19   0.10  -0.13
  17   7     0.12   0.11  -0.03    -0.07  -0.13   0.02     0.11  -0.02  -0.01
  18   5    -0.13  -0.12   0.01     0.04   0.19   0.07    -0.20   0.09   0.13
  19   5    -0.03   0.07  -0.01     0.02  -0.01   0.02    -0.02  -0.05  -0.04
  20   7     0.01  -0.03  -0.02     0.05  -0.04   0.03    -0.07   0.06  -0.07
  21   5     0.04  -0.02   0.06     0.01  -0.03  -0.05    -0.02   0.03   0.02
  22   7     0.06  -0.07  -0.06     0.02   0.01   0.04    -0.05   0.05   0.04
  23   5    -0.01  -0.03  -0.03    -0.05   0.03   0.02     0.07   0.00   0.02
  24   7    -0.05  -0.06  -0.06     0.04   0.05   0.05    -0.05   0.01  -0.02
  25   7    -0.06  -0.05   0.00    -0.03   0.12   0.02    -0.16   0.12   0.03
  26   5     0.13   0.11  -0.11    -0.02  -0.19   0.09     0.20  -0.11  -0.04
  27   7    -0.06  -0.05  -0.00    -0.02   0.12  -0.02    -0.16   0.12  -0.03
  28   5     0.12   0.12   0.11    -0.03  -0.18  -0.09     0.20  -0.11   0.04
  29   7     0.02   0.01  -0.00     0.01  -0.06  -0.04     0.08  -0.06  -0.08
  30   5     0.01   0.01  -0.01     0.01   0.09   0.02     0.04   0.00  -0.04
  31   7    -0.01  -0.03  -0.01    -0.05  -0.06   0.02     0.07   0.05  -0.07
  32   5    -0.02  -0.02   0.00    -0.04  -0.03   0.04     0.01   0.03   0.08
  33   7    -0.03  -0.01   0.01    -0.07  -0.08  -0.07     0.02  -0.00  -0.03
  34   5     0.01   0.01   0.01     0.05  -0.03  -0.04    -0.07  -0.03  -0.01
  35   5     0.04   0.04  -0.00     0.01   0.02  -0.04    -0.02   0.00  -0.08
  36   7     0.07   0.07  -0.05     0.02  -0.01   0.03    -0.03  -0.05   0.05
  37   5    -0.08   0.01  -0.03    -0.03  -0.03   0.02    -0.03  -0.03   0.02
  38   7     0.03   0.02   0.00     0.02  -0.05   0.04     0.07  -0.06   0.08
  39   5     0.01  -0.07   0.03     0.01   0.01   0.01     0.04   0.05   0.03
  40   7     0.07   0.07   0.06     0.03   0.04   0.02     0.03  -0.00   0.05
  41   7     0.08   0.08  -0.00     0.02   0.02  -0.01    -0.01  -0.02  -0.02
  42   5     0.00  -0.02   0.03     0.00   0.03  -0.03     0.00   0.04  -0.04
  43   7     0.05  -0.02   0.04     0.03   0.00   0.03     0.06   0.01   0.07
  44   5    -0.05  -0.05   0.00    -0.02  -0.02   0.00     0.02   0.01   0.00
  45   7    -0.02   0.05  -0.03    -0.01  -0.03   0.04    -0.01  -0.06   0.07
  46   5    -0.03   0.00  -0.03    -0.02  -0.00  -0.02    -0.05  -0.00  -0.04
  47   5     0.17  -0.02  -0.13     0.15  -0.15   0.18    -0.08  -0.01   0.10
  48   7    -0.14   0.03   0.12    -0.06  -0.00  -0.09     0.08  -0.02  -0.09
  49   5     0.16   0.02  -0.12     0.15   0.15   0.18    -0.10   0.01   0.11
  50   7    -0.14  -0.03   0.12    -0.06   0.00  -0.09     0.09   0.02  -0.09
  51   7    -0.03   0.02  -0.04     0.05  -0.00   0.05    -0.06  -0.01  -0.05
  52   5    -0.04   0.03  -0.00    -0.02   0.03   0.00     0.04  -0.04  -0.00
  53   7    -0.00  -0.07  -0.07    -0.01   0.04   0.04     0.02   0.02   0.01
  54   5     0.03  -0.00   0.02    -0.03   0.00  -0.03     0.04   0.00   0.04
  55   7     0.04  -0.05   0.02     0.03  -0.02  -0.02    -0.07   0.06   0.01
  56   5     0.00   0.04   0.04     0.00  -0.03  -0.03    -0.00  -0.01  -0.02
  57   5     0.02   0.02  -0.00     0.05   0.04  -0.00    -0.02  -0.03  -0.00
  58   7     0.00  -0.00  -0.00     0.01  -0.07  -0.07    -0.02  -0.04  -0.05
  59   5    -0.01  -0.00   0.01    -0.00  -0.00  -0.01    -0.05  -0.00   0.05
  60   7    -0.02  -0.02   0.00    -0.07  -0.08   0.01     0.05   0.03   0.02
  61   5    -0.00  -0.01  -0.01    -0.00   0.04   0.05     0.00   0.03   0.03
  62   7     0.00   0.00  -0.01    -0.01   0.02  -0.00     0.08   0.00  -0.08
  63   7    -0.04   0.01   0.02    -0.07   0.08  -0.08     0.01   0.00  -0.01
  64   5     0.08  -0.03   0.01     0.03   0.03  -0.04     0.03   0.00  -0.01
  65   7    -0.06  -0.05   0.06     0.03   0.06  -0.05    -0.04   0.00   0.02
  66   5    -0.03  -0.01   0.03     0.02  -0.09   0.01    -0.03  -0.00   0.03
  67   7    -0.07   0.06   0.07    -0.03   0.05   0.01    -0.03   0.00   0.05
  68   5    -0.02   0.04  -0.06    -0.04   0.02   0.05     0.01   0.00  -0.02
  69   7     0.00   0.08   0.05     0.02   0.11  -0.06    -0.03  -0.11   0.15
  70   5    -0.13  -0.16  -0.12    -0.05  -0.15   0.03    -0.05   0.10  -0.20
  71   7    -0.00   0.08   0.05    -0.02   0.11  -0.05     0.03  -0.11   0.16
  72   5     0.13  -0.15  -0.13     0.05  -0.16   0.04     0.05   0.09  -0.20
                    190                    191                    192
                        a                      a                      a 
 Frequencies --  1318.4763              1318.4766              1318.4767
 Red. masses --    11.9616                11.9616                11.9616
 Frc consts  --     0.0000                 0.0000                 0.0000
 IR Inten    --     0.0000                 0.0000                 0.0000
 Raman Activ --     0.0000                 0.0000                 0.0000
 Depolar     --     0.0000                 0.0000                 0.0000
 Atom AN      X      Y      Z        X      Y      Z        X      Y      Z
   1   5     0.01   0.00   0.00     0.18   0.08  -0.01    -0.07  -0.12   0.19
   2   7    -0.02   0.00   0.02    -0.13  -0.03  -0.04     0.01  -0.02  -0.13
   3   5    -0.00  -0.00  -0.01     0.18  -0.08  -0.01    -0.07   0.12   0.19
   4   7     0.01  -0.00  -0.01    -0.13   0.03  -0.04     0.01   0.02  -0.13
   5   7    -0.03   0.13   0.01    -0.00  -0.01   0.04    -0.03   0.02   0.13
   6   5     0.10  -0.19   0.04    -0.02   0.02  -0.03    -0.10   0.03  -0.18
   7   7     0.03   0.13   0.01     0.00   0.02   0.01     0.03   0.01   0.13
   8   5    -0.10  -0.19   0.04     0.02   0.00  -0.04     0.10   0.04  -0.18
   9   5    -0.10   0.00   0.10     0.07  -0.03  -0.04    -0.06  -0.02   0.08
  10   7     0.05  -0.02  -0.05     0.02  -0.05   0.05     0.04  -0.04  -0.01
  11   5     0.02  -0.07   0.05     0.00   0.11  -0.12     0.02   0.03  -0.05
  12   7     0.04   0.00  -0.04    -0.01  -0.06   0.04     0.05  -0.04  -0.03
  13   5    -0.05   0.07  -0.02    -0.09   0.07   0.02    -0.09   0.09  -0.00
  14   7     0.05   0.02  -0.05     0.01  -0.05   0.05     0.05  -0.04   0.01
  15   7    -0.01  -0.13  -0.03     0.13   0.02   0.03    -0.04   0.01  -0.01
  16   5    -0.04   0.19  -0.10    -0.18   0.04  -0.10     0.04   0.00   0.02
  17   7    -0.01  -0.13   0.03     0.13   0.01  -0.03    -0.01  -0.02   0.01
  18   5    -0.04   0.19   0.10    -0.19   0.04   0.10     0.03  -0.01  -0.02
  19   5    -0.08   0.00  -0.08     0.04   0.05   0.06     0.05  -0.07   0.02
  20   7    -0.05   0.09   0.01     0.01  -0.08  -0.07     0.04   0.03   0.11
  21   5    -0.06   0.03  -0.06    -0.02   0.04   0.06     0.08  -0.09  -0.01
  22   7     0.09   0.00   0.09    -0.10   0.04  -0.03     0.00  -0.05  -0.09
  23   5    -0.06  -0.03  -0.05     0.01   0.07   0.07     0.06  -0.07  -0.05
  24   7     0.02  -0.10  -0.04     0.08   0.00   0.04    -0.10   0.09  -0.01
  25   7     0.02  -0.13  -0.03     0.13  -0.01  -0.03    -0.01   0.01   0.00
  26   5     0.04   0.19  -0.10    -0.19  -0.04   0.10     0.03   0.02  -0.02
  27   7     0.02  -0.13   0.03     0.13  -0.02   0.03    -0.04  -0.02  -0.00
  28   5     0.04   0.19   0.10    -0.18  -0.04  -0.10     0.04   0.00   0.02
  29   7    -0.01  -0.10  -0.05     0.11   0.03  -0.04     0.07   0.08   0.01
  30   5     0.08   0.00  -0.08     0.02  -0.07  -0.05    -0.06  -0.05   0.04
  31   7     0.05   0.10   0.01    -0.01   0.09   0.10    -0.04   0.00   0.08
  32   5     0.06   0.03  -0.06    -0.05  -0.07  -0.06    -0.07  -0.07   0.01
  33   7    -0.09   0.00   0.09    -0.09  -0.05  -0.00     0.03  -0.04  -0.09
  34   5     0.06  -0.03  -0.05    -0.01  -0.09  -0.08    -0.06  -0.04  -0.02
  35   5     0.05   0.03   0.06    -0.02  -0.04   0.06     0.08   0.09  -0.01
  36   7    -0.09  -0.00  -0.08    -0.09  -0.04  -0.03     0.00   0.05  -0.09
  37   5     0.06  -0.03   0.06     0.01  -0.07   0.07     0.06   0.07  -0.04
  38   7    -0.01  -0.09   0.05     0.08  -0.00   0.04    -0.10  -0.09  -0.01
  39   5     0.08  -0.00   0.08     0.04  -0.05   0.06     0.05   0.07   0.02
  40   7     0.04   0.10  -0.02     0.01   0.08  -0.07     0.05  -0.03   0.11
  41   7    -0.05  -0.02  -0.05     0.01   0.04  -0.05    -0.05  -0.05   0.01
  42   5    -0.02  -0.08   0.05    -0.00  -0.09   0.09    -0.02   0.06  -0.09
  43   7    -0.04   0.00  -0.04    -0.02   0.04  -0.05    -0.04  -0.06  -0.01
  44   5     0.05   0.07  -0.02    -0.06  -0.03  -0.02     0.12   0.11   0.00
  45   7    -0.05   0.02  -0.05    -0.01   0.03  -0.04    -0.05  -0.05   0.02
  46   5     0.10   0.00   0.10     0.08   0.02   0.06     0.04  -0.03   0.07
  47   5    -0.01   0.00   0.00     0.19  -0.12   0.07     0.01  -0.08   0.18
  48   7     0.01   0.00   0.02    -0.13   0.02  -0.01     0.04  -0.03  -0.13
  49   5     0.01  -0.00  -0.01     0.19   0.12   0.07     0.01   0.08   0.18
  50   7    -0.02  -0.00  -0.01    -0.13  -0.02  -0.01     0.04   0.03  -0.13
  51   7     0.04  -0.00   0.04    -0.03  -0.04  -0.05    -0.04   0.06  -0.01
  52   5    -0.05   0.08   0.02    -0.05   0.03  -0.02     0.11  -0.11   0.00
  53   7     0.05   0.02   0.05    -0.01  -0.03  -0.04    -0.05   0.06   0.03
  54   5    -0.10  -0.00  -0.10     0.08  -0.02   0.06     0.03   0.03   0.06
  55   7     0.05  -0.02   0.05     0.01  -0.04  -0.05    -0.05   0.05   0.01
  56   5     0.02  -0.07  -0.05    -0.00   0.09   0.09    -0.02  -0.07  -0.09
  57   5     0.05   0.08   0.02    -0.09  -0.07   0.02    -0.09  -0.09  -0.00
  58   7    -0.05   0.02   0.05     0.01   0.05   0.05     0.05   0.04   0.01
  59   5     0.11  -0.00  -0.11     0.06   0.03  -0.03    -0.06   0.02   0.08
  60   7    -0.05  -0.02   0.05     0.03   0.05   0.05     0.04   0.03  -0.01
  61   5    -0.02  -0.08  -0.05     0.00  -0.11  -0.11     0.02  -0.03  -0.06
  62   7    -0.05  -0.00   0.04    -0.01   0.06   0.04     0.05   0.04  -0.02
  63   7     0.08  -0.00  -0.08    -0.09   0.05  -0.00     0.03   0.04  -0.10
  64   5    -0.06  -0.03   0.05    -0.01   0.09  -0.08    -0.06   0.04  -0.02
  65   7     0.01  -0.09   0.04     0.11  -0.03  -0.04     0.07  -0.08   0.01
  66   5    -0.08  -0.00   0.08     0.02   0.07  -0.05    -0.06   0.05   0.04
  67   7    -0.04   0.09  -0.02    -0.01  -0.09   0.10    -0.05   0.00   0.08
  68   5    -0.05   0.03   0.06    -0.04   0.07  -0.06    -0.07   0.07   0.01
  69   7     0.03   0.13  -0.02    -0.01   0.01   0.04    -0.03  -0.01   0.13
  70   5    -0.10  -0.19  -0.04    -0.02  -0.01  -0.03    -0.10  -0.04  -0.19
  71   7    -0.03   0.13  -0.02     0.01  -0.02   0.01     0.03  -0.01   0.13
  72   5     0.10  -0.19  -0.04     0.02   0.00  -0.04     0.10  -0.04  -0.18
                    193                    194                    195
                        a                      a                      a 
 Frequencies --  1353.6826              1353.6830              1353.6836
 Red. masses --    12.1658                12.1659                12.1659
 Frc consts  --     0.0000                 0.0000                 0.0000
 IR Inten    --   135.1142               135.1200               135.1318
 Raman Activ --     0.0000                 0.0000                 0.0000
 Depolar     --     0.0000                 0.0000                 0.0000
 Atom AN      X      Y      Z        X      Y      Z        X      Y      Z
   1   5    -0.02  -0.04   0.10    -0.11  -0.10   0.11    -0.12  -0.06   0.06
   2   7    -0.15  -0.07  -0.15     0.06  -0.00  -0.06    -0.12  -0.05  -0.12
   3   5     0.10  -0.04  -0.03    -0.11   0.10   0.11     0.06  -0.06  -0.12
   4   7     0.06  -0.02   0.06     0.06  -0.00  -0.06     0.18  -0.08   0.18
   5   7    -0.02   0.06   0.06    -0.07   0.18   0.13     0.04  -0.04  -0.14
   6   5    -0.04   0.10  -0.03     0.00   0.00  -0.05     0.11  -0.13   0.15
   7   7    -0.07  -0.15  -0.15    -0.04  -0.07  -0.13     0.02   0.11   0.01
   8   5    -0.04  -0.02   0.10    -0.10  -0.16   0.11    -0.06  -0.04   0.07
   9   5    -0.03   0.05  -0.03    -0.06   0.00   0.06    -0.09   0.16  -0.09
  10   7     0.00   0.00   0.00    -0.00   0.02  -0.04     0.03  -0.02  -0.03
  11   5     0.05  -0.03  -0.03     0.13  -0.11  -0.05    -0.08  -0.01   0.10
  12   7     0.00   0.00   0.00    -0.03   0.00   0.03    -0.01   0.05  -0.01
  13   5    -0.03  -0.03   0.05     0.05   0.11  -0.13     0.10  -0.01  -0.08
  14   7     0.00   0.00   0.00     0.04  -0.02   0.00    -0.03  -0.02   0.03
  15   7    -0.15  -0.15  -0.07     0.13   0.07   0.04     0.01   0.11   0.02
  16   5    -0.03   0.10  -0.04     0.04   0.00  -0.00     0.15  -0.13   0.11
  17   7     0.06   0.06  -0.02    -0.12  -0.18   0.07    -0.14  -0.04   0.04
  18   5     0.10  -0.03  -0.04    -0.11   0.16   0.10     0.07  -0.04  -0.06
  19   5     0.08   0.01   0.09     0.01  -0.02  -0.00    -0.07   0.02  -0.06
  20   7    -0.01  -0.06  -0.06    -0.04   0.06   0.01    -0.04   0.02  -0.06
  21   5     0.01   0.01   0.03     0.05  -0.05  -0.00    -0.09   0.09  -0.00
  22   7    -0.06  -0.01  -0.06     0.05  -0.06  -0.05     0.04  -0.02   0.04
  23   5     0.01   0.08   0.09     0.01  -0.05  -0.05    -0.03   0.04   0.02
  24   7     0.04   0.04   0.03    -0.01   0.06   0.04     0.08  -0.05   0.02
  25   7     0.15  -0.06  -0.05    -0.12   0.18   0.07    -0.01   0.04   0.00
  26   5    -0.03  -0.03   0.04    -0.11  -0.16   0.10    -0.12  -0.04   0.06
  27   7    -0.06   0.15  -0.05     0.13  -0.07   0.04     0.14  -0.10   0.06
  28   5    -0.15  -0.15  -0.12     0.04  -0.00  -0.00    -0.03   0.05  -0.00
  29   7    -0.06  -0.06  -0.01    -0.01  -0.06  -0.01    -0.06   0.02   0.06
  30   5     0.01   0.03   0.01     0.11   0.00  -0.11     0.00   0.01   0.00
  31   7    -0.01  -0.06  -0.06     0.01   0.06   0.01     0.06   0.02  -0.06
  32   5     0.08   0.09   0.01     0.06   0.05  -0.03     0.03   0.03   0.01
  33   7     0.04   0.04   0.04    -0.07   0.00   0.07    -0.02  -0.05  -0.02
  34   5     0.01   0.09   0.08     0.03  -0.04  -0.06     0.01   0.03   0.03
  35   5     0.09   0.08   0.01     0.05   0.06  -0.01     0.02   0.04  -0.03
  36   7    -0.06  -0.01  -0.06     0.05   0.06  -0.05     0.04  -0.02   0.04
  37   5     0.03   0.01   0.01     0.01   0.05  -0.05    -0.00   0.09  -0.09
  38   7    -0.06  -0.06  -0.01    -0.02  -0.06   0.04    -0.06   0.02  -0.04
  39   5     0.09   0.01   0.08     0.01   0.03  -0.00    -0.06   0.02  -0.07
  40   7     0.04   0.04   0.04    -0.04  -0.06   0.02     0.02  -0.05   0.08
  41   7    -0.02  -0.03   0.02    -0.02  -0.01  -0.02    -0.02   0.00  -0.04
  42   5     0.13   0.08   0.07     0.08   0.02   0.08    -0.05  -0.08   0.02
  43   7    -0.02   0.02  -0.03     0.01   0.03  -0.01     0.02   0.03   0.01
  44   5     0.00  -0.10   0.09    -0.08   0.02  -0.08    -0.08   0.04  -0.11
  45   7     0.05   0.01   0.01     0.02  -0.01   0.02    -0.01  -0.02   0.02
  46   5     0.00   0.09  -0.10     0.03   0.05  -0.03     0.11   0.13  -0.04
  47   5    -0.03   0.04  -0.03     0.05   0.00  -0.05     0.15  -0.11   0.15
  48   7     0.15  -0.05  -0.06    -0.05   0.03   0.05     0.11  -0.06  -0.18
  49   5    -0.15  -0.12  -0.15     0.04  -0.00  -0.05    -0.03   0.00  -0.03
  50   7    -0.05  -0.04   0.15    -0.05  -0.03   0.06    -0.18  -0.06   0.11
  51   7    -0.03   0.02  -0.02     0.01  -0.03  -0.01     0.01   0.03   0.02
  52   5     0.08   0.08   0.13    -0.08  -0.02  -0.08     0.02  -0.08  -0.05
  53   7     0.02  -0.03  -0.02     0.02   0.01   0.02    -0.04   0.00  -0.02
  54   5    -0.10   0.09   0.00     0.03  -0.05  -0.03    -0.04   0.13   0.11
  55   7     0.01   0.01   0.05    -0.02   0.01  -0.02     0.02  -0.02  -0.01
  56   5     0.09  -0.10   0.00     0.08  -0.02   0.08    -0.11   0.04  -0.08
  57   5    -0.10   0.00   0.09     0.05  -0.11  -0.13    -0.01  -0.03  -0.02
  58   7     0.02  -0.02  -0.03     0.04   0.02   0.00     0.01  -0.00  -0.01
  59   5     0.08   0.13   0.07    -0.06   0.00   0.06     0.06   0.10   0.06
  60   7    -0.03  -0.02   0.02    -0.00  -0.02  -0.04    -0.01  -0.00   0.01
  61   5     0.09   0.00  -0.10     0.14   0.11  -0.05    -0.02  -0.03  -0.00
  62   7     0.01   0.05   0.01    -0.03   0.00   0.03     0.00   0.02   0.00
  63   7     0.04  -0.06   0.04    -0.07  -0.00   0.07    -0.03   0.02  -0.03
  64   5    -0.01   0.00   0.00     0.03   0.05  -0.06    -0.02   0.10  -0.09
  65   7     0.04   0.04  -0.06    -0.01   0.06  -0.02     0.08  -0.05  -0.01
  66   5     0.00  -0.01   0.00     0.11  -0.00  -0.11    -0.01   0.03  -0.01
  67   7    -0.06   0.04   0.04     0.01  -0.06   0.01    -0.01  -0.05   0.08
  68   5     0.00   0.00  -0.01     0.06  -0.05  -0.03    -0.09   0.10  -0.02
  69   7    -0.04  -0.05   0.15    -0.07  -0.18   0.13     0.00   0.04  -0.01
  70   5    -0.12  -0.15  -0.15     0.00  -0.00  -0.05    -0.00   0.05  -0.03
  71   7    -0.05   0.15  -0.06    -0.04   0.07  -0.13     0.06  -0.10   0.14
  72   5     0.04  -0.03  -0.03    -0.10   0.16   0.11     0.06  -0.04  -0.12
                    196                    197                    198
                        a                      a                      a 
 Frequencies --  1366.4476              1366.4481              1369.9221
 Red. masses --    12.2043                12.2043                12.1830
 Frc consts  --     0.0000                 0.0000                 0.0000
 IR Inten    --     0.0000                 0.0000                 0.0000
 Raman Activ --     0.0000                 0.0000                 0.0000
 Depolar     --     0.0000                 0.0000                 0.0000
 Atom AN      X      Y      Z        X      Y      Z        X      Y      Z
   1   5     0.00  -0.00   0.00     0.13   0.08  -0.13    -0.02  -0.03   0.02
   2   7     0.00  -0.00  -0.00     0.17   0.07   0.17     0.10   0.10   0.10
   3   5    -0.00   0.00  -0.00    -0.13   0.08   0.13     0.02  -0.03  -0.02
   4   7    -0.00  -0.00   0.00    -0.17   0.07  -0.17    -0.10   0.10  -0.10
   5   7    -0.06   0.15   0.15    -0.03   0.09   0.08     0.10  -0.10  -0.10
   6   5    -0.07   0.11  -0.11    -0.04   0.06  -0.06    -0.03   0.02  -0.02
   7   7    -0.06  -0.15  -0.15    -0.03  -0.09  -0.08     0.10   0.10   0.10
   8   5    -0.07  -0.11   0.11    -0.04  -0.06   0.06    -0.03  -0.02   0.02
   9   5     0.02   0.00  -0.02     0.09  -0.15   0.09     0.09  -0.16   0.09
  10   7    -0.03   0.02   0.03    -0.04   0.05  -0.01     0.00   0.00  -0.03
  11   5     0.13  -0.07  -0.09     0.07  -0.06  -0.02    -0.16   0.09   0.09
  12   7    -0.05   0.00   0.05    -0.00   0.03  -0.00     0.00  -0.03   0.00
  13   5     0.09   0.07  -0.13    -0.02  -0.06   0.07     0.09   0.09  -0.16
  14   7    -0.03  -0.02   0.03    -0.01   0.05  -0.04    -0.03   0.00   0.00
  15   7     0.15   0.15   0.06    -0.08  -0.09  -0.03     0.10   0.10   0.10
  16   5     0.11  -0.11   0.07    -0.06   0.06  -0.04    -0.02   0.02  -0.03
  17   7    -0.15  -0.15   0.06     0.08   0.09  -0.03    -0.10  -0.10   0.10
  18   5    -0.11   0.11   0.07     0.06  -0.06  -0.04     0.02  -0.02  -0.03
  19   5     0.09  -0.00   0.09     0.00   0.01  -0.00     0.00  -0.06  -0.00
  20   7    -0.00  -0.03  -0.00    -0.00   0.02   0.04     0.05  -0.03   0.03
  21   5     0.05  -0.04  -0.01     0.08  -0.08   0.00     0.00   0.00   0.06
  22   7    -0.04  -0.00  -0.04     0.02   0.00  -0.02    -0.03   0.05   0.03
  23   5    -0.01   0.04   0.05    -0.00  -0.08  -0.08    -0.06   0.00  -0.00
  24   7    -0.00   0.03  -0.00    -0.04   0.02   0.00    -0.03  -0.03  -0.05
  25   7     0.15  -0.15  -0.06    -0.08   0.09   0.03     0.10  -0.10  -0.10
  26   5     0.11   0.11  -0.07    -0.06  -0.06   0.04    -0.02  -0.02   0.03
  27   7    -0.15   0.15  -0.06     0.08  -0.09   0.03    -0.10   0.10  -0.10
  28   5    -0.11  -0.11  -0.07     0.06   0.06   0.04     0.02   0.02   0.03
  29   7    -0.00  -0.03   0.00    -0.04  -0.02  -0.00    -0.03   0.03   0.05
  30   5     0.09  -0.00  -0.09     0.00  -0.01   0.00     0.00   0.06   0.00
  31   7    -0.00   0.03   0.00    -0.00  -0.02  -0.04     0.05   0.03  -0.03
  32   5     0.05   0.04   0.01     0.08   0.08  -0.00     0.00  -0.00  -0.06
  33   7    -0.04   0.00   0.04     0.02  -0.00   0.02    -0.03  -0.05  -0.03
  34   5    -0.01  -0.04  -0.05    -0.00   0.08   0.08    -0.06  -0.00   0.00
  35   5    -0.05  -0.04   0.01    -0.08  -0.08  -0.00    -0.00   0.00  -0.06
  36   7     0.04   0.00   0.04    -0.02   0.00   0.02     0.03   0.05  -0.03
  37   5     0.01   0.04  -0.05     0.00  -0.08   0.08     0.06   0.00   0.00
  38   7     0.00   0.03   0.00     0.04   0.02  -0.00     0.03  -0.03   0.05
  39   5    -0.09   0.00  -0.09    -0.00   0.01   0.00    -0.00  -0.06   0.00
  40   7     0.00  -0.03   0.00     0.00   0.02  -0.04    -0.05  -0.03  -0.03
  41   7    -0.03  -0.02  -0.03    -0.04  -0.05   0.01     0.00  -0.00   0.03
  42   5     0.13   0.07   0.09     0.07   0.06   0.02    -0.16  -0.09  -0.09
  43   7    -0.05  -0.00  -0.05    -0.00  -0.03   0.00     0.00   0.03  -0.00
  44   5     0.09  -0.07   0.13    -0.02   0.06  -0.07     0.09  -0.09   0.16
  45   7    -0.03   0.02  -0.03    -0.01  -0.05   0.04    -0.03  -0.00  -0.00
  46   5     0.02  -0.00   0.02     0.09   0.15  -0.09     0.09   0.16  -0.09
  47   5     0.00   0.00  -0.00     0.13  -0.08   0.13    -0.02   0.03  -0.02
  48   7     0.00   0.00   0.00     0.17  -0.07  -0.17     0.10  -0.10  -0.10
  49   5    -0.00   0.00   0.00    -0.13  -0.08  -0.13     0.02   0.03   0.02
  50   7    -0.00   0.00  -0.00    -0.17  -0.07   0.17    -0.10  -0.10   0.10
  51   7     0.05   0.00   0.05     0.00  -0.03  -0.00    -0.00   0.03   0.00
  52   5    -0.09  -0.07  -0.13     0.02   0.06   0.07    -0.09  -0.09  -0.16
  53   7     0.03   0.02   0.03     0.01  -0.05  -0.04     0.03  -0.00   0.00
  54   5    -0.02  -0.00  -0.02    -0.09   0.15   0.09    -0.09   0.16   0.09
  55   7     0.03  -0.02   0.03     0.04  -0.05  -0.01    -0.00  -0.00  -0.03
  56   5    -0.13   0.07  -0.09    -0.07   0.06  -0.02     0.16  -0.09   0.09
  57   5    -0.09   0.07   0.13     0.02  -0.06  -0.07    -0.09   0.09   0.16
  58   7     0.03  -0.02  -0.03     0.01   0.05   0.04     0.03   0.00  -0.00
  59   5    -0.02   0.00   0.02    -0.09  -0.15  -0.09    -0.09  -0.16  -0.09
  60   7     0.03   0.02  -0.03     0.04   0.05   0.01    -0.00   0.00   0.03
  61   5    -0.13  -0.07   0.09    -0.07  -0.06   0.02     0.16   0.09  -0.09
  62   7     0.05  -0.00  -0.05     0.00   0.03   0.00    -0.00  -0.03  -0.00
  63   7     0.04  -0.00  -0.04    -0.02  -0.00  -0.02     0.03  -0.05   0.03
  64   5     0.01  -0.04   0.05     0.00   0.08  -0.08     0.06  -0.00  -0.00
  65   7     0.00  -0.03  -0.00     0.04  -0.02   0.00     0.03   0.03  -0.05
  66   5    -0.09   0.00   0.09    -0.00  -0.01  -0.00    -0.00   0.06  -0.00
  67   7     0.00   0.03  -0.00     0.00  -0.02   0.04    -0.05   0.03   0.03
  68   5    -0.05   0.04  -0.01    -0.08   0.08   0.00    -0.00  -0.00   0.06
  69   7     0.06   0.15  -0.15     0.03   0.09  -0.08    -0.10  -0.10   0.10
  70   5     0.07   0.11   0.11     0.04   0.06   0.06     0.03   0.02   0.02
  71   7     0.06  -0.15   0.15     0.03  -0.09   0.08    -0.10   0.10  -0.10
  72   5     0.07  -0.11  -0.11     0.04  -0.06  -0.06     0.03  -0.02  -0.02
                    199                    200                    201
                        a                      a                      a 
 Frequencies --  1382.2461              1382.2461              1382.2463
 Red. masses --    12.1145                12.1145                12.1145
 Frc consts  --     0.0000                 0.0000                 0.0000
 IR Inten    --    25.5240                25.5213                25.5155
 Raman Activ --     0.0000                 0.0000                 0.0000
 Depolar     --     0.0000                 0.0000                 0.0000
 Atom AN      X      Y      Z        X      Y      Z        X      Y      Z
   1   5    -0.04   0.05  -0.13    -0.03  -0.02   0.02     0.13   0.06   0.00
   2   7     0.05  -0.01   0.05     0.02  -0.00  -0.01    -0.14  -0.13  -0.14
   3   5    -0.13   0.05  -0.04    -0.03   0.03   0.03     0.00   0.06   0.13
   4   7     0.15  -0.12   0.15     0.02  -0.00  -0.01    -0.01  -0.04  -0.01
   5   7    -0.12   0.15   0.15     0.04   0.02   0.00     0.03  -0.02   0.01
   6   5     0.04  -0.13  -0.04    -0.04  -0.01  -0.10    -0.06   0.03  -0.08
   7   7    -0.00   0.05   0.05     0.11   0.13   0.12     0.07   0.05   0.08
   8   5     0.05  -0.04  -0.13    -0.07  -0.12   0.01    -0.01  -0.04  -0.02
   9   5    -0.12   0.20  -0.12    -0.05   0.01   0.04    -0.04   0.08  -0.05
  10   7    -0.00  -0.00   0.07     0.04  -0.03  -0.01     0.05  -0.06   0.01
  11   5     0.20  -0.11  -0.12    -0.07   0.02   0.06    -0.05   0.06  -0.01
  12   7    -0.00   0.07  -0.00     0.06   0.00  -0.06     0.01  -0.02   0.01
  13   5    -0.11  -0.11   0.19    -0.07  -0.02   0.08    -0.01   0.06  -0.05
  14   7     0.07  -0.01   0.00     0.01   0.03  -0.04     0.01  -0.06   0.05
  15   7     0.06   0.06   0.00    -0.11  -0.13  -0.11     0.08   0.06   0.07
  16   5    -0.05  -0.13   0.04     0.09   0.01   0.04    -0.09   0.03  -0.06
  17   7     0.15   0.15  -0.12     0.01  -0.01  -0.04     0.01  -0.02   0.03
  18   5    -0.13  -0.05   0.04    -0.02   0.12   0.07    -0.02  -0.04  -0.01
  19   5     0.02  -0.06   0.00     0.02  -0.11  -0.02     0.00  -0.08  -0.02
  20   7    -0.05   0.10   0.03     0.05   0.01   0.07     0.06  -0.02   0.06
  21   5    -0.02  -0.02  -0.15    -0.01   0.00  -0.02    -0.01   0.01   0.01
  22   7     0.10  -0.05   0.03     0.02  -0.02  -0.01    -0.00  -0.07  -0.09
  23   5    -0.05   0.02   0.00     0.01   0.00   0.01     0.14  -0.02   0.02
  24   7    -0.04  -0.04  -0.06    -0.07   0.01  -0.05    -0.05   0.09   0.03
  25   7     0.03  -0.06  -0.06     0.00   0.01  -0.04    -0.15   0.14   0.11
  26   5    -0.02  -0.02   0.02    -0.02  -0.12   0.07     0.13  -0.05  -0.04
  27   7    -0.06   0.03  -0.06    -0.12   0.13  -0.11    -0.08   0.07  -0.02
  28   5     0.07   0.06   0.06     0.10  -0.01   0.04     0.06  -0.12  -0.03
  29   7     0.10   0.04  -0.05     0.01  -0.08  -0.07     0.01   0.03   0.02
  30   5    -0.02  -0.15  -0.02    -0.01  -0.00   0.01    -0.00  -0.01  -0.00
  31   7    -0.05   0.03   0.10     0.07   0.09  -0.00     0.02   0.03   0.01
  32   5     0.02   0.00  -0.05     0.01  -0.02  -0.13     0.01  -0.00  -0.06
  33   7    -0.04  -0.07  -0.05    -0.08  -0.00   0.08    -0.04  -0.06  -0.04
  34   5    -0.06  -0.00   0.02     0.12   0.02  -0.01    -0.06  -0.00   0.01
  35   5     0.00   0.02  -0.05    -0.01  -0.00  -0.01     0.02  -0.02   0.14
  36   7     0.03  -0.05   0.10     0.01   0.02  -0.01    -0.09  -0.07  -0.00
  37   5    -0.15  -0.02  -0.02     0.01  -0.00   0.01     0.01   0.01  -0.01
  38   7     0.04   0.10  -0.05    -0.07  -0.00  -0.05     0.06  -0.02   0.06
  39   5    -0.00  -0.06   0.02     0.02   0.11  -0.01    -0.02  -0.08   0.00
  40   7    -0.07  -0.04  -0.05     0.05  -0.01   0.07     0.03   0.09  -0.05
  41   7    -0.05  -0.05   0.02     0.03   0.03   0.05    -0.01  -0.02   0.04
  42   5     0.02   0.01   0.01    -0.19  -0.13  -0.09    -0.11  -0.03  -0.10
  43   7    -0.05   0.01  -0.05     0.00   0.06  -0.01     0.04   0.02   0.04
  44   5     0.09  -0.02   0.10     0.09  -0.13   0.19     0.02  -0.00   0.02
  45   7    -0.04  -0.01  -0.00    -0.05   0.03  -0.03    -0.03  -0.05   0.05
  46   5     0.10   0.11  -0.03     0.07   0.11  -0.07     0.06   0.15  -0.11
  47   5    -0.03   0.03  -0.02     0.10   0.00  -0.11    -0.08   0.08  -0.08
  48   7     0.04  -0.07  -0.07    -0.12   0.07   0.12     0.07  -0.09  -0.06
  49   5     0.07   0.07   0.07     0.11   0.00  -0.10     0.05   0.05   0.05
  50   7    -0.06  -0.06   0.03    -0.13  -0.08   0.13    -0.06  -0.09   0.07
  51   7    -0.05   0.02  -0.05     0.00  -0.06  -0.01     0.04   0.02   0.04
  52   5     0.00   0.00   0.01     0.09   0.13   0.19    -0.10  -0.03  -0.11
  53   7     0.02  -0.05  -0.05    -0.05  -0.03  -0.03     0.04  -0.02  -0.01
  54   5    -0.03   0.12   0.10     0.06  -0.11  -0.06    -0.11   0.15   0.06
  55   7    -0.01  -0.01  -0.04     0.03  -0.03   0.05     0.05  -0.05  -0.03
  56   5     0.11  -0.03   0.10    -0.18   0.13  -0.08     0.02  -0.00   0.02
  57   5    -0.02   0.09   0.10    -0.06   0.02   0.08     0.11  -0.09  -0.18
  58   7     0.01  -0.05  -0.05     0.01  -0.03  -0.04    -0.07  -0.02  -0.01
  59   5     0.01   0.03   0.01    -0.04   0.00   0.04     0.12   0.22   0.12
  60   7    -0.05  -0.05   0.01     0.03   0.02  -0.01    -0.01  -0.02  -0.07
  61   5     0.10   0.09  -0.03    -0.07  -0.02   0.06    -0.18  -0.09   0.11
  62   7    -0.01  -0.03  -0.00     0.06  -0.00  -0.06     0.00   0.06   0.00
  63   7     0.03  -0.04   0.02    -0.08  -0.00   0.08     0.05  -0.08   0.05
  64   5     0.03  -0.00  -0.00     0.13  -0.02  -0.01     0.07  -0.00  -0.02
  65   7     0.02   0.02  -0.03     0.01   0.09  -0.07    -0.10   0.04   0.04
  66   5    -0.00   0.03  -0.00    -0.01   0.00   0.01     0.02  -0.15   0.02
  67   7    -0.03   0.02   0.02     0.07  -0.09  -0.01     0.04   0.04  -0.10
  68   5    -0.01  -0.00   0.04     0.01   0.02  -0.12    -0.02  -0.00   0.07
  69   7    -0.06  -0.05   0.03     0.04  -0.01  -0.00     0.11   0.14  -0.15
  70   5     0.07   0.06   0.07    -0.04   0.01  -0.09    -0.03  -0.12   0.07
  71   7    -0.07   0.04  -0.07     0.11  -0.13   0.11    -0.02   0.07  -0.08
  72   5     0.02  -0.03  -0.02    -0.07   0.12   0.02    -0.04  -0.05   0.13
                    202                    203                    204
                        a                      a                      a 
 Frequencies --  1409.2594              1409.2595              1409.2596
 Red. masses --    12.1459                12.1459                12.1459
 Frc consts  --     0.0000                 0.0000                 0.0000
 IR Inten    --  5120.3343              5120.3249              5120.2928
 Raman Activ --     0.0000                 0.0000                 0.0000
 Depolar     --     0.0000                 0.0000                 0.0000
 Atom AN      X      Y      Z        X      Y      Z        X      Y      Z
   1   5     0.13   0.08  -0.04    -0.08  -0.10   0.13    -0.01  -0.04   0.09
   2   7    -0.10  -0.05  -0.04     0.02  -0.03  -0.09    -0.02  -0.01  -0.04
   3   5     0.10  -0.05  -0.00    -0.11   0.12   0.15     0.04  -0.00   0.03
   4   7    -0.08   0.03  -0.02     0.04   0.01  -0.07    -0.06   0.06  -0.08
   5   7    -0.00  -0.03  -0.00     0.06  -0.06  -0.10    -0.02   0.08  -0.04
   6   5     0.00   0.02   0.03     0.03   0.03   0.09     0.13  -0.15   0.13
   7   7    -0.05  -0.07  -0.05    -0.04  -0.05  -0.08     0.00   0.07  -0.05
   8   5     0.05   0.09  -0.03    -0.05   0.00   0.11    -0.11  -0.13   0.11
   9   5     0.07  -0.05  -0.02    -0.08  -0.00   0.08     0.05  -0.12   0.09
  10   7    -0.03   0.02   0.01     0.06  -0.04  -0.09    -0.06   0.07  -0.07
  11   5     0.02   0.01  -0.03    -0.12   0.04   0.10     0.04  -0.11   0.06
  12   7    -0.04  -0.02   0.04     0.07  -0.03  -0.07     0.00   0.10  -0.03
  13   5     0.08   0.02  -0.09    -0.09   0.02   0.06     0.03  -0.12   0.08
  14   7    -0.08  -0.01   0.02     0.07   0.02  -0.03    -0.04   0.08  -0.07
  15   7    -0.10  -0.06  -0.06     0.01  -0.06  -0.03    -0.03   0.07   0.00
  16   5     0.11   0.01   0.04    -0.05   0.05  -0.05     0.10  -0.15   0.11
  17   7    -0.09  -0.05   0.05     0.05  -0.02  -0.02    -0.01   0.09  -0.04
  18   5     0.10   0.02  -0.03    -0.11   0.11   0.10     0.07  -0.11  -0.08
  19   5     0.06   0.05   0.08     0.02   0.06   0.04     0.07  -0.09   0.04
  20   7    -0.02  -0.02  -0.05    -0.02  -0.05  -0.08    -0.14   0.11  -0.08
  21   5     0.03  -0.02   0.03    -0.04   0.07   0.10     0.08  -0.06   0.06
  22   7    -0.08   0.04  -0.02     0.07  -0.14  -0.12    -0.05   0.02  -0.03
  23   5     0.10   0.03   0.06    -0.04   0.09   0.08     0.05  -0.02  -0.01
  24   7    -0.12  -0.07  -0.13     0.01  -0.07  -0.05    -0.04   0.07   0.02
  25   7    -0.08  -0.04   0.01     0.07  -0.07  -0.06    -0.03   0.08   0.03
  26   5     0.14   0.10  -0.12    -0.06   0.01   0.02    -0.02  -0.12   0.06
  27   7    -0.09  -0.03  -0.02     0.03  -0.03   0.01    -0.05   0.10  -0.06
  28   5     0.16   0.12   0.13    -0.00   0.07   0.03     0.02  -0.08  -0.03
  29   7    -0.09  -0.05   0.03     0.08  -0.08  -0.12    -0.03   0.08   0.07
  30   5     0.06   0.06  -0.04    -0.07   0.05   0.09    -0.03  -0.09   0.00
  31   7    -0.07  -0.08   0.02     0.06  -0.02  -0.10     0.11   0.09  -0.06
  32   5     0.08   0.09   0.02    -0.01   0.02   0.11    -0.04  -0.02   0.05
  33   7    -0.12  -0.12  -0.05     0.02  -0.06  -0.11    -0.01  -0.03  -0.04
  34   5     0.11   0.06   0.02    -0.05   0.07   0.09     0.02  -0.01  -0.02
  35   5     0.09   0.08   0.03     0.02  -0.01   0.09    -0.02  -0.04   0.07
  36   7    -0.12  -0.09   0.01     0.04   0.09  -0.09     0.00   0.07  -0.09
  37   5     0.11   0.03  -0.00    -0.04  -0.03   0.02     0.03  -0.08   0.09
  38   7    -0.10  -0.03  -0.05     0.02  -0.02   0.03    -0.06   0.12  -0.13
  39   5     0.08   0.06   0.06     0.04   0.04   0.02     0.04  -0.10   0.07
  40   7    -0.11  -0.09  -0.06    -0.09  -0.05  -0.09     0.01   0.07  -0.06
  41   7    -0.08  -0.07  -0.03    -0.01   0.00  -0.07     0.02   0.04  -0.08
  42   5     0.11   0.08   0.05     0.07   0.01   0.07     0.00  -0.09   0.09
  43   7    -0.07  -0.06  -0.05    -0.03  -0.02  -0.03    -0.04   0.09  -0.06
  44   5     0.11   0.06   0.05     0.00   0.00  -0.00     0.04  -0.10   0.12
  45   7    -0.11  -0.03   0.00     0.01   0.02  -0.03    -0.03   0.08  -0.08
  46   5     0.12   0.08   0.02    -0.01  -0.06   0.07     0.01  -0.07   0.10
  47   5     0.12  -0.08   0.06    -0.03  -0.03   0.09     0.10  -0.10   0.12
  48   7    -0.08   0.01  -0.02     0.06  -0.06  -0.10    -0.04   0.02  -0.03
  49   5     0.15   0.11   0.09     0.00   0.05   0.11     0.04   0.05   0.06
  50   7    -0.10  -0.04   0.00     0.04   0.03  -0.08    -0.00   0.03  -0.07
  51   7    -0.06  -0.03  -0.06    -0.02  -0.07  -0.04    -0.06   0.08  -0.04
  52   5     0.09   0.04   0.11    -0.02   0.09   0.06     0.07  -0.07  -0.00
  53   7    -0.09  -0.03  -0.05     0.03  -0.08  -0.07    -0.06   0.02   0.01
  54   5     0.08  -0.02   0.06    -0.04   0.12   0.10     0.08  -0.04   0.03
  55   7    -0.03   0.02  -0.05     0.04  -0.06  -0.09    -0.07   0.06  -0.04
  56   5     0.04   0.02   0.07     0.00   0.08   0.08     0.12  -0.09   0.05
  57   5     0.10   0.08  -0.02    -0.07   0.07   0.12    -0.01  -0.06  -0.04
  58   7    -0.10  -0.05  -0.03     0.05  -0.07  -0.08    -0.00   0.02   0.01
  59   5     0.11   0.11   0.02    -0.04   0.06   0.12    -0.01   0.01   0.02
  60   7    -0.08  -0.08  -0.01     0.01  -0.01  -0.10     0.03   0.03  -0.03
  61   5     0.08   0.09  -0.01    -0.06   0.05   0.12    -0.08  -0.06   0.03
  62   7    -0.05  -0.07   0.03     0.07  -0.05  -0.08     0.02   0.07  -0.01
  63   7    -0.09   0.07  -0.02     0.05   0.02  -0.08    -0.07   0.12  -0.09
  64   5     0.10   0.00  -0.03    -0.06  -0.02   0.04     0.04  -0.09   0.08
  65   7    -0.10  -0.06   0.11     0.07  -0.01  -0.04    -0.00   0.11  -0.08
  66   5     0.04   0.04  -0.05    -0.09   0.05   0.07     0.00  -0.10   0.03
  67   7     0.01  -0.02   0.00     0.14  -0.07  -0.12    -0.04   0.10  -0.04
  68   5     0.03  -0.03   0.01    -0.07   0.04   0.10     0.06  -0.08   0.07
  69   7    -0.04  -0.06   0.01     0.03  -0.02  -0.09     0.04   0.08  -0.06
  70   5     0.08   0.10   0.08     0.10   0.09   0.13    -0.02  -0.08   0.04
  71   7    -0.02  -0.02  -0.03    -0.00  -0.04  -0.07    -0.06   0.10  -0.07
  72   5    -0.03   0.04   0.02    -0.12   0.12   0.16     0.03  -0.10   0.02
                    205                    206                    207
                        a                      a                      a 
 Frequencies --  1410.9956              1410.9961              1422.1579
 Red. masses --    11.9471                11.9471                11.9736
 Frc consts  --     0.0000                 0.0000                 0.0000
 IR Inten    --     0.0000                 0.0000               253.3762
 Raman Activ --     0.0000                 0.0000                 0.0000
 Depolar     --     0.0000                 0.0000                 0.0000
 Atom AN      X      Y      Z        X      Y      Z        X      Y      Z
   1   5    -0.00   0.00  -0.00    -0.16  -0.14   0.16    -0.15  -0.10   0.09
   2   7     0.00  -0.00  -0.00    -0.01   0.07  -0.01    -0.01   0.04  -0.01
   3   5     0.00   0.00   0.00     0.16  -0.14  -0.16     0.09  -0.09  -0.15
   4   7    -0.00  -0.00   0.00     0.01   0.07   0.01     0.09  -0.01   0.09
   5   7    -0.06  -0.01  -0.01    -0.03  -0.00  -0.01    -0.01   0.09   0.09
   6   5     0.12  -0.14   0.14     0.07  -0.08   0.08    -0.09   0.09  -0.15
   7   7    -0.06   0.01   0.01    -0.03   0.00   0.01     0.04  -0.01  -0.01
   8   5     0.12   0.14  -0.14     0.07   0.08  -0.08    -0.09  -0.15   0.09
   9   5     0.04   0.00  -0.04     0.06  -0.12   0.06    -0.02   0.03  -0.02
  10   7    -0.05   0.04   0.01    -0.07   0.07  -0.00    -0.00  -0.00   0.05
  11   5     0.10  -0.04  -0.08     0.06  -0.07   0.00     0.03  -0.02  -0.02
  12   7    -0.08   0.00   0.08    -0.01   0.01  -0.01    -0.00   0.06  -0.00
  13   5     0.08   0.04  -0.10     0.00  -0.07   0.06    -0.02  -0.02   0.03
  14   7    -0.01  -0.04   0.05    -0.00   0.07  -0.07     0.06  -0.00  -0.00
  15   7    -0.01  -0.01   0.06     0.01   0.00  -0.03    -0.01  -0.01   0.04
  16   5    -0.14   0.14  -0.12     0.08  -0.08   0.07    -0.15   0.09  -0.10
  17   7     0.01   0.01   0.06    -0.01  -0.00  -0.03     0.09   0.09  -0.01
  18   5     0.14  -0.14  -0.12    -0.08   0.08   0.07     0.09  -0.15  -0.10
  19   5     0.07  -0.00   0.07     0.00  -0.02  -0.00    -0.03  -0.00  -0.03
  20   7    -0.12   0.08  -0.10    -0.07   0.07  -0.03     0.08  -0.03   0.09
  21   5     0.04  -0.03   0.01     0.06  -0.06  -0.01    -0.01  -0.01  -0.08
  22   7    -0.02   0.00  -0.02    -0.10   0.14   0.10    -0.03   0.08   0.09
  23   5     0.01   0.03   0.04     0.01  -0.06  -0.06    -0.00  -0.03  -0.03
  24   7    -0.10  -0.08  -0.12     0.03   0.07   0.07     0.02   0.02   0.03
  25   7    -0.01   0.01  -0.06     0.01  -0.00   0.03     0.02  -0.09   0.02
  26   5    -0.14  -0.14   0.12     0.08   0.08  -0.07     0.20   0.20  -0.16
  27   7     0.01  -0.01  -0.06    -0.01   0.00   0.03    -0.09   0.02   0.02
  28   5     0.14   0.14   0.12    -0.08  -0.08  -0.07    -0.05  -0.05  -0.03
  29   7    -0.10   0.08   0.12     0.03  -0.07  -0.07    -0.04   0.09   0.08
  30   5     0.07  -0.00  -0.07     0.00   0.02   0.00    -0.01  -0.08  -0.01
  31   7    -0.12  -0.08   0.10    -0.07  -0.07   0.03     0.08   0.09  -0.04
  32   5     0.04   0.03  -0.01     0.06   0.06   0.01    -0.03  -0.03  -0.00
  33   7    -0.02   0.00   0.02    -0.10  -0.14  -0.10     0.02   0.02   0.02
  34   5     0.01  -0.03  -0.04     0.01   0.06   0.06    -0.00  -0.03  -0.03
  35   5    -0.04  -0.03  -0.01    -0.06  -0.06   0.01    -0.03  -0.03  -0.00
  36   7     0.02  -0.00   0.02     0.10   0.14  -0.10     0.09   0.08  -0.04
  37   5    -0.01   0.03  -0.04    -0.01  -0.06   0.06    -0.08  -0.01  -0.01
  38   7     0.10  -0.08   0.12    -0.03   0.07  -0.07     0.09  -0.04   0.08
  39   5    -0.07   0.00  -0.07    -0.00  -0.02   0.00    -0.03  -0.00  -0.03
  40   7     0.12   0.08   0.10     0.07   0.07   0.03     0.02   0.02   0.02
  41   7    -0.05  -0.04  -0.01    -0.07  -0.07   0.00     0.02   0.02  -0.01
  42   5     0.10   0.04   0.08     0.06   0.07  -0.00    -0.05  -0.03  -0.03
  43   7    -0.08   0.00  -0.08    -0.01  -0.01   0.01     0.02  -0.01   0.02
  44   5     0.08  -0.04   0.10     0.00   0.07  -0.06     0.03   0.03  -0.01
  45   7    -0.01   0.04  -0.05    -0.00  -0.07   0.07    -0.08  -0.00  -0.00
  46   5     0.04  -0.00   0.04     0.06   0.12  -0.06     0.03  -0.01   0.03
  47   5    -0.00  -0.00   0.00    -0.16   0.14  -0.16     0.19  -0.16   0.19
  48   7     0.00   0.00   0.00    -0.01  -0.07   0.01     0.02   0.02  -0.08
  49   5     0.00  -0.00  -0.00     0.16   0.14   0.16    -0.04  -0.03  -0.04
  50   7    -0.00   0.00  -0.00     0.01  -0.07  -0.01    -0.08   0.02   0.02
  51   7     0.08  -0.00   0.08     0.01  -0.01  -0.01     0.02  -0.01   0.02
  52   5    -0.08  -0.04  -0.10    -0.00   0.07   0.06    -0.03  -0.03  -0.05
  53   7     0.01   0.04   0.05     0.00  -0.07  -0.07    -0.01   0.02   0.02
  54   5    -0.04  -0.00  -0.04    -0.06   0.12   0.06     0.03  -0.01   0.03
  55   7     0.05  -0.04   0.01     0.07  -0.07  -0.00    -0.00  -0.00  -0.08
  56   5    -0.10   0.04  -0.08    -0.06   0.07   0.00    -0.01   0.03   0.03
  57   5    -0.08   0.04   0.10    -0.00  -0.07  -0.06     0.03   0.03  -0.01
  58   7     0.01  -0.04  -0.05     0.00   0.07   0.07    -0.01   0.02   0.02
  59   5    -0.04   0.00   0.04    -0.06  -0.12  -0.06    -0.03  -0.05  -0.03
  60   7     0.05   0.04  -0.01     0.07   0.07   0.00     0.02   0.02  -0.01
  61   5    -0.10  -0.04   0.08    -0.06  -0.07  -0.00    -0.01   0.03   0.03
  62   7     0.08  -0.00  -0.08     0.01   0.01   0.01    -0.00  -0.08  -0.00
  63   7     0.02   0.00  -0.02     0.10  -0.14   0.10    -0.11   0.14  -0.11
  64   5    -0.01  -0.03   0.04    -0.01   0.06  -0.06     0.08  -0.01  -0.01
  65   7     0.10   0.08  -0.12    -0.03  -0.07   0.07    -0.11  -0.11   0.14
  66   5    -0.07   0.00   0.07    -0.00   0.02  -0.00    -0.01   0.08  -0.01
  67   7     0.12  -0.08  -0.10     0.07  -0.07  -0.03     0.14  -0.11  -0.11
  68   5    -0.04   0.03   0.01    -0.06   0.06  -0.01    -0.01  -0.01   0.08
  69   7     0.06  -0.01   0.01     0.03  -0.00   0.01     0.02  -0.08   0.02
  70   5    -0.12  -0.14  -0.14    -0.07  -0.08  -0.08    -0.03  -0.04  -0.04
  71   7     0.06   0.01  -0.01     0.03   0.00  -0.01     0.02   0.02  -0.08
  72   5    -0.12   0.14   0.14    -0.07   0.08   0.08    -0.16   0.19   0.19
                    208                    209                    210
                        a                      a                      a 
 Frequencies --  1422.1580              1422.1582              1431.8696
 Red. masses --    11.9736                11.9736                11.9434
 Frc consts  --     0.0000                 0.0000                 0.0000
 IR Inten    --   253.3889               253.4117                 0.0000
 Raman Activ --     0.0000                 0.0000                 0.0000
 Depolar     --     0.0000                 0.0000                 0.0000
 Atom AN      X      Y      Z        X      Y      Z        X      Y      Z
   1   5     0.09   0.08  -0.09    -0.15  -0.13   0.19     0.14   0.11  -0.14
   2   7    -0.04   0.00   0.04    -0.10   0.01  -0.10     0.07  -0.01   0.07
   3   5     0.09  -0.08  -0.09     0.19  -0.13  -0.15    -0.14   0.11   0.14
   4   7    -0.04  -0.00   0.04     0.05   0.04   0.05    -0.07  -0.01  -0.07
   5   7     0.03   0.02   0.06    -0.02  -0.06   0.01    -0.01  -0.07  -0.07
   6   5    -0.16   0.21  -0.18    -0.01  -0.02  -0.01     0.11  -0.14   0.14
   7   7     0.01  -0.11  -0.06    -0.00   0.01   0.08    -0.01   0.07   0.07
   8   5    -0.08  -0.08   0.12     0.14   0.15  -0.17     0.11   0.14  -0.14
   9   5     0.03   0.00  -0.04     0.02  -0.04   0.02     0.01  -0.00   0.01
  10   7     0.01  -0.02   0.06    -0.02   0.02   0.03    -0.00  -0.00  -0.05
  11   5    -0.04   0.03   0.00     0.02   0.02  -0.04    -0.00   0.01   0.01
  12   7     0.02   0.00  -0.02     0.00  -0.07   0.00    -0.00  -0.05  -0.00
  13   5    -0.00  -0.04   0.04    -0.04   0.02   0.02     0.01   0.01  -0.00
  14   7    -0.06   0.02  -0.01     0.03   0.02  -0.02    -0.05  -0.00  -0.00
  15   7     0.06   0.10  -0.00     0.08   0.01  -0.00     0.07   0.07  -0.01
  16   5     0.17  -0.21   0.16    -0.01  -0.01  -0.01     0.14  -0.14   0.11
  17   7    -0.06  -0.02  -0.03     0.01  -0.06  -0.02    -0.07  -0.07  -0.01
  18   5    -0.12   0.08   0.07    -0.17   0.15   0.14    -0.14   0.14   0.11
  19   5    -0.01   0.10   0.01     0.02  -0.00   0.02     0.01  -0.05  -0.01
  20   7     0.14  -0.12   0.09     0.00   0.01   0.01    -0.09   0.07  -0.07
  21   5    -0.02   0.01  -0.05     0.03  -0.03  -0.03     0.01   0.01   0.05
  22   7    -0.06   0.07   0.06    -0.11   0.12   0.07     0.07  -0.09  -0.07
  23   5     0.05   0.01   0.02     0.09  -0.02   0.00    -0.05   0.01  -0.01
  24   7    -0.09  -0.12  -0.14    -0.09  -0.03  -0.08     0.07   0.07   0.09
  25   7    -0.06   0.02  -0.03    -0.09   0.06   0.01     0.07  -0.07   0.01
  26   5    -0.12  -0.08   0.07    -0.03  -0.09   0.04     0.14   0.14  -0.11
  27   7     0.06  -0.10  -0.00    -0.02  -0.01  -0.04    -0.07   0.07   0.01
  28   5     0.17   0.21   0.16     0.14   0.08   0.09    -0.14  -0.14  -0.11
  29   7     0.07  -0.03  -0.06     0.10  -0.08  -0.12     0.07  -0.07  -0.09
  30   5    -0.04  -0.00   0.04     0.01   0.06   0.01     0.01   0.05   0.01
  31   7     0.07   0.03  -0.07    -0.12  -0.08   0.10    -0.09  -0.07   0.07
  32   5    -0.03  -0.01   0.05     0.00  -0.02  -0.09     0.01  -0.01  -0.05
  33   7     0.03   0.00  -0.03     0.12   0.16   0.12     0.07   0.09   0.07
  34   5    -0.05   0.01   0.03    -0.09  -0.02   0.00    -0.05  -0.01   0.01
  35   5    -0.02  -0.01  -0.05     0.00  -0.02   0.09    -0.01   0.01  -0.05
  36   7    -0.05  -0.07   0.05     0.07   0.12  -0.11    -0.07  -0.09   0.07
  37   5     0.05  -0.01   0.02    -0.03  -0.03   0.03     0.05   0.01   0.01
  38   7    -0.09   0.12  -0.14     0.01   0.01   0.00    -0.07   0.07  -0.09
  39   5    -0.01  -0.10   0.01     0.02  -0.00   0.02    -0.01  -0.05   0.01
  40   7     0.14   0.12   0.09    -0.08  -0.03  -0.09     0.09   0.07   0.07
  41   7     0.01   0.01  -0.03     0.01   0.00   0.08    -0.00   0.00   0.05
  42   5     0.01   0.03  -0.01    -0.01   0.02  -0.04    -0.00  -0.01  -0.01
  43   7    -0.00  -0.08   0.00    -0.02  -0.02  -0.01    -0.00   0.05   0.00
  44   5     0.01   0.03  -0.01     0.04  -0.02   0.05     0.01  -0.01   0.00
  45   7     0.02   0.01  -0.01    -0.02   0.02  -0.02    -0.05   0.00   0.00
  46   5    -0.03  -0.05   0.03    -0.02  -0.01  -0.02     0.01   0.00  -0.01
  47   5    -0.03  -0.00   0.04     0.12  -0.09   0.12     0.14  -0.11   0.14
  48   7     0.05  -0.03  -0.05     0.10   0.02  -0.05     0.07   0.01  -0.07
  49   5    -0.04  -0.00   0.04    -0.22  -0.18  -0.22    -0.14  -0.11  -0.14
  50   7     0.04   0.03  -0.04    -0.05   0.02   0.10    -0.07   0.01   0.07
  51   7    -0.00   0.08   0.00    -0.01  -0.02  -0.02     0.00   0.05  -0.00
  52   5     0.00  -0.03  -0.01    -0.04   0.02  -0.01    -0.01  -0.01  -0.00
  53   7     0.03  -0.01  -0.01     0.08   0.00   0.01     0.05   0.00  -0.00
  54   5    -0.03   0.05   0.03    -0.02  -0.01  -0.02    -0.01   0.00   0.01
  55   7     0.01  -0.01  -0.03    -0.02   0.02  -0.02     0.00   0.00  -0.05
  56   5     0.01  -0.03  -0.00     0.05  -0.02   0.04     0.00  -0.01   0.01
  57   5     0.00   0.04   0.04     0.03  -0.01  -0.04    -0.01   0.01   0.00
  58   7    -0.06  -0.02  -0.01    -0.06   0.01   0.01     0.05  -0.00   0.00
  59   5     0.03  -0.00  -0.04     0.01   0.01   0.01    -0.01  -0.00  -0.01
  60   7     0.01   0.02   0.06     0.01   0.01  -0.06     0.00  -0.00   0.05
  61   5    -0.04  -0.03   0.00    -0.04  -0.01   0.03     0.00   0.01  -0.01
  62   7     0.02  -0.00  -0.02    -0.00   0.03  -0.00     0.00  -0.05   0.00
  63   7     0.03   0.00  -0.03    -0.06   0.08  -0.06    -0.07   0.09  -0.07
  64   5    -0.05  -0.01   0.03     0.03  -0.04   0.03     0.05  -0.01  -0.01
  65   7     0.07   0.03  -0.06    -0.00   0.06  -0.04    -0.07  -0.07   0.09
  66   5    -0.04   0.00   0.04     0.01  -0.06   0.01    -0.01   0.05  -0.01
  67   7     0.07  -0.03  -0.07    -0.04   0.06  -0.00     0.09  -0.07  -0.07
  68   5    -0.03   0.01   0.05     0.03  -0.04   0.03    -0.01  -0.01   0.05
  69   7     0.03  -0.02   0.06     0.01   0.06  -0.09     0.01  -0.07   0.07
  70   5    -0.16  -0.21  -0.17     0.09   0.08   0.14    -0.11  -0.14  -0.14
  71   7     0.01   0.11  -0.06    -0.04  -0.01  -0.02     0.01   0.07  -0.07
  72   5    -0.08   0.08   0.12     0.04  -0.09  -0.03    -0.11   0.14   0.14
