72
 energy: -152.604822435674 gnorm: 0.000064328042 xtb: 6.7.1 (edcfbbe)
B            0.65762072452797       -4.09247487000192       -0.65762072452889
N            0.78055745277390       -4.27632625328163        0.78055745277402
B           -0.65762072452906       -4.09247487000203        0.65762072452813
N           -0.78055745277526       -4.27632625328178       -0.78055745277513
N           -4.27632625328100       -0.78055745277479       -0.78055745277463
B           -4.09247487000074       -0.65762072452914        0.65762072452895
N           -4.27632625328076        0.78055745277438        0.78055745277455
B           -4.09247487000063        0.65762072452865       -0.65762072452881
B           -1.43907205281859       -3.19917653419015       -1.43907205281861
N           -2.53663068942315       -2.53663068942312       -0.74926581693476
B           -3.19917653418933       -1.43907205281774       -1.43907205281800
N           -2.53663068942341       -0.74926581693453       -2.53663068942365
B           -1.43907205281801       -1.43907205281776       -3.19917653418992
N           -0.74926581693509       -2.53663068942325       -2.53663068942355
N            0.78055745277451        0.78055745277454       -4.27632625328143
B            0.65762072452880       -0.65762072452886       -4.09247487000135
N           -0.78055745277464       -0.78055745277463       -4.27632625328160
B           -0.65762072452878        0.65762072452870       -4.09247487000134
B           -2.46919731254579       -0.70249843578025        2.46919731254635
N           -3.16855918048050       -1.41517977909603        1.41517977909605
B           -2.46919731254559       -2.46919731254599        0.70249843578014
N           -1.41517977909516       -3.16855918048071        1.41517977909525
B           -0.70249843578100       -2.46919731254755        2.46919731254779
N           -1.41517977909504       -1.41517977909505        3.16855918048104
N            0.78055745277402       -0.78055745277398        4.27632625328211
B            0.65762072452808        0.65762072452895        4.09247487000249
N           -0.78055745277513        0.78055745277516        4.27632625328219
B           -0.65762072452890       -0.65762072452805        4.09247487000244
N           -1.41517977909561        1.41517977909555       -3.16855918048078
B           -2.46919731254663        0.70249843578035       -2.46919731254687
N           -3.16855918048050        1.41517977909557       -1.41517977909579
B           -2.46919731254654        2.46919731254653       -0.70249843578058
N           -1.41517977909558        3.16855918048050       -1.41517977909579
B           -0.70249843578040        2.46919731254656       -2.46919731254687
B            2.46919731254720       -2.46919731254717       -0.70249843578095
N            1.41517977909492       -3.16855918048060       -1.41517977909509
B            0.70249843577999       -2.46919731254589       -2.46919731254579
N            1.41517977909567       -1.41517977909570       -3.16855918048072
B            2.46919731254585       -0.70249843578000       -2.46919731254580
N            3.16855918048064       -1.41517977909490       -1.41517977909512
N           -2.53663068942306        2.53663068942305        0.74926581693433
B           -3.19917653418915        1.43907205281766        1.43907205281760
N           -2.53663068942316        0.74926581693479        2.53663068942327
B           -1.43907205281840        1.43907205281843        3.19917653419032
N           -0.74926581693465        2.53663068942310        2.53663068942329
B           -1.43907205281758        3.19917653418902        1.43907205281760
B            0.65762072452926        4.09247487000063        0.65762072452907
N            0.78055745277486        4.27632625328088       -0.78055745277456
B           -0.65762072452861        4.09247487000047       -0.65762072452878
N           -0.78055745277432        4.27632625328064        0.78055745277461
N            2.53663068942316        0.74926581693512       -2.53663068942349
B            1.43907205281768        1.43907205281796       -3.19917653418986
N            0.74926581693450        2.53663068942331       -2.53663068942358
B            1.43907205281773        3.19917653418917       -1.43907205281790
N            2.53663068942309        2.53663068942308       -0.74926581693457
B            3.19917653419005        1.43907205281860       -1.43907205281854
B            1.43907205281706       -1.43907205281700        3.19917653418988
N            0.74926581693471       -2.53663068942317        2.53663068942338
B            1.43907205281698       -3.19917653418954        1.43907205281714
N            2.53663068942306       -2.53663068942303        0.74926581693476
B            3.19917653418950       -1.43907205281688        1.43907205281713
N            2.53663068942321       -0.74926581693460        2.53663068942342
N            1.41517977909618        3.16855918048051        1.41517977909623
B            0.70249843578033        2.46919731254587        2.46919731254653
N            1.41517977909512        1.41517977909508        3.16855918048112
B            2.46919731254773        0.70249843578107        2.46919731254801
N            3.16855918048078        1.41517977909525        1.41517977909540
B            2.46919731254609        2.46919731254564        0.70249843578024
N            4.27632625328161       -0.78055745277385        0.78055745277404
B            4.09247487000185       -0.65762072452792       -0.65762072452888
N            4.27632625328174        0.78055745277533       -0.78055745277509
B            4.09247487000200        0.65762072452915        0.65762072452820
