      -----------------------------------------------------------      
     |                   =====================                   |     
     |                           x T B                           |     
     |                   =====================                   |     
     |                         S. Grimme                         |     
     |          Mulliken Center for Theoretical Chemistry        |     
     |                    University of Bonn                     |     
      -----------------------------------------------------------      

   * xtb version 6.7.1pre (5071a88) compiled by 'Marcel@Raven' on 2024-07-23

   xtb is free software: you can redistribute it and/or modify it under
   the terms of the GNU Lesser General Public License as published by
   the Free Software Foundation, either version 3 of the License, or
   (at your option) any later version.
   
   xtb is distributed in the hope that it will be useful,
   but WITHOUT ANY WARRANTY; without even the implied warranty of
   MERCHANTABILITY or FITNESS FOR A PARTICULAR PURPOSE.  See the
   GNU Lesser General Public License for more details.
   
   Cite this work as:
   * C. Bannwarth, E. Caldeweyher, S. Ehlert, A. Hansen, P. Pracht,
     J. Seibert, S. Spicher, S. Grimme, WIREs Comput. Mol. Sci., 2020, 11,
     e01493. DOI: 10.1002/wcms.1493
   
   for GFN2-xTB:
   * C. Bannwarth, S. Ehlert and S. Grimme., J. Chem. Theory Comput., 2019,
     15, 1652-1671. DOI: 10.1021/acs.jctc.8b01176
   for GFN1-xTB:
   * S. Grimme, C. Bannwarth, P. Shushkov, J. Chem. Theory Comput., 2017,
     13, 1989-2009. DOI: 10.1021/acs.jctc.7b00118
   for GFN0-xTB:
   * P. Pracht, E. Caldeweyher, S. Ehlert, S. Grimme, ChemRxiv, 2019, preprint.
     DOI: 10.26434/chemrxiv.8326202.v1
   for GFN-FF:
   * S. Spicher and S. Grimme, Angew. Chem. Int. Ed., 2020, 59, 15665-15673.
     DOI: 10.1002/anie.202004239
   
   for ALPB and GBSA implicit solvation:
   * S. Ehlert, M. Stahn, S. Spicher, S. Grimme, J. Chem. Theory Comput.,
     2021, 17, 4250-4261. DOI: 10.1021/acs.jctc.1c00471
   
   for ddCOSMO and CPCM-X implicit solvation:
   * M. Stahn, S. Ehlert, S. Grimme, J. Phys. Chem. A,
     2023, XX, XXXX-XXXX. DOI: 10.1021/acs.jpca.3c04382
   
   for DFT-D4:
   * E. Caldeweyher, C. Bannwarth and S. Grimme, J. Chem. Phys., 2017,
     147, 034112. DOI: 10.1063/1.4993215
   * E. Caldeweyher, S. Ehlert, A. Hansen, H. Neugebauer, S. Spicher,
     C. Bannwarth and S. Grimme, J. Chem. Phys., 2019, 150, 154122.
     DOI: 10.1063/1.5090222
   * E. Caldeweyher, J.-M. Mewes, S. Ehlert and S. Grimme, Phys. Chem. Chem. Phys.
     2020, 22, 8499-8512. DOI: 10.1039/D0CP00502A
   
   for sTDA-xTB:
   * S. Grimme and C. Bannwarth, J. Chem. Phys., 2016, 145, 054103.
     DOI: 10.1063/1.4959605
   
   in the mass-spec context:
   * V. Asgeirsson, C. Bauer and S. Grimme, Chem. Sci., 2017, 8, 4879.
     DOI: 10.1039/c7sc00601b
   * J. Koopman and S. Grimme, ACS Omega 2019, 4, 12, 15120-15133.
     DOI: 10.1021/acsomega.9b02011
   
   for metadynamics refer to:
   * S. Grimme, J. Chem. Theory Comput., 2019, 155, 2847-2862
     DOI: 10.1021/acs.jctc.9b00143
   
   for SPH calculations refer to:
   * S. Spicher and S. Grimme, J. Chem. Theory Comput., 2021, 17, 1701-1714
     DOI: 10.1021/acs.jctc.0c01306
   
   for ONIOM refer to:
   * C. Plett, A. Katbashev, S. Ehlert, S. Grimme, M. Bursch,
     Phys. Chem. Chem. Phys., 2023, 25, 17860-17868. DOI: 10.1039/D3CP02178E
   
   for DIPRO refer to:
   * J. Kohn, N. Gildemeister, S. Grimme, D. Fazzi, A. Hansen,
     J. Chem. Phys., 2023, just accepted.
   
   for PTB refer to:
   * S. Grimme, M. Mueller, A. Hansen, J. Chem. Phys., 2023, 158, 124111.
     DOI: 10.1063/5.0137838
   
   with help from (in alphabetical order)
   P. Atkinson, C. Bannwarth, F. Bohle, G. Brandenburg, E. Caldeweyher
   M. Checinski, S. Dohm, S. Ehlert, S. Ehrlich, I. Gerasimov, C. Hölzer
   A. Katbashev, J. Kohn, J. Koopman, C. Lavigne, S. Lehtola, F. März, M. Müller,
   F. Musil, H. Neugebauer, J. Pisarek, C. Plett, P. Pracht, F. Pultar,
   J. Seibert, P. Shushkov, S. Spicher, M. Stahn, M. Steiner, T. Strunk,
   J. Stückrath, T. Rose, and J. Unsleber
   
 * started run on 2026/08/31 at 22:23:27.718     
   ID    Z sym.   atoms
    1    6 C      1, 3-10, 12-14, 16, 18-22, 24-26
    2    7 N      2, 11, 15, 48, 50, 52, 54, 56, 58, 60, 62, 64, 66, 68, 70,
                  72, 74, 76, 78, 80, 82, 84, 86, 88, 90, 92, 94, 96, 98,
                  100, 102, 104, 106, 108, 110, 112, 114, 116, 118
    3    8 O      17
    4    9 F      23
    5    1 H      27-46
    6    5 B      47, 49, 51, 53, 55, 57, 59, 61, 63, 65, 67, 69, 71, 73, 75,
                  77, 79, 81, 83, 85, 87, 89, 91, 93, 95, 97, 99, 101, 103,
                  105, 107, 109, 111, 113, 115, 117

           -------------------------------------------------
          |                Calculation Setup                |
           -------------------------------------------------

          program call               : "c:\Users\Andre\Proyectos doctorado\kras-pancreatic-gC3N4-ai\tools\xtb\xtb-6.7.1\bin\xtb.exe" "c:\Users\Andre\Proyectos doctorado\nano-qsar-ai-therapeutics\calculations\tnbc\Rucaparib\Rucaparib_opt_90deg.xyz" --opt vloose --gfn 2 --chrg 0 --uhf 0 --etemp 300 --iterations 500 --cycles 15 --norestart
          coordinate file            : c:\Users\Andre\Proyectos doctorado\nano-qsar-ai-therapeutics\calculations\tnbc\Rucaparib\Rucaparib_opt_90deg.xyz
          omp threads                :                    16


molecular fragmentation (1/2 indicates fragments):
111111111111111111111111111111111111111111111122222222222222222222222222
2222222222222222222222222222222222222222222222
# atoms in fragment 1/2:    46    72
 fragment masses (1/2) :      349.40      893.44
CMA distance (Bohr)    :  19.069
constraining FC (au)   :  0.0500

           -------------------------------------------------
          |                 G F N 2 - x T B                 |
           -------------------------------------------------

        Reference                      10.1021/acs.jctc.8b01176
      * Hamiltonian:
        H0-scaling (s, p, d)           1.850000    2.230000    2.230000
        zeta-weighting                 0.500000
      * Dispersion:
        s8                             2.700000
        a1                             0.520000
        a2                             5.000000
        s9                             5.000000
      * Repulsion:
        kExp                           1.500000    1.000000
        rExp                           1.000000
      * Coulomb:
        alpha                          2.000000
        third order                    shell-resolved
        anisotropic                    true
        a3                             3.000000
        a5                             4.000000
        cn-shift                       1.200000
        cn-exp                         4.000000
        max-rad                        5.000000


          ...................................................
          :                      SETUP                      :
          :.................................................:
          :  # basis functions                 412          :
          :  # atomic orbitals                 412          :
          :  # shells                          216          :
          :  # electrons                       420          :
          :  max. iterations                   500          :
          :  Hamiltonian                  GFN2-xTB          :
          :  restarted?                      false          :
          :  GBSA solvation                  false          :
          :  PC potential                    false          :
          :  electronic temp.          300.0000000     K    :
          :  accuracy                    1.0000000          :
          :  -> integral cutoff          0.2500000E+02      :
          :  -> integral neglect         0.1000000E-07      :
          :  -> SCF convergence          0.1000000E-05 Eh   :
          :  -> wf. convergence          0.1000000E-03 e    :
          :  Broyden damping             0.4000000          :
          :  net charge                          0          :
          :  unpaired electrons                  0          :
          ...................................................

 iter      E             dE          RMSdq      gap      omega  full diag
   1   -224.3509139 -0.224351E+03  0.111E+01    0.61       0.0  T
   2   -224.8121138 -0.461200E+00  0.681E+00    0.43       1.0  T
   3   -221.9441126  0.286800E+01  0.438E+00    0.14       1.0  T
   4   -224.8766507 -0.293254E+01  0.141E+00    0.06       1.0  T
   5   -225.0967359 -0.220085E+00  0.999E-01    0.24       1.0  T
   6   -225.2850706 -0.188335E+00  0.614E-01    0.45       1.0  T
   7   -225.3103199 -0.252493E-01  0.440E-01    0.75       1.0  T
   8   -225.3050786  0.524129E-02  0.374E-01    0.65       1.0  T
   9   -225.3044105  0.668174E-03  0.237E-01    0.71       1.0  T
  10   -225.3131504 -0.873995E-02  0.943E-02    0.68       1.0  T
  11   -225.3146680 -0.151759E-02  0.411E-02    0.69       1.0  T
  12   -225.3147694 -0.101364E-03  0.290E-02    0.68       1.0  T
  13   -225.3147753 -0.596813E-05  0.192E-02    0.68       1.0  T
  14   -225.3147869 -0.115191E-04  0.782E-03    0.67       1.2  T
  15   -225.3147932 -0.636953E-05  0.313E-03    0.67       2.9  T
  16   -225.3147938 -0.550809E-06  0.171E-03    0.67       5.4  T
  17   -225.3147938 -0.407620E-07  0.843E-04    0.67      10.9  T
  18   -225.3147939 -0.251952E-07  0.320E-04    0.67      28.8  T

   *** convergence criteria satisfied after 18 iterations ***

         #    Occupation            Energy/Eh            Energy/eV
      -------------------------------------------------------------
         1        2.0000           -0.8127618             -22.1164
       ...           ...                  ...                  ...
       204        2.0000           -0.3261055              -8.8738
       205        2.0000           -0.3233485              -8.7988
       206        2.0000           -0.3220046              -8.7622
       207        2.0000           -0.3192477              -8.6872
       208        2.0000           -0.3140803              -8.5466
       209        2.0000           -0.3122478              -8.4967
       210        2.0000           -0.3067345              -8.3467 (HOMO)
       211        0.0000           -0.2821598              -7.6780 (LUMO)
       212                         -0.2739574              -7.4548
       213                         -0.2649226              -7.2089
       214                         -0.2631797              -7.1615
       215                         -0.2501837              -6.8078
       ...                                ...                  ...
       412                          0.9847713              26.7970
      -------------------------------------------------------------
                  HL-Gap            0.0245747 Eh            0.6687 eV
             Fermi-level           -0.2944456 Eh           -8.0123 eV

 SCC (total)                   0 d,  0 h,  0 min,  0.645 sec
 SCC setup                      ...        0 min,  0.001 sec (  0.155%)
 Dispersion                     ...        0 min,  0.003 sec (  0.465%)
 classical contributions        ...        0 min,  0.000 sec (  0.000%)
 integral evaluation            ...        0 min,  0.013 sec (  2.016%)
 iterations                     ...        0 min,  0.595 sec ( 92.248%)
 molecular gradient             ...        0 min,  0.030 sec (  4.651%)
 printout                       ...        0 min,  0.003 sec (  0.465%)

         :::::::::::::::::::::::::::::::::::::::::::::::::::::
         ::                     SUMMARY                     ::
         :::::::::::::::::::::::::::::::::::::::::::::::::::::
         :: total energy            -222.893599740144 Eh    ::
         :: gradient norm              0.102977303102 Eh/a0 ::
         :: HOMO-LUMO gap              0.668711922229 eV    ::
         ::.................................................::
         :: SCC energy              -225.299382308664 Eh    ::
         :: -> isotropic ES            0.692194907701 Eh    ::
         :: -> anisotropic ES         -0.021780152061 Eh    ::
         :: -> anisotropic XC          0.095858165077 Eh    ::
         :: -> dispersion             -0.199994957467 Eh    ::
         :: repulsion energy           2.405782568520 Eh    ::
         :: add. restraining           0.000000000000 Eh    ::
         :: total charge              -0.000000000000 e     ::
         :::::::::::::::::::::::::::::::::::::::::::::::::::::

      ----------------------------------------------------------- 
     |                   =====================                   |
     |                        A N C O P T                        |
     |                   =====================                   |
     |               Approximate Normal Coordinate               |
     |                Rational Function Optimizer                |
      ----------------------------------------------------------- 
      ----------------------------------------------------------- 
     |                   =====================                   |
     |                        A N C O P T                        |
     |                   =====================                   |
     |               Approximate Normal Coordinate               |
     |                Rational Function Optimizer                |
      ----------------------------------------------------------- 

          ...................................................
          :                      SETUP                      :
          :.................................................:
          :   optimization level            normal          :
          :   max. optcycles                    15          :
          :   ANC micro-cycles                  15          :
          :   degrees of freedom               348          :
          :.................................................:
          :   RF solver                   davidson          :
          :   write xtbopt.log                true          :
          :   linear?                        false          :
          :   energy convergence         0.5000000E-05 Eh   :
          :   grad. convergence          0.1000000E-02 Eh/α :
          :   maxmium RF displ.          1.0000000          :
          :   Hlow (freq-cutoff)         0.1000000E-01      :
          :   Hmax (freq-cutoff)         5.0000000          :
          :   S6 in model hess.         20.0000000          :
          ...................................................

generating ANC from exact Hessian ...
Using Lindh-Hessian (1995)
 Shifting diagonal of input Hessian by   1.008547267094671E-002
 Lowest  eigenvalues of input Hessian
    0.010000    0.010005    0.010017    0.000000    0.000000    0.000000
    0.000000    0.000000    0.010090    0.000000    0.010109    0.010137
    0.010360    0.010498    0.010713    0.011328    0.012407    0.012762
 Highest eigenvalues
    2.065565    2.087491    2.154603    2.235878    2.260728    2.314981
 

........................................................................
.............................. CYCLE    1 ..............................
........................................................................

 iter      E             dE          RMSdq      gap      omega  full diag
   1   -225.3147939 -0.225315E+03  0.129E-04    0.67       0.0  T
   2   -225.3147939  0.516138E-09  0.121E-04    0.67      76.2  T
   3   -225.3147939 -0.186481E-08  0.540E-05    0.67     170.4  T
     SCC iter.                  ...        0 min,  0.097 sec
     gradient                   ...        0 min,  0.031 sec
 * total energy  :  -222.8935998 Eh     change       -0.1193445E-07 Eh
   gradient norm :     0.1029780 Eh/α   predicted     0.0000000E+00 (-100.00%)
   displ. norm   :     0.5232594 α      lambda       -0.3777204E-01
   maximum displ.:     0.2488777 α      in ANC's #27, #30, #22, ...

........................................................................
.............................. CYCLE    2 ..............................
........................................................................

 iter      E             dE          RMSdq      gap      omega  full diag
   1   -225.3723591 -0.225372E+03  0.198E-01    0.67       0.0  T
   2   -225.3724602 -0.101114E-03  0.115E-01    0.67       1.0  T
   3   -225.3723083  0.151963E-03  0.446E-02    0.68       1.0  T
   4   -225.3724820 -0.173766E-03  0.117E-02    0.67       1.0  T
   5   -225.3724963 -0.142763E-04  0.408E-03    0.67       2.3  T
   6   -225.3724947  0.157434E-05  0.364E-03    0.67       2.5  T
   7   -225.3724965 -0.180890E-05  0.182E-03    0.67       5.1  T
   8   -225.3724971 -0.591718E-06  0.445E-04    0.67      20.7  T
   9   -225.3724971 -0.616603E-08  0.310E-04    0.67      29.7  T
     SCC iter.                  ...        0 min,  0.300 sec
     gradient                   ...        0 min,  0.031 sec
 * total energy  :  -222.9203504 Eh     change       -0.2675069E-01 Eh
   gradient norm :     0.0519854 Eh/α   predicted    -0.2405817E-01 ( -10.07%)
   displ. norm   :     0.4560177 α      lambda       -0.1407644E-01
   maximum displ.:     0.2229169 α      in ANC's #27, #30, #22, ...

........................................................................
.............................. CYCLE    3 ..............................
........................................................................

 iter      E             dE          RMSdq      gap      omega  full diag
   1   -225.4020807 -0.225402E+03  0.143E-01    0.68       0.0  T
   2   -225.4021866 -0.105854E-03  0.800E-02    0.68       1.0  T
   3   -225.4020948  0.918132E-04  0.398E-02    0.68       1.0  T
   4   -225.4022142 -0.119368E-03  0.992E-03    0.68       1.0  T
   5   -225.4022259 -0.117311E-04  0.312E-03    0.68       2.9  T
   6   -225.4022256  0.305623E-06  0.273E-03    0.68       3.4  T
   7   -225.4022267 -0.109807E-05  0.128E-03    0.68       7.2  T
   8   -225.4022269 -0.222713E-06  0.503E-04    0.68      18.3  T
   9   -225.4022269 -0.351124E-07  0.232E-04    0.68      39.6  T
     SCC iter.                  ...        0 min,  0.287 sec
     gradient                   ...        0 min,  0.035 sec
 * total energy  :  -222.9291381 Eh     change       -0.8787697E-02 Eh
   gradient norm :     0.0374225 Eh/α   predicted    -0.8501839E-02 (  -3.25%)
   displ. norm   :     0.2477708 α      lambda       -0.2743535E-02
   maximum displ.:     0.1003873 α      in ANC's #27, #22, #30, ...

........................................................................
.............................. CYCLE    4 ..............................
........................................................................

 iter      E             dE          RMSdq      gap      omega  full diag
   1   -225.4095045 -0.225410E+03  0.733E-02    0.68       0.0  T
   2   -225.4096236 -0.119097E-03  0.405E-02    0.68       1.0  T
   3   -225.4096380 -0.144185E-04  0.251E-02    0.68       1.0  T
   4   -225.4096591 -0.210726E-04  0.898E-03    0.68       1.0  T
   5   -225.4096658 -0.669692E-05  0.238E-03    0.68       3.9  T
   6   -225.4096663 -0.487444E-06  0.171E-03    0.68       5.4  T
   7   -225.4096668 -0.537774E-06  0.592E-04    0.68      15.6  T
   8   -225.4096668 -0.197251E-07  0.326E-04    0.68      28.2  T
     SCC iter.                  ...        0 min,  0.276 sec
     gradient                   ...        0 min,  0.030 sec
 * total energy  :  -222.9309179 Eh     change       -0.1779797E-02 Eh
   gradient norm :     0.0187083 Eh/α   predicted    -0.1456046E-02 ( -18.19%)
   displ. norm   :     0.1838438 α      lambda       -0.8593689E-03
   maximum displ.:     0.0881070 α      in ANC's #12, #14, #16, ...

........................................................................
.............................. CYCLE    5 ..............................
........................................................................

 iter      E             dE          RMSdq      gap      omega  full diag
   1   -225.4115688 -0.225412E+03  0.454E-02    0.68       0.0  T
   2   -225.4116270 -0.582488E-04  0.260E-02    0.68       1.0  T
   3   -225.4116360 -0.901640E-05  0.155E-02    0.68       1.0  T
   4   -225.4116409 -0.484666E-05  0.659E-03    0.68       1.4  T
   5   -225.4116438 -0.293567E-05  0.235E-03    0.68       3.9  T
   6   -225.4116447 -0.887216E-06  0.109E-03    0.68       8.5  T
   7   -225.4116449 -0.186221E-06  0.420E-04    0.68      21.9  T
   8   -225.4116449 -0.979611E-08  0.223E-04    0.68      41.3  T
     SCC iter.                  ...        0 min,  0.250 sec
     gradient                   ...        0 min,  0.032 sec
 * total energy  :  -222.9314466 Eh     change       -0.5286515E-03 Eh
   gradient norm :     0.0046636 Eh/α   predicted    -0.4442112E-03 ( -15.97%)
   displ. norm   :     0.1426025 α      lambda       -0.2324057E-03
   maximum displ.:     0.0781335 α      in ANC's #12, #14, #9, ...

........................................................................
.............................. CYCLE    6 ..............................
........................................................................

 iter      E             dE          RMSdq      gap      omega  full diag
   1   -225.4104271 -0.225410E+03  0.243E-02    0.68       0.0  T
   2   -225.4104323 -0.527887E-05  0.143E-02    0.68       1.0  T
   3   -225.4104299  0.244017E-05  0.747E-03    0.68       1.2  T
   4   -225.4104329 -0.294966E-05  0.269E-03    0.68       3.4  T
   5   -225.4104334 -0.511748E-06  0.166E-03    0.68       5.5  T
   6   -225.4104339 -0.581677E-06  0.411E-04    0.68      22.4  T
   7   -225.4104340 -0.108644E-07  0.250E-04    0.68      36.8  T
     SCC iter.                  ...        0 min,  0.212 sec
     gradient                   ...        0 min,  0.032 sec
 * total energy  :  -222.9316206 Eh     change       -0.1740503E-03 Eh
   gradient norm :     0.0052802 Eh/α   predicted    -0.1185723E-03 ( -31.87%)
   displ. norm   :     0.2392121 α      lambda       -0.2603890E-03
   maximum displ.:     0.1297611 α      in ANC's #12, #14, #9, ...

........................................................................
.............................. CYCLE    7 ..............................
........................................................................

 iter      E             dE          RMSdq      gap      omega  full diag
   1   -225.4089808 -0.225409E+03  0.351E-02    0.68       0.0  T
   2   -225.4089849 -0.405962E-05  0.207E-02    0.68       1.0  T
   3   -225.4089789  0.599785E-05  0.805E-03    0.68       1.1  T
   4   -225.4089849 -0.601220E-05  0.277E-03    0.68       3.3  T
   5   -225.4089857 -0.783314E-06  0.166E-03    0.68       5.6  T
   6   -225.4089862 -0.541917E-06  0.518E-04    0.68      17.8  T
   7   -225.4089862 -0.392251E-08  0.343E-04    0.68      26.8  T
     SCC iter.                  ...        0 min,  0.233 sec
     gradient                   ...        0 min,  0.043 sec
 * total energy  :  -222.9318066 Eh     change       -0.1859596E-03 Eh
   gradient norm :     0.0071017 Eh/α   predicted    -0.1376460E-03 ( -25.98%)
   displ. norm   :     0.2550672 α      lambda       -0.1968330E-03
   maximum displ.:     0.1311064 α      in ANC's #12, #14, #9, ...

........................................................................
.............................. CYCLE    8 ..............................
........................................................................

 iter      E             dE          RMSdq      gap      omega  full diag
   1   -225.4082856 -0.225408E+03  0.350E-02    0.68       0.0  T
   2   -225.4082876 -0.197563E-05  0.205E-02    0.68       1.0  T
   3   -225.4082845  0.303533E-05  0.511E-03    0.68       1.8  T
   4   -225.4082871 -0.258253E-05  0.228E-03    0.68       4.0  T
   5   -225.4082879 -0.768889E-06  0.122E-03    0.68       7.5  T
   6   -225.4082881 -0.258854E-06  0.468E-04    0.68      19.7  T
   7   -225.4082881 -0.233521E-08  0.324E-04    0.68      28.4  T
     SCC iter.                  ...        0 min,  0.367 sec
     gradient                   ...        0 min,  0.033 sec
 * total energy  :  -222.9319532 Eh     change       -0.1465767E-03 Eh
   gradient norm :     0.0064577 Eh/α   predicted    -0.1048218E-03 ( -28.49%)
   displ. norm   :     0.2712491 α      lambda       -0.1828574E-03
   maximum displ.:     0.1272048 α      in ANC's #12, #14, #9, ...

........................................................................
.............................. CYCLE    9 ..............................
........................................................................

 iter      E             dE          RMSdq      gap      omega  full diag
   1   -225.4089644 -0.225409E+03  0.362E-02    0.68       0.0  T
   2   -225.4089672 -0.277889E-05  0.211E-02    0.68       1.0  T
   3   -225.4089648  0.237784E-05  0.503E-03    0.68       1.8  T
   4   -225.4089667 -0.185759E-05  0.238E-03    0.68       3.9  T
   5   -225.4089674 -0.705979E-06  0.139E-03    0.68       6.6  T
   6   -225.4089677 -0.369839E-06  0.454E-04    0.68      20.3  T
   7   -225.4089677 -0.329436E-08  0.318E-04    0.68      28.9  T
     SCC iter.                  ...        0 min,  0.261 sec
     gradient                   ...        0 min,  0.032 sec
 * total energy  :  -222.9320863 Eh     change       -0.1331368E-03 Eh
   gradient norm :     0.0040650 Eh/α   predicted    -0.9815855E-04 ( -26.27%)
   displ. norm   :     0.2257171 α      lambda       -0.1265060E-03
   maximum displ.:     0.0942236 α      in ANC's #14, #12, #9, ...

........................................................................
.............................. CYCLE   10 ..............................
........................................................................

 iter      E             dE          RMSdq      gap      omega  full diag
   1   -225.4104159 -0.225410E+03  0.296E-02    0.68       0.0  T
   2   -225.4104181 -0.219211E-05  0.172E-02    0.68       1.0  T
   3   -225.4104170  0.115589E-05  0.404E-03    0.68       2.3  T
   4   -225.4104180 -0.101169E-05  0.169E-03    0.68       5.4  T
   5   -225.4104183 -0.354736E-06  0.910E-04    0.68      10.1  T
   6   -225.4104185 -0.144632E-06  0.384E-04    0.68      24.0  T
     SCC iter.                  ...        0 min,  0.201 sec
     gradient                   ...        0 min,  0.031 sec
 * total energy  :  -222.9321755 Eh     change       -0.8918567E-04 Eh
   gradient norm :     0.0029677 Eh/α   predicted    -0.6648639E-04 ( -25.45%)
   displ. norm   :     0.1686474 α      lambda       -0.6918590E-04
   maximum displ.:     0.0776170 α      in ANC's #5, #7, #9, ...

........................................................................
.............................. CYCLE   11 ..............................
........................................................................

 iter      E             dE          RMSdq      gap      omega  full diag
   1   -225.4115235 -0.225412E+03  0.201E-02    0.68       0.0  T
   2   -225.4115245 -0.980223E-06  0.117E-02    0.68       1.0  T
   3   -225.4115229  0.156033E-05  0.371E-03    0.68       2.5  T
   4   -225.4115235 -0.523792E-06  0.251E-03    0.68       3.7  T
   5   -225.4115246 -0.118187E-05  0.789E-04    0.68      11.7  T
   6   -225.4115247 -0.101337E-06  0.282E-04    0.68      32.6  T
   7   -225.4115247  0.160975E-08  0.214E-04    0.68      43.0  T
     SCC iter.                  ...        0 min,  0.255 sec
     gradient                   ...        0 min,  0.044 sec
 * total energy  :  -222.9322267 Eh     change       -0.5123487E-04 Eh
   gradient norm :     0.0030418 Eh/α   predicted    -0.3557892E-04 ( -30.56%)
   displ. norm   :     0.1529022 α      lambda       -0.5381685E-04
   maximum displ.:     0.0802038 α      in ANC's #5, #7, #9, ...

........................................................................
.............................. CYCLE   12 ..............................
........................................................................

 iter      E             dE          RMSdq      gap      omega  full diag
   1   -225.4120247 -0.225412E+03  0.155E-02    0.68       0.0  T
   2   -225.4120256 -0.986461E-06  0.901E-03    0.68       1.0  T
   3   -225.4120251  0.551938E-06  0.288E-03    0.68       3.2  T
   4   -225.4120256 -0.464423E-06  0.122E-03    0.68       7.6  T
   5   -225.4120258 -0.201324E-06  0.647E-04    0.68      14.2  T
   6   -225.4120258 -0.740574E-07  0.279E-04    0.68      33.0  T
     SCC iter.                  ...        0 min,  0.260 sec
     gradient                   ...        0 min,  0.114 sec
 * total energy  :  -222.9322690 Eh     change       -0.4225639E-04 Eh
   gradient norm :     0.0024824 Eh/α   predicted    -0.2753890E-04 ( -34.83%)
   displ. norm   :     0.1615515 α      lambda       -0.5354117E-04
   maximum displ.:     0.0908342 α      in ANC's #5, #7, #9, ...

........................................................................
.............................. CYCLE   13 ..............................
........................................................................

 iter      E             dE          RMSdq      gap      omega  full diag
   1   -225.4121091 -0.225412E+03  0.142E-02    0.68       0.0  T
   2   -225.4121098 -0.756115E-06  0.827E-03    0.68       1.1  T
   3   -225.4121090  0.815148E-06  0.288E-03    0.68       3.2  T
   4   -225.4121093 -0.248860E-06  0.193E-03    0.68       4.8  T
   5   -225.4121099 -0.670930E-06  0.691E-04    0.68      13.3  T
   6   -225.4121100 -0.803945E-07  0.240E-04    0.68      38.3  T
     SCC iter.                  ...        0 min,  0.475 sec
     gradient                   ...        0 min,  0.074 sec
 * total energy  :  -222.9323121 Eh     change       -0.4310272E-04 Eh
   gradient norm :     0.0018837 Eh/α   predicted    -0.2747135E-04 ( -36.27%)
   displ. norm   :     0.2746232 α      lambda       -0.5481324E-04
   maximum displ.:     0.1578201 α      in ANC's #5, #7, #9, ...

........................................................................
.............................. CYCLE   14 ..............................
........................................................................

 iter      E             dE          RMSdq      gap      omega  full diag
   1   -225.4114594 -0.225411E+03  0.238E-02    0.68       0.0  T
   2   -225.4114606 -0.114271E-05  0.139E-02    0.68       1.0  T
   3   -225.4114585  0.206459E-05  0.388E-03    0.68       2.4  T
   4   -225.4114594 -0.892554E-06  0.256E-03    0.68       3.6  T
   5   -225.4114608 -0.138129E-05  0.857E-04    0.68      10.7  T
   6   -225.4114609 -0.102835E-06  0.403E-04    0.68      22.9  T
   7   -225.4114609 -0.319068E-08  0.298E-04    0.68      30.8  T
     SCC iter.                  ...        0 min,  0.301 sec
     gradient                   ...        0 min,  0.032 sec
 * total energy  :  -222.9323731 Eh     change       -0.6099434E-04 Eh
   gradient norm :     0.0028774 Eh/α   predicted    -0.2832741E-04 ( -53.56%)
   displ. norm   :     0.1584556 α      lambda       -0.4652681E-04
   maximum displ.:     0.0934805 α      in ANC's #5, #7, #9, ...

........................................................................
.............................. CYCLE   15 ..............................
........................................................................

 iter      E             dE          RMSdq      gap      omega  full diag
   1   -225.4113016 -0.225411E+03  0.144E-02    0.68       0.0  T
   2   -225.4113018 -0.130857E-06  0.845E-03    0.68       1.1  T
   3   -225.4113013  0.436297E-06  0.188E-03    0.68       4.9  T
   4   -225.4113018 -0.454195E-06  0.545E-04    0.68      16.9  T
   5   -225.4113018 -0.344180E-07  0.357E-04    0.68      25.8  T
     SCC iter.                  ...        0 min,  0.176 sec
     gradient                   ...        0 min,  0.031 sec
 * total energy  :  -222.9324161 Eh     change       -0.4302035E-04 Eh
   gradient norm :     0.0029332 Eh/α   predicted    -0.2385128E-04 ( -44.56%)
   displ. norm   :     0.3001570 α      lambda       -0.9753474E-04
   maximum displ.:     0.1764205 α      in ANC's #5, #7, #9, ...

   *** FAILED TO CONVERGE GEOMETRY OPTIMIZATION IN 15 ITERATIONS ***


 ANCopt (total)                0 d,  0 h,  0 min,  5.214 sec
 optimizer setup                ...        0 min,  0.002 sec (  0.038%)
 model hessian                  ...        0 min,  0.060 sec (  1.151%)
 ANC generation                 ...        0 min,  0.018 sec (  0.345%)
 coordinate transformation      ...        0 min,  0.002 sec (  0.038%)
 single point calculation       ...        0 min,  4.971 sec ( 95.339%)
 optimization log               ...        0 min,  0.025 sec (  0.479%)
 hessian update                 ...        0 min,  0.127 sec (  2.436%)
 rational function              ...        0 min,  0.006 sec (  0.115%)

================
 final structure:
================
118
 xtb: 6.7.1pre (5071a88)
C           -1.41248830168953        6.00015608109103        8.79011265056369
N           -0.19390184947208        6.25508594133208        9.53335419717816
C           -0.07425523138719        5.46067267225673       10.75067158358206
C            0.06556089854171        3.98211416989134       10.48839445327155
C           -1.03491742862183        3.13487464093723       10.52970232759677
C           -0.90857910529223        1.79415219510185       10.22161762752766
C            0.32778927428586        1.26044347174325        9.86406121824768
C            0.47916900903602       -0.16199509485734        9.59869023132810
C           -0.50111814784467       -1.03491254008984        9.05968018269374
C            0.01436489142148       -2.31666149323178        9.09183370962523
N            1.30997227337664       -2.20896097263184        9.51256127338450
C            1.58272963992691       -0.94221097801056        9.92599924547592
C            2.52351999544512       -0.86027629431009       11.07769851173527
C            1.81838500038182       -1.54454018010501       12.31529620712976
N            0.65504980174856       -2.35285345836126       11.98695304916330
C            0.78346373713710       -3.62959286380040       11.51548200223262
O            1.74782691017813       -4.32389430132316       11.77124101651806
C           -0.34280097807727       -4.16061660225415       10.65393117655487
C           -0.99997178231364       -5.31223008956837       11.05909026143282
C           -2.00069498717152       -5.86772653365315       10.27783692269204
C           -2.34703831984020       -5.28283014776881        9.07244699200640
C           -1.67667481046989       -4.14653150371301        8.65865568076500
F           -2.01483710145217       -3.58681072176933        7.48043149671804
C           -0.66189696486648       -3.56832965322914        9.41076929564300
C            1.42834632798746        2.11510083387677        9.80585444006329
C            1.29563741718821        3.45453225827502       10.11061587129669
H           -2.26242090442604        6.25381458590234        9.42499832583391
H           -1.52332893333310        4.95857309815574        8.45763132929238
H           -1.42777386497945        6.64836730145545        7.91545114802599
H            0.60840316831433        6.06830904337850        8.93726397420330
H            0.80376311607058        5.82961758870973       11.29029426035040
H           -0.96153956650398        5.65766411307015       11.35907930072703
H           -1.99909149725937        3.52956983082558       10.81870825155170
H           -1.77315509801827        1.14897430263816       10.27349939599500
H           -1.48096392251905       -0.75791170246510        8.72642054495622
H            1.93124309998896       -2.99109345407311        9.64614480588833
H            3.44744042298481       -1.39459633672087       10.85261725677974
H            2.76319697644627        0.16926603611893       11.33217174901801
H            1.48699528950053       -0.77105233181084       13.00850583920830
H            2.52729967599546       -2.20090372647007       12.82106690624072
H           -0.15459775388294       -1.83166609155832       11.68099818684603
H           -0.72445544794436       -5.76529037379410       11.99929863837970
H           -2.51041147443916       -6.75922777737549       10.60819775920903
H           -3.12032867431630       -5.69767392028374        8.44539148944097
H            2.38741644992516        1.72207517680457        9.50197349321640
H            2.15917900658820        4.10445040375349       10.05995128671665
B            3.45412492296728       -1.45674883640101        1.67250107110439
N            3.45320956310412        1.12575494350153        0.97977425234201
B            2.54020684460649        2.35650240544367       -1.22357182651673
N            2.29120501029692       -0.64924846974309       -2.68920248817217
B            0.68656105082733       -3.55668334666383        2.75140539224059
N           -2.94009427802681       -2.64846762431668        1.75575383540749
B           -1.03476872571827        4.08734825572367        1.86719861178895
N           -0.62125137578560        0.01104150871344       -3.90155647974738
B           -0.47359631692186        1.43830877301090       -4.05261656647394
N            1.20459270894574       -3.79139839937070       -1.69273893621508
B           -3.84233588334711        2.21138013107660       -0.45470133561774
N           -2.77084721283090        2.76364273078478       -1.17441599457647
B            1.40472579619638        0.80805239096229       -4.85001216611573
N           -0.23311817338241        3.36900298023686        2.87177387106138
B            0.89401028745742       -2.88598949285710       -2.76858559301599
N           -0.48881934567916        3.76461138249301       -0.97457606792251
B           -0.80215737379738        2.18611681649662        3.32064092365799
N            1.65906480712339       -1.27249712930162        3.55719912721803
B           -0.24587603771428        3.46563454625677       -2.34399005491174
N            1.31186054690581        0.07232439092219        3.86693808101634
B           -1.59941419342257       -0.56440452294299       -3.04269415110463
N           -3.83023851697950        1.77984282070610        0.87100313448713
B            0.34088314298866        4.49631619858272        1.21850450226317
N            0.04416154134528       -0.00803533672570        4.50254286397757
B           -2.70530081004732        2.22852258797844        1.64001436043421
N            3.77071602671995       -0.13891209828897       -0.72420316967426
B           -2.25710361343227       -3.63623995288404        1.05708458961909
N            1.05884743996452        3.73574518078227        2.27196006240325
B           -1.82542492962240       -0.77316695280401        3.26844655922029
N           -2.44081101459138       -3.60094810832590       -0.40274194506169
B            3.01597260888413       -1.08047941736368       -1.46040875289773
N           -3.15794018042640       -1.25015555861067       -0.33970514890625
B            2.03512697835625        2.92068803315428        1.59865127196771
N           -0.51191385681297       -2.90522463670071       -2.38779224820912
B           -1.67702613408272       -2.11644018447617       -2.44703212116934
N            0.59325118795581        3.96308049011383       -0.07485319725114
B            1.09206027376767        2.95286307739131       -3.14664313216895
N            0.07264918535677       -4.35567958266304        1.77087983518383
B           -1.78081605409667        3.45171032182198       -0.37159602259673
N           -2.00978579170816        3.41952196889715        1.06824693404158
B            1.46090893824531       -4.21092034098848        1.54862271840356
N           -0.79452889180382        1.07074849313853        4.23551085603297
B           -2.66867300690023       -2.40192133140299       -1.12886866593776
N           -1.07845391843138       -4.48160632600992        1.04031859072912
B           -2.50398115142063        0.48974447718350       -2.06854028304059
N            2.34727923648970       -3.88958512526784        0.50063839273228
B            3.90780842908838       -0.20704971533502        0.76766327589945
N            1.92913581511596        1.95040413912233       -2.42755703130557
B            1.00197233181458        2.24518101187303       -4.58547278454384
N           -4.18513906121311        0.83155648701097       -0.30651682496750
B           -1.33743757844384        2.44934834261082       -3.07724294796048
N           -2.35883700549572        1.93071869703875       -2.26753050408701
B            3.06864753249311       -2.64853267346954        0.64642099151574
N            2.33035895308101       -3.67890644712352       -0.92401822848870
B            2.21536442647282        0.54565592642613        2.85088576777544
N           -2.02382057940943        0.61837497079474        3.64492557943324
B           -1.10615803682317       -4.18358626682268       -0.39211321503767
N           -3.21789329093717        0.04251433546809       -0.91695754954274
B            3.44587830657289        1.25247165034831       -0.47459298337425
N            2.57989709127928        1.63102126182960        1.97597133477653
B            1.46885714686265       -1.56278535386941       -3.47260207230637
N           -2.09904313694997        1.75745803304003        2.80003088812214
B            2.04002025259782        0.70391720827508       -3.17203642479730
N           -2.71842454685674       -1.33571035023088        2.36567294777374
B            0.65628593058841       -0.54750919196275       -4.44568808004353
N           -0.17369018838437       -3.76311892601174       -1.31025575869420
B            0.48410473585862       -2.10126882302557        3.48442206052423
N           -0.58538269758901       -1.19807491740938        3.87048363695683
B           -3.22226570174492       -1.44548414888865        1.04582340649620
N            2.66880123776940       -0.85596595948347        2.66675144524171
B            1.88048078360715        3.33551956176155       -0.07001114251173
N            2.87384330282250       -2.33732258527100       -0.74934684321444
 
 Bond Distances (Angstroems)
 ---------------------------
C1-N2=1.4499         C1-H27=1.0908        C1-H28=1.0990        C1-H29=1.0888        N2-C1=1.4499         N2-C3=1.4585         
N2-H30=1.0168        C3-N2=1.4585         C3-C4=1.5081         C3-H31=1.0946        C3-H32=1.0937        C4-C3=1.5081         
C4-C5=1.3895         C4-C26=1.3907        C5-C4=1.3895         C5-C6=1.3815         C5-H33=1.0812        C6-C5=1.3815         
C6-C7=1.3933         C6-H34=1.0800        C7-C6=1.3933         C7-C8=1.4549         C7-C25=1.3947        C8-C7=1.4549         
C8-C9=1.4190         C8-C12=1.3906        C9-C8=1.4190         C9-C10=1.3819        C9-H35=1.0714        C10-C9=1.3819        
C10-N11=1.3665       C10-C24=1.4580       N11-C10=1.3665       N11-C12=1.3601       N11-H36=1.0077       C12-C8=1.3906        
C12-N11=1.3601       C12-C13=1.4894       C13-C12=1.4894       C13-C14=1.5802       C13-H37=1.0908       C13-H38=1.0873       
C14-C13=1.5802       C14-N15=1.4541       C14-H39=1.0902       C14-H40=1.0905       N15-C14=1.4541       N15-C16=1.3671       
N15-H41=1.0103       C16-N15=1.3671       C16-O17=1.2155       C16-C18=1.5142       O17-C16=1.2155       C18-C16=1.5142       
C18-C19=1.3864       C18-C24=1.4135       C19-C18=1.3864       C19-C20=1.3858       C19-H42=1.0794       C20-C19=1.3858       
C20-C21=1.3838       C20-H43=1.0788       C21-C20=1.3838       C21-C22=1.3827       C21-H44=1.0786       C22-C21=1.3827       
C22-F23=1.3475       C22-C24=1.3892       F23-C22=1.3475       C24-C10=1.4580       C24-C18=1.4135       C24-C22=1.3892       
C25-C7=1.3947        C25-C26=1.3801       C25-H45=1.0801       C26-C4=1.3907        C26-C25=1.3801       C26-H46=1.0820       
H27-C1=1.0908        H28-C1=1.0990        H29-C1=1.0888        H30-N2=1.0168        H31-C3=1.0946        H32-C3=1.0937        
H33-C5=1.0812        H34-C6=1.0800        H35-C9=1.0714        H36-N11=1.0077       H37-C13=1.0908       H38-C13=1.0873       
H39-C14=1.0902       H40-C14=1.0905       H41-N15=1.0103       H42-C19=1.0794       H43-C20=1.0788       H44-C21=1.0786       
H45-C25=1.0801       H46-C26=1.0820       B47-B93=1.6082       B47-B99=1.6192       B47-N116=1.4022      N48-B93=1.4241       
N48-B105=1.4599      N48-N106=1.4179      B49-N94=1.4099       B49-B105=1.6125      B49-B117=1.6506      N50-B77=1.4904       
N50-B107=1.4576      N50-B109=1.4585      B51-N84=1.4060       B51-B87=1.5730       B51-B113=1.6421      N52-B73=1.3894       
N52-N110=1.4644      N52-B115=1.4251      B53-N60=1.4724       B53-B69=1.5750       B53-N86=1.4265       N54-B55=1.4428       
N54-B67=1.4232       N54-B111=1.4967      B55-N54=1.4428       B55-B59=2.1357       B55-B95=1.7642       B55-B97=1.6492       
N56-B61=1.4400       N56-N100=1.3678      N56-N112=1.4306      B57-N58=1.4039       B57-N68=1.3942       B57-N96=1.4295       
N58-B57=1.4039       N58-B85=1.4485       N58-N98=1.4347       B59-B55=2.1357       B59-B95=1.5158       B59-B109=1.7972      
B59-B111=1.6004      N60-B53=1.4724       N60-B63=1.3873       N60-N74=1.4709       B61-N56=1.4400       B61-N80=1.4567       
B61-B107=1.6053      B61-N112=2.0090      N62-B65=1.4226       N62-N82=1.4212       N62-B85=1.4597       B63-N60=1.3873       
B63-N88=1.4426       B63-N102=2.0138      B63-N108=1.4617      N64-N66=1.4230       N64-B113=1.4397      N64-N116=1.4092      
B65-N62=1.4226       B65-B83=1.6423       B65-B97=1.6619       N66-N64=1.4230       N66-N70=1.4204       N66-B101=1.4397      
B67-N54=1.4232       B67-B81=1.6642       B67-B91=1.6966       N68-B57=1.3942       N68-B71=1.4346       N68-N96=1.5530       
B69-B53=1.5750       B69-N74=1.4845       B69-N82=1.4216       N70-N66=1.4204       N70-N88=1.3923       N70-N114=1.4873      
B71-N68=1.4346       B71-N86=1.4930       B71-N108=1.3911      N72-B77=1.4136       N72-B93=1.4997       N72-B105=1.4504      
B73-N52=1.3894       B73-N76=1.4718       B73-N90=1.4506       B73-B103=1.9299      N74-N60=1.4709       N74-B69=1.4845       
N74-B79=1.4390       B75-N102=1.4552      B75-N110=1.3888      B75-N114=1.4425      N76-B73=1.4718       N76-B89=1.4202       
N76-B103=1.4563      B77-N50=1.4904       B77-N72=1.4136       B77-N118=1.4510      N78-B89=1.4794       N78-N104=1.4170      
N78-B115=1.4007      B79-N74=1.4390       B79-N106=1.4500      B79-B117=1.7264      N80-B61=1.4567       N80-B81=1.4083       
N80-N112=1.4183      B81-B67=1.6642       B81-N80=1.4083       B81-B89=1.6740       N82-N62=1.4212       N82-B69=1.4216       
N82-B117=1.4321      B83-B65=1.6423       B83-N94=1.4909       B83-B95=1.6060       N84-B51=1.4060       N84-B87=1.4134       
N84-N90=1.3692       B85-N58=1.4485       B85-N62=1.4597       B85-N86=1.4583       N86-B53=1.4265       N86-B71=1.4930       
N86-B85=1.4583       B87-B51=1.5730       B87-N84=1.4134       B87-N92=1.4097       N88-B63=1.4426       N88-N70=1.3923       
N88-N102=1.4369      B89-N76=1.4202       B89-N78=1.4794       B89-B81=1.6740       N90-B73=1.4506       N90-N84=1.3692       
N90-B103=1.4634      B91-B67=1.6966       B91-N98=1.4619       B91-N104=1.4268      N92-B87=1.4097       N92-B99=1.4429       
N92-N100=1.4402      B93-B47=1.6082       B93-N48=1.4241       B93-N72=1.4997       B93-B105=1.9715      N94-B49=1.4099       
N94-B83=1.4909       N94-B109=1.4561      B95-B55=1.7642       B95-B59=1.5158       B95-B83=1.6060       N96-B57=1.4295       
N96-N68=1.5530       N96-N104=1.3895      B97-B55=1.6492       B97-B65=1.6619       B97-N98=1.4028       N98-N58=1.4347       
N98-B91=1.4619       N98-B97=1.4028       B99-B47=1.6192       B99-N92=1.4429       B99-N118=1.4432      N100-N56=1.3678      
N100-N92=1.4402      N100-N118=1.4580     B101-N66=1.4397      B101-N106=1.4410     B101-N116=1.4846     N102-B63=2.0138      
N102-B75=1.4552      N102-N88=1.4369      N102-N108=1.4202     B103-B73=1.9299      B103-N76=1.4563      B103-N90=1.4634      
B103-N112=1.3745     N104-N78=1.4170      N104-B91=1.4268      N104-N96=1.3895      B105-N48=1.4599      B105-B49=1.6125      
B105-N72=1.4504      B105-B93=1.9715      N106-N48=1.4179      N106-B79=1.4500      N106-B101=1.4410     B107-N50=1.4576      
B107-B61=1.6053      B107-B111=1.6242     N108-B63=1.4617      N108-B71=1.3911      N108-N102=1.4202     B109-N50=1.4585      
B109-B59=1.7972      B109-N94=1.4561      N110-N52=1.4644      N110-B75=1.3888      N110-B115=1.4170     B111-N54=1.4967      
B111-B59=1.6004      B111-B107=1.6242     N112-N56=1.4306      N112-B61=2.0090      N112-N80=1.4183      N112-B103=1.3745     
B113-B51=1.6421      B113-N64=1.4397      B113-N114=1.4521     N114-N70=1.4873      N114-B75=1.4425      N114-B113=1.4521     
B115-N52=1.4251      B115-N78=1.4007      B115-N110=1.4170     N116-B47=1.4022      N116-N64=1.4092      N116-B101=1.4846     
B117-B49=1.6506      B117-B79=1.7264      B117-N82=1.4321      N118-B77=1.4510      N118-B99=1.4432      N118-N100=1.4580     
 B  B  Rav=1.6894 sigma=0.1392  Rmin=1.5158  Rmax=2.1357    24
 C  H  Rav=1.0857 sigma=0.0071  Rmin=1.0714  Rmax=1.0990    17
 C  C  Rav=1.4223 sigma=0.0553  Rmin=1.3801  Rmax=1.5802    21
 N  H  Rav=1.0116 sigma=0.0038  Rmin=1.0077  Rmax=1.0168     3
 N  B  Rav=1.4560 sigma=0.1010  Rmin=1.3745  Rmax=2.0138    68
 N  C  Rav=1.4094 sigma=0.0449  Rmin=1.3601  Rmax=1.4585     6
 N  N  Rav=1.4306 sigma=0.0403  Rmin=1.3678  Rmax=1.5530    21
 O  C  Rav=1.2155 sigma=0.0000  Rmin=1.2155  Rmax=1.2155     1
 F  C  Rav=1.3475 sigma=0.0000  Rmin=1.3475  Rmax=1.3475     1
 
 selected bond angles (degree)
 --------------------
H27-C1-N2=108.40               H28-C1-N2=113.98               H28-C1-H27=108.54              H29-C1-N2=108.60               
H29-C1-H27=108.55              H29-C1-H28=108.65              C3-N2-C1=113.64                H30-N2-C1=109.29               
H30-N2-C3=108.94               C4-C3-N2=113.36                H31-C3-N2=107.08               H31-C3-C4=109.99               
H32-C3-N2=107.44               H32-C3-C4=110.40               H32-C3-H31=108.41              C5-C4-C3=121.28                
C26-C4-C3=120.08               C26-C4-C5=118.51               C6-C5-C4=120.85                H33-C5-C4=119.45               
H33-C5-C6=119.70               C7-C6-C5=120.67                H34-C6-C5=119.73               H34-C6-C7=119.59               
C8-C7-C6=120.91                C25-C7-C6=118.44               C25-C7-C8=120.63               C9-C8-C7=126.79                
C12-C8-C7=126.03               C12-C8-C9=107.01               C10-C9-C8=107.70               H35-C9-C8=126.22               
H35-C9-C10=126.03              N11-C10-C9=106.72              C24-C10-C9=128.93              C24-C10-N11=116.11             
 
 selected dihedral angles (degree)
 ---------------------------------
C3-N2-C1-H27= 60.97           C3-N2-C1-H28=300.00           C3-N2-C1-H29=178.73           H30-N2-C1-H27=182.88          
H30-N2-C1-H28= 61.90          H30-N2-C1-H29=300.64          C4-C3-N2-C1= 65.96            C4-C3-N2-H30=303.86           
H31-C3-N2-C1=187.44           H31-C3-N2-H30= 65.34          H32-C3-N2-C1=303.72           H32-C3-N2-H30=181.62          
C5-C4-C3-N2=263.70            C5-C4-C3-H31=143.87           C5-C4-C3-H32= 24.28           C26-C4-C3-N2= 79.39           
C26-C4-C3-H31=319.56          C26-C4-C3-H32=199.98          C6-C5-C4-C3=176.69            C6-C5-C4-C26=  0.92           
H33-C5-C4-C3=355.93           H33-C5-C4-C26=180.17          C7-C6-C5-C4=  0.10            C7-C6-C5-H33=180.86           
H34-C6-C5-C4=179.11           H34-C6-C5-H33=359.87          C8-C7-C6-C5=177.14            C8-C7-C6-H34=358.12           
C25-C7-C6-C5=359.07           C25-C7-C6-H34=180.06          C9-C8-C7-C6= 31.24            C9-C8-C7-C25=209.26           
C12-C8-C7-C6=216.66           C12-C8-C7-C25= 34.69          C10-C9-C8-C7=185.57           C10-C9-C8-C12=  0.98          
H35-C9-C8-C7=  3.17           H35-C9-C8-C12=178.59          N11-C10-C9-C8=354.36          N11-C10-C9-H35=176.76         
C24-C10-C9-C8=140.81          C24-C10-C9-H35=323.20         
 
 CMA Distance (Angstroems)
 ---------------------------
R(CMA):  9.9849
           -------------------------------------------------
          |                Final Singlepoint                |
           -------------------------------------------------

          ...................................................
          :                      SETUP                      :
          :.................................................:
          :  # basis functions                 412          :
          :  # atomic orbitals                 412          :
          :  # shells                          216          :
          :  # electrons                       420          :
          :  max. iterations                   500          :
          :  Hamiltonian                  GFN2-xTB          :
          :  restarted?                      false          :
          :  GBSA solvation                  false          :
          :  PC potential                    false          :
          :  electronic temp.          300.0000000     K    :
          :  accuracy                    1.0000000          :
          :  -> integral cutoff          0.2500000E+02      :
          :  -> integral neglect         0.1000000E-07      :
          :  -> SCF convergence          0.1000000E-05 Eh   :
          :  -> wf. convergence          0.1000000E-03 e    :
          :  Broyden damping             0.4000000          :
          :  net charge                          0          :
          :  unpaired electrons                  0          :
          ...................................................

 iter      E             dE          RMSdq      gap      omega  full diag
   1   -225.4110004 -0.225411E+03  0.293E-02    0.68       0.0  T
   2   -225.4110010 -0.626508E-06  0.172E-02    0.68       1.0  T
   3   -225.4109987  0.234212E-05  0.449E-03    0.68       2.1  T
   4   -225.4110012 -0.250753E-05  0.108E-03    0.68       8.5  T
   5   -225.4110013 -0.109448E-06  0.735E-04    0.68      12.5  T
   6   -225.4110014 -0.780358E-07  0.308E-04    0.68      29.9  T

   *** convergence criteria satisfied after 6 iterations ***

         #    Occupation            Energy/Eh            Energy/eV
      -------------------------------------------------------------
         1        2.0000           -0.8100323             -22.0421
       ...           ...                  ...                  ...
       204        2.0000           -0.3263465              -8.8803
       205        2.0000           -0.3236167              -8.8061
       206        2.0000           -0.3223235              -8.7709
       207        2.0000           -0.3195052              -8.6942
       208        2.0000           -0.3143125              -8.5529
       209        2.0000           -0.3124792              -8.5030
       210        2.0000           -0.3073351              -8.3630 (HOMO)
       211        0.0000           -0.2823549              -7.6833 (LUMO)
       212                         -0.2742242              -7.4620
       213                         -0.2633842              -7.1671
       214                         -0.2569313              -6.9915
       215                         -0.2505545              -6.8179
       ...                                ...                  ...
       412                          0.9845598              26.7912
      -------------------------------------------------------------
                  HL-Gap            0.0249803 Eh            0.6797 eV
             Fermi-level           -0.2948427 Eh           -8.0231 eV

 SCC (total)                   0 d,  0 h,  0 min,  0.251 sec
 SCC setup                      ...        0 min,  0.001 sec (  0.398%)
 Dispersion                     ...        0 min,  0.002 sec (  0.797%)
 classical contributions        ...        0 min,  0.000 sec (  0.000%)
 integral evaluation            ...        0 min,  0.011 sec (  4.383%)
 iterations                     ...        0 min,  0.201 sec ( 80.080%)
 molecular gradient             ...        0 min,  0.033 sec ( 13.147%)
 printout                       ...        0 min,  0.003 sec (  1.195%)

         :::::::::::::::::::::::::::::::::::::::::::::::::::::
         ::                     SUMMARY                     ::
         :::::::::::::::::::::::::::::::::::::::::::::::::::::
         :: total energy            -222.932500310113 Eh    ::
         :: gradient norm              0.002761158101 Eh/a0 ::
         :: HOMO-LUMO gap              0.679747706629 eV    ::
         ::.................................................::
         :: SCC energy              -225.395590728488 Eh    ::
         :: -> isotropic ES            0.692762696055 Eh    ::
         :: -> anisotropic ES         -0.023100963143 Eh    ::
         :: -> anisotropic XC          0.094195641755 Eh    ::
         :: -> dispersion             -0.200828074899 Eh    ::
         :: repulsion energy           2.463090418376 Eh    ::
         :: add. restraining           0.000000000000 Eh    ::
         :: total charge              -0.000000000000 e     ::
         :::::::::::::::::::::::::::::::::::::::::::::::::::::

           -------------------------------------------------
          |                Property Printout                |
           -------------------------------------------------

    * Orbital Energies and Occupations

         #    Occupation            Energy/Eh            Energy/eV
      -------------------------------------------------------------
         1        2.0000           -0.8100323             -22.0421
       ...           ...                  ...                  ...
       198        2.0000           -0.3388424              -9.2204
       199        2.0000           -0.3375829              -9.1861
       200        2.0000           -0.3336446              -9.0789
       201        2.0000           -0.3314389              -9.0189
       202        2.0000           -0.3290388              -8.9536
       203        2.0000           -0.3276046              -8.9146
       204        2.0000           -0.3263465              -8.8803
       205        2.0000           -0.3236167              -8.8061
       206        2.0000           -0.3223235              -8.7709
       207        2.0000           -0.3195052              -8.6942
       208        2.0000           -0.3143125              -8.5529
       209        2.0000           -0.3124792              -8.5030
       210        2.0000           -0.3073351              -8.3630 (HOMO)
       211        0.0000           -0.2823549              -7.6833 (LUMO)
       212                         -0.2742242              -7.4620
       213                         -0.2633842              -7.1671
       214                         -0.2569313              -6.9915
       215                         -0.2505545              -6.8179
       216                         -0.2448707              -6.6633
       217                         -0.2444465              -6.6517
       218                         -0.2338037              -6.3621
       219                         -0.2293759              -6.2416
       220                         -0.2282035              -6.2097
       221                         -0.2280578              -6.2058
       ...                                ...                  ...
       412                          0.9845598              26.7912
      -------------------------------------------------------------
                  HL-Gap            0.0249803 Eh            0.6797 eV
             Fermi-level           -0.2948427 Eh           -8.0231 eV

     #   Z          covCN         q      C6AA      α(0)
     1   6 C        3.690    -0.028    21.259     6.598
     2   7 N        2.676    -0.254    26.611     7.662
     3   6 C        3.748     0.004    20.578     6.470
     4   6 C        2.968    -0.005    28.145     8.702
     5   6 C        2.922    -0.038    28.957     8.825
     6   6 C        2.924    -0.040    28.989     8.830
     7   6 C        2.972     0.011    27.767     8.643
     8   6 C        3.100    -0.030    28.625     8.768
     9   6 C        3.045    -0.068    29.653     8.931
    10   6 C        3.056     0.027    27.337     8.575
    11   7 N        2.835    -0.106    23.323     7.173
    12   6 C        3.053     0.024    27.410     8.586
    13   6 C        3.802    -0.072    21.883     6.660
    14   6 C        3.737     0.001    20.637     6.483
    15   7 N        2.682    -0.190    25.118     7.443
    16   6 C        2.755     0.278    22.288     7.731
    17   8 O        0.858    -0.429    22.262     6.326
    18   6 C        2.980    -0.031    28.779     8.800
    19   6 C        2.919    -0.029    28.725     8.789
    20   6 C        2.921    -0.032    28.799     8.800
    21   6 C        2.916    -0.049    29.214     8.863
    22   6 C        2.784     0.165    24.431     8.096
    23   9 F        0.787    -0.219    11.428     3.993
    24   6 C        2.974    -0.009    28.229     8.715
    25   6 C        2.924    -0.042    29.039     8.837
    26   6 C        2.923    -0.040    28.983     8.829
    27   1 H        0.924     0.038     2.476     2.461
    28   1 H        0.923     0.016     2.789     2.612
    29   1 H        0.925     0.037     2.488     2.467
    30   1 H        0.860     0.136     1.503     1.920
    31   1 H        0.924     0.036     2.502     2.474
    32   1 H        0.924     0.037     2.485     2.465
    33   1 H        0.926     0.028     2.615     2.529
    34   1 H        0.926     0.030     2.592     2.518
    35   1 H        0.926     0.042     2.421     2.433
    36   1 H        0.860     0.172     1.262     1.760
    37   1 H        0.924     0.052     2.299     2.371
    38   1 H        0.925     0.056     2.252     2.347
    39   1 H        0.924     0.050     2.314     2.379
    40   1 H        0.924     0.076     2.019     2.222
    41   1 H        0.860     0.170     1.273     1.768
    42   1 H        0.926     0.055     2.259     2.350
    43   1 H        0.926     0.051     2.313     2.378
    44   1 H        0.926     0.064     2.158     2.297
    45   1 H        0.926     0.030     2.587     2.515
    46   1 H        0.925     0.025     2.660     2.551
    47   5 B        2.781     0.076    20.205     7.516
    48   7 N        2.774    -0.228    25.983     7.571
    49   5 B        2.788     0.092    19.936     7.464
    50   7 N        2.524    -0.315    28.134     7.877
    51   5 B        2.779     0.084    20.062     7.489
    52   7 N        2.655    -0.268    26.945     7.709
    53   5 B        2.849     0.241    17.670     7.019
    54   7 N        2.529    -0.273    27.088     7.729
    55   5 B        3.195     0.150    18.930     7.256
    56   7 N        2.979    -0.110    23.398     7.184
    57   5 B        2.644     0.373    16.324     6.814
    58   7 N        2.669    -0.213    25.639     7.520
    59   5 B        3.181     0.022    21.000     7.643
    60   7 N        2.887    -0.223    25.868     7.554
    61   5 B        3.009     0.209    18.078     7.092
    62   7 N        2.660    -0.163    24.536     7.357
    63   5 B        2.906     0.319    16.615     6.802
    64   7 N        3.155    -0.084    22.868     7.102
    65   5 B        2.778     0.094    19.913     7.462
    66   7 N        3.037    -0.127    23.742     7.237
    67   5 B        2.758     0.090    20.006     7.484
    68   7 N        2.634    -0.309    27.965     7.854
    69   5 B        3.039     0.226    17.833     7.044
    70   7 N        2.981     0.000    21.254     6.847
    71   5 B        2.581     0.325    17.311     7.088
    72   7 N        2.596    -0.360    29.300     8.039
    73   5 B        3.286     0.340    16.338     6.741
    74   7 N        2.784    -0.255    26.603     7.660
    75   5 B        2.559     0.321    17.587     7.183
    76   7 N        2.579    -0.368    29.524     8.070
    77   5 B        2.530     0.301    18.223     7.377
    78   7 N        2.665    -0.205    25.459     7.494
    79   5 B        2.699     0.196    18.506     7.219
    80   7 N        2.844    -0.167    24.611     7.368
    81   5 B        2.758     0.082    20.133     7.507
    82   7 N        2.672    -0.174    24.776     7.393
    83   5 B        2.877     0.110    19.577     7.386
    84   7 N        2.663    -0.144    24.118     7.294
    85   5 B        2.594     0.312    17.388     7.085
    86   7 N        2.519    -0.355    29.181     8.022
    87   5 B        2.684     0.183    18.728     7.270
    88   7 N        3.008    -0.128    23.763     7.240
    89   5 B        2.677     0.210    18.363     7.203
    90   7 N        2.716    -0.248    26.458     7.639
    91   5 B        2.647     0.164    19.168     7.381
    92   7 N        2.825    -0.207    25.487     7.498
    93   5 B        3.322     0.230    17.786     7.032
    94   7 N        2.531    -0.286    27.413     7.776
    95   5 B        2.950     0.035    20.781     7.606
    96   7 N        2.783    -0.185    25.005     7.427
    97   5 B        2.796     0.085    20.043     7.482
    98   7 N        2.673    -0.156    24.372     7.332
    99   5 B        3.021     0.211    18.053     7.087
   100   7 N        3.272     0.015    20.989     6.804
   101   5 B        2.867     0.305    16.809     6.844
   102   7 N        3.156    -0.114    23.483     7.197
   103   5 B        3.263     0.320    16.587     6.792
   104   7 N        2.833    -0.061    22.413     7.031
   105   5 B        3.304     0.231    17.765     7.029
   106   7 N        2.656    -0.183    24.977     7.422
   107   5 B        2.838     0.112    19.568     7.387
   108   7 N        2.834    -0.224    25.893     7.558
   109   5 B        2.863     0.253    17.504     6.985
   110   7 N        2.654    -0.228    26.000     7.573
   111   5 B        3.011     0.114    19.489     7.364
   112   7 N        3.153    -0.086    22.910     7.109
   113   5 B        2.674     0.204    18.466     7.225
   114   7 N        2.697    -0.225    25.921     7.562
   115   5 B        2.584     0.368    16.733     6.965
   116   7 N        2.880    -0.180    24.895     7.410
   117   5 B        2.825     0.106    19.675     7.409
   118   7 N        2.827    -0.253    26.562     7.655

 Mol. C6AA /au·bohr⁶  :     245927.081599
 Mol. C8AA /au·bohr⁸  :    6827347.974063
 Mol. α(0) /au        :        781.789086


Wiberg/Mayer (AO) data.
largest (>0.10) Wiberg bond orders for each atom

 ---------------------------------------------------------------------------
     #   Z sym  total        # sym  WBO       # sym  WBO       # sym  WBO
 ---------------------------------------------------------------------------
     1   6 C    3.987 --     2 N    1.026    29 H    0.984    27 H    0.983
                            28 H    0.976
     2   7 N    3.073 --     1 C    1.026     3 C    1.001    30 H    0.958
     3   6 C    3.987 --     2 N    1.001     4 C    0.997    32 H    0.971
                            31 H    0.969
     4   6 C    3.982 --     5 C    1.406    26 C    1.402     3 C    0.997
     5   6 C    3.991 --     6 C    1.455     4 C    1.406    33 H    0.969
                            25 C    0.104
     6   6 C    3.991 --     5 C    1.455     7 C    1.381    34 H    0.969
                            26 C    0.105
     7   6 C    3.989 --     6 C    1.381    25 C    1.373     8 C    1.073
     8   6 C    3.975 --    12 C    1.426     9 C    1.296     7 C    1.073
     9   6 C    3.978 --    10 C    1.475     8 C    1.296    35 H    0.972
    10   6 C    3.931 --     9 C    1.475    11 N    1.183    24 C    1.059
                            12 C    0.115
    11   7 N    3.567 --    12 C    1.217    10 C    1.183    36 H    0.933
    12   6 C    3.921 --     8 C    1.426    11 N    1.217    13 C    1.022
                            10 C    0.115
    13   6 C    3.993 --    12 C    1.022    38 H    0.974    37 H    0.973
                            14 C    0.950
    14   6 C    3.963 --    15 N    0.999    39 H    0.977    40 H    0.972
                            13 C    0.950
    15   7 N    3.405 --    16 C    1.214    14 C    0.999    41 H    0.941
                            17 O    0.183
    16   6 C    3.948 --    17 O    1.693    15 N    1.214    18 C    0.959
    17   8 O    2.014 --    16 C    1.693    15 N    0.183
    18   6 C    3.983 --    19 C    1.429    24 C    1.329    16 C    0.959
                            21 C    0.103
    19   6 C    3.989 --    18 C    1.429    20 C    1.427    42 H    0.967
    20   6 C    3.981 --    21 C    1.438    19 C    1.427    43 H    0.969
    21   6 C    3.988 --    20 C    1.438    22 C    1.399    44 H    0.966
                            18 C    0.103
    22   6 C    3.886 --    21 C    1.399    24 C    1.355    23 F    0.964
    23   9 F    1.098 --    22 C    0.964
    24   6 C    3.986 --    22 C    1.355    18 C    1.329    10 C    1.059
    25   6 C    3.991 --    26 C    1.463     7 C    1.373    45 H    0.969
                             5 C    0.104
    26   6 C    3.992 --    25 C    1.463     4 C    1.402    46 H    0.969
                             6 C    0.105
    27   1 H    0.999 --     1 C    0.983
    28   1 H    1.000 --     1 C    0.976
    29   1 H    0.998 --     1 C    0.984
    30   1 H    0.982 --     2 N    0.958
    31   1 H    0.998 --     3 C    0.969
    32   1 H    0.998 --     3 C    0.971
    33   1 H    0.999 --     5 C    0.969
    34   1 H    0.999 --     6 C    0.969
    35   1 H    0.998 --     9 C    0.972
    36   1 H    0.970 --    11 N    0.933
    37   1 H    0.996 --    13 C    0.973
    38   1 H    0.996 --    13 C    0.974
    39   1 H    0.997 --    14 C    0.977
    40   1 H    0.994 --    14 C    0.972
    41   1 H    0.971 --    15 N    0.941
    42   1 H    0.996 --    19 C    0.967
    43   1 H    0.997 --    20 C    0.969
    44   1 H    0.995 --    21 C    0.966
    45   1 H    0.999 --    25 C    0.969
    46   1 H    0.999 --    26 C    0.969
    47   5 B    3.478 --   116 N    1.282    99 B    1.000    93 B    0.970
    48   7 N    3.398 --    93 B    1.143   106 N    1.007   105 B    1.001
    49   5 B    3.464 --    94 N    1.276   117 B    0.978   105 B    0.958
    50   7 N    3.530 --   109 B    1.152   107 B    1.150    77 B    1.018
    51   5 B    3.463 --    84 N    1.240   113 B    0.995    87 B    0.990
    52   7 N    3.266 --    73 B    1.202   115 B    0.968   110 N    0.888
    53   5 B    3.408 --    86 N    1.176    60 N    1.034    69 B    0.963
    54   7 N    3.568 --    67 B    1.277    55 B    1.158   111 B    0.973
    55   5 B    3.393 --    54 N    1.158    97 B    0.932    95 B    0.640
                            59 B    0.294
    56   7 N    3.323 --    61 B    1.113   100 N    1.043   112 N    0.945
    57   5 B    3.433 --    58 N    1.187    68 N    1.127    96 N    0.961
    58   7 N    3.445 --    57 B    1.187    85 B    1.086    98 N    0.967
    59   5 B    3.456 --    95 B    1.285   111 B    1.004   109 B    0.627
                            55 B    0.294
    60   7 N    3.426 --    63 B    1.231    53 B    1.034    74 N    0.928
    61   5 B    3.390 --    56 N    1.113    80 N    1.038   107 B    1.005
    62   7 N    3.510 --    65 B    1.206    85 B    1.123    82 N    0.999
    63   5 B    3.514 --    60 N    1.231    88 N    1.075   108 N    1.000
    64   7 N    3.344 --   113 B    1.135   116 N    0.990    66 N    0.982
    65   5 B    3.414 --    62 N    1.206    83 B    1.008    97 B    0.926
    66   7 N    3.327 --   101 B    1.137    64 N    0.982    70 N    0.973
    67   5 B    3.464 --    54 N    1.277    81 B    0.978    91 B    0.932
    68   7 N    3.218 --    57 B    1.127    71 B    1.066    96 N    0.793
    69   5 B    3.368 --    82 N    1.152    74 N    0.992    53 B    0.963
    70   7 N    3.098 --    88 N    1.013    66 N    0.973   114 N    0.939
    71   5 B    3.511 --   108 N    1.248    68 N    1.066    86 N    0.988
    72   7 N    3.433 --    77 B    1.201   105 B    1.062    93 B    0.925
    73   5 B    3.481 --    52 N    1.202    90 N    1.042    76 N    0.979
    74   7 N    3.281 --    79 B    1.168    69 B    0.992    60 N    0.928
    75   5 B    3.523 --   110 N    1.210   114 N    1.121   102 N    1.032
    76   7 N    3.430 --    89 B    1.221   103 B    0.993    73 B    0.979
    77   5 B    3.519 --    72 N    1.201   118 N    1.099    50 N    1.018
    78   7 N    3.441 --   115 B    1.260    89 B    0.997   104 N    0.990
    79   5 B    3.445 --    74 N    1.168   106 N    1.124   117 B    0.923
    80   7 N    3.469 --    81 B    1.260    61 B    1.038   112 N    0.984
    81   5 B    3.421 --    80 N    1.260    67 B    0.978    89 B    0.959
    82   7 N    3.511 --   117 B    1.171    69 B    1.152    62 N    0.999
    83   5 B    3.347 --    95 B    1.009    65 B    1.008    94 N    0.963
    84   7 N    3.509 --    51 B    1.240    87 B    1.094    90 N    1.036
    85   5 B    3.515 --    62 N    1.123    86 N    1.104    58 N    1.086
    86   7 N    3.477 --    53 B    1.176    85 B    1.104    71 B    0.988
    87   5 B    3.464 --    92 N    1.178    84 N    1.094    51 B    0.990
    88   7 N    3.265 --    63 B    1.075    70 N    1.013   102 N    0.976
    89   5 B    3.391 --    76 N    1.221    78 N    0.997    81 B    0.959
    90   7 N    3.372 --    73 B    1.042    84 N    1.036   103 B    0.986
    91   5 B    3.454 --   104 N    1.192    98 N    1.078    67 B    0.932
    92   7 N    3.406 --    87 B    1.178    99 B    1.073   100 N    0.959
    93   5 B    3.365 --    48 N    1.143    47 B    0.970    72 N    0.925
                           105 B    0.127
    94   7 N    3.561 --    49 B    1.276   109 B    1.105    83 B    0.963
    95   5 B    3.367 --    59 B    1.285    83 B    1.009    55 B    0.640
                           109 B    0.186
    96   7 N    2.986 --   104 N    1.045    57 B    0.961    68 N    0.793
    97   5 B    3.455 --    98 N    1.266    55 B    0.932    65 B    0.926
    98   7 N    3.480 --    97 B    1.266    91 B    1.078    58 N    0.967
    99   5 B    3.442 --   118 N    1.130    92 N    1.073    47 B    1.000
   100   7 N    3.186 --    56 N    1.043    92 N    0.959   118 N    0.951
   101   5 B    3.524 --   106 N    1.162    66 N    1.137   116 N    0.994
   102   7 N    3.217 --    75 B    1.032   108 N    0.984    88 N    0.976
   103   5 B    3.507 --   112 N    1.264    76 N    0.993    90 N    0.986
   104   7 N    3.440 --    91 B    1.192    96 N    1.045    78 N    0.990
   105   5 B    3.327 --    72 N    1.062    48 N    1.001    49 B    0.958
                            93 B    0.127
   106   7 N    3.491 --   101 B    1.162    79 B    1.124    48 N    1.007
   107   5 B    3.385 --    50 N    1.150    61 B    1.005   111 B    1.002
   108   7 N    3.447 --    71 B    1.248    63 B    1.000   102 N    0.984
   109   5 B    3.443 --    50 N    1.152    94 N    1.105    59 B    0.627
                            95 B    0.186   111 B    0.120
   110   7 N    3.334 --    75 B    1.210   115 B    1.037    52 N    0.888
   111   5 B    3.333 --    59 B    1.004   107 B    1.002    54 N    0.973
                           109 B    0.120
   112   7 N    3.439 --   103 B    1.264    80 N    0.984    56 N    0.945
   113   5 B    3.445 --    64 N    1.135   114 N    1.123    51 B    0.995
   114   7 N    3.400 --   113 B    1.123    75 B    1.121    70 N    0.939
   115   5 B    3.439 --    78 N    1.260   110 N    1.037    52 N    0.968
   116   7 N    3.476 --    47 B    1.282   101 B    0.994    64 N    0.990
   117   5 B    3.360 --    82 N    1.171    49 B    0.978    79 B    0.923
   118   7 N    3.417 --    99 B    1.130    77 B    1.099   100 N    0.951
 ---------------------------------------------------------------------------

Topologies differ in total number of bonds
Writing topology from bond orders to xtbtopo.mol

molecular dipole:
                 x           y           z       tot (Debye)
 q only:        1.640       2.374      -3.421
   full:       -0.119       1.172      -1.459       4.765
molecular quadrupole (traceless):
                xx          xy          yy          xz          yz          zz
 q only:      -18.710       9.551     -12.981      -2.142      -1.193      31.691
  q+dip:        0.916      12.257      -1.207      -7.459      -3.267       0.290
   full:        5.049      12.399      -5.323      -4.480      -3.689       0.274

           -------------------------------------------------
          |                Geometry Summary                 |
           -------------------------------------------------

      molecular mass/u    :     1242.8405120
   center of mass at/Å    :       -0.0251036      -0.2113068       2.9215759
  moments of inertia/u·Å² :        0.1526734E+05   0.3561230E+05   0.4112299E+05
rotational constants/cm⁻¹ :        0.1104163E-02   0.4733655E-03   0.4099320E-03

 * 137 selected distances

     #   Z          #   Z                                           value/Å
     1   6 C        2   7 N                                       1.4499485
     2   7 N        3   6 C                                       1.4585163
     4   6 C        5   6 C                                       1.3894510
     5   6 C        6   6 C                                       1.3814538
     6   6 C        7   6 C                                       1.3933050
     8   6 C        9   6 C                                       1.4189715
     9   6 C       10   6 C                                       1.3818963
    10   6 C       11   7 N                                       1.3664589
     8   6 C       12   6 C                                       1.3905806
    11   7 N       12   6 C                                       1.3601410
    12   6 C       13   6 C                                       1.4893661
    14   6 C       15   7 N                                       1.4541419
    15   7 N       16   6 C                                       1.3670548
    16   6 C       17   8 O                                       1.2155097
    18   6 C       19   6 C                                       1.3864492
    19   6 C       20   6 C                                       1.3857779
    20   6 C       21   6 C                                       1.3838435
    21   6 C       22   6 C                                       1.3826733
    18   6 C       24   6 C                                       1.4135338
    22   6 C       24   6 C                                       1.3891604
     7   6 C       25   6 C                                       1.3946517
     4   6 C       26   6 C                                       1.3907365
    25   6 C       26   6 C                                       1.3800609
     1   6 C       27   1 H                                       1.0907833
     1   6 C       28   1 H                                       1.0989653
     1   6 C       29   1 H                                       1.0887812
     2   7 N       30   1 H                                       1.0168101
     3   6 C       31   1 H                                       1.0946367
     3   6 C       32   1 H                                       1.0937272
     5   6 C       33   1 H                                       1.0811755
     6   6 C       34   1 H                                       1.0800176
     9   6 C       35   1 H                                       1.0713960
    11   7 N       36   1 H                                       1.0077467 (min)
    13   6 C       37   1 H                                       1.0907743
    13   6 C       38   1 H                                       1.0872715
    14   6 C       39   1 H                                       1.0902488
    14   6 C       40   1 H                                       1.0904941
    15   7 N       41   1 H                                       1.0103336
    19   6 C       42   1 H                                       1.0794280
    20   6 C       43   1 H                                       1.0787603
    21   6 C       44   1 H                                       1.0785509
    25   6 C       45   1 H                                       1.0801058
    26   6 C       46   1 H                                       1.0819726
    54   7 N       55   5 B                                       1.4428144
    57   5 B       58   7 N                                       1.4039485
    53   5 B       60   7 N                                       1.4723571
    56   7 N       61   5 B                                       1.4400254
    60   7 N       63   5 B                                       1.3872661
    62   7 N       65   5 B                                       1.4225694
    64   7 N       66   7 N                                       1.4230370
    54   7 N       67   5 B                                       1.4232307
    57   5 B       68   7 N                                       1.3942251
    53   5 B       69   5 B                                       1.5749531
    66   7 N       70   7 N                                       1.4203916
    68   7 N       71   5 B                                       1.4346348
    52   7 N       73   5 B                                       1.3893558
    69   5 B       74   7 N                                       1.4844898
    73   5 B       76   7 N                                       1.4717635
    50   7 N       77   5 B                                       1.4903633
    72   7 N       77   5 B                                       1.4135720
    74   7 N       79   5 B                                       1.4390222
    61   5 B       80   7 N                                       1.4567075
    67   5 B       81   5 B                                       1.6642272
    80   7 N       81   5 B                                       1.4082533
    69   5 B       82   7 N                                       1.4215500
    65   5 B       83   5 B                                       1.6423339
    51   5 B       84   7 N                                       1.4059564
    58   7 N       85   5 B                                       1.4484885
    62   7 N       85   5 B                                       1.4597082
    53   5 B       86   7 N                                       1.4265253
    71   5 B       86   7 N                                       1.4930302
    85   5 B       86   7 N                                       1.4582906
    51   5 B       87   5 B                                       1.5729995
    84   7 N       87   5 B                                       1.4133715
    63   5 B       88   7 N                                       1.4425991
    70   7 N       88   7 N                                       1.3922940
    76   7 N       89   5 B                                       1.4201573
    78   7 N       89   5 B                                       1.4794344
    81   5 B       89   5 B                                       1.6740425 (max)
    73   5 B       90   7 N                                       1.4505657
    84   7 N       90   7 N                                       1.3691662
    87   5 B       92   7 N                                       1.4096738
    47   5 B       93   5 B                                       1.6082004
    48   7 N       93   5 B                                       1.4240856
    72   7 N       93   5 B                                       1.4997010
    49   5 B       94   7 N                                       1.4099306
    83   5 B       94   7 N                                       1.4908738
    59   5 B       95   5 B                                       1.5157607
    83   5 B       95   5 B                                       1.6059766
    57   5 B       96   7 N                                       1.4294706
    55   5 B       97   5 B                                       1.6491746
    65   5 B       97   5 B                                       1.6619280
    91   5 B       98   7 N                                       1.4618724
    97   5 B       98   7 N                                       1.4028072
    47   5 B       99   5 B                                       1.6191919
    92   7 N       99   5 B                                       1.4428570
    56   7 N      100   7 N                                       1.3678216
    66   7 N      101   5 B                                       1.4396960
    75   5 B      102   7 N                                       1.4551586
    88   7 N      102   7 N                                       1.4368685
    76   7 N      103   5 B                                       1.4563239
    90   7 N      103   5 B                                       1.4633676
    91   5 B      104   7 N                                       1.4268246
    96   7 N      104   7 N                                       1.3895287
    48   7 N      105   5 B                                       1.4598957
    49   5 B      105   5 B                                       1.6124809
    72   7 N      105   5 B                                       1.4504392
    79   5 B      106   7 N                                       1.4499606
   101   5 B      106   7 N                                       1.4409641
    50   7 N      107   5 B                                       1.4575737
    61   5 B      107   5 B                                       1.6052906
    63   5 B      108   7 N                                       1.4617442
    71   5 B      108   7 N                                       1.3910747
   102   7 N      108   7 N                                       1.4202169
    50   7 N      109   5 B                                       1.4585198
    94   7 N      109   5 B                                       1.4561164
    75   5 B      110   7 N                                       1.3888499
    54   7 N      111   5 B                                       1.4967164
    59   5 B      111   5 B                                       1.6003712
   107   5 B      111   5 B                                       1.6241781
    56   7 N      112   7 N                                       1.4306492
    80   7 N      112   7 N                                       1.4182606
   103   5 B      112   7 N                                       1.3745091
    51   5 B      113   5 B                                       1.6421126
    64   7 N      113   5 B                                       1.4396842
    75   5 B      114   7 N                                       1.4424634
   113   5 B      114   7 N                                       1.4521042
    52   7 N      115   5 B                                       1.4250584
    78   7 N      115   5 B                                       1.4007072
   110   7 N      115   5 B                                       1.4170072
    47   5 B      116   7 N                                       1.4022152
    64   7 N      116   7 N                                       1.4092421
   101   5 B      116   7 N                                       1.4846059
    49   5 B      117   5 B                                       1.6505805
    82   7 N      117   5 B                                       1.4320672
    77   5 B      118   7 N                                       1.4510220
    99   5 B      118   7 N                                       1.4432493

 * 8 distinct bonds (by element types)

   Z      Z             #   av. dist./Å        max./Å        min./Å
   5 B    5 B          17     1.6190472     1.6740425     1.5157607
   1 H    6 C          17     1.0857111     1.0989653     1.0713960
   6 C    6 C          16     1.3969945     1.4893661     1.3800609
   1 H    7 N           3     1.0116301     1.0168101     1.0077467
   5 B    7 N          66     1.4391434     1.4997010     1.3745091
   6 C    7 N           6     1.4093769     1.4585163     1.3601410
   7 N    7 N          11     1.4070433     1.4368685     1.3678216
   6 C    8 O           1     1.2155097     1.2155097     1.2155097


optimized geometry written to: xtbopt.xyz


           -------------------------------------------------
          | TOTAL ENERGY             -222.932500310113 Eh   |
          | GRADIENT NORM               0.002761158101 Eh/α |
          | HOMO-LUMO GAP               0.679747706629 eV   |
           -------------------------------------------------

------------------------------------------------------------------------
 * finished run on 2026/08/31 at 22:23:33.910     
------------------------------------------------------------------------
 total:
 * wall-time:     0 d,  0 h,  0 min,  6.191 sec
 *  cpu-time:     0 d,  0 h,  0 min, 48.953 sec
 * ratio c/w:     7.907 speedup
 SCF:
 * wall-time:     0 d,  0 h,  0 min,  0.647 sec
 *  cpu-time:     0 d,  0 h,  0 min,  5.922 sec
 * ratio c/w:     9.153 speedup
 ANC optimizer:
 * wall-time:     0 d,  0 h,  0 min,  5.475 sec
 *  cpu-time:     0 d,  0 h,  0 min, 42.562 sec
 * ratio c/w:     7.774 speedup

normal termination of xtb
