      -----------------------------------------------------------      
     |                   =====================                   |     
     |                           x T B                           |     
     |                   =====================                   |     
     |                         S. Grimme                         |     
     |          Mulliken Center for Theoretical Chemistry        |     
     |                    University of Bonn                     |     
      -----------------------------------------------------------      

   * xtb version 6.7.1pre (5071a88) compiled by 'Marcel@Raven' on 2024-07-23

   xtb is free software: you can redistribute it and/or modify it under
   the terms of the GNU Lesser General Public License as published by
   the Free Software Foundation, either version 3 of the License, or
   (at your option) any later version.
   
   xtb is distributed in the hope that it will be useful,
   but WITHOUT ANY WARRANTY; without even the implied warranty of
   MERCHANTABILITY or FITNESS FOR A PARTICULAR PURPOSE.  See the
   GNU Lesser General Public License for more details.
   
   Cite this work as:
   * C. Bannwarth, E. Caldeweyher, S. Ehlert, A. Hansen, P. Pracht,
     J. Seibert, S. Spicher, S. Grimme, WIREs Comput. Mol. Sci., 2020, 11,
     e01493. DOI: 10.1002/wcms.1493
   
   for GFN2-xTB:
   * C. Bannwarth, S. Ehlert and S. Grimme., J. Chem. Theory Comput., 2019,
     15, 1652-1671. DOI: 10.1021/acs.jctc.8b01176
   for GFN1-xTB:
   * S. Grimme, C. Bannwarth, P. Shushkov, J. Chem. Theory Comput., 2017,
     13, 1989-2009. DOI: 10.1021/acs.jctc.7b00118
   for GFN0-xTB:
   * P. Pracht, E. Caldeweyher, S. Ehlert, S. Grimme, ChemRxiv, 2019, preprint.
     DOI: 10.26434/chemrxiv.8326202.v1
   for GFN-FF:
   * S. Spicher and S. Grimme, Angew. Chem. Int. Ed., 2020, 59, 15665-15673.
     DOI: 10.1002/anie.202004239
   
   for ALPB and GBSA implicit solvation:
   * S. Ehlert, M. Stahn, S. Spicher, S. Grimme, J. Chem. Theory Comput.,
     2021, 17, 4250-4261. DOI: 10.1021/acs.jctc.1c00471
   
   for ddCOSMO and CPCM-X implicit solvation:
   * M. Stahn, S. Ehlert, S. Grimme, J. Phys. Chem. A,
     2023, XX, XXXX-XXXX. DOI: 10.1021/acs.jpca.3c04382
   
   for DFT-D4:
   * E. Caldeweyher, C. Bannwarth and S. Grimme, J. Chem. Phys., 2017,
     147, 034112. DOI: 10.1063/1.4993215
   * E. Caldeweyher, S. Ehlert, A. Hansen, H. Neugebauer, S. Spicher,
     C. Bannwarth and S. Grimme, J. Chem. Phys., 2019, 150, 154122.
     DOI: 10.1063/1.5090222
   * E. Caldeweyher, J.-M. Mewes, S. Ehlert and S. Grimme, Phys. Chem. Chem. Phys.
     2020, 22, 8499-8512. DOI: 10.1039/D0CP00502A
   
   for sTDA-xTB:
   * S. Grimme and C. Bannwarth, J. Chem. Phys., 2016, 145, 054103.
     DOI: 10.1063/1.4959605
   
   in the mass-spec context:
   * V. Asgeirsson, C. Bauer and S. Grimme, Chem. Sci., 2017, 8, 4879.
     DOI: 10.1039/c7sc00601b
   * J. Koopman and S. Grimme, ACS Omega 2019, 4, 12, 15120-15133.
     DOI: 10.1021/acsomega.9b02011
   
   for metadynamics refer to:
   * S. Grimme, J. Chem. Theory Comput., 2019, 155, 2847-2862
     DOI: 10.1021/acs.jctc.9b00143
   
   for SPH calculations refer to:
   * S. Spicher and S. Grimme, J. Chem. Theory Comput., 2021, 17, 1701-1714
     DOI: 10.1021/acs.jctc.0c01306
   
   for ONIOM refer to:
   * C. Plett, A. Katbashev, S. Ehlert, S. Grimme, M. Bursch,
     Phys. Chem. Chem. Phys., 2023, 25, 17860-17868. DOI: 10.1039/D3CP02178E
   
   for DIPRO refer to:
   * J. Kohn, N. Gildemeister, S. Grimme, D. Fazzi, A. Hansen,
     J. Chem. Phys., 2023, just accepted.
   
   for PTB refer to:
   * S. Grimme, M. Mueller, A. Hansen, J. Chem. Phys., 2023, 158, 124111.
     DOI: 10.1063/5.0137838
   
   with help from (in alphabetical order)
   P. Atkinson, C. Bannwarth, F. Bohle, G. Brandenburg, E. Caldeweyher
   M. Checinski, S. Dohm, S. Ehlert, S. Ehrlich, I. Gerasimov, C. Hölzer
   A. Katbashev, J. Kohn, J. Koopman, C. Lavigne, S. Lehtola, F. März, M. Müller,
   F. Musil, H. Neugebauer, J. Pisarek, C. Plett, P. Pracht, F. Pultar,
   J. Seibert, P. Shushkov, S. Spicher, M. Stahn, M. Steiner, T. Strunk,
   J. Stückrath, T. Rose, and J. Unsleber
   
 * started run on 2026/08/31 at 18:25:21.270     
   ID    Z sym.   atoms
    1    6 C      1, 3-10, 12-14, 16, 18-22, 24-26
    2    7 N      2, 11, 15, 83-118
    3    8 O      17
    4    9 F      23
    5    1 H      27-46
    6    5 B      47-82

           -------------------------------------------------
          |                Calculation Setup                |
           -------------------------------------------------

          program call               : "c:\Users\Andre\Proyectos doctorado\kras-pancreatic-gC3N4-ai\tools\xtb\xtb-6.7.1\bin\xtb.exe" "c:\Users\Andre\Proyectos doctorado\nano-qsar-ai-therapeutics\calculations\tnbc\Rucaparib\Rucaparib_B36N36_complex.xyz" --gfn 2 --sp --chrg 0 --uhf 0 --iterations 500 --norestart
          coordinate file            : c:\Users\Andre\Proyectos doctorado\nano-qsar-ai-therapeutics\calculations\tnbc\Rucaparib\Rucaparib_B36N36_complex.xyz
          omp threads                :                    16


molecular fragmentation (1/2 indicates fragments):
111111111111111111111111111111111111111111111111111111111111221212111111
1111111111111111111111112212121121111111111111
# atoms in fragment 1/2:   109     9
 fragment masses (1/2) :     1129.56      113.28
CMA distance (Bohr)    :   6.007
constraining FC (au)   :  0.0500

           -------------------------------------------------
          |                 G F N 2 - x T B                 |
           -------------------------------------------------

        Reference                      10.1021/acs.jctc.8b01176
      * Hamiltonian:
        H0-scaling (s, p, d)           1.850000    2.230000    2.230000
        zeta-weighting                 0.500000
      * Dispersion:
        s8                             2.700000
        a1                             0.520000
        a2                             5.000000
        s9                             5.000000
      * Repulsion:
        kExp                           1.500000    1.000000
        rExp                           1.000000
      * Coulomb:
        alpha                          2.000000
        third order                    shell-resolved
        anisotropic                    true
        a3                             3.000000
        a5                             4.000000
        cn-shift                       1.200000
        cn-exp                         4.000000
        max-rad                        5.000000


          ...................................................
          :                      SETUP                      :
          :.................................................:
          :  # basis functions                 412          :
          :  # atomic orbitals                 412          :
          :  # shells                          216          :
          :  # electrons                       420          :
          :  max. iterations                   500          :
          :  Hamiltonian                  GFN2-xTB          :
          :  restarted?                      false          :
          :  GBSA solvation                  false          :
          :  PC potential                    false          :
          :  electronic temp.          300.0000000     K    :
          :  accuracy                    1.0000000          :
          :  -> integral cutoff          0.2500000E+02      :
          :  -> integral neglect         0.1000000E-07      :
          :  -> SCF convergence          0.1000000E-05 Eh   :
          :  -> wf. convergence          0.1000000E-03 e    :
          :  Broyden damping             0.4000000          :
          :  net charge                          0          :
          :  unpaired electrons                  0          :
          ...................................................

 iter      E             dE          RMSdq      gap      omega  full diag
   1   -208.7325753 -0.208733E+03  0.145E+01    0.40       0.0  T
   2   -204.4470415  0.428553E+01  0.118E+01    0.23       1.0  T
   3   -158.2848067  0.461622E+02  0.966E+00    0.29       1.0  T
   4    138.8970632  0.297182E+03  0.157E+01    0.09       1.0  T
   5   -187.1590017 -0.326056E+03  0.718E+00    0.06       1.0  T
   6   -212.2206930 -0.250617E+02  0.479E+00    0.10       1.0  T
   7   -215.2880028 -0.306731E+01  0.378E+00    0.10       1.0  T
   8   -218.4344665 -0.314646E+01  0.278E+00    0.33       1.0  T
   9   -219.8821397 -0.144767E+01  0.238E+00    0.11       1.0  T
  10   -220.4526945 -0.570555E+00  0.205E+00    0.20       1.0  T
  11   -220.6129278 -0.160233E+00  0.174E+00    0.36       1.0  T
  12   -221.0161407 -0.403213E+00  0.141E+00    0.04       1.0  T
  13   -221.0399224 -0.237817E-01  0.104E+00    0.12       1.0  T
  14   -221.0352021  0.472027E-02  0.983E-01    0.24       1.0  T
  15   -221.0873456 -0.521435E-01  0.684E-01    0.14       1.0  T
  16   -221.0912039 -0.385825E-02  0.605E-01    0.13       1.0  T
  17   -221.1654105 -0.742066E-01  0.252E-01    0.04       1.0  T
  18   -221.1702455 -0.483500E-02  0.224E-01    0.05       1.0  T
  19   -221.1807030 -0.104575E-01  0.135E-01    0.03       1.0  T
  20   -221.1904015 -0.969845E-02  0.119E-01    0.04       1.0  T
  21   -221.1904949 -0.934690E-04  0.840E-02    0.03       1.0  T
  22   -221.1866142  0.388070E-02  0.136E-01    0.04       1.0  T
  23   -221.1900823 -0.346807E-02  0.477E-02    0.04       1.0  T
  24   -221.1915414 -0.145906E-02  0.542E-02    0.02       1.0  T
  25   -221.1919007 -0.359333E-03  0.318E-02    0.03       1.0  T
  26   -221.1920035 -0.102834E-03  0.186E-02    0.03       1.0  T
  27   -221.1920178 -0.142237E-04  0.111E-02    0.03       1.0  T
  28   -221.1920290 -0.112318E-04  0.657E-03    0.03       1.4  T
  29   -221.1920276  0.138381E-05  0.511E-03    0.03       1.8  T
  30   -221.1920364 -0.881530E-05  0.229E-03    0.03       4.0  T
  31   -221.1920368 -0.350065E-06  0.197E-03    0.03       4.7  T
  32   -221.1920373 -0.515450E-06  0.147E-03    0.03       6.2  T
  33   -221.1920381 -0.785393E-06  0.248E-04    0.03      37.1  T
  34   -221.1920381  0.434372E-08  0.240E-04    0.03      38.4  T

   *** convergence criteria satisfied after 34 iterations ***

         #    Occupation            Energy/Eh            Energy/eV
      -------------------------------------------------------------
         1        2.0000           -1.4016764             -38.1416
       ...           ...                  ...                  ...
       204        2.0000           -0.1781622              -4.8480
       205        2.0000           -0.1641120              -4.4657
       206        2.0000           -0.1556868              -4.2365
       207        1.9994           -0.1441954              -3.9238
       208        1.9696           -0.1403693              -3.8196
       209        1.8815           -0.1390335              -3.7833
       210        1.3448           -0.1370899              -3.7304 (HOMO)
       211        0.8047           -0.1360309              -3.7016 (LUMO)
       212        0.0000           -0.1215102              -3.3065
       213                         -0.1038558              -2.8261
       214                         -0.0960224              -2.6129
       215                         -0.0882497              -2.4014
       ...                                ...                  ...
       412                         87.3039800            2375.6622
      -------------------------------------------------------------
                  HL-Gap            0.0010590 Eh            0.0288 eV
             Fermi-level           -0.1364068 Eh           -3.7118 eV

 SCC (total)                   0 d,  0 h,  0 min,  0.944 sec
 SCC setup                      ...        0 min,  0.002 sec (  0.212%)
 Dispersion                     ...        0 min,  0.004 sec (  0.424%)
 classical contributions        ...        0 min,  0.000 sec (  0.000%)
 integral evaluation            ...        0 min,  0.018 sec (  1.907%)
 iterations                     ...        0 min,  0.879 sec ( 93.114%)
 molecular gradient             ...        0 min,  0.038 sec (  4.025%)
 printout                       ...        0 min,  0.003 sec (  0.318%)

         :::::::::::::::::::::::::::::::::::::::::::::::::::::
         ::                     SUMMARY                     ::
         :::::::::::::::::::::::::::::::::::::::::::::::::::::
         :: total energy              46.688895904249 Eh    ::
         :: gradient norm            264.071876757709 Eh/a0 ::
         :: HOMO-LUMO gap              0.028815670329 eV    ::
         ::.................................................::
         :: SCC energy              -221.155331935516 Eh    ::
         :: -> isotropic ES            1.671292781096 Eh    ::
         :: -> anisotropic ES          0.185446559537 Eh    ::
         :: -> anisotropic XC          0.280484443731 Eh    ::
         :: -> dispersion             -0.347848042453 Eh    ::
         :: repulsion energy         267.844227839764 Eh    ::
         :: add. restraining           0.000000000000 Eh    ::
         :: total charge              -0.000000000000 e     ::
         :::::::::::::::::::::::::::::::::::::::::::::::::::::

           -------------------------------------------------
          |                Property Printout                |
           -------------------------------------------------

    * Orbital Energies and Occupations

         #    Occupation            Energy/Eh            Energy/eV
      -------------------------------------------------------------
         1        2.0000           -1.4016764             -38.1416
       ...           ...                  ...                  ...
       198        2.0000           -0.2181960              -5.9374
       199        2.0000           -0.2132978              -5.8041
       200        2.0000           -0.2091383              -5.6909
       201        2.0000           -0.2038018              -5.5457
       202        2.0000           -0.1898773              -5.1668
       203        2.0000           -0.1842139              -5.0127
       204        2.0000           -0.1781622              -4.8480
       205        2.0000           -0.1641120              -4.4657
       206        2.0000           -0.1556868              -4.2365
       207        1.9994           -0.1441954              -3.9238
       208        1.9696           -0.1403693              -3.8196
       209        1.8815           -0.1390335              -3.7833
       210        1.3448           -0.1370899              -3.7304 (HOMO)
       211        0.8047           -0.1360309              -3.7016 (LUMO)
       212        0.0000           -0.1215102              -3.3065
       213                         -0.1038558              -2.8261
       214                         -0.0960224              -2.6129
       215                         -0.0882497              -2.4014
       216                         -0.0801950              -2.1822
       217                         -0.0767016              -2.0872
       218                         -0.0703609              -1.9146
       219                         -0.0683978              -1.8612
       220                         -0.0608239              -1.6551
       221                         -0.0576493              -1.5687
       ...                                ...                  ...
       412                         87.3039800            2375.6622
      -------------------------------------------------------------
                  HL-Gap            0.0010590 Eh            0.0288 eV
             Fermi-level           -0.1364068 Eh           -3.7118 eV

     #   Z          covCN         q      C6AA      α(0)
     1   6 C        4.054    -0.131    22.923     6.801
     2   7 N        2.675    -0.326    28.391     7.914
     3   6 C        4.172    -0.028    20.982     6.506
     4   6 C        6.784    -0.322    27.120     7.396
     5   6 C        7.658     0.033    19.927     6.340
     6   6 C        3.518    -0.267    27.648     7.758
     7   6 C        2.966    -0.151    31.880     9.261
     8   6 C        3.103    -0.069    29.573     8.911
     9   6 C        3.145    -0.263    34.846     9.658
    10   6 C        5.879    -0.121    22.726     6.770
    11   7 N        4.914    -0.363    29.343     8.045
    12   6 C        3.263    -0.186    31.446     9.055
    13   6 C        5.488    -0.399    29.055     7.655
    14   6 C        6.177    -0.242    25.247     7.136
    15   7 N        6.469    -0.209    25.541     7.506
    16   6 C        7.394     0.309    15.920     5.667
    17   8 O        4.085     0.921     6.644     3.481
    18   6 C        8.023    -0.345    27.682     7.472
    19   6 C        4.682    -0.093    22.179     6.688
    20   6 C        3.183    -0.282    35.200     9.683
    21   6 C        5.090    -0.392    28.885     7.633
    22   6 C        7.398     0.426    14.526     5.413
    23   9 F        2.362    -0.466    14.377     4.481
    24   6 C        8.465    -0.091    22.132     6.681
    25   6 C        5.428    -0.223    24.820     7.075
    26   6 C        8.079     0.240    16.816     5.824
    27   1 H        0.924    -0.023     3.485     2.919
    28   1 H        1.838     0.206     1.062     1.609
    29   1 H        0.924    -0.022     3.479     2.917
    30   1 H        0.860     0.098     1.819     2.113
    31   1 H        0.926     0.002     3.019     2.717
    32   1 H        1.089     0.062     2.162     2.296
    33   1 H        4.451     0.635     0.212     0.719
    34   1 H        0.926     0.057     2.232     2.336
    35   1 H        0.925     0.020     2.726     2.582
    36   1 H        3.613     0.528     0.299     0.853
    37   1 H        2.682     0.342     0.593     1.202
    38   1 H        1.890     0.210     1.042     1.593
    39   1 H        2.603     0.324     0.636     1.245
    40   1 H        1.875     0.152     1.371     1.828
    41   1 H        1.071     0.191     1.140     1.667
    42   1 H        0.925    -0.190    10.049     4.957
    43   1 H        0.925    -0.085     5.079     3.524
    44   1 H        0.925    -0.044     3.949     3.108
    45   1 H        1.376     0.169     1.261     1.753
    46   1 H        4.195     0.504     0.325     0.890
    47   5 B        5.102     0.074    21.406     7.455
    48   5 B        6.376     0.177    19.733     7.158
    49   5 B        5.102     0.086    21.213     7.421
    50   5 B        6.475     0.095    21.063     7.395
    51   5 B        7.668     0.046    21.901     7.540
    52   5 B        8.041     0.212    19.189     7.058
    53   5 B        5.935     0.120    20.631     7.319
    54   5 B        5.333     0.166    19.907     7.189
    55   5 B        7.481     0.159    20.005     7.207
    56   5 B        7.556     0.248    18.667     6.961
    57   5 B        7.986     0.452    16.010     6.447
    58   5 B        7.625     0.364    17.086     6.660
    59   5 B        1.850     0.116    40.525    13.408
    60   5 B        2.015     0.163    38.315    12.992
    61   5 B        1.850     0.136    39.877    13.300
    62   5 B        1.850     0.119    40.405    13.388
    63   5 B        1.850     0.063    42.278    13.695
    64   5 B        1.850     0.137    39.837    13.294
    65   5 B        3.603     0.166    19.280     7.198
    66   5 B        1.850     0.124    40.271    13.366
    67   5 B        1.873     0.089    41.344    13.540
    68   5 B        1.850     0.083    41.612    13.587
    69   5 B        2.669     0.118    19.779     7.480
    70   5 B        3.742     0.160    19.914     7.206
    71   5 B        4.397     0.284    18.154     6.865
    72   5 B        4.397     0.263    18.450     6.921
    73   5 B        4.397     0.267    18.391     6.910
    74   5 B        7.244     0.365    17.082     6.659
    75   5 B        6.784     0.162    19.961     7.199
    76   5 B        5.734     0.260    18.490     6.928
    77   5 B        5.214     0.254    18.576     6.944
    78   5 B        6.989     0.316    17.724     6.783
    79   5 B        6.157     0.032    22.147     7.583
    80   5 B        7.212    -0.998    58.276    12.300
    81   5 B        8.114     0.289    18.087     6.852
    82   5 B        6.689     0.379    16.898     6.623
    83   7 N        4.372    -0.051    22.217     7.001
    84   7 N        4.514    -0.232    26.059     7.582
    85   7 N        4.372    -0.030    21.810     6.936
    86   7 N        4.395    -0.081    22.804     7.092
    87   7 N        6.306     0.079    19.858     6.619
    88   7 N        6.618     0.004    21.177     6.835
    89   7 N        5.051    -0.124    23.693     7.229
    90   7 N        4.447    -0.153    24.301     7.322
    91   7 N        8.049    -0.188    25.064     7.436
    92   7 N        6.066    -0.623    37.358     9.078
    93   7 N        7.592    -0.325    28.332     7.906
    94   7 N        6.450    -0.512    33.652     8.616
    95   7 N        0.932    -0.165    24.452     7.140
    96   7 N        0.932    -0.225    25.796     7.334
    97   7 N        0.932    -0.157    24.282     7.115
    98   7 N        0.932    -0.120    23.500     7.000
    99   7 N        0.932    -0.143    23.996     7.073
   100   7 N        0.932    -0.162    24.392     7.132
   101   7 N        1.038    -0.318    27.426     7.503
   102   7 N        0.932    -0.164    24.431     7.137
   103   7 N        0.932    -0.182    24.833     7.196
   104   7 N        0.932    -0.147    24.069     7.084
   105   7 N        0.932    -0.238    26.109     7.378
   106   7 N        1.805    -0.266    27.760     7.805
   107   7 N        3.977    -0.351    29.008     7.999
   108   7 N        3.977    -0.387    29.995     8.134
   109   7 N        3.977    -0.388    30.011     8.136
   110   7 N        4.278    -0.560    35.217     8.814
   111   7 N        6.416    -0.388    30.030     8.139
   112   7 N        4.939    -0.449    31.744     8.368
   113   7 N        5.345    -0.298    27.659     7.811
   114   7 N        5.701    -0.333    28.546     7.935
   115   7 N        5.891    -0.074    22.669     7.072
   116   7 N        6.068     1.799     5.437     3.463
   117   7 N        7.576     0.909    10.206     4.745
   118   7 N        4.223    -0.608    36.823     9.013

 Mol. C6AA /au·bohr⁶  :     261634.449976
 Mol. C8AA /au·bohr⁸  :    7420618.997170
 Mol. α(0) /au        :        812.649174


Wiberg/Mayer (AO) data.
largest (>0.10) Wiberg bond orders for each atom

 ---------------------------------------------------------------------------
     #   Z sym  total        # sym  WBO       # sym  WBO       # sym  WBO
 ---------------------------------------------------------------------------
     1   6 C    3.892 --     2 N    1.016    27 H    0.982    29 H    0.972
                            28 H    0.620    77 B    0.166
     2   7 N    3.036 --     1 C    1.016     3 C    0.964    30 H    0.947
     3   6 C    3.933 --     4 C    0.992     2 N    0.964    31 H    0.923
                            32 H    0.861
     4   6 C    3.498 --    26 C    1.013     3 C    0.992     5 C    0.980
     5   6 C    3.700 --     4 C    0.980     6 C    0.967    75 B    0.530
                            87 N    0.456    51 B    0.424
     6   6 C    3.701 --     7 C    1.160     5 C    0.967    34 H    0.910
                            87 N    0.125    51 B    0.114
     7   6 C    3.768 --     6 C    1.160     8 C    1.152    25 C    1.071
     8   6 C    3.944 --     9 C    1.289    12 C    1.241     7 C    1.152
     9   6 C    3.745 --     8 C    1.289    10 C    1.051    35 H    0.911
    10   6 C    3.785 --     9 C    1.051    11 N    0.888    24 C    0.768
                            58 B    0.526
    11   7 N    3.252 --    12 C    0.898    10 C    0.888    36 H    0.413
                            82 B    0.379    56 B    0.213    92 N    0.143
    12   6 C    3.599 --     8 C    1.241    13 C    0.986    11 N    0.898
    13   6 C    3.851 --    12 C    0.986    14 C    0.870    38 H    0.768
                            37 H    0.571   106 N    0.196    70 B    0.124
                           101 N    0.109
    14   6 C    3.878 --    13 C    0.870    15 N    0.816    40 H    0.724
                            39 H    0.669    74 B    0.336   110 N    0.123
    15   7 N    3.544 --    14 C    0.816    57 B    0.804    41 H    0.697
                            16 C    0.383    48 B    0.226    93 N    0.150
    16   6 C    3.716 --    80 B    1.100    93 N    0.892    18 C    0.578
                            15 N    0.383    57 B    0.225   116 N    0.217
    17   8 O    3.668 --   116 N    3.557
    18   6 C    3.735 --    24 C    1.093    19 C    0.840    16 C    0.578
                           115 N    0.342    80 B    0.192    79 B    0.132
    19   6 C    3.847 --    20 C    1.139    42 H    0.909    18 C    0.840
                           115 N    0.596
    20   6 C    3.462 --    19 C    1.139    21 C    1.096    43 H    0.954
    21   6 C    3.070 --    20 C    1.096    44 H    0.944    81 B    0.230
                            22 C    0.196    24 C    0.160
    22   6 C    3.936 --   117 N    3.186    81 B    0.358    21 C    0.196
    23   9 F    0.871 --    81 B    0.550
    24   6 C    3.649 --    18 C    1.093    10 C    0.768    81 B    0.730
                            21 C    0.160   117 N    0.119    91 N    0.104
                            55 B    0.100
    25   6 C    3.780 --     7 C    1.071    45 H    0.770    26 C    0.703
                            52 B    0.364    78 B    0.299   114 N    0.124
                           105 N    0.103    88 N    0.102
    26   6 C    3.786 --     4 C    1.013    88 N    0.776    25 C    0.703
                            52 B    0.435   114 N    0.413    78 B    0.299
    27   1 H    0.999 --     1 C    0.982
    28   1 H    0.958 --     1 C    0.620   113 N    0.299
    29   1 H    0.994 --     1 C    0.972
    30   1 H    0.989 --     2 N    0.947
    31   1 H    0.998 --     3 C    0.923
    32   1 H    0.995 --     3 C    0.861
    33   1 H    0.596 --    87 N    0.236    51 B    0.180
    34   1 H    0.995 --     6 C    0.910
    35   1 H    0.998 --     9 C    0.911
    36   1 H    0.720 --    11 N    0.413    56 B    0.171
    37   1 H    0.882 --    13 C    0.571    70 B    0.223
    38   1 H    0.951 --    13 C    0.768    65 B    0.151
    39   1 H    0.893 --    14 C    0.669
    40   1 H    0.976 --    14 C    0.724    74 B    0.201
    41   1 H    0.960 --    15 N    0.697
    42   1 H    0.961 --    19 C    0.909
    43   1 H    0.990 --    20 C    0.954
    44   1 H    0.987 --    21 C    0.944
    45   1 H    0.967 --    25 C    0.770
    46   1 H    0.742 --    88 N    0.543    52 B    0.105
    47   5 B    3.621 --    83 N    3.004    53 B    0.200    71 B    0.160
                            73 B    0.154
    48   5 B    3.573 --    84 N    3.119    15 N    0.226
    49   5 B    3.593 --    85 N    3.093    63 B    0.170    71 B    0.149
                            72 B    0.146
    50   5 B    3.637 --    86 N    3.190    65 B    0.128    73 B    0.120
    51   5 B    3.625 --    87 N    2.491     5 C    0.424    33 H    0.180
                            67 B    0.161     6 C    0.114    77 B    0.100
    52   5 B    3.448 --    88 N    1.957    26 C    0.435    25 C    0.364
                            69 B    0.185    76 B    0.132    46 H    0.105
    53   5 B    3.658 --    89 N    3.106    47 B    0.200    76 B    0.133
                            75 B    0.106
    54   5 B    3.631 --    90 N    3.132    59 B    0.146    78 B    0.131
                            77 B    0.124
    55   5 B    3.576 --    91 N    2.828    68 B    0.164    79 B    0.145
                            81 B    0.116    24 C    0.100
    56   5 B    3.570 --    92 N    2.668    80 B    0.290    11 N    0.213
                            36 H    0.171    70 B    0.103
    57   5 B    3.153 --    93 N    1.800    15 N    0.804    16 C    0.225
                            79 B    0.141
    58   5 B    3.445 --    94 N    2.552    10 C    0.526    60 B    0.104
    59   5 B    3.651 --    95 N    3.466    54 B    0.146
    60   5 B    3.629 --    96 N    3.433    58 B    0.104
    61   5 B    3.644 --    97 N    3.490    64 B    0.114
    62   5 B    3.655 --    98 N    3.524    66 B    0.122
    63   5 B    3.676 --    99 N    3.461    49 B    0.170
    64   5 B    3.644 --   100 N    3.496    61 B    0.114
    65   5 B    3.621 --   101 N    3.219    38 H    0.151    50 B    0.128
    66   5 B    3.652 --   102 N    3.485    62 B    0.122
    67   5 B    3.668 --   103 N    3.380    51 B    0.161
    68   5 B    3.674 --   104 N    3.445    55 B    0.164
    69   5 B    3.650 --   105 N    3.280    52 B    0.185
    70   5 B    3.620 --   106 N    3.087    37 H    0.223    13 C    0.124
                            56 B    0.103
    71   5 B    3.451 --   107 N    2.879    47 B    0.160    49 B    0.149
    72   5 B    3.451 --   108 N    3.005    49 B    0.146
    73   5 B    3.431 --   109 N    2.940    47 B    0.154    50 B    0.120
    74   5 B    3.437 --   110 N    2.644    14 C    0.336    40 H    0.201
    75   5 B    3.471 --   111 N    2.566     5 C    0.530    53 B    0.106
    76   5 B    3.412 --   112 N    2.930    53 B    0.133    52 B    0.132
    77   5 B    3.450 --   113 N    2.835     1 C    0.166    54 B    0.124
                            51 B    0.100
    78   5 B    3.391 --   114 N    2.446    26 C    0.299    25 C    0.299
                            54 B    0.131
    79   5 B    3.086 --   115 N    2.254    55 B    0.145    57 B    0.141
                            18 C    0.132
    80   5 B    1.915 --    16 C    1.100    56 B    0.290    18 C    0.192
    81   5 B    2.927 --    24 C    0.730    23 F    0.550   117 N    0.384
                            22 C    0.358    21 C    0.230    94 N    0.136
                            55 B    0.116
    82   5 B    3.407 --   118 N    2.842    11 N    0.379
    83   7 N    3.584 --    47 B    3.004   107 N    0.143   109 N    0.127
    84   7 N    3.466 --    48 B    3.119
    85   7 N    3.595 --    49 B    3.093   107 N    0.151   108 N    0.118
    86   7 N    3.622 --    50 B    3.190
    87   7 N    3.610 --    51 B    2.491     5 C    0.456    33 H    0.236
                             6 C    0.125
    88   7 N    3.526 --    52 B    1.957    26 C    0.776    46 H    0.543
                            25 C    0.102
    89   7 N    3.619 --    53 B    3.106
    90   7 N    3.609 --    54 B    3.132
    91   7 N    3.586 --    55 B    2.828    24 C    0.104
    92   7 N    3.147 --    56 B    2.668    11 N    0.143
    93   7 N    3.125 --    57 B    1.800    16 C    0.892    15 N    0.150
    94   7 N    3.175 --    58 B    2.552    81 B    0.136
    95   7 N    3.598 --    59 B    3.466
    96   7 N    3.574 --    60 B    3.433
    97   7 N    3.625 --    61 B    3.490
    98   7 N    3.648 --    62 B    3.524   102 N    0.107
    99   7 N    3.601 --    63 B    3.461
   100   7 N    3.620 --    64 B    3.496
   101   7 N    3.465 --    65 B    3.219    13 C    0.109
   102   7 N    3.618 --    66 B    3.485    98 N    0.107
   103   7 N    3.579 --    67 B    3.380
   104   7 N    3.609 --    68 B    3.445
   105   7 N    3.513 --    69 B    3.280    25 C    0.103
   106   7 N    3.486 --    70 B    3.087    13 C    0.196
   107   7 N    3.340 --    71 B    2.879    85 N    0.151    83 N    0.143
   108   7 N    3.289 --    72 B    3.005    85 N    0.118
   109   7 N    3.311 --    73 B    2.940    83 N    0.127
   110   7 N    3.056 --    74 B    2.644    14 C    0.123
   111   7 N    3.204 --    75 B    2.566
   112   7 N    3.323 --    76 B    2.930
   113   7 N    3.495 --    77 B    2.835    28 H    0.299
   114   7 N    3.302 --    78 B    2.446    26 C    0.413    25 C    0.124
   115   7 N    3.536 --    79 B    2.254    19 C    0.596    18 C    0.342
   116   7 N    3.826 --    17 O    3.557    16 C    0.217
   117   7 N    3.936 --    22 C    3.186    81 B    0.384    24 C    0.119
   118   7 N    3.111 --    82 B    2.842
 ---------------------------------------------------------------------------

Topologies differ in total number of bonds
Writing topology from bond orders to xtbtopo.mol

molecular dipole:
                 x           y           z       tot (Debye)
 q only:       -3.590      -6.643       2.077
   full:       -6.651      -6.482       1.529      23.924
molecular quadrupole (traceless):
                xx          xy          yy          xz          yz          zz
 q only:        9.354      80.114      27.169     -63.238     -15.981     -36.523
  q+dip:      107.191      87.270     -29.794     -77.201     -24.401     -77.397
   full:       96.103      86.955     -17.608     -75.343     -26.496     -78.496


           -------------------------------------------------
          | TOTAL ENERGY               46.688895904249 Eh   |
          | GRADIENT NORM             264.071876757709 Eh/α |
          | HOMO-LUMO GAP               0.028815670329 eV   |
           -------------------------------------------------

------------------------------------------------------------------------
 * finished run on 2026/08/31 at 18:25:22.302     
------------------------------------------------------------------------
 total:
 * wall-time:     0 d,  0 h,  0 min,  1.031 sec
 *  cpu-time:     0 d,  0 h,  0 min, 11.594 sec
 * ratio c/w:    11.245 speedup
 SCF:
 * wall-time:     0 d,  0 h,  0 min,  0.946 sec
 *  cpu-time:     0 d,  0 h,  0 min, 10.984 sec
 * ratio c/w:    11.611 speedup

normal termination of xtb
