118
Drug@B36N36 non-overlapping relaxed complex
C      6.205260      1.436161      7.335566
N      6.312273      0.148540      8.006769
C      5.442047      0.049965      9.179422
C      3.978343     -0.099670      8.835621
C      3.098234      0.982597      8.968792
C      1.746603      0.846152      8.636869
C      1.250953     -0.375772      8.169340
C     -0.152695     -0.527720      7.818759
C     -1.061845      0.457668      7.288959
C     -2.340740     -0.018224      7.535345
N     -2.177267     -1.383646      7.677797
C     -0.978728     -1.506905      8.353954
C     -0.930585     -2.388326      9.563916
C     -1.474027     -1.643573     10.824754
N     -2.393972     -0.535043     10.542060
C     -3.671479     -0.758320     10.062722
O     -4.312477     -1.785068     10.247006
C     -4.220340      0.301162      9.160460
C     -5.423065      0.910311      9.537826
C     -5.977129      1.905993      8.732412
C     -5.335410      2.284928      7.551741
C     -4.148828      1.660406      7.165096
F     -3.569608      2.048105      6.018637
C     -3.579512      0.649516      7.940521
C      2.129587     -1.456225      8.028755
C      3.480826     -1.320556      8.359345
H      6.434893      2.261146      8.017689
H      5.213582      1.594175      6.900953
H      6.932418      1.477202      6.518410
H      6.072258     -0.593009      7.350619
H      5.746646     -0.830287      9.759455
H      5.599123      0.903230      9.851383
H      3.461349      1.942846      9.328594
H      1.087989      1.702492      8.755218
H     -0.804559      1.479543      7.038732
H     -2.957354     -2.005104      7.851100
H     -1.554064     -3.273943      9.385404
H      0.080906     -2.757923      9.759819
H     -0.631868     -1.200835     11.368390
H     -1.968315     -2.357632     11.492287
H     -1.934691      0.302052     10.201975
H     -5.922301      0.610156     10.456989
H     -6.908556      2.386216      9.023980
H     -5.757129      3.061671      6.919987
H      1.768599     -2.410270      7.651096
H      4.144658     -2.174199      8.241050
B      3.459180     -1.454569      1.628037
N      3.456400      1.129904      0.940040
B      2.539920      2.362499     -1.261047
N      2.293067     -0.641637     -2.730603
B      0.690534     -3.561069      2.702709
N     -2.939724     -2.654773      1.709476
B     -1.038202      4.085096      1.831238
N     -0.619347      0.017651     -3.941904
B     -0.473710      1.445324     -4.091730
N      1.209559     -3.786796     -1.739405
B     -3.844500      2.209440     -0.493722
N     -2.772864      2.763562     -1.211833
B      1.405725      0.818091     -4.889311
N     -0.235789      3.364215      2.833544
B      0.898320     -2.879798     -2.813849
N     -0.491833      3.766578     -1.010119
B     -0.805996      2.182269      3.281874
N      1.656110     -1.274433      3.503622
B     -0.248484      3.469937     -2.379863
N      1.308703      0.068898      3.816981
B     -1.597441     -0.559934     -3.084689
N     -3.832496      1.776842      0.831624
B      0.337602      4.495994      1.183894
N      0.043256     -0.013955      4.456653
B     -2.708837      2.226751      1.601242
N      3.772728     -0.132624     -0.765541
B     -2.253381     -3.639412      1.008482
N      1.055818      3.733398      2.235734
B     -1.825620     -0.777460      3.219840
N     -2.436768     -3.601880     -0.450773
B      3.018658     -1.073670     -1.502768
N     -3.157960     -1.252592     -0.384321
B      2.034656      2.922326      1.561722
N     -0.507447     -2.900148     -2.432795
B     -1.673548     -2.112882     -2.491621
N      0.590135      3.964583     -0.110225
B      1.090314      2.959649     -3.182489
N      0.077350     -4.359230      1.721289
B     -1.784034      3.452384     -0.408220
N     -2.013520      3.418515      1.031553
B      1.465878     -4.212148      1.499138
N     -0.797987      1.064153      4.194581
B     -2.666242     -2.402096     -1.175256
N     -1.074388     -4.484335      0.991235
B     -2.503710      0.491370     -2.109143
N      2.352728     -3.887335      0.453103
B      3.912327     -0.202357      0.725926
N      1.928548      1.957009     -2.465077
B      1.001184      2.254351     -4.622507
N     -4.186016      0.829005     -0.347538
B     -1.338881      2.453658     -3.114870
N     -2.359649      1.932605     -2.305841
B      3.073063     -2.645483      0.601111
N      2.335213     -3.673670     -0.970876
B      2.217863      0.545803      2.808407
N     -2.026423      0.611912      3.601492
B     -1.101749     -4.183787     -0.441007
N     -3.218144      0.041654     -0.958566
B      3.447752      1.258593     -0.514065
N      2.582085      1.632977      1.936454
B      1.472054     -1.555001     -3.515610
N     -2.102601      1.754194      2.760799
B      2.040765      0.711921     -3.211483
N     -2.720915     -1.341699      2.320567
B      0.658648     -0.538875     -4.486937
N     -0.168664     -3.759421     -1.356472
B      0.485560     -2.105634      3.433764
N     -0.587253     -1.205033      3.824488
B     -3.224373     -1.451411      1.000320
N      2.671324     -0.855529      2.621135
B      1.878557      3.339348     -0.106427
N      2.876911     -2.331783     -0.793563
