      -----------------------------------------------------------      
     |                   =====================                   |     
     |                           x T B                           |     
     |                   =====================                   |     
     |                         S. Grimme                         |     
     |          Mulliken Center for Theoretical Chemistry        |     
     |                    University of Bonn                     |     
      -----------------------------------------------------------      

   * xtb version 6.7.1pre (5071a88) compiled by 'Marcel@Raven' on 2024-07-23

   xtb is free software: you can redistribute it and/or modify it under
   the terms of the GNU Lesser General Public License as published by
   the Free Software Foundation, either version 3 of the License, or
   (at your option) any later version.
   
   xtb is distributed in the hope that it will be useful,
   but WITHOUT ANY WARRANTY; without even the implied warranty of
   MERCHANTABILITY or FITNESS FOR A PARTICULAR PURPOSE.  See the
   GNU Lesser General Public License for more details.
   
   Cite this work as:
   * C. Bannwarth, E. Caldeweyher, S. Ehlert, A. Hansen, P. Pracht,
     J. Seibert, S. Spicher, S. Grimme, WIREs Comput. Mol. Sci., 2020, 11,
     e01493. DOI: 10.1002/wcms.1493
   
   for GFN2-xTB:
   * C. Bannwarth, S. Ehlert and S. Grimme., J. Chem. Theory Comput., 2019,
     15, 1652-1671. DOI: 10.1021/acs.jctc.8b01176
   for GFN1-xTB:
   * S. Grimme, C. Bannwarth, P. Shushkov, J. Chem. Theory Comput., 2017,
     13, 1989-2009. DOI: 10.1021/acs.jctc.7b00118
   for GFN0-xTB:
   * P. Pracht, E. Caldeweyher, S. Ehlert, S. Grimme, ChemRxiv, 2019, preprint.
     DOI: 10.26434/chemrxiv.8326202.v1
   for GFN-FF:
   * S. Spicher and S. Grimme, Angew. Chem. Int. Ed., 2020, 59, 15665-15673.
     DOI: 10.1002/anie.202004239
   
   for ALPB and GBSA implicit solvation:
   * S. Ehlert, M. Stahn, S. Spicher, S. Grimme, J. Chem. Theory Comput.,
     2021, 17, 4250-4261. DOI: 10.1021/acs.jctc.1c00471
   
   for ddCOSMO and CPCM-X implicit solvation:
   * M. Stahn, S. Ehlert, S. Grimme, J. Phys. Chem. A,
     2023, XX, XXXX-XXXX. DOI: 10.1021/acs.jpca.3c04382
   
   for DFT-D4:
   * E. Caldeweyher, C. Bannwarth and S. Grimme, J. Chem. Phys., 2017,
     147, 034112. DOI: 10.1063/1.4993215
   * E. Caldeweyher, S. Ehlert, A. Hansen, H. Neugebauer, S. Spicher,
     C. Bannwarth and S. Grimme, J. Chem. Phys., 2019, 150, 154122.
     DOI: 10.1063/1.5090222
   * E. Caldeweyher, J.-M. Mewes, S. Ehlert and S. Grimme, Phys. Chem. Chem. Phys.
     2020, 22, 8499-8512. DOI: 10.1039/D0CP00502A
   
   for sTDA-xTB:
   * S. Grimme and C. Bannwarth, J. Chem. Phys., 2016, 145, 054103.
     DOI: 10.1063/1.4959605
   
   in the mass-spec context:
   * V. Asgeirsson, C. Bauer and S. Grimme, Chem. Sci., 2017, 8, 4879.
     DOI: 10.1039/c7sc00601b
   * J. Koopman and S. Grimme, ACS Omega 2019, 4, 12, 15120-15133.
     DOI: 10.1021/acsomega.9b02011
   
   for metadynamics refer to:
   * S. Grimme, J. Chem. Theory Comput., 2019, 155, 2847-2862
     DOI: 10.1021/acs.jctc.9b00143
   
   for SPH calculations refer to:
   * S. Spicher and S. Grimme, J. Chem. Theory Comput., 2021, 17, 1701-1714
     DOI: 10.1021/acs.jctc.0c01306
   
   for ONIOM refer to:
   * C. Plett, A. Katbashev, S. Ehlert, S. Grimme, M. Bursch,
     Phys. Chem. Chem. Phys., 2023, 25, 17860-17868. DOI: 10.1039/D3CP02178E
   
   for DIPRO refer to:
   * J. Kohn, N. Gildemeister, S. Grimme, D. Fazzi, A. Hansen,
     J. Chem. Phys., 2023, just accepted.
   
   for PTB refer to:
   * S. Grimme, M. Mueller, A. Hansen, J. Chem. Phys., 2023, 158, 124111.
     DOI: 10.1063/5.0137838
   
   with help from (in alphabetical order)
   P. Atkinson, C. Bannwarth, F. Bohle, G. Brandenburg, E. Caldeweyher
   M. Checinski, S. Dohm, S. Ehlert, S. Ehrlich, I. Gerasimov, C. Hölzer
   A. Katbashev, J. Kohn, J. Koopman, C. Lavigne, S. Lehtola, F. März, M. Müller,
   F. Musil, H. Neugebauer, J. Pisarek, C. Plett, P. Pracht, F. Pultar,
   J. Seibert, P. Shushkov, S. Spicher, M. Stahn, M. Steiner, T. Strunk,
   J. Stückrath, T. Rose, and J. Unsleber
   
 * started run on 2026/08/31 at 21:08:25.214     
   ID    Z sym.   atoms
    1    6 C      1, 3-10, 12-14, 16, 18-22, 24-26
    2    7 N      2, 11, 15, 48, 50, 52, 54, 56, 58, 60, 62, 64, 66, 68, 70,
                  72, 74, 76, 78, 80, 82, 84, 86, 88, 90, 92, 94, 96, 98,
                  100, 102, 104, 106, 108, 110, 112, 114, 116, 118
    3    8 O      17
    4    9 F      23
    5    1 H      27-46
    6    5 B      47, 49, 51, 53, 55, 57, 59, 61, 63, 65, 67, 69, 71, 73, 75,
                  77, 79, 81, 83, 85, 87, 89, 91, 93, 95, 97, 99, 101, 103,
                  105, 107, 109, 111, 113, 115, 117

           -------------------------------------------------
          |                Calculation Setup                |
           -------------------------------------------------

          program call               : "c:\Users\Andre\Proyectos doctorado\kras-pancreatic-gC3N4-ai\tools\xtb\xtb-6.7.1\bin\xtb.exe" "c:\Users\Andre\Proyectos doctorado\nano-qsar-ai-therapeutics\calculations\tnbc\Rucaparib\Rucaparib_B36N36_relaxed_complex.xyz" --gfn 2 --opt normal --chrg 0 --uhf 0 --iterations 50 --norestart
          coordinate file            : c:\Users\Andre\Proyectos doctorado\nano-qsar-ai-therapeutics\calculations\tnbc\Rucaparib\Rucaparib_B36N36_relaxed_complex.xyz
          omp threads                :                    16


molecular fragmentation (1/2 indicates fragments):
111111111111111111111111111111111111111111111122222222222222222222222222
2222222222222222222222222222222222222222222222
# atoms in fragment 1/2:    46    72
 fragment masses (1/2) :      349.40      893.44
CMA distance (Bohr)    :  15.982
constraining FC (au)   :  0.0500

           -------------------------------------------------
          |                 G F N 2 - x T B                 |
           -------------------------------------------------

        Reference                      10.1021/acs.jctc.8b01176
      * Hamiltonian:
        H0-scaling (s, p, d)           1.850000    2.230000    2.230000
        zeta-weighting                 0.500000
      * Dispersion:
        s8                             2.700000
        a1                             0.520000
        a2                             5.000000
        s9                             5.000000
      * Repulsion:
        kExp                           1.500000    1.000000
        rExp                           1.000000
      * Coulomb:
        alpha                          2.000000
        third order                    shell-resolved
        anisotropic                    true
        a3                             3.000000
        a5                             4.000000
        cn-shift                       1.200000
        cn-exp                         4.000000
        max-rad                        5.000000


          ...................................................
          :                      SETUP                      :
          :.................................................:
          :  # basis functions                 412          :
          :  # atomic orbitals                 412          :
          :  # shells                          216          :
          :  # electrons                       420          :
          :  max. iterations                    50          :
          :  Hamiltonian                  GFN2-xTB          :
          :  restarted?                      false          :
          :  GBSA solvation                  false          :
          :  PC potential                    false          :
          :  electronic temp.          300.0000000     K    :
          :  accuracy                    1.0000000          :
          :  -> integral cutoff          0.2500000E+02      :
          :  -> integral neglect         0.1000000E-07      :
          :  -> SCF convergence          0.1000000E-05 Eh   :
          :  -> wf. convergence          0.1000000E-03 e    :
          :  Broyden damping             0.4000000          :
          :  net charge                          0          :
          :  unpaired electrons                  0          :
          ...................................................

 iter      E             dE          RMSdq      gap      omega  full diag
   1   -224.3597980 -0.224360E+03  0.111E+01    0.64       0.0  T
   2   -224.8280906 -0.468293E+00  0.680E+00    0.43       1.0  T
   3   -222.1613430  0.266675E+01  0.427E+00    0.15       1.0  T
   4   -225.1296253 -0.296828E+01  0.121E+00    0.61       1.0  T
   5   -225.2984196 -0.168794E+00  0.611E-01    0.70       1.0  T
   6   -225.3146010 -0.161813E-01  0.444E-01    0.66       1.0  T
   7   -225.3057589  0.884209E-02  0.330E-01    0.78       1.0  T
   8   -225.3152485 -0.948959E-02  0.190E-01    0.61       1.0  T
   9   -225.3222188 -0.697032E-02  0.565E-02    0.66       1.0  T
  10   -225.3226862 -0.467432E-03  0.227E-02    0.66       1.0  T
  11   -225.3227284 -0.421449E-04  0.132E-02    0.66       1.0  T
  12   -225.3227398 -0.114626E-04  0.599E-03    0.66       1.5  T
  13   -225.3227440 -0.417301E-05  0.210E-03    0.66       4.4  T
  14   -225.3227446 -0.562699E-06  0.817E-04    0.66      11.3  T
  15   -225.3227446 -0.379445E-07  0.420E-04    0.66      21.9  T

   *** convergence criteria satisfied after 15 iterations ***

         #    Occupation            Energy/Eh            Energy/eV
      -------------------------------------------------------------
         1        2.0000           -0.8066782             -21.9508
       ...           ...                  ...                  ...
       204        2.0000           -0.3257330              -8.8636
       205        2.0000           -0.3229575              -8.7881
       206        2.0000           -0.3213324              -8.7439
       207        2.0000           -0.3191803              -8.6853
       208        2.0000           -0.3139922              -8.5442
       209        2.0000           -0.3119789              -8.4894
       210        2.0000           -0.3059561              -8.3255 (HOMO)
       211        0.0000           -0.2816650              -7.6645 (LUMO)
       212                         -0.2734880              -7.4420
       213                         -0.2629312              -7.1547
       214                         -0.2607956              -7.0966
       215                         -0.2499893              -6.8026
       ...                                ...                  ...
       412                          0.9851435              26.8071
      -------------------------------------------------------------
                  HL-Gap            0.0242911 Eh            0.6610 eV
             Fermi-level           -0.2938097 Eh           -7.9950 eV

 SCC (total)                   0 d,  0 h,  0 min,  0.540 sec
 SCC setup                      ...        0 min,  0.001 sec (  0.185%)
 Dispersion                     ...        0 min,  0.003 sec (  0.556%)
 classical contributions        ...        0 min,  0.001 sec (  0.185%)
 integral evaluation            ...        0 min,  0.014 sec (  2.593%)
 iterations                     ...        0 min,  0.483 sec ( 89.444%)
 molecular gradient             ...        0 min,  0.036 sec (  6.667%)
 printout                       ...        0 min,  0.002 sec (  0.370%)

         :::::::::::::::::::::::::::::::::::::::::::::::::::::
         ::                     SUMMARY                     ::
         :::::::::::::::::::::::::::::::::::::::::::::::::::::
         :: total energy            -222.900577224241 Eh    ::
         :: gradient norm              0.103342506265 Eh/a0 ::
         :: HOMO-LUMO gap              0.660995100393 eV    ::
         ::.................................................::
         :: SCC energy              -225.306359801066 Eh    ::
         :: -> isotropic ES            0.692410937711 Eh    ::
         :: -> anisotropic ES         -0.021980605278 Eh    ::
         :: -> anisotropic XC          0.095726940915 Eh    ::
         :: -> dispersion             -0.207867587814 Eh    ::
         :: repulsion energy           2.405782576825 Eh    ::
         :: add. restraining           0.000000000000 Eh    ::
         :: total charge              -0.000000000001 e     ::
         :::::::::::::::::::::::::::::::::::::::::::::::::::::

      ----------------------------------------------------------- 
     |                   =====================                   |
     |                        A N C O P T                        |
     |                   =====================                   |
     |               Approximate Normal Coordinate               |
     |                Rational Function Optimizer                |
      ----------------------------------------------------------- 
      ----------------------------------------------------------- 
     |                   =====================                   |
     |                        A N C O P T                        |
     |                   =====================                   |
     |               Approximate Normal Coordinate               |
     |                Rational Function Optimizer                |
      ----------------------------------------------------------- 

          ...................................................
          :                      SETUP                      :
          :.................................................:
          :   optimization level            normal          :
          :   max. optcycles                   354          :
          :   ANC micro-cycles                  20          :
          :   degrees of freedom               348          :
          :.................................................:
          :   RF solver                   davidson          :
          :   write xtbopt.log                true          :
          :   linear?                        false          :
          :   energy convergence         0.5000000E-05 Eh   :
          :   grad. convergence          0.1000000E-02 Eh/α :
          :   maxmium RF displ.          1.0000000          :
          :   Hlow (freq-cutoff)         0.1000000E-01      :
          :   Hmax (freq-cutoff)         5.0000000          :
          :   S6 in model hess.         20.0000000          :
          ...................................................

generating ANC from exact Hessian ...
Using Lindh-Hessian (1995)
 Shifting diagonal of input Hessian by   1.008290538178943E-002
 Lowest  eigenvalues of input Hessian
    0.010000    0.010006    0.010026    0.000000    0.000000    0.000000
    0.000000    0.000000    0.000000    0.010115    0.010190    0.010270
    0.010441    0.010583    0.010746    0.011339    0.012433    0.012780
 Highest eigenvalues
    2.065713    2.087523    2.154601    2.235878    2.260736    2.315007
 

........................................................................
.............................. CYCLE    1 ..............................
........................................................................

 iter      E             dE          RMSdq      gap      omega  full diag
   1   -225.3227446 -0.225323E+03  0.190E-04    0.66       0.0  T
   2   -225.3227446  0.168785E-08  0.191E-04    0.66      48.3  T
   3   -225.3227446 -0.643226E-08  0.630E-05    0.66     146.2  T
     SCC iter.                  ...        0 min,  0.086 sec
     gradient                   ...        0 min,  0.032 sec
 * total energy  :  -222.9005772 Eh     change       -0.1165043E-07 Eh
   gradient norm :     0.1033428 Eh/α   predicted     0.0000000E+00 (-100.00%)
   displ. norm   :     0.5217137 α      lambda       -0.3792905E-01
   maximum displ.:     0.2456292 α      in ANC's #27, #30, #22, ...

........................................................................
.............................. CYCLE    2 ..............................
........................................................................

 iter      E             dE          RMSdq      gap      omega  full diag
   1   -225.3802243 -0.225380E+03  0.198E-01    0.66       0.0  T
   2   -225.3803243 -0.999547E-04  0.115E-01    0.67       1.0  T
   3   -225.3801151  0.209179E-03  0.509E-02    0.67       1.0  T
   4   -225.3803553 -0.240203E-03  0.116E-02    0.67       1.0  T
   5   -225.3803684 -0.131186E-04  0.458E-03    0.67       2.0  T
   6   -225.3803664  0.200649E-05  0.459E-03    0.67       2.0  T
   7   -225.3803699 -0.347918E-05  0.158E-03    0.67       5.8  T
   8   -225.3803703 -0.350214E-06  0.465E-04    0.67      19.8  T
   9   -225.3803703 -0.119074E-07  0.295E-04    0.67      31.2  T
     SCC iter.                  ...        0 min,  0.262 sec
     gradient                   ...        0 min,  0.032 sec
 * total energy  :  -222.9274426 Eh     change       -0.2686539E-01 Eh
   gradient norm :     0.0522882 Eh/α   predicted    -0.2412751E-01 ( -10.19%)
   displ. norm   :     0.4550033 α      lambda       -0.1417594E-01
   maximum displ.:     0.2202616 α      in ANC's #27, #30, #22, ...

........................................................................
.............................. CYCLE    3 ..............................
........................................................................

 iter      E             dE          RMSdq      gap      omega  full diag
   1   -225.4099931 -0.225410E+03  0.144E-01    0.67       0.0  T
   2   -225.4100976 -0.104496E-03  0.806E-02    0.67       1.0  T
   3   -225.4099850  0.112681E-03  0.430E-02    0.68       1.0  T
   4   -225.4101339 -0.148932E-03  0.989E-03    0.67       1.0  T
   5   -225.4101444 -0.105460E-04  0.365E-03    0.67       2.5  T
   6   -225.4101445 -0.992189E-07  0.311E-03    0.67       3.0  T
   7   -225.4101461 -0.153646E-05  0.116E-03    0.67       7.9  T
   8   -225.4101462 -0.152467E-06  0.372E-04    0.67      24.7  T
   9   -225.4101462 -0.114286E-07  0.211E-04    0.67      43.5  T
     SCC iter.                  ...        0 min,  0.343 sec
     gradient                   ...        0 min,  0.056 sec
 * total energy  :  -222.9363016 Eh     change       -0.8859006E-02 Eh
   gradient norm :     0.0375486 Eh/α   predicted    -0.8555389E-02 (  -3.43%)
   displ. norm   :     0.2513392 α      lambda       -0.2793050E-02
   maximum displ.:     0.0998985 α      in ANC's #27, #22, #30, ...

........................................................................
.............................. CYCLE    4 ..............................
........................................................................

 iter      E             dE          RMSdq      gap      omega  full diag
   1   -225.4175218 -0.225418E+03  0.736E-02    0.68       0.0  T
   2   -225.4176405 -0.118742E-03  0.408E-02    0.67       1.0  T
   3   -225.4176569 -0.163104E-04  0.256E-02    0.68       1.0  T
   4   -225.4176799 -0.230743E-04  0.902E-03    0.67       1.0  T
   5   -225.4176858 -0.588900E-05  0.321E-03    0.68       2.9  T
   6   -225.4176874 -0.153999E-05  0.169E-03    0.67       5.4  T
   7   -225.4176879 -0.492604E-06  0.563E-04    0.68      16.3  T
   8   -225.4176879 -0.166247E-07  0.271E-04    0.68      33.9  T
     SCC iter.                  ...        0 min,  0.318 sec
     gradient                   ...        0 min,  0.041 sec
 * total energy  :  -222.9381185 Eh     change       -0.1816860E-02 Eh
   gradient norm :     0.0189371 Eh/α   predicted    -0.1484807E-02 ( -18.28%)
   displ. norm   :     0.1978589 α      lambda       -0.9118445E-03
   maximum displ.:     0.0799326 α      in ANC's #5, #12, #6, ...

........................................................................
.............................. CYCLE    5 ..............................
........................................................................

 iter      E             dE          RMSdq      gap      omega  full diag
   1   -225.4198585 -0.225420E+03  0.447E-02    0.68       0.0  T
   2   -225.4199174 -0.588614E-04  0.256E-02    0.67       1.0  T
   3   -225.4199276 -0.102539E-04  0.154E-02    0.68       1.0  T
   4   -225.4199323 -0.467920E-05  0.669E-03    0.67       1.4  T
   5   -225.4199350 -0.266003E-05  0.276E-03    0.68       3.3  T
   6   -225.4199363 -0.132943E-05  0.104E-03    0.68       8.9  T
   7   -225.4199364 -0.146914E-06  0.464E-04    0.68      19.9  T
   8   -225.4199365 -0.718489E-08  0.315E-04    0.68      29.2  T
     SCC iter.                  ...        0 min,  0.433 sec
     gradient                   ...        0 min,  0.039 sec
 * total energy  :  -222.9386922 Eh     change       -0.5737164E-03 Eh
   gradient norm :     0.0048503 Eh/α   predicted    -0.4737747E-03 ( -17.42%)
   displ. norm   :     0.1781783 α      lambda       -0.3035312E-03
   maximum displ.:     0.0812452 α      in ANC's #5, #6, #12, ...

........................................................................
.............................. CYCLE    6 ..............................
........................................................................

 iter      E             dE          RMSdq      gap      omega  full diag
   1   -225.4188701 -0.225419E+03  0.238E-02    0.68       0.0  T
   2   -225.4188769 -0.674590E-05  0.140E-02    0.68       1.0  T
   3   -225.4188752  0.173654E-05  0.755E-03    0.68       1.2  T
   4   -225.4188777 -0.250750E-05  0.288E-03    0.68       3.2  T
   5   -225.4188783 -0.624949E-06  0.156E-03    0.68       5.9  T
   6   -225.4188788 -0.467267E-06  0.487E-04    0.68      18.9  T
   7   -225.4188788 -0.250610E-07  0.238E-04    0.68      38.6  T
     SCC iter.                  ...        0 min,  0.258 sec
     gradient                   ...        0 min,  0.036 sec
 * total energy  :  -222.9389256 Eh     change       -0.2333898E-03 Eh
   gradient norm :     0.0062166 Eh/α   predicted    -0.1565865E-03 ( -32.91%)
   displ. norm   :     0.3119358 α      lambda       -0.3796769E-03
   maximum displ.:     0.1459921 α      in ANC's #5, #6, #9, ...

........................................................................
.............................. CYCLE    7 ..............................
........................................................................

 iter      E             dE          RMSdq      gap      omega  full diag
   1   -225.4174592 -0.225417E+03  0.333E-02    0.68       0.0  T
   2   -225.4174642 -0.502426E-05  0.197E-02    0.68       1.0  T
   3   -225.4174596  0.467055E-05  0.755E-03    0.68       1.2  T
   4   -225.4174643 -0.477222E-05  0.280E-03    0.68       3.3  T
   5   -225.4174653 -0.935271E-06  0.125E-03    0.68       7.4  T
   6   -225.4174655 -0.210751E-06  0.651E-04    0.68      14.1  T
   7   -225.4174655 -0.311395E-07  0.369E-04    0.68      24.9  T
     SCC iter.                  ...        0 min,  0.206 sec
     gradient                   ...        0 min,  0.032 sec
 * total energy  :  -222.9392154 Eh     change       -0.2898370E-03 Eh
   gradient norm :     0.0088604 Eh/α   predicted    -0.2083125E-03 ( -28.13%)
   displ. norm   :     0.3805809 α      lambda       -0.3614663E-03
   maximum displ.:     0.1851752 α      in ANC's #5, #6, #9, ...

........................................................................
.............................. CYCLE    8 ..............................
........................................................................

 iter      E             dE          RMSdq      gap      omega  full diag
   1   -225.4166033 -0.225417E+03  0.358E-02    0.68       0.0  T
   2   -225.4166064 -0.304992E-05  0.210E-02    0.68       1.0  T
   3   -225.4166028  0.361000E-05  0.576E-03    0.68       1.6  T
   4   -225.4166062 -0.341190E-05  0.227E-03    0.68       4.0  T
   5   -225.4166070 -0.844405E-06  0.986E-04    0.68       9.3  T
   6   -225.4166071 -0.124476E-06  0.539E-04    0.68      17.1  T
     SCC iter.                  ...        0 min,  0.179 sec
     gradient                   ...        0 min,  0.031 sec
 * total energy  :  -222.9395037 Eh     change       -0.2882470E-03 Eh
   gradient norm :     0.0086669 Eh/α   predicted    -0.2069154E-03 ( -28.22%)
   displ. norm   :     0.4301297 α      lambda       -0.3783847E-03
   maximum displ.:     0.2206420 α      in ANC's #5, #6, #9, ...

........................................................................
.............................. CYCLE    9 ..............................
........................................................................

 iter      E             dE          RMSdq      gap      omega  full diag
   1   -225.4173649 -0.225417E+03  0.373E-02    0.68       0.0  T
   2   -225.4173693 -0.436613E-05  0.217E-02    0.68       1.0  T
   3   -225.4173644  0.488579E-05  0.694E-03    0.68       1.3  T
   4   -225.4173669 -0.247659E-05  0.396E-03    0.68       2.3  T
   5   -225.4173696 -0.277377E-05  0.181E-03    0.68       5.1  T
   6   -225.4173703 -0.622486E-06  0.509E-04    0.68      18.1  T
   7   -225.4173702  0.827382E-08  0.403E-04    0.68      22.8  T
     SCC iter.                  ...        0 min,  0.209 sec
     gradient                   ...        0 min,  0.030 sec
 * total energy  :  -222.9398108 Eh     change       -0.3070972E-03 Eh
   gradient norm :     0.0060460 Eh/α   predicted    -0.2241986E-03 ( -26.99%)
   displ. norm   :     0.4434334 α      lambda       -0.3625180E-03
   maximum displ.:     0.2416175 α      in ANC's #5, #6, #9, ...

........................................................................
.............................. CYCLE   10 ..............................
........................................................................

 iter      E             dE          RMSdq      gap      omega  full diag
   1   -225.4193783 -0.225419E+03  0.364E-02    0.68       0.0  T
   2   -225.4193827 -0.439502E-05  0.211E-02    0.68       1.0  T
   3   -225.4193793  0.343386E-05  0.637E-03    0.68       1.4  T
   4   -225.4193814 -0.214933E-05  0.317E-03    0.68       2.9  T
   5   -225.4193831 -0.162736E-05  0.160E-03    0.68       5.8  T
   6   -225.4193836 -0.495656E-06  0.512E-04    0.68      18.0  T
   7   -225.4193836 -0.476550E-08  0.375E-04    0.68      24.5  T
     SCC iter.                  ...        0 min,  0.208 sec
     gradient                   ...        0 min,  0.037 sec
 * total energy  :  -222.9401010 Eh     change       -0.2902502E-03 Eh
   gradient norm :     0.0044993 Eh/α   predicted    -0.2169000E-03 ( -25.27%)
   displ. norm   :     0.4198536 α      lambda       -0.2870208E-03
   maximum displ.:     0.2443082 α      in ANC's #5, #6, #9, ...

........................................................................
.............................. CYCLE   11 ..............................
........................................................................

 iter      E             dE          RMSdq      gap      omega  full diag
   1   -225.4214711 -0.225421E+03  0.308E-02    0.68       0.0  T
   2   -225.4214737 -0.267194E-05  0.180E-02    0.68       1.0  T
   3   -225.4214708  0.297120E-05  0.531E-03    0.68       1.7  T
   4   -225.4214721 -0.130337E-05  0.317E-03    0.68       2.9  T
   5   -225.4214740 -0.196835E-05  0.127E-03    0.68       7.2  T
   6   -225.4214743 -0.286097E-06  0.458E-04    0.68      20.1  T
   7   -225.4214743 -0.454480E-08  0.314E-04    0.68      29.3  T
     SCC iter.                  ...        0 min,  0.238 sec
     gradient                   ...        0 min,  0.030 sec
 * total energy  :  -222.9403366 Eh     change       -0.2356027E-03 Eh
   gradient norm :     0.0053600 Eh/α   predicted    -0.1688081E-03 ( -28.35%)
   displ. norm   :     0.3795302 α      lambda       -0.2395606E-03
   maximum displ.:     0.2339043 α      in ANC's #5, #6, #9, ...

........................................................................
.............................. CYCLE   12 ..............................
........................................................................

 iter      E             dE          RMSdq      gap      omega  full diag
   1   -225.4228700 -0.225423E+03  0.240E-02    0.68       0.0  T
   2   -225.4228725 -0.252162E-05  0.141E-02    0.68       1.0  T
   3   -225.4228701  0.246644E-05  0.515E-03    0.68       1.8  T
   4   -225.4228707 -0.605241E-06  0.328E-03    0.68       2.8  T
   5   -225.4228728 -0.213650E-05  0.123E-03    0.68       7.5  T
   6   -225.4228731 -0.278516E-06  0.387E-04    0.68      23.8  T
   7   -225.4228731  0.314017E-08  0.298E-04    0.68      30.9  T
     SCC iter.                  ...        0 min,  0.217 sec
     gradient                   ...        0 min,  0.030 sec
 * total energy  :  -222.9405455 Eh     change       -0.2088942E-03 Eh
   gradient norm :     0.0051433 Eh/α   predicted    -0.1370347E-03 ( -34.40%)
   displ. norm   :     0.3744514 α      lambda       -0.2499073E-03
   maximum displ.:     0.2409383 α      in ANC's #5, #6, #9, ...

........................................................................
.............................. CYCLE   13 ..............................
........................................................................

 iter      E             dE          RMSdq      gap      omega  full diag
   1   -225.4238002 -0.225424E+03  0.213E-02    0.67       0.0  T
   2   -225.4238025 -0.229302E-05  0.126E-02    0.68       1.0  T
   3   -225.4237997  0.280597E-05  0.535E-03    0.67       1.7  T
   4   -225.4238007 -0.100513E-05  0.333E-03    0.68       2.8  T
   5   -225.4238028 -0.208973E-05  0.136E-03    0.68       6.7  T
   6   -225.4238032 -0.350261E-06  0.379E-04    0.68      24.3  T
   7   -225.4238032  0.407562E-08  0.291E-04    0.68      31.6  T
     SCC iter.                  ...        0 min,  0.201 sec
     gradient                   ...        0 min,  0.033 sec
 * total energy  :  -222.9407697 Eh     change       -0.2241616E-03 Eh
   gradient norm :     0.0041796 Eh/α   predicted    -0.1424761E-03 ( -36.44%)
   displ. norm   :     0.4143730 α      lambda       -0.2850621E-03
   maximum displ.:     0.2715681 α      in ANC's #5, #6, #9, ...

........................................................................
.............................. CYCLE   14 ..............................
........................................................................

 iter      E             dE          RMSdq      gap      omega  full diag
   1   -225.4239277 -0.225424E+03  0.244E-02    0.67       0.0  T
   2   -225.4239301 -0.239809E-05  0.145E-02    0.68       1.0  T
   3   -225.4239263  0.382100E-05  0.561E-03    0.67       1.6  T
   4   -225.4239276 -0.127490E-05  0.378E-03    0.68       2.4  T
   5   -225.4239304 -0.285688E-05  0.137E-03    0.67       6.7  T
   6   -225.4239308 -0.338528E-06  0.402E-04    0.67      22.9  T
   7   -225.4239308  0.492008E-08  0.320E-04    0.67      28.7  T
     SCC iter.                  ...        0 min,  0.224 sec
     gradient                   ...        0 min,  0.031 sec
 * total energy  :  -222.9410261 Eh     change       -0.2564614E-03 Eh
   gradient norm :     0.0037611 Eh/α   predicted    -0.1670073E-03 ( -34.88%)
   displ. norm   :     0.4648114 α      lambda       -0.3135831E-03
   maximum displ.:     0.3063167 α      in ANC's #5, #6, #9, ...

........................................................................
.............................. CYCLE   15 ..............................
........................................................................

 iter      E             dE          RMSdq      gap      omega  full diag
   1   -225.4236891 -0.225424E+03  0.306E-02    0.67       0.0  T
   2   -225.4236906 -0.158505E-05  0.181E-02    0.67       1.0  T
   3   -225.4236852  0.541484E-05  0.572E-03    0.67       1.6  T
   4   -225.4236886 -0.336841E-05  0.345E-03    0.67       2.7  T
   5   -225.4236910 -0.236381E-05  0.124E-03    0.67       7.4  T
   6   -225.4236912 -0.264058E-06  0.402E-04    0.67      22.9  T
   7   -225.4236912  0.378108E-08  0.307E-04    0.67      29.9  T
     SCC iter.                  ...        0 min,  0.266 sec
     gradient                   ...        0 min,  0.031 sec
 * total energy  :  -222.9413103 Eh     change       -0.2841518E-03 Eh
   gradient norm :     0.0048626 Eh/α   predicted    -0.1906690E-03 ( -32.90%)
   displ. norm   :     0.5113982 α      lambda       -0.3406997E-03
   maximum displ.:     0.3375522 α      in ANC's #5, #6, #9, ...

........................................................................
.............................. CYCLE   16 ..............................
........................................................................

 iter      E             dE          RMSdq      gap      omega  full diag
   1   -225.4232756 -0.225423E+03  0.374E-02    0.67       0.0  T
   2   -225.4232768 -0.120391E-05  0.220E-02    0.67       1.0  T
   3   -225.4232711  0.567525E-05  0.564E-03    0.67       1.6  T
   4   -225.4232754 -0.425592E-05  0.301E-03    0.67       3.1  T
   5   -225.4232771 -0.174651E-05  0.114E-03    0.67       8.1  T
   6   -225.4232773 -0.210174E-06  0.398E-04    0.67      23.2  T
   7   -225.4232773  0.317951E-08  0.297E-04    0.67      31.0  T
     SCC iter.                  ...        0 min,  0.206 sec
     gradient                   ...        0 min,  0.033 sec
 * total energy  :  -222.9416223 Eh     change       -0.3120176E-03 Eh
   gradient norm :     0.0059294 Eh/α   predicted    -0.2149035E-03 ( -31.12%)
   displ. norm   :     0.5668603 α      lambda       -0.3777315E-03
   maximum displ.:     0.3754784 α      in ANC's #5, #6, #10, ...

........................................................................
.............................. CYCLE   17 ..............................
........................................................................

 iter      E             dE          RMSdq      gap      omega  full diag
   1   -225.4230385 -0.225423E+03  0.453E-02    0.67       0.0  T
   2   -225.4230400 -0.148962E-05  0.266E-02    0.67       1.0  T
   3   -225.4230339  0.609125E-05  0.616E-03    0.67       1.5  T
   4   -225.4230389 -0.495572E-05  0.295E-03    0.67       3.1  T
   5   -225.4230404 -0.153019E-05  0.130E-03    0.67       7.1  T
   6   -225.4230407 -0.282405E-06  0.435E-04    0.67      21.2  T
   7   -225.4230407  0.377128E-09  0.272E-04    0.67      33.9  T
     SCC iter.                  ...        0 min,  0.204 sec
     gradient                   ...        0 min,  0.032 sec
 * total energy  :  -222.9419669 Eh     change       -0.3445362E-03 Eh
   gradient norm :     0.0059796 Eh/α   predicted    -0.2495559E-03 ( -27.57%)
   displ. norm   :     0.6100739 α      lambda       -0.3933155E-03
   maximum displ.:     0.4090303 α      in ANC's #5, #6, #10, ...

........................................................................
.............................. CYCLE   18 ..............................
........................................................................

 iter      E             dE          RMSdq      gap      omega  full diag
   1   -225.4229629 -0.225423E+03  0.510E-02    0.67       0.0  T
   2   -225.4229651 -0.214501E-05  0.299E-02    0.67       1.0  T
   3   -225.4229586  0.647960E-05  0.672E-03    0.67       1.4  T
   4   -225.4229640 -0.545104E-05  0.309E-03    0.67       3.0  T
   5   -225.4229655 -0.147871E-05  0.155E-03    0.67       5.9  T
   6   -225.4229659 -0.404771E-06  0.520E-04    0.67      17.7  T
   7   -225.4229659  0.332761E-09  0.326E-04    0.67      28.2  T
     SCC iter.                  ...        0 min,  0.211 sec
     gradient                   ...        0 min,  0.035 sec
 * total energy  :  -222.9423198 Eh     change       -0.3529482E-03 Eh
   gradient norm :     0.0051895 Eh/α   predicted    -0.2698540E-03 ( -23.54%)
   displ. norm   :     0.6163493 α      lambda       -0.3655687E-03
   maximum displ.:     0.4207805 α      in ANC's #5, #6, #4, ...

........................................................................
.............................. CYCLE   19 ..............................
........................................................................

 iter      E             dE          RMSdq      gap      omega  full diag
   1   -225.4233070 -0.225423E+03  0.526E-02    0.67       0.0  T
   2   -225.4233094 -0.239865E-05  0.308E-02    0.67       1.0  T
   3   -225.4233026  0.682740E-05  0.697E-03    0.67       1.3  T
   4   -225.4233085 -0.592929E-05  0.311E-03    0.67       3.0  T
   5   -225.4233100 -0.147922E-05  0.151E-03    0.67       6.1  T
   6   -225.4233103 -0.332581E-06  0.623E-04    0.67      14.8  T
   7   -225.4233103  0.933056E-08  0.498E-04    0.67      18.5  T
     SCC iter.                  ...        0 min,  0.421 sec
     gradient                   ...        0 min,  0.036 sec
 * total energy  :  -222.9426445 Eh     change       -0.3247465E-03 Eh
   gradient norm :     0.0040205 Eh/α   predicted    -0.2522256E-03 ( -22.33%)
   displ. norm   :     0.5928956 α      lambda       -0.3216999E-03
   maximum displ.:     0.4128686 α      in ANC's #5, #6, #4, ...

........................................................................
.............................. CYCLE   20 ..............................
........................................................................

 iter      E             dE          RMSdq      gap      omega  full diag
   1   -225.4239257 -0.225424E+03  0.503E-02    0.67       0.0  T
   2   -225.4239277 -0.196367E-05  0.294E-02    0.67       1.0  T
   3   -225.4239219  0.576998E-05  0.625E-03    0.67       1.5  T
   4   -225.4239267 -0.474639E-05  0.305E-03    0.67       3.0  T
   5   -225.4239283 -0.157335E-05  0.129E-03    0.67       7.1  T
   6   -225.4239284 -0.189359E-06  0.644E-04    0.67      14.3  T
   7   -225.4239284 -0.694399E-09  0.501E-04    0.67      18.4  T
     SCC iter.                  ...        0 min,  0.248 sec
     gradient                   ...        0 min,  0.038 sec
 * total energy  :  -222.9429342 Eh     change       -0.2896339E-03 Eh
   gradient norm :     0.0031919 Eh/α   predicted    -0.2173946E-03 ( -24.94%)
   displ. norm   :     0.5751282 α      lambda       -0.3051196E-03
   maximum displ.:     0.4063597 α      in ANC's #5, #6, #4, ...
 * RMSD in coord.:     0.6412021 α      energy gain  -0.4235696E-01 Eh

generating ANC from exact Hessian ...
Using Lindh-Hessian (1995)
 Shifting diagonal of input Hessian by   1.008179270722238E-002
 Lowest  eigenvalues of input Hessian
    0.010000    0.010018    0.010039    0.000000    0.000000    0.000000
    0.000000    0.000000    0.000000    0.010142    0.010270    0.010367
    0.010524    0.010692    0.010875    0.011399    0.012634    0.012925
 Highest eigenvalues
    2.096861    2.109381    2.154813    2.259987    2.283211    2.312785
 

........................................................................
.............................. CYCLE   21 ..............................
........................................................................

 iter      E             dE          RMSdq      gap      omega  full diag
   1   -225.4248165 -0.225425E+03  0.489E-02    0.67       0.0  T
   2   -225.4248181 -0.157768E-05  0.286E-02    0.67       1.0  T
   3   -225.4248128  0.527266E-05  0.575E-03    0.67       1.6  T
   4   -225.4248170 -0.421105E-05  0.298E-03    0.67       3.1  T
   5   -225.4248186 -0.158148E-05  0.112E-03    0.67       8.2  T
   6   -225.4248187 -0.894440E-07  0.686E-04    0.67      13.4  T
   7   -225.4248187 -0.301693E-07  0.450E-04    0.67      20.5  T
     SCC iter.                  ...        0 min,  0.240 sec
     gradient                   ...        0 min,  0.034 sec
 * total energy  :  -222.9432167 Eh     change       -0.2825120E-03 Eh
   gradient norm :     0.0030073 Eh/α   predicted     0.0000000E+00 (-100.00%)
   displ. norm   :     0.0819356 α      lambda       -0.9288430E-04
   maximum displ.:     0.0529082 α      in ANC's #5, #9, #10, ...

........................................................................
.............................. CYCLE   22 ..............................
........................................................................

 iter      E             dE          RMSdq      gap      omega  full diag
   1   -225.4259003 -0.225426E+03  0.106E-02    0.67       0.0  T
   2   -225.4259008 -0.494986E-06  0.631E-03    0.67       1.5  T
   3   -225.4259000  0.805544E-06  0.326E-03    0.67       2.8  T
   4   -225.4259010 -0.962923E-06  0.799E-04    0.67      11.5  T
   5   -225.4259010 -0.709621E-07  0.488E-04    0.67      18.9  T
     SCC iter.                  ...        0 min,  0.164 sec
     gradient                   ...        0 min,  0.038 sec
 * total energy  :  -222.9433028 Eh     change       -0.8610309E-04 Eh
   gradient norm :     0.0017132 Eh/α   predicted    -0.4686316E-04 ( -45.57%)
   displ. norm   :     0.4583385 α      lambda       -0.2903501E-03
   maximum displ.:     0.2734635 α      in ANC's #5, #9, #10, ...

........................................................................
.............................. CYCLE   23 ..............................
........................................................................

 iter      E             dE          RMSdq      gap      omega  full diag
   1   -225.4275401 -0.225428E+03  0.545E-02    0.67       0.0  T
   2   -225.4275512 -0.110907E-04  0.325E-02    0.67       1.0  T
   3   -225.4275327  0.184978E-04  0.147E-02    0.67       1.0  T
   4   -225.4275542 -0.215280E-04  0.363E-03    0.67       2.5  T
   5   -225.4275554 -0.115926E-05  0.230E-03    0.67       4.0  T
   6   -225.4275562 -0.858384E-06  0.908E-04    0.67      10.1  T
   7   -225.4275562 -0.709559E-08  0.664E-04    0.67      13.9  T
     SCC iter.                  ...        0 min,  0.318 sec
     gradient                   ...        0 min,  0.032 sec
 * total energy  :  -222.9436200 Eh     change       -0.3171600E-03 Eh
   gradient norm :     0.0048145 Eh/α   predicted    -0.1587298E-03 ( -49.95%)
   displ. norm   :     0.2944231 α      lambda       -0.1883429E-03
   maximum displ.:     0.1837325 α      in ANC's #5, #9, #10, ...

........................................................................
.............................. CYCLE   24 ..............................
........................................................................

 iter      E             dE          RMSdq      gap      omega  full diag
   1   -225.4271319 -0.225427E+03  0.324E-02    0.67       0.0  T
   2   -225.4271338 -0.181837E-05  0.192E-02    0.67       1.0  T
   3   -225.4271271  0.666357E-05  0.730E-03    0.67       1.3  T
   4   -225.4271340 -0.689020E-05  0.218E-03    0.67       4.2  T
   5   -225.4271345 -0.551432E-06  0.133E-03    0.67       6.9  T
   6   -225.4271348 -0.285537E-06  0.488E-04    0.67      18.8  T
   7   -225.4271348  0.597689E-08  0.391E-04    0.67      23.6  T
     SCC iter.                  ...        0 min,  0.206 sec
     gradient                   ...        0 min,  0.035 sec
 * total energy  :  -222.9437879 Eh     change       -0.1679906E-03 Eh
   gradient norm :     0.0049507 Eh/α   predicted    -0.1023366E-03 ( -39.08%)
   displ. norm   :     0.3885904 α      lambda       -0.2449183E-03
   maximum displ.:     0.2428709 α      in ANC's #5, #9, #10, ...

........................................................................
.............................. CYCLE   25 ..............................
........................................................................

 iter      E             dE          RMSdq      gap      omega  full diag
   1   -225.4262231 -0.225426E+03  0.419E-02    0.67       0.0  T
   2   -225.4262251 -0.201368E-05  0.247E-02    0.67       1.0  T
   3   -225.4262151  0.100102E-04  0.838E-03    0.67       1.1  T
   4   -225.4262253 -0.101825E-04  0.260E-03    0.67       3.5  T
   5   -225.4262262 -0.851850E-06  0.150E-03    0.67       6.1  T
   6   -225.4262265 -0.348216E-06  0.589E-04    0.67      15.6  T
   7   -225.4262265 -0.906667E-08  0.376E-04    0.67      24.5  T
     SCC iter.                  ...        0 min,  0.210 sec
     gradient                   ...        0 min,  0.081 sec
 * total energy  :  -222.9440048 Eh     change       -0.2169000E-03 Eh
   gradient norm :     0.0039516 Eh/α   predicted    -0.1409547E-03 ( -35.01%)
   displ. norm   :     0.4504801 α      lambda       -0.2681235E-03
   maximum displ.:     0.2880197 α      in ANC's #5, #9, #10, ...

........................................................................
.............................. CYCLE   26 ..............................
........................................................................

 iter      E             dE          RMSdq      gap      omega  full diag
   1   -225.4251651 -0.225425E+03  0.489E-02    0.68       0.0  T
   2   -225.4251678 -0.275207E-05  0.288E-02    0.67       1.0  T
   3   -225.4251553  0.125151E-04  0.927E-03    0.68       1.0  T
   4   -225.4251676 -0.123158E-04  0.321E-03    0.67       2.9  T
   5   -225.4251691 -0.144845E-05  0.172E-03    0.67       5.3  T
   6   -225.4251695 -0.473827E-06  0.670E-04    0.67      13.7  T
   7   -225.4251696 -0.185052E-07  0.377E-04    0.67      24.4  T
     SCC iter.                  ...        0 min,  0.333 sec
     gradient                   ...        0 min,  0.037 sec
 * total energy  :  -222.9442367 Eh     change       -0.2318822E-03 Eh
   gradient norm :     0.0030064 Eh/α   predicted    -0.1612683E-03 ( -30.45%)
   displ. norm   :     0.4310973 α      lambda       -0.2324545E-03
   maximum displ.:     0.2858740 α      in ANC's #5, #9, #10, ...

........................................................................
.............................. CYCLE   27 ..............................
........................................................................

 iter      E             dE          RMSdq      gap      omega  full diag
   1   -225.4246837 -0.225425E+03  0.480E-02    0.68       0.0  T
   2   -225.4246864 -0.263289E-05  0.282E-02    0.67       1.0  T
   3   -225.4246766  0.980573E-05  0.832E-03    0.68       1.1  T
   4   -225.4246866 -0.100875E-04  0.263E-03    0.68       3.5  T
   5   -225.4246874 -0.751613E-06  0.162E-03    0.67       5.7  T
   6   -225.4246878 -0.398856E-06  0.701E-04    0.67      13.1  T
   7   -225.4246878 -0.314436E-07  0.384E-04    0.67      24.0  T
     SCC iter.                  ...        0 min,  0.220 sec
     gradient                   ...        0 min,  0.033 sec
 * total energy  :  -222.9444373 Eh     change       -0.2005972E-03 Eh
   gradient norm :     0.0031054 Eh/α   predicted    -0.1378296E-03 ( -31.29%)
   displ. norm   :     0.3765486 α      lambda       -0.1919832E-03
   maximum displ.:     0.2599522 α      in ANC's #5, #9, #4, ...

........................................................................
.............................. CYCLE   28 ..............................
........................................................................

 iter      E             dE          RMSdq      gap      omega  full diag
   1   -225.4251877 -0.225425E+03  0.430E-02    0.68       0.0  T
   2   -225.4251897 -0.200219E-05  0.253E-02    0.67       1.0  T
   3   -225.4251834  0.624467E-05  0.669E-03    0.68       1.4  T
   4   -225.4251898 -0.642047E-05  0.217E-03    0.68       4.2  T
   5   -225.4251903 -0.487680E-06  0.137E-03    0.68       6.7  T
   6   -225.4251906 -0.288567E-06  0.612E-04    0.68      15.1  T
   7   -225.4251907 -0.258828E-07  0.316E-04    0.68      29.1  T
     SCC iter.                  ...        0 min,  0.216 sec
     gradient                   ...        0 min,  0.036 sec
 * total energy  :  -222.9446075 Eh     change       -0.1701847E-03 Eh
   gradient norm :     0.0033223 Eh/α   predicted    -0.1096065E-03 ( -35.60%)
   displ. norm   :     0.3515969 α      lambda       -0.1816561E-03
   maximum displ.:     0.2496076 α      in ANC's #5, #9, #4, ...

........................................................................
.............................. CYCLE   29 ..............................
........................................................................

 iter      E             dE          RMSdq      gap      omega  full diag
   1   -225.4260085 -0.225426E+03  0.417E-02    0.68       0.0  T
   2   -225.4260098 -0.135375E-05  0.245E-02    0.68       1.0  T
   3   -225.4260053  0.450974E-05  0.567E-03    0.68       1.6  T
   4   -225.4260103 -0.497605E-05  0.141E-03    0.68       6.5  T
   5   -225.4260105 -0.185719E-06  0.784E-04    0.68      11.7  T
   6   -225.4260105 -0.855215E-08  0.607E-04    0.68      15.2  T
     SCC iter.                  ...        0 min,  0.196 sec
     gradient                   ...        0 min,  0.038 sec
 * total energy  :  -222.9447744 Eh     change       -0.1669285E-03 Eh
   gradient norm :     0.0030501 Eh/α   predicted    -0.1020571E-03 ( -38.86%)
   displ. norm   :     0.3696484 α      lambda       -0.2035429E-03
   maximum displ.:     0.2650393 α      in ANC's #5, #9, #4, ...

........................................................................
.............................. CYCLE   30 ..............................
........................................................................

 iter      E             dE          RMSdq      gap      omega  full diag
   1   -225.4270175 -0.225427E+03  0.447E-02    0.68       0.0  T
   2   -225.4270187 -0.119135E-05  0.263E-02    0.68       1.0  T
   3   -225.4270129  0.580737E-05  0.619E-03    0.68       1.5  T
   4   -225.4270182 -0.526564E-05  0.254E-03    0.68       3.6  T
   5   -225.4270192 -0.101997E-05  0.122E-03    0.68       7.5  T
   6   -225.4270194 -0.228679E-06  0.476E-04    0.68      19.4  T
   7   -225.4270194 -0.851421E-08  0.192E-04    0.68      48.0  T
     SCC iter.                  ...        0 min,  0.265 sec
     gradient                   ...        0 min,  0.037 sec
 * total energy  :  -222.9449659 Eh     change       -0.1914715E-03 Eh
   gradient norm :     0.0029359 Eh/α   predicted    -0.1156795E-03 ( -39.58%)
   displ. norm   :     0.4333703 α      lambda       -0.2512946E-03
   maximum displ.:     0.3099127 α      in ANC's #5, #4, #7, ...

........................................................................
.............................. CYCLE   31 ..............................
........................................................................

 iter      E             dE          RMSdq      gap      omega  full diag
   1   -225.4276448 -0.225428E+03  0.531E-02    0.68       0.0  T
   2   -225.4276462 -0.140668E-05  0.312E-02    0.68       1.0  T
   3   -225.4276401  0.615729E-05  0.668E-03    0.68       1.4  T
   4   -225.4276469 -0.684435E-05  0.139E-03    0.68       6.6  T
   5   -225.4276470 -0.135858E-06  0.786E-04    0.68      11.7  T
   6   -225.4276470  0.528900E-08  0.606E-04    0.68      15.2  T
     SCC iter.                  ...        0 min,  0.182 sec
     gradient                   ...        0 min,  0.035 sec
 * total energy  :  -222.9452041 Eh     change       -0.2381894E-03 Eh
   gradient norm :     0.0031314 Eh/α   predicted    -0.1492471E-03 ( -37.34%)
   displ. norm   :     0.4962280 α      lambda       -0.2951671E-03
   maximum displ.:     0.3534354 α      in ANC's #5, #4, #7, ...

........................................................................
.............................. CYCLE   32 ..............................
........................................................................

 iter      E             dE          RMSdq      gap      omega  full diag
   1   -225.4280088 -0.225428E+03  0.600E-02    0.68       0.0  T
   2   -225.4280104 -0.168361E-05  0.352E-02    0.68       1.0  T
   3   -225.4280020  0.848241E-05  0.767E-03    0.68       1.2  T
   4   -225.4280109 -0.894836E-05  0.197E-03    0.68       4.7  T
   5   -225.4280112 -0.288202E-06  0.139E-03    0.68       6.6  T
   6   -225.4280115 -0.288701E-06  0.704E-04    0.68      13.1  T
   7   -225.4280115 -0.200949E-07  0.447E-04    0.68      20.6  T
     SCC iter.                  ...        0 min,  0.202 sec
     gradient                   ...        0 min,  0.030 sec
 * total energy  :  -222.9454834 Eh     change       -0.2792873E-03 Eh
   gradient norm :     0.0034216 Eh/α   predicted    -0.1839271E-03 ( -34.14%)
   displ. norm   :     0.5366125 α      lambda       -0.3159185E-03
   maximum displ.:     0.3820930 α      in ANC's #5, #4, #7, ...

........................................................................
.............................. CYCLE   33 ..............................
........................................................................

 iter      E             dE          RMSdq      gap      omega  full diag
   1   -225.4281348 -0.225428E+03  0.632E-02    0.68       0.0  T
   2   -225.4281366 -0.187927E-05  0.371E-02    0.68       1.0  T
   3   -225.4281262  0.104592E-04  0.835E-03    0.68       1.1  T
   4   -225.4281369 -0.107325E-04  0.237E-03    0.68       3.9  T
   5   -225.4281376 -0.631435E-06  0.149E-03    0.68       6.2  T
   6   -225.4281378 -0.285896E-06  0.672E-04    0.68      13.7  T
   7   -225.4281378  0.155968E-07  0.537E-04    0.68      17.1  T
     SCC iter.                  ...        0 min,  0.212 sec
     gradient                   ...        0 min,  0.034 sec
 * total energy  :  -222.9457795 Eh     change       -0.2961520E-03 Eh
   gradient norm :     0.0033394 Eh/α   predicted    -0.2034453E-03 ( -31.30%)
   displ. norm   :     0.5439971 α      lambda       -0.3048083E-03
   maximum displ.:     0.3886898 α      in ANC's #5, #4, #7, ...

........................................................................
.............................. CYCLE   34 ..............................
........................................................................

 iter      E             dE          RMSdq      gap      omega  full diag
   1   -225.4282827 -0.225428E+03  0.609E-02    0.68       0.0  T
   2   -225.4282845 -0.186177E-05  0.358E-02    0.68       1.0  T
   3   -225.4282745  0.100558E-04  0.811E-03    0.68       1.1  T
   4   -225.4282844 -0.994842E-05  0.266E-03    0.68       3.5  T
   5   -225.4282853 -0.850481E-06  0.165E-03    0.68       5.6  T
   6   -225.4282856 -0.365487E-06  0.697E-04    0.68      13.2  T
   7   -225.4282856  0.122911E-07  0.547E-04    0.68      16.8  T
     SCC iter.                  ...        0 min,  0.261 sec
     gradient                   ...        0 min,  0.035 sec
 * total energy  :  -222.9460630 Eh     change       -0.2834672E-03 Eh
   gradient norm :     0.0029106 Eh/α   predicted    -0.1975066E-03 ( -30.32%)
   displ. norm   :     0.5228980 α      lambda       -0.2724107E-03
   maximum displ.:     0.3757642 α      in ANC's #5, #4, #7, ...

........................................................................
.............................. CYCLE   35 ..............................
........................................................................

 iter      E             dE          RMSdq      gap      omega  full diag
   1   -225.4285439 -0.225429E+03  0.557E-02    0.67       0.0  T
   2   -225.4285455 -0.161071E-05  0.328E-02    0.68       1.0  T
   3   -225.4285346  0.108188E-04  0.807E-03    0.68       1.1  T
   4   -225.4285446 -0.991913E-05  0.318E-03    0.68       2.9  T
   5   -225.4285462 -0.158846E-05  0.156E-03    0.68       5.9  T
   6   -225.4285464 -0.290455E-06  0.722E-04    0.68      12.7  T
   7   -225.4285464 -0.230187E-08  0.547E-04    0.68      16.8  T
     SCC iter.                  ...        0 min,  0.233 sec
     gradient                   ...        0 min,  0.034 sec
 * total energy  :  -222.9463162 Eh     change       -0.2531636E-03 Eh
   gradient norm :     0.0023199 Eh/α   predicted    -0.1734476E-03 ( -31.49%)
   displ. norm   :     0.4831488 α      lambda       -0.2358582E-03
   maximum displ.:     0.3496589 α      in ANC's #5, #4, #7, ...

........................................................................
.............................. CYCLE   36 ..............................
........................................................................

 iter      E             dE          RMSdq      gap      omega  full diag
   1   -225.4287474 -0.225429E+03  0.483E-02    0.67       0.0  T
   2   -225.4287487 -0.138893E-05  0.284E-02    0.68       1.0  T
   3   -225.4287376  0.111420E-04  0.800E-03    0.67       1.2  T
   4   -225.4287469 -0.930637E-05  0.370E-03    0.68       2.5  T
   5   -225.4287493 -0.243291E-05  0.145E-03    0.68       6.4  T
   6   -225.4287496 -0.256018E-06  0.665E-04    0.68      13.9  T
   7   -225.4287496 -0.511849E-08  0.472E-04    0.68      19.5  T
     SCC iter.                  ...        0 min,  0.226 sec
     gradient                   ...        0 min,  0.034 sec
 * total energy  :  -222.9465366 Eh     change       -0.2204726E-03 Eh
   gradient norm :     0.0021533 Eh/α   predicted    -0.1454605E-03 ( -34.02%)
   displ. norm   :     0.4454137 α      lambda       -0.2101938E-03
   maximum displ.:     0.3234354 α      in ANC's #5, #4, #7, ...

........................................................................
.............................. CYCLE   37 ..............................
........................................................................

 iter      E             dE          RMSdq      gap      omega  full diag
   1   -225.4293090 -0.225429E+03  0.423E-02    0.67       0.0  T
   2   -225.4293100 -0.106161E-05  0.250E-02    0.68       1.0  T
   3   -225.4292989  0.111817E-04  0.786E-03    0.67       1.2  T
   4   -225.4293084 -0.951056E-05  0.352E-03    0.68       2.6  T
   5   -225.4293106 -0.220265E-05  0.132E-03    0.68       7.0  T
   6   -225.4293108 -0.186521E-06  0.686E-04    0.68      13.4  T
   7   -225.4293108 -0.293255E-07  0.422E-04    0.68      21.8  T
     SCC iter.                  ...        0 min,  0.198 sec
     gradient                   ...        0 min,  0.031 sec
 * total energy  :  -222.9467344 Eh     change       -0.1977276E-03 Eh
   gradient norm :     0.0019094 Eh/α   predicted    -0.1259521E-03 ( -36.30%)
   displ. norm   :     0.6482387 α      lambda       -0.2024734E-03
   maximum displ.:     0.4720694 α      in ANC's #5, #4, #7, ...

........................................................................
.............................. CYCLE   38 ..............................
........................................................................

 iter      E             dE          RMSdq      gap      omega  full diag
   1   -225.4291636 -0.225429E+03  0.588E-02    0.67       0.0  T
   2   -225.4291663 -0.268324E-05  0.348E-02    0.68       1.0  T
   3   -225.4291384  0.278942E-04  0.124E-02    0.67       1.0  T
   4   -225.4291609 -0.224377E-04  0.601E-03    0.68       1.5  T
   5   -225.4291676 -0.674145E-05  0.203E-03    0.67       4.5  T
   6   -225.4291681 -0.485342E-06  0.976E-04    0.67       9.4  T
   7   -225.4291681 -0.346719E-07  0.623E-04    0.67      14.8  T
     SCC iter.                  ...        0 min,  0.214 sec
     gradient                   ...        0 min,  0.038 sec
 * total energy  :  -222.9470112 Eh     change       -0.2768161E-03 Eh
   gradient norm :     0.0026102 Eh/α   predicted    -0.1201444E-03 ( -56.60%)
   displ. norm   :     0.4416436 α      lambda       -0.2019811E-03
   maximum displ.:     0.3198979 α      in ANC's #5, #4, #2, ...

........................................................................
.............................. CYCLE   39 ..............................
........................................................................

 iter      E             dE          RMSdq      gap      omega  full diag
   1   -225.4302245 -0.225430E+03  0.394E-02    0.67       0.0  T
   2   -225.4302257 -0.122092E-05  0.234E-02    0.67       1.0  T
   3   -225.4302123  0.134525E-04  0.867E-03    0.67       1.1  T
   4   -225.4302236 -0.112957E-04  0.392E-03    0.67       2.3  T
   5   -225.4302263 -0.275495E-05  0.141E-03    0.67       6.5  T
   6   -225.4302265 -0.205425E-06  0.774E-04    0.67      11.9  T
   7   -225.4302266 -0.508304E-07  0.439E-04    0.67      21.0  T
     SCC iter.                  ...        0 min,  0.222 sec
     gradient                   ...        0 min,  0.034 sec
 * total energy  :  -222.9471961 Eh     change       -0.1849135E-03 Eh
   gradient norm :     0.0025697 Eh/α   predicted    -0.1206905E-03 ( -34.73%)
   displ. norm   :     0.5074765 α      lambda       -0.2279332E-03
   maximum displ.:     0.3666202 α      in ANC's #5, #4, #2, ...

........................................................................
.............................. CYCLE   40 ..............................
........................................................................

 iter      E             dE          RMSdq      gap      omega  full diag
   1   -225.4301451 -0.225430E+03  0.451E-02    0.67       0.0  T
   2   -225.4301469 -0.178642E-05  0.268E-02    0.67       1.0  T
   3   -225.4301300  0.168371E-04  0.984E-03    0.67       1.0  T
   4   -225.4301435 -0.134351E-04  0.480E-03    0.67       1.9  T
   5   -225.4301477 -0.421295E-05  0.172E-03    0.67       5.4  T
   6   -225.4301480 -0.336334E-06  0.846E-04    0.67      10.9  T
   7   -225.4301480 -0.355260E-07  0.522E-04    0.67      17.6  T
     SCC iter.                  ...        0 min,  0.201 sec
     gradient                   ...        0 min,  0.034 sec
 * total energy  :  -222.9474060 Eh     change       -0.2098839E-03 Eh
   gradient norm :     0.0023268 Eh/α   predicted    -0.1433169E-03 ( -31.72%)
   displ. norm   :     0.5884094 α      lambda       -0.2519507E-03
   maximum displ.:     0.4217173 α      in ANC's #5, #4, #2, ...

........................................................................
.............................. CYCLE   41 ..............................
........................................................................

 iter      E             dE          RMSdq      gap      omega  full diag
   1   -225.4303466 -0.225430E+03  0.524E-02    0.67       0.0  T
   2   -225.4303487 -0.206255E-05  0.311E-02    0.67       1.0  T
   3   -225.4303274  0.212771E-04  0.111E-02    0.67       1.0  T
   4   -225.4303452 -0.178388E-04  0.506E-03    0.67       1.8  T
   5   -225.4303497 -0.448745E-05  0.200E-03    0.67       4.6  T
   6   -225.4303502 -0.432379E-06  0.997E-04    0.67       9.2  T
   7   -225.4303502 -0.665385E-07  0.570E-04    0.67      16.2  T
     SCC iter.                  ...        0 min,  0.206 sec
     gradient                   ...        0 min,  0.035 sec
 * total energy  :  -222.9476350 Eh     change       -0.2290046E-03 Eh
   gradient norm :     0.0023568 Eh/α   predicted    -0.1695978E-03 ( -25.94%)
   displ. norm   :     0.6794210 α      lambda       -0.2732254E-03
   maximum displ.:     0.4830188 α      in ANC's #5, #4, #2, ...

........................................................................
.............................. CYCLE   42 ..............................
........................................................................

 iter      E             dE          RMSdq      gap      omega  full diag
   1   -225.4305234 -0.225431E+03  0.620E-02    0.67       0.0  T
   2   -225.4305262 -0.280910E-05  0.369E-02    0.67       1.0  T
   3   -225.4305021  0.240394E-04  0.119E-02    0.67       1.0  T
   4   -225.4305226 -0.204246E-04  0.541E-03    0.67       1.7  T
   5   -225.4305274 -0.483824E-05  0.238E-03    0.67       3.9  T
   6   -225.4305280 -0.593975E-06  0.121E-03    0.67       7.6  T
   7   -225.4305281 -0.116003E-06  0.669E-04    0.67      13.8  T
   8   -225.4305282 -0.780068E-07  0.238E-04    0.67      38.6  T
     SCC iter.                  ...        0 min,  0.241 sec
     gradient                   ...        0 min,  0.036 sec
 * total energy  :  -222.9478788 Eh     change       -0.2437945E-03 Eh
   gradient norm :     0.0025206 Eh/α   predicted    -0.1996757E-03 ( -18.10%)
   displ. norm   :     0.7504247 α      lambda       -0.2843283E-03
   maximum displ.:     0.5271788 α      in ANC's #5, #4, #2, ...
 * RMSD in coord.:     0.8580352 α      energy gain  -0.4944602E-02 Eh

generating ANC from exact Hessian ...
Using Lindh-Hessian (1995)
 Shifting diagonal of input Hessian by   1.008105961887940E-002
 Lowest  eigenvalues of input Hessian
    0.010000    0.010037    0.010042    0.000000    0.000000    0.000000
    0.000000    0.000000    0.000000    0.010234    0.010282    0.010357
    0.010552    0.010869    0.010988    0.011437    0.012677    0.013191
 Highest eigenvalues
    2.093465    2.113416    2.154235    2.258495    2.277722    2.308952
 

........................................................................
.............................. CYCLE   43 ..............................
........................................................................

 iter      E             dE          RMSdq      gap      omega  full diag
   1   -225.4307895 -0.225431E+03  0.697E-02    0.67       0.0  T
   2   -225.4307929 -0.341051E-05  0.414E-02    0.67       1.0  T
   3   -225.4307683  0.246101E-04  0.123E-02    0.67       1.0  T
   4   -225.4307898 -0.214893E-04  0.540E-03    0.67       1.7  T
   5   -225.4307941 -0.434112E-05  0.278E-03    0.67       3.3  T
   6   -225.4307950 -0.902922E-06  0.130E-03    0.67       7.1  T
   7   -225.4307952 -0.152398E-06  0.630E-04    0.67      14.6  T
   8   -225.4307953 -0.625681E-07  0.245E-04    0.67      37.6  T
     SCC iter.                  ...        0 min,  0.294 sec
     gradient                   ...        0 min,  0.034 sec
 * total energy  :  -222.9481301 Eh     change       -0.2513488E-03 Eh
   gradient norm :     0.0026302 Eh/α   predicted     0.0000000E+00 (-100.00%)
   displ. norm   :     0.0669704 α      lambda       -0.6836724E-05
   maximum displ.:     0.0347950 α      in ANC's #5, #11, #8, ...

........................................................................
.............................. CYCLE   44 ..............................
........................................................................

 iter      E             dE          RMSdq      gap      omega  full diag
   1   -225.4320871 -0.225432E+03  0.991E-03    0.67       0.0  T
   2   -225.4320873 -0.153559E-06  0.582E-03    0.67       1.6  T
   3   -225.4320868  0.436726E-06  0.185E-03    0.67       5.0  T
   4   -225.4320872 -0.325001E-06  0.934E-04    0.67       9.9  T
   5   -225.4320873 -0.149385E-06  0.365E-04    0.67      25.2  T
     SCC iter.                  ...        0 min,  0.170 sec
     gradient                   ...        0 min,  0.034 sec
 * total energy  :  -222.9481884 Eh     change       -0.5824637E-04 Eh
   gradient norm :     0.0014439 Eh/α   predicted    -0.3233511E-04 ( -44.49%)
   displ. norm   :     0.4931010 α      lambda       -0.2527637E-03
   maximum displ.:     0.2381975 α      in ANC's #5, #11, #8, ...

........................................................................
.............................. CYCLE   45 ..............................
........................................................................

 iter      E             dE          RMSdq      gap      omega  full diag
   1   -225.4357694 -0.225436E+03  0.699E-02    0.67       0.0  T
   2   -225.4357751 -0.561202E-05  0.410E-02    0.67       1.0  T
   3   -225.4357520  0.230253E-04  0.122E-02    0.67       1.0  T
   4   -225.4357676 -0.155784E-04  0.690E-03    0.67       1.3  T
   5   -225.4357767 -0.909596E-05  0.221E-03    0.67       4.2  T
   6   -225.4357775 -0.750277E-06  0.858E-04    0.67      10.7  T
   7   -225.4357775 -0.224864E-07  0.424E-04    0.67      21.7  T
     SCC iter.                  ...        0 min,  0.234 sec
     gradient                   ...        0 min,  0.035 sec
 * total energy  :  -222.9484364 Eh     change       -0.2480385E-03 Eh
   gradient norm :     0.0051362 Eh/α   predicted    -0.1400661E-03 ( -43.53%)
   displ. norm   :     0.2704678 α      lambda       -0.1410547E-03
   maximum displ.:     0.1368023 α      in ANC's #5, #11, #8, ...

........................................................................
.............................. CYCLE   46 ..............................
........................................................................

 iter      E             dE          RMSdq      gap      omega  full diag
   1   -225.4347839 -0.225435E+03  0.354E-02    0.67       0.0  T
   2   -225.4347853 -0.139069E-05  0.208E-02    0.67       1.0  T
   3   -225.4347779  0.743301E-05  0.720E-03    0.67       1.3  T
   4   -225.4347840 -0.609975E-05  0.324E-03    0.67       2.8  T
   5   -225.4347859 -0.194459E-05  0.118E-03    0.67       7.8  T
   6   -225.4347861 -0.212846E-06  0.445E-04    0.67      20.7  T
   7   -225.4347861  0.193754E-08  0.288E-04    0.67      31.9  T
     SCC iter.                  ...        0 min,  0.488 sec
     gradient                   ...        0 min,  0.035 sec
 * total energy  :  -222.9485594 Eh     change       -0.1229866E-03 Eh
   gradient norm :     0.0044574 Eh/α   predicted    -0.7568960E-04 ( -38.46%)
   displ. norm   :     0.4367793 α      lambda       -0.2167265E-03
   maximum displ.:     0.2234195 α      in ANC's #5, #4, #11, ...

........................................................................
.............................. CYCLE   47 ..............................
........................................................................

 iter      E             dE          RMSdq      gap      omega  full diag
   1   -225.4320885 -0.225432E+03  0.541E-02    0.68       0.0  T
   2   -225.4320920 -0.355275E-05  0.317E-02    0.67       1.0  T
   3   -225.4320754  0.166619E-04  0.117E-02    0.68       1.0  T
   4   -225.4320913 -0.158952E-04  0.395E-03    0.67       2.3  T
   5   -225.4320937 -0.243823E-05  0.193E-03    0.67       4.8  T
   6   -225.4320943 -0.575956E-06  0.743E-04    0.67      12.4  T
   7   -225.4320943  0.111364E-07  0.564E-04    0.67      16.3  T
     SCC iter.                  ...        0 min,  0.207 sec
     gradient                   ...        0 min,  0.030 sec
 * total energy  :  -222.9487288 Eh     change       -0.1694259E-03 Eh
   gradient norm :     0.0025857 Eh/α   predicted    -0.1290489E-03 ( -23.83%)
   displ. norm   :     0.3945760 α      lambda       -0.1522555E-03
   maximum displ.:     0.2083208 α      in ANC's #5, #4, #6, ...

........................................................................
.............................. CYCLE   48 ..............................
........................................................................

 iter      E             dE          RMSdq      gap      omega  full diag
   1   -225.4301247 -0.225430E+03  0.452E-02    0.68       0.0  T
   2   -225.4301271 -0.240706E-05  0.266E-02    0.67       1.0  T
   3   -225.4301158  0.113214E-04  0.976E-03    0.68       1.0  T
   4   -225.4301271 -0.113194E-04  0.290E-03    0.67       3.2  T
   5   -225.4301283 -0.122267E-05  0.157E-03    0.67       5.9  T
   6   -225.4301287 -0.362769E-06  0.659E-04    0.67      14.0  T
   7   -225.4301287 -0.348817E-08  0.464E-04    0.67      19.8  T
     SCC iter.                  ...        0 min,  0.201 sec
     gradient                   ...        0 min,  0.033 sec
 * total energy  :  -222.9488484 Eh     change       -0.1195546E-03 Eh
   gradient norm :     0.0028252 Eh/α   predicted    -0.8797829E-04 ( -26.41%)
   displ. norm   :     0.3404866 α      lambda       -0.1280904E-03
   maximum displ.:     0.1838683 α      in ANC's #5, #4, #6, ...

........................................................................
.............................. CYCLE   49 ..............................
........................................................................

 iter      E             dE          RMSdq      gap      omega  full diag
   1   -225.4298464 -0.225430E+03  0.349E-02    0.68       0.0  T
   2   -225.4298477 -0.125516E-05  0.205E-02    0.68       1.0  T
   3   -225.4298409  0.675486E-05  0.710E-03    0.67       1.3  T
   4   -225.4298475 -0.662789E-05  0.214E-03    0.68       4.3  T
   5   -225.4298483 -0.812152E-06  0.106E-03    0.67       8.7  T
   6   -225.4298485 -0.150773E-06  0.549E-04    0.68      16.8  T
   7   -225.4298485 -0.100097E-07  0.405E-04    0.68      22.7  T
     SCC iter.                  ...        0 min,  0.212 sec
     gradient                   ...        0 min,  0.032 sec
 * total energy  :  -222.9489566 Eh     change       -0.1081871E-03 Eh
   gradient norm :     0.0034341 Eh/α   predicted    -0.7148600E-04 ( -33.92%)
   displ. norm   :     0.3909809 α      lambda       -0.1594425E-03
   maximum displ.:     0.2121376 α      in ANC's #5, #4, #6, ...

........................................................................
.............................. CYCLE   50 ..............................
........................................................................

 iter      E             dE          RMSdq      gap      omega  full diag
   1   -225.4307523 -0.225431E+03  0.375E-02    0.67       0.0  T
   2   -225.4307536 -0.133683E-05  0.220E-02    0.68       1.0  T
   3   -225.4307459  0.771870E-05  0.701E-03    0.67       1.3  T
   4   -225.4307529 -0.697611E-05  0.278E-03    0.68       3.3  T
   5   -225.4307542 -0.131112E-05  0.135E-03    0.67       6.8  T
   6   -225.4307544 -0.260655E-06  0.660E-04    0.67      13.9  T
   7   -225.4307545 -0.355145E-07  0.337E-04    0.67      27.3  T
     SCC iter.                  ...        0 min,  0.274 sec
     gradient                   ...        0 min,  0.034 sec
 * total energy  :  -222.9490917 Eh     change       -0.1351385E-03 Eh
   gradient norm :     0.0034258 Eh/α   predicted    -0.9190787E-04 ( -31.99%)
   displ. norm   :     0.4568981 α      lambda       -0.1807588E-03
   maximum displ.:     0.2475318 α      in ANC's #5, #4, #6, ...

........................................................................
.............................. CYCLE   51 ..............................
........................................................................

 iter      E             dE          RMSdq      gap      omega  full diag
   1   -225.4319841 -0.225432E+03  0.427E-02    0.67       0.0  T
   2   -225.4319860 -0.182631E-05  0.250E-02    0.68       1.0  T
   3   -225.4319713  0.147122E-04  0.912E-03    0.67       1.0  T
   4   -225.4319833 -0.120156E-04  0.432E-03    0.68       2.1  T
   5   -225.4319868 -0.357763E-05  0.161E-03    0.67       5.7  T
   6   -225.4319872 -0.377170E-06  0.736E-04    0.67      12.5  T
   7   -225.4319873 -0.333942E-07  0.377E-04    0.67      24.4  T
     SCC iter.                  ...        0 min,  0.229 sec
     gradient                   ...        0 min,  0.033 sec
 * total energy  :  -222.9492452 Eh     change       -0.1534790E-03 Eh
   gradient norm :     0.0028938 Eh/α   predicted    -0.1092546E-03 ( -28.81%)
   displ. norm   :     0.4894348 α      lambda       -0.1864356E-03
   maximum displ.:     0.2646491 α      in ANC's #5, #4, #6, ...

........................................................................
.............................. CYCLE   52 ..............................
........................................................................

 iter      E             dE          RMSdq      gap      omega  full diag
   1   -225.4333244 -0.225433E+03  0.447E-02    0.67       0.0  T
   2   -225.4333268 -0.241925E-05  0.263E-02    0.68       1.0  T
   3   -225.4333107  0.160903E-04  0.990E-03    0.67       1.0  T
   4   -225.4333235 -0.127704E-04  0.482E-03    0.68       1.9  T
   5   -225.4333277 -0.427352E-05  0.185E-03    0.67       5.0  T
   6   -225.4333283 -0.536404E-06  0.774E-04    0.67      11.9  T
   7   -225.4333283 -0.355439E-07  0.399E-04    0.67      23.1  T
     SCC iter.                  ...        0 min,  0.192 sec
     gradient                   ...        0 min,  0.036 sec
 * total energy  :  -222.9494080 Eh     change       -0.1628002E-03 Eh
   gradient norm :     0.0027389 Eh/α   predicted    -0.1155534E-03 ( -29.02%)
   displ. norm   :     0.5255652 α      lambda       -0.2072408E-03
   maximum displ.:     0.2826290 α      in ANC's #4, #5, #6, ...

........................................................................
.............................. CYCLE   53 ..............................
........................................................................

 iter      E             dE          RMSdq      gap      omega  full diag
   1   -225.4345168 -0.225435E+03  0.460E-02    0.67       0.0  T
   2   -225.4345197 -0.288147E-05  0.271E-02    0.67       1.0  T
   3   -225.4345027  0.169715E-04  0.104E-02    0.67       1.0  T
   4   -225.4345159 -0.131299E-04  0.519E-03    0.67       1.8  T
   5   -225.4345208 -0.488771E-05  0.196E-03    0.67       4.7  T
   6   -225.4345213 -0.581410E-06  0.828E-04    0.67      11.1  T
   7   -225.4345214 -0.350485E-07  0.481E-04    0.67      19.1  T
     SCC iter.                  ...        0 min,  0.195 sec
     gradient                   ...        0 min,  0.032 sec
 * total energy  :  -222.9495940 Eh     change       -0.1860022E-03 Eh
   gradient norm :     0.0030421 Eh/α   predicted    -0.1322386E-03 ( -28.90%)
   displ. norm   :     0.5817380 α      lambda       -0.2434783E-03
   maximum displ.:     0.3190240 α      in ANC's #4, #5, #6, ...

........................................................................
.............................. CYCLE   54 ..............................
........................................................................

 iter      E             dE          RMSdq      gap      omega  full diag
   1   -225.4352128 -0.225435E+03  0.486E-02    0.67       0.0  T
   2   -225.4352159 -0.305580E-05  0.287E-02    0.67       1.0  T
   3   -225.4352010  0.148812E-04  0.988E-03    0.67       1.0  T
   4   -225.4352133 -0.123246E-04  0.460E-03    0.67       2.0  T
   5   -225.4352170 -0.363674E-05  0.186E-03    0.67       5.0  T
   6   -225.4352174 -0.419464E-06  0.954E-04    0.67       9.7  T
   7   -225.4352174 -0.529581E-07  0.604E-04    0.67      15.2  T
     SCC iter.                  ...        0 min,  0.300 sec
     gradient                   ...        0 min,  0.032 sec
 * total energy  :  -222.9498136 Eh     change       -0.2195762E-03 Eh
   gradient norm :     0.0032418 Eh/α   predicted    -0.1629320E-03 ( -25.80%)
   displ. norm   :     0.6297110 α      lambda       -0.2661778E-03
   maximum displ.:     0.3510268 α      in ANC's #4, #5, #6, ...

........................................................................
.............................. CYCLE   55 ..............................
........................................................................

 iter      E             dE          RMSdq      gap      omega  full diag
   1   -225.4351480 -0.225435E+03  0.490E-02    0.67       0.0  T
   2   -225.4351507 -0.270040E-05  0.289E-02    0.67       1.0  T
   3   -225.4351409  0.982540E-05  0.806E-03    0.67       1.1  T
   4   -225.4351494 -0.847685E-05  0.364E-03    0.67       2.5  T
   5   -225.4351517 -0.230354E-05  0.149E-03    0.67       6.2  T
   6   -225.4351519 -0.185280E-06  0.866E-04    0.67      10.6  T
   7   -225.4351519 -0.316787E-07  0.584E-04    0.67      15.8  T
     SCC iter.                  ...        0 min,  0.200 sec
     gradient                   ...        0 min,  0.030 sec
 * total energy  :  -222.9500507 Eh     change       -0.2371152E-03 Eh
   gradient norm :     0.0030737 Eh/α   predicted    -0.1858588E-03 ( -21.62%)
   displ. norm   :     0.6438873 α      lambda       -0.2592386E-03
   maximum displ.:     0.3643095 α      in ANC's #4, #5, #6, ...

........................................................................
.............................. CYCLE   56 ..............................
........................................................................

 iter      E             dE          RMSdq      gap      omega  full diag
   1   -225.4346215 -0.225435E+03  0.476E-02    0.67       0.0  T
   2   -225.4346237 -0.225004E-05  0.282E-02    0.67       1.0  T
   3   -225.4346141  0.963185E-05  0.769E-03    0.67       1.2  T
   4   -225.4346217 -0.756564E-05  0.384E-03    0.67       2.4  T
   5   -225.4346244 -0.279328E-05  0.156E-03    0.67       5.9  T
   6   -225.4346247 -0.217390E-06  0.979E-04    0.67       9.4  T
   7   -225.4346248 -0.872890E-07  0.548E-04    0.67      16.8  T
     SCC iter.                  ...        0 min,  0.193 sec
     gradient                   ...        0 min,  0.031 sec
 * total energy  :  -222.9502782 Eh     change       -0.2274673E-03 Eh
   gradient norm :     0.0029054 Eh/α   predicted    -0.1833530E-03 ( -19.39%)
   displ. norm   :     0.6282760 α      lambda       -0.2356479E-03
   maximum displ.:     0.3598531 α      in ANC's #4, #5, #6, ...

........................................................................
.............................. CYCLE   57 ..............................
........................................................................

 iter      E             dE          RMSdq      gap      omega  full diag
   1   -225.4341235 -0.225434E+03  0.448E-02    0.66       0.0  T
   2   -225.4341257 -0.219114E-05  0.265E-02    0.67       1.0  T
   3   -225.4341173  0.843934E-05  0.766E-03    0.67       1.2  T
   4   -225.4341237 -0.648015E-05  0.379E-03    0.66       2.4  T
   5   -225.4341263 -0.252749E-05  0.167E-03    0.67       5.5  T
   6   -225.4341266 -0.361191E-06  0.813E-04    0.67      11.3  T
   7   -225.4341267 -0.357491E-07  0.490E-04    0.67      18.8  T
     SCC iter.                  ...        0 min,  0.184 sec
     gradient                   ...        0 min,  0.033 sec
 * total energy  :  -222.9504826 Eh     change       -0.2044560E-03 Eh
   gradient norm :     0.0029556 Eh/α   predicted    -0.1643316E-03 ( -19.62%)
   displ. norm   :     0.5894875 α      lambda       -0.2100643E-03
   maximum displ.:     0.3412904 α      in ANC's #4, #5, #6, ...

........................................................................
.............................. CYCLE   58 ..............................
........................................................................

 iter      E             dE          RMSdq      gap      omega  full diag
   1   -225.4340362 -0.225434E+03  0.427E-02    0.66       0.0  T
   2   -225.4340384 -0.222765E-05  0.254E-02    0.66       1.0  T
   3   -225.4340272  0.112412E-04  0.880E-03    0.66       1.0  T
   4   -225.4340356 -0.842586E-05  0.434E-03    0.66       2.1  T
   5   -225.4340391 -0.352939E-05  0.170E-03    0.66       5.4  T
   6   -225.4340395 -0.406638E-06  0.734E-04    0.66      12.5  T
   7   -225.4340396 -0.116680E-07  0.482E-04    0.66      19.1  T
     SCC iter.                  ...        0 min,  0.296 sec
     gradient                   ...        0 min,  0.035 sec
 * total energy  :  -222.9506617 Eh     change       -0.1791369E-03 Eh
   gradient norm :     0.0030440 Eh/α   predicted    -0.1415272E-03 ( -20.99%)
   displ. norm   :     0.5542868 α      lambda       -0.1870773E-03
   maximum displ.:     0.3230156 α      in ANC's #4, #5, #3, ...

........................................................................
.............................. CYCLE   59 ..............................
........................................................................

 iter      E             dE          RMSdq      gap      omega  full diag
   1   -225.4342461 -0.225434E+03  0.418E-02    0.66       0.0  T
   2   -225.4342484 -0.225414E-05  0.249E-02    0.66       1.0  T
   3   -225.4342376  0.108094E-04  0.887E-03    0.66       1.0  T
   4   -225.4342461 -0.859261E-05  0.408E-03    0.66       2.3  T
   5   -225.4342490 -0.289561E-05  0.177E-03    0.66       5.2  T
   6   -225.4342495 -0.494085E-06  0.679E-04    0.66      13.6  T
   7   -225.4342495 -0.872348E-08  0.419E-04    0.66      22.0  T
     SCC iter.                  ...        0 min,  0.202 sec
     gradient                   ...        0 min,  0.033 sec
 * total energy  :  -222.9508167 Eh     change       -0.1549717E-03 Eh
   gradient norm :     0.0030378 Eh/α   predicted    -0.1222725E-03 ( -21.10%)
   displ. norm   :     0.5230938 α      lambda       -0.1611414E-03
   maximum displ.:     0.3045570 α      in ANC's #4, #5, #3, ...

........................................................................
.............................. CYCLE   60 ..............................
........................................................................

 iter      E             dE          RMSdq      gap      omega  full diag
   1   -225.4345488 -0.225435E+03  0.417E-02    0.66       0.0  T
   2   -225.4345509 -0.216138E-05  0.248E-02    0.66       1.0  T
   3   -225.4345404  0.105544E-04  0.869E-03    0.66       1.1  T
   4   -225.4345494 -0.896492E-05  0.369E-03    0.65       2.5  T
   5   -225.4345516 -0.226533E-05  0.176E-03    0.66       5.2  T
   6   -225.4345521 -0.497223E-06  0.717E-04    0.66      12.8  T
   7   -225.4345521 -0.913812E-08  0.477E-04    0.66      19.3  T
     SCC iter.                  ...        0 min,  0.226 sec
     gradient                   ...        0 min,  0.033 sec
 * total energy  :  -222.9509456 Eh     change       -0.1288489E-03 Eh
   gradient norm :     0.0028920 Eh/α   predicted    -0.1026147E-03 ( -20.36%)
   displ. norm   :     0.4812266 α      lambda       -0.1333158E-03
   maximum displ.:     0.2767074 α      in ANC's #4, #5, #3, ...

........................................................................
.............................. CYCLE   61 ..............................
........................................................................

 iter      E             dE          RMSdq      gap      omega  full diag
   1   -225.4347104 -0.225435E+03  0.397E-02    0.65       0.0  T
   2   -225.4347123 -0.195957E-05  0.236E-02    0.65       1.0  T
   3   -225.4347045  0.777355E-05  0.762E-03    0.65       1.2  T
   4   -225.4347121 -0.759109E-05  0.257E-03    0.65       3.6  T
   5   -225.4347129 -0.810433E-06  0.155E-03    0.65       5.9  T
   6   -225.4347133 -0.362137E-06  0.769E-04    0.65      12.0  T
   7   -225.4347133 -0.299090E-07  0.504E-04    0.65      18.3  T
     SCC iter.                  ...        0 min,  0.219 sec
     gradient                   ...        0 min,  0.037 sec
 * total energy  :  -222.9510505 Eh     change       -0.1049479E-03 Eh
   gradient norm :     0.0028654 Eh/α   predicted    -0.8209565E-04 ( -21.77%)
   displ. norm   :     0.4219301 α      lambda       -0.1176524E-03
   maximum displ.:     0.2348416 α      in ANC's #4, #5, #3, ...

........................................................................
.............................. CYCLE   62 ..............................
........................................................................

 iter      E             dE          RMSdq      gap      omega  full diag
   1   -225.4350937 -0.225435E+03  0.369E-02    0.65       0.0  T
   2   -225.4350956 -0.181855E-05  0.219E-02    0.65       1.0  T
   3   -225.4350879  0.766732E-05  0.742E-03    0.65       1.2  T
   4   -225.4350953 -0.737403E-05  0.267E-03    0.65       3.5  T
   5   -225.4350963 -0.107344E-05  0.132E-03    0.65       7.0  T
   6   -225.4350965 -0.200357E-06  0.668E-04    0.65      13.8  T
   7   -225.4350966 -0.830184E-08  0.469E-04    0.65      19.6  T
     SCC iter.                  ...        0 min,  0.208 sec
     gradient                   ...        0 min,  0.059 sec
 * total energy  :  -222.9511436 Eh     change       -0.9305429E-04 Eh
   gradient norm :     0.0028453 Eh/α   predicted    -0.6929873E-04 ( -25.53%)
   displ. norm   :     0.3676304 α      lambda       -0.1125174E-03
   maximum displ.:     0.1890465 α      in ANC's #4, #5, #3, ...

........................................................................
.............................. CYCLE   63 ..............................
........................................................................

 iter      E             dE          RMSdq      gap      omega  full diag
   1   -225.4350807 -0.225435E+03  0.351E-02    0.65       0.0  T
   2   -225.4350826 -0.182339E-05  0.208E-02    0.65       1.0  T
   3   -225.4350732  0.935254E-05  0.803E-03    0.65       1.1  T
   4   -225.4350817 -0.843298E-05  0.328E-03    0.65       2.8  T
   5   -225.4350834 -0.177180E-05  0.142E-03    0.65       6.5  T
   6   -225.4350836 -0.193519E-06  0.802E-04    0.65      11.5  T
   7   -225.4350837 -0.435038E-07  0.507E-04    0.65      18.1  T
     SCC iter.                  ...        0 min,  0.196 sec
     gradient                   ...        0 min,  0.031 sec
 * total energy  :  -222.9512323 Eh     change       -0.8869248E-04 Eh
   gradient norm :     0.0030733 Eh/α   predicted    -0.6386264E-04 ( -28.00%)
   displ. norm   :     0.3334197 α      lambda       -0.1093536E-03
   maximum displ.:     0.1573422 α      in ANC's #4, #3, #2, ...

........................................................................
.............................. CYCLE   64 ..............................
........................................................................

 iter      E             dE          RMSdq      gap      omega  full diag
   1   -225.4357044 -0.225436E+03  0.346E-02    0.65       0.0  T
   2   -225.4357063 -0.182875E-05  0.204E-02    0.65       1.0  T
   3   -225.4356920  0.142198E-04  0.953E-03    0.65       1.0  T
   4   -225.4357042 -0.121597E-04  0.420E-03    0.65       2.2  T
   5   -225.4357073 -0.308480E-05  0.153E-03    0.65       6.0  T
   6   -225.4357075 -0.225352E-06  0.876E-04    0.65      10.5  T
   7   -225.4357076 -0.751317E-07  0.493E-04    0.65      18.7  T
     SCC iter.                  ...        0 min,  0.201 sec
     gradient                   ...        0 min,  0.034 sec
 * total energy  :  -222.9513157 Eh     change       -0.8340779E-04 Eh
   gradient norm :     0.0031457 Eh/α   predicted    -0.6075566E-04 ( -27.16%)
   displ. norm   :     0.3690103 α      lambda       -0.1015480E-03
   maximum displ.:     0.1711558 α      in ANC's #4, #3, #2, ...

........................................................................
.............................. CYCLE   65 ..............................
........................................................................

 iter      E             dE          RMSdq      gap      omega  full diag
   1   -225.4340937 -0.225434E+03  0.392E-02    0.66       0.0  T
   2   -225.4340953 -0.163549E-05  0.231E-02    0.65       1.0  T
   3   -225.4340791  0.162220E-04  0.983E-03    0.65       1.0  T
   4   -225.4340934 -0.143205E-04  0.412E-03    0.66       2.2  T
   5   -225.4340963 -0.290279E-05  0.153E-03    0.65       6.0  T
   6   -225.4340965 -0.197189E-06  0.934E-04    0.65       9.9  T
   7   -225.4340966 -0.958925E-07  0.488E-04    0.65      18.9  T
     SCC iter.                  ...        0 min,  0.207 sec
     gradient                   ...        0 min,  0.035 sec
 * total energy  :  -222.9513888 Eh     change       -0.7317985E-04 Eh
   gradient norm :     0.0037196 Eh/α   predicted    -0.5768988E-04 ( -21.17%)
   displ. norm   :     0.3336097 α      lambda       -0.1277341E-03
   maximum displ.:     0.1446675 α      in ANC's #9, #4, #3, ...

........................................................................
.............................. CYCLE   66 ..............................
........................................................................

 iter      E             dE          RMSdq      gap      omega  full diag
   1   -225.4362561 -0.225436E+03  0.382E-02    0.66       0.0  T
   2   -225.4362585 -0.235828E-05  0.224E-02    0.66       1.0  T
   3   -225.4362375  0.209445E-04  0.113E-02    0.65       1.0  T
   4   -225.4362550 -0.174340E-04  0.518E-03    0.66       1.8  T
   5   -225.4362597 -0.474051E-05  0.177E-03    0.66       5.2  T
   6   -225.4362601 -0.372315E-06  0.940E-04    0.66       9.8  T
   7   -225.4362601 -0.687777E-07  0.566E-04    0.66      16.3  T
     SCC iter.                  ...        0 min,  0.258 sec
     gradient                   ...        0 min,  0.047 sec
 * total energy  :  -222.9514669 Eh     change       -0.7806041E-04 Eh
   gradient norm :     0.0035778 Eh/α   predicted    -0.7097498E-04 (  -9.08%)
   displ. norm   :     0.3662661 α      lambda       -0.9044487E-04
   maximum displ.:     0.1736503 α      in ANC's #4, #3, #2, ...
 * RMSD in coord.:     0.8664492 α      energy gain  -0.3588123E-02 Eh

generating ANC from exact Hessian ...
Using Lindh-Hessian (1995)
 Shifting diagonal of input Hessian by   1.007830616606928E-002
 Lowest  eigenvalues of input Hessian
    0.010000    0.010015    0.010027    0.000000    0.000000    0.000000
    0.000000    0.000000    0.000000    0.010243    0.010326    0.010501
    0.010693    0.011041    0.011201    0.011594    0.012938    0.013202
 Highest eigenvalues
    2.091851    2.118087    2.153944    2.257225    2.281733    2.307439
 

........................................................................
.............................. CYCLE   67 ..............................
........................................................................

 iter      E             dE          RMSdq      gap      omega  full diag
   1   -225.4348942 -0.225435E+03  0.365E-02    0.66       0.0  T
   2   -225.4348954 -0.113583E-05  0.215E-02    0.66       1.0  T
   3   -225.4348860  0.935128E-05  0.758E-03    0.66       1.2  T
   4   -225.4348945 -0.843240E-05  0.312E-03    0.66       3.0  T
   5   -225.4348960 -0.154677E-05  0.131E-03    0.65       7.0  T
   6   -225.4348961 -0.116177E-06  0.824E-04    0.66      11.2  T
   7   -225.4348962 -0.704625E-07  0.453E-04    0.66      20.3  T
     SCC iter.                  ...        0 min,  0.198 sec
     gradient                   ...        0 min,  0.033 sec
 * total energy  :  -222.9515335 Eh     change       -0.6661698E-04 Eh
   gradient norm :     0.0034308 Eh/α   predicted     0.0000000E+00 (-100.00%)
   displ. norm   :     0.0386739 α      lambda       -0.4488153E-04
   maximum displ.:     0.0161488 α      in ANC's #16, #10, #11, ...

........................................................................
.............................. CYCLE   68 ..............................
........................................................................

 iter      E             dE          RMSdq      gap      omega  full diag
   1   -225.4354637 -0.225435E+03  0.736E-03    0.65       0.0  T
   2   -225.4354639 -0.208384E-06  0.435E-03    0.65       2.1  T
   3   -225.4354634  0.521129E-06  0.250E-03    0.65       3.7  T
   4   -225.4354639 -0.466827E-06  0.983E-04    0.65       9.4  T
   5   -225.4354640 -0.153173E-06  0.457E-04    0.65      20.1  T
     SCC iter.                  ...        0 min,  0.144 sec
     gradient                   ...        0 min,  0.030 sec
 * total energy  :  -222.9515702 Eh     change       -0.3667199E-04 Eh
   gradient norm :     0.0018901 Eh/α   predicted    -0.2251178E-04 ( -38.61%)
   displ. norm   :     0.1647397 α      lambda       -0.7417723E-04
   maximum displ.:     0.0636064 α      in ANC's #10, #11, #9, ...

........................................................................
.............................. CYCLE   69 ..............................
........................................................................

 iter      E             dE          RMSdq      gap      omega  full diag
   1   -225.4362795 -0.225436E+03  0.261E-02    0.65       0.0  T
   2   -225.4362817 -0.221098E-05  0.154E-02    0.65       1.0  T
   3   -225.4362726  0.918832E-05  0.966E-03    0.65       1.0  T
   4   -225.4362796 -0.702932E-05  0.447E-03    0.65       2.1  T
   5   -225.4362833 -0.371231E-05  0.142E-03    0.65       6.5  T
   6   -225.4362836 -0.294775E-06  0.620E-04    0.65      14.8  T
   7   -225.4362836 -0.223249E-07  0.386E-04    0.65      23.8  T
     SCC iter.                  ...        0 min,  0.325 sec
     gradient                   ...        0 min,  0.040 sec
 * total energy  :  -222.9516195 Eh     change       -0.4928986E-04 Eh
   gradient norm :     0.0029516 Eh/α   predicted    -0.3753668E-04 ( -23.85%)
   displ. norm   :     0.0317505 α      lambda       -0.1824681E-04
   maximum displ.:     0.0149139 α      in ANC's #2, #9, #11, ...

........................................................................
.............................. CYCLE   70 ..............................
........................................................................

 iter      E             dE          RMSdq      gap      omega  full diag
   1   -225.4360558 -0.225436E+03  0.407E-03    0.65       0.0  T
   2   -225.4360559 -0.269221E-07  0.241E-03    0.65       3.8  T
   3   -225.4360554  0.444061E-06  0.153E-03    0.65       6.0  T
   4   -225.4360558 -0.416025E-06  0.528E-04    0.65      17.4  T
   5   -225.4360559 -0.586631E-07  0.156E-04    0.65      58.8  T
     SCC iter.                  ...        0 min,  0.169 sec
     gradient                   ...        0 min,  0.103 sec
 * total energy  :  -222.9516354 Eh     change       -0.1595123E-04 Eh
   gradient norm :     0.0019009 Eh/α   predicted    -0.9132889E-05 ( -42.74%)
   displ. norm   :     0.2049974 α      lambda       -0.5178914E-04
   maximum displ.:     0.0957606 α      in ANC's #2, #9, #11, ...

........................................................................
.............................. CYCLE   71 ..............................
........................................................................

 iter      E             dE          RMSdq      gap      omega  full diag
   1   -225.4349925 -0.225435E+03  0.224E-02    0.65       0.0  T
   2   -225.4349935 -0.100280E-05  0.132E-02    0.65       1.0  T
   3   -225.4349885  0.503276E-05  0.586E-03    0.65       1.6  T
   4   -225.4349917 -0.323666E-05  0.337E-03    0.65       2.7  T
   5   -225.4349939 -0.215310E-05  0.928E-04    0.65       9.9  T
   6   -225.4349940 -0.116820E-06  0.437E-04    0.65      21.1  T
   7   -225.4349940 -0.671042E-08  0.276E-04    0.65      33.4  T
     SCC iter.                  ...        0 min,  0.191 sec
     gradient                   ...        0 min,  0.030 sec
 * total energy  :  -222.9516698 Eh     change       -0.3440865E-04 Eh
   gradient norm :     0.0030206 Eh/α   predicted    -0.2641099E-04 ( -23.24%)
   displ. norm   :     0.0435369 α      lambda       -0.1562319E-04
   maximum displ.:     0.0231689 α      in ANC's #2, #9, #1, ...

........................................................................
.............................. CYCLE   72 ..............................
........................................................................

 iter      E             dE          RMSdq      gap      omega  full diag
   1   -225.4352010 -0.225435E+03  0.543E-03    0.65       0.0  T
   2   -225.4352010 -0.416520E-07  0.328E-03    0.65       2.8  T
   3   -225.4352005  0.481358E-06  0.164E-03    0.65       5.6  T
   4   -225.4352010 -0.425578E-06  0.665E-04    0.65      13.8  T
   5   -225.4352010 -0.872967E-07  0.167E-04    0.65      55.0  T
     SCC iter.                  ...        0 min,  0.135 sec
     gradient                   ...        0 min,  0.034 sec
 * total energy  :  -222.9516836 Eh     change       -0.1378768E-04 Eh
   gradient norm :     0.0023127 Eh/α   predicted    -0.7827551E-05 ( -43.23%)
   displ. norm   :     0.1638628 α      lambda       -0.5148121E-04
   maximum displ.:     0.0871763 α      in ANC's #2, #9, #1, ...

........................................................................
.............................. CYCLE   73 ..............................
........................................................................

 iter      E             dE          RMSdq      gap      omega  full diag
   1   -225.4360015 -0.225436E+03  0.147E-02    0.65       0.0  T
   2   -225.4360021 -0.583068E-06  0.868E-03    0.65       1.1  T
   3   -225.4360009  0.113394E-05  0.317E-03    0.65       2.9  T
   4   -225.4360018 -0.880196E-06  0.158E-03    0.65       5.8  T
   5   -225.4360022 -0.366775E-06  0.705E-04    0.65      13.1  T
   6   -225.4360023 -0.752333E-07  0.322E-04    0.65      28.6  T
     SCC iter.                  ...        0 min,  0.152 sec
     gradient                   ...        0 min,  0.031 sec
 * total energy  :  -222.9517189 Eh     change       -0.3523112E-04 Eh
   gradient norm :     0.0009850 Eh/α   predicted    -0.2643269E-04 ( -24.97%)
   displ. norm   :     0.2618525 α      lambda       -0.2643565E-04
   maximum displ.:     0.1397111 α      in ANC's #2, #9, #6, ...

........................................................................
.............................. CYCLE   74 ..............................
........................................................................

 iter      E             dE          RMSdq      gap      omega  full diag
   1   -225.4361501 -0.225436E+03  0.221E-02    0.65       0.0  T
   2   -225.4361511 -0.944255E-06  0.130E-02    0.65       1.0  T
   3   -225.4361492  0.191785E-05  0.414E-03    0.65       2.2  T
   4   -225.4361512 -0.198151E-05  0.133E-03    0.65       6.9  T
   5   -225.4361514 -0.221884E-06  0.748E-04    0.65      12.3  T
   6   -225.4361514 -0.562886E-07  0.471E-04    0.65      19.5  T
     SCC iter.                  ...        0 min,  0.162 sec
     gradient                   ...        0 min,  0.032 sec
 * total energy  :  -222.9517487 Eh     change       -0.2985985E-04 Eh
   gradient norm :     0.0021998 Eh/α   predicted    -0.1362387E-04 ( -54.37%)
   displ. norm   :     0.1634439 α      lambda       -0.2659150E-04
   maximum displ.:     0.0890421 α      in ANC's #2, #6, #1, ...

........................................................................
.............................. CYCLE   75 ..............................
........................................................................

 iter      E             dE          RMSdq      gap      omega  full diag
   1   -225.4360843 -0.225436E+03  0.137E-02    0.65       0.0  T
   2   -225.4360845 -0.218036E-06  0.811E-03    0.65       1.1  T
   3   -225.4360798  0.475083E-05  0.505E-03    0.65       1.8  T
   4   -225.4360837 -0.395422E-05  0.228E-03    0.65       4.0  T
   5   -225.4360848 -0.106427E-05  0.431E-04    0.65      21.4  T
   6   -225.4360848 -0.117837E-07  0.243E-04    0.65      37.9  T
   7   -225.4360848 -0.312170E-08  0.127E-04    0.65      72.3  T
     SCC iter.                  ...        0 min,  0.302 sec
     gradient                   ...        0 min,  0.036 sec
 * total energy  :  -222.9517732 Eh     change       -0.2451845E-04 Eh
   gradient norm :     0.0018359 Eh/α   predicted    -0.1365243E-04 ( -44.32%)
   displ. norm   :     0.4120966 α      lambda       -0.5043478E-04
   maximum displ.:     0.2273677 α      in ANC's #2, #6, #1, ...

........................................................................
.............................. CYCLE   76 ..............................
........................................................................

 iter      E             dE          RMSdq      gap      omega  full diag
   1   -225.4356296 -0.225436E+03  0.354E-02    0.66       0.0  T
   2   -225.4356312 -0.159293E-05  0.210E-02    0.65       1.0  T
   3   -225.4356008  0.304213E-04  0.127E-02    0.65       1.0  T
   4   -225.4356256 -0.248005E-04  0.600E-03    0.66       1.5  T
   5   -225.4356330 -0.739710E-05  0.129E-03    0.65       7.2  T
   6   -225.4356331 -0.151076E-06  0.717E-04    0.65      12.8  T
   7   -225.4356331 -0.381524E-07  0.382E-04    0.65      24.1  T
     SCC iter.                  ...        0 min,  0.207 sec
     gradient                   ...        0 min,  0.031 sec
 * total energy  :  -222.9518331 Eh     change       -0.5985115E-04 Eh
   gradient norm :     0.0012425 Eh/α   predicted    -0.2712309E-04 ( -54.68%)
   displ. norm   :     0.4090021 α      lambda       -0.4260125E-04
   maximum displ.:     0.2307666 α      in ANC's #2, #6, #1, ...

........................................................................
.............................. CYCLE   77 ..............................
........................................................................

 iter      E             dE          RMSdq      gap      omega  full diag
   1   -225.4352837 -0.225435E+03  0.357E-02    0.66       0.0  T
   2   -225.4352851 -0.139299E-05  0.212E-02    0.66       1.0  T
   3   -225.4352520  0.331714E-04  0.132E-02    0.65       1.0  T
   4   -225.4352799 -0.279430E-04  0.590E-03    0.66       1.6  T
   5   -225.4352870 -0.710627E-05  0.131E-03    0.66       7.0  T
   6   -225.4352872 -0.165971E-06  0.714E-04    0.66      12.9  T
   7   -225.4352872 -0.353735E-07  0.400E-04    0.66      23.0  T
     SCC iter.                  ...        0 min,  0.195 sec
     gradient                   ...        0 min,  0.030 sec
 * total energy  :  -222.9518846 Eh     change       -0.5146443E-04 Eh
   gradient norm :     0.0016057 Eh/α   predicted    -0.2288427E-04 ( -55.53%)
   displ. norm   :     0.3891284 α      lambda       -0.4008024E-04
   maximum displ.:     0.2226724 α      in ANC's #2, #1, #6, ...

........................................................................
.............................. CYCLE   78 ..............................
........................................................................

 iter      E             dE          RMSdq      gap      omega  full diag
   1   -225.4354590 -0.225435E+03  0.339E-02    0.66       0.0  T
   2   -225.4354600 -0.991005E-06  0.202E-02    0.66       1.0  T
   3   -225.4354304  0.295931E-04  0.125E-02    0.65       1.0  T
   4   -225.4354559 -0.255498E-04  0.527E-03    0.66       1.7  T
   5   -225.4354616 -0.566862E-05  0.120E-03    0.66       7.7  T
   6   -225.4354617 -0.129695E-06  0.653E-04    0.66      14.1  T
   7   -225.4354617 -0.223669E-07  0.404E-04    0.66      22.8  T
     SCC iter.                  ...        0 min,  0.192 sec
     gradient                   ...        0 min,  0.032 sec
 * total energy  :  -222.9519326 Eh     change       -0.4801900E-04 Eh
   gradient norm :     0.0015626 Eh/α   predicted    -0.2138936E-04 ( -55.46%)
   displ. norm   :     0.4062335 α      lambda       -0.4075650E-04
   maximum displ.:     0.2345187 α      in ANC's #2, #1, #6, ...

........................................................................
.............................. CYCLE   79 ..............................
........................................................................

 iter      E             dE          RMSdq      gap      omega  full diag
   1   -225.4355103 -0.225436E+03  0.348E-02    0.66       0.0  T
   2   -225.4355113 -0.969702E-06  0.208E-02    0.66       1.0  T
   3   -225.4354959  0.153822E-04  0.940E-03    0.66       1.0  T
   4   -225.4355088 -0.129482E-04  0.413E-03    0.66       2.2  T
   5   -225.4355123 -0.341948E-05  0.118E-03    0.66       7.8  T
   6   -225.4355124 -0.129220E-06  0.594E-04    0.66      15.5  T
   7   -225.4355124 -0.190025E-07  0.352E-04    0.66      26.2  T
     SCC iter.                  ...        0 min,  0.199 sec
     gradient                   ...        0 min,  0.037 sec
 * total energy  :  -222.9519792 Eh     change       -0.4664654E-04 Eh
   gradient norm :     0.0015499 Eh/α   predicted    -0.2187367E-04 ( -53.11%)
   displ. norm   :     0.3980047 α      lambda       -0.3782171E-04
   maximum displ.:     0.2319986 α      in ANC's #2, #1, #6, ...

........................................................................
.............................. CYCLE   80 ..............................
........................................................................

 iter      E             dE          RMSdq      gap      omega  full diag
   1   -225.4356940 -0.225436E+03  0.328E-02    0.66       0.0  T
   2   -225.4356949 -0.899411E-06  0.195E-02    0.66       1.0  T
   3   -225.4356863  0.862547E-05  0.738E-03    0.66       1.2  T
   4   -225.4356936 -0.728514E-05  0.321E-03    0.66       2.9  T
   5   -225.4356955 -0.192535E-05  0.121E-03    0.66       7.6  T
   6   -225.4356957 -0.183991E-06  0.497E-04    0.66      18.5  T
   7   -225.4356957 -0.432067E-08  0.308E-04    0.66      29.9  T
     SCC iter.                  ...        0 min,  0.184 sec
     gradient                   ...        0 min,  0.034 sec
 * total energy  :  -222.9520255 Eh     change       -0.4622638E-04 Eh
   gradient norm :     0.0012711 Eh/α   predicted    -0.2024342E-04 ( -56.21%)
   displ. norm   :     0.3839710 α      lambda       -0.3509647E-04
   maximum displ.:     0.2270769 α      in ANC's #2, #1, #6, ...

........................................................................
.............................. CYCLE   81 ..............................
........................................................................

 iter      E             dE          RMSdq      gap      omega  full diag
   1   -225.4361739 -0.225436E+03  0.308E-02    0.66       0.0  T
   2   -225.4361747 -0.816779E-06  0.184E-02    0.66       1.0  T
   3   -225.4361710  0.378021E-05  0.540E-03    0.66       1.7  T
   4   -225.4361751 -0.417600E-05  0.120E-03    0.66       7.7  T
   5   -225.4361752 -0.778972E-07  0.706E-04    0.66      13.0  T
   6   -225.4361752 -0.247298E-07  0.419E-04    0.66      22.0  T
     SCC iter.                  ...        0 min,  0.197 sec
     gradient                   ...        0 min,  0.033 sec
 * total energy  :  -222.9520700 Eh     change       -0.4459633E-04 Eh
   gradient norm :     0.0011804 Eh/α   predicted    -0.1870265E-04 ( -58.06%)
   displ. norm   :     0.3964749 α      lambda       -0.3557659E-04
   maximum displ.:     0.2362453 α      in ANC's #2, #1, #3, ...

........................................................................
.............................. CYCLE   82 ..............................
........................................................................

 iter      E             dE          RMSdq      gap      omega  full diag
   1   -225.4359767 -0.225436E+03  0.322E-02    0.66       0.0  T
   2   -225.4359776 -0.935993E-06  0.192E-02    0.66       1.0  T
   3   -225.4359730  0.458549E-05  0.585E-03    0.66       1.6  T
   4   -225.4359780 -0.497872E-05  0.134E-03    0.66       6.9  T
   5   -225.4359782 -0.152192E-06  0.772E-04    0.66      11.9  T
   6   -225.4359782 -0.438749E-07  0.377E-04    0.66      24.4  T
     SCC iter.                  ...        0 min,  0.183 sec
     gradient                   ...        0 min,  0.033 sec
 * total energy  :  -222.9521154 Eh     change       -0.4531684E-04 Eh
   gradient norm :     0.0009836 Eh/α   predicted    -0.1903222E-04 ( -58.00%)
   displ. norm   :     0.4007646 α      lambda       -0.3636803E-04
   maximum displ.:     0.2420653 α      in ANC's #2, #1, #3, ...

........................................................................
.............................. CYCLE   83 ..............................
........................................................................

 iter      E             dE          RMSdq      gap      omega  full diag
   1   -225.4365687 -0.225437E+03  0.333E-02    0.66       0.0  T
   2   -225.4365697 -0.962023E-06  0.199E-02    0.66       1.0  T
   3   -225.4365634  0.626787E-05  0.638E-03    0.66       1.4  T
   4   -225.4365696 -0.621490E-05  0.196E-03    0.66       4.7  T
   5   -225.4365701 -0.506854E-06  0.118E-03    0.66       7.8  T
   6   -225.4365703 -0.159519E-06  0.698E-04    0.66      13.2  T
   7   -225.4365704 -0.504907E-07  0.365E-04    0.66      25.2  T
     SCC iter.                  ...        0 min,  0.209 sec
     gradient                   ...        0 min,  0.029 sec
 * total energy  :  -222.9521607 Eh     change       -0.4538555E-04 Eh
   gradient norm :     0.0012235 Eh/α   predicted    -0.1948250E-04 ( -57.07%)
   displ. norm   :     0.4168799 α      lambda       -0.3590234E-04
   maximum displ.:     0.2527644 α      in ANC's #2, #1, #3, ...

........................................................................
.............................. CYCLE   84 ..............................
........................................................................

 iter      E             dE          RMSdq      gap      omega  full diag
   1   -225.4359840 -0.225436E+03  0.351E-02    0.66       0.0  T
   2   -225.4359849 -0.913994E-06  0.210E-02    0.66       1.0  T
   3   -225.4359770  0.791155E-05  0.706E-03    0.66       1.3  T
   4   -225.4359844 -0.742851E-05  0.258E-03    0.66       3.6  T
   5   -225.4359855 -0.104349E-05  0.127E-03    0.66       7.2  T
   6   -225.4359856 -0.148588E-06  0.690E-04    0.66      13.3  T
   7   -225.4359857 -0.413798E-07  0.391E-04    0.66      23.6  T
     SCC iter.                  ...        0 min,  0.271 sec
     gradient                   ...        0 min,  0.032 sec
 * total energy  :  -222.9522059 Eh     change       -0.4519162E-04 Eh
   gradient norm :     0.0012451 Eh/α   predicted    -0.1933884E-04 ( -57.21%)
   displ. norm   :     0.4017799 α      lambda       -0.3424984E-04
   maximum displ.:     0.2461851 α      in ANC's #2, #1, #3, ...

........................................................................
.............................. CYCLE   85 ..............................
........................................................................

 iter      E             dE          RMSdq      gap      omega  full diag
   1   -225.4364029 -0.225436E+03  0.344E-02    0.66       0.0  T
   2   -225.4364037 -0.752927E-06  0.205E-02    0.66       1.0  T
   3   -225.4363922  0.114546E-04  0.803E-03    0.66       1.1  T
   4   -225.4364021 -0.988270E-05  0.350E-03    0.66       2.6  T
   5   -225.4364043 -0.221568E-05  0.113E-03    0.66       8.2  T
   6   -225.4364044 -0.624975E-07  0.712E-04    0.66      12.9  T
   7   -225.4364044 -0.563701E-07  0.382E-04    0.66      24.1  T
     SCC iter.                  ...        0 min,  0.226 sec
     gradient                   ...        0 min,  0.031 sec
 * total energy  :  -222.9522498 Eh     change       -0.4382916E-04 Eh
   gradient norm :     0.0012088 Eh/α   predicted    -0.1835457E-04 ( -58.12%)
   displ. norm   :     0.4022717 α      lambda       -0.3391906E-04
   maximum displ.:     0.2481263 α      in ANC's #2, #1, #3, ...

........................................................................
.............................. CYCLE   86 ..............................
........................................................................

 iter      E             dE          RMSdq      gap      omega  full diag
   1   -225.4362429 -0.225436E+03  0.347E-02    0.66       0.0  T
   2   -225.4362437 -0.783490E-06  0.207E-02    0.66       1.0  T
   3   -225.4362283  0.154316E-04  0.923E-03    0.66       1.0  T
   4   -225.4362413 -0.130722E-04  0.408E-03    0.66       2.3  T
   5   -225.4362445 -0.316174E-05  0.111E-03    0.66       8.3  T
   6   -225.4362446 -0.815714E-07  0.598E-04    0.66      15.4  T
   7   -225.4362446 -0.168414E-07  0.367E-04    0.66      25.1  T
     SCC iter.                  ...        0 min,  0.334 sec
     gradient                   ...        0 min,  0.033 sec
 * total energy  :  -222.9522931 Eh     change       -0.4336413E-04 Eh
   gradient norm :     0.0011192 Eh/α   predicted    -0.1818033E-04 ( -58.08%)
   displ. norm   :     0.4223974 α      lambda       -0.3471360E-04
   maximum displ.:     0.2619049 α      in ANC's #2, #1, #3, ...

........................................................................
.............................. CYCLE   87 ..............................
........................................................................

 iter      E             dE          RMSdq      gap      omega  full diag
   1   -225.4364605 -0.225436E+03  0.371E-02    0.66       0.0  T
   2   -225.4364611 -0.596518E-06  0.222E-02    0.66       1.0  T
   3   -225.4364250  0.361208E-04  0.137E-02    0.66       1.0  T
   4   -225.4364589 -0.339675E-04  0.446E-03    0.66       2.1  T
   5   -225.4364626 -0.364995E-05  0.128E-03    0.66       7.2  T
   6   -225.4364627 -0.113583E-06  0.770E-04    0.66      12.0  T
   7   -225.4364628 -0.506334E-07  0.436E-04    0.66      21.1  T
     SCC iter.                  ...        0 min,  0.186 sec
     gradient                   ...        0 min,  0.032 sec
 * total energy  :  -222.9523369 Eh     change       -0.4380521E-04 Eh
   gradient norm :     0.0010531 Eh/α   predicted    -0.1873498E-04 ( -57.23%)
   displ. norm   :     0.4492277 α      lambda       -0.3478475E-04
   maximum displ.:     0.2794887 α      in ANC's #2, #1, #3, ...

........................................................................
.............................. CYCLE   88 ..............................
........................................................................

 iter      E             dE          RMSdq      gap      omega  full diag
   1   -225.4362403 -0.225436E+03  0.385E-02    0.67       0.0  T
   2   -225.4362416 -0.126933E-05  0.231E-02    0.67       1.0  T
   3   -225.4362155  0.260269E-04  0.119E-02    0.66       1.0  T
   4   -225.4362376 -0.220946E-04  0.520E-03    0.67       1.8  T
   5   -225.4362428 -0.516617E-05  0.147E-03    0.67       6.3  T
   6   -225.4362430 -0.224658E-06  0.725E-04    0.67      12.7  T
   7   -225.4362431 -0.354656E-07  0.385E-04    0.67      23.9  T
     SCC iter.                  ...        0 min,  0.233 sec
     gradient                   ...        0 min,  0.032 sec
 * total energy  :  -222.9523813 Eh     change       -0.4440253E-04 Eh
   gradient norm :     0.0011048 Eh/α   predicted    -0.1895545E-04 ( -57.31%)
   displ. norm   :     0.4850728 α      lambda       -0.3606824E-04
   maximum displ.:     0.3022976 α      in ANC's #2, #1, #3, ...

........................................................................
.............................. CYCLE   89 ..............................
........................................................................

 iter      E             dE          RMSdq      gap      omega  full diag
   1   -225.4362074 -0.225436E+03  0.412E-02    0.67       0.0  T
   2   -225.4362085 -0.112730E-05  0.247E-02    0.67       1.0  T
   3   -225.4361659  0.425939E-04  0.149E-02    0.66       1.0  T
   4   -225.4362046 -0.386857E-04  0.553E-03    0.67       1.7  T
   5   -225.4362103 -0.572795E-05  0.161E-03    0.67       5.7  T
   6   -225.4362106 -0.281914E-06  0.814E-04    0.67      11.3  T
   7   -225.4362107 -0.510916E-07  0.423E-04    0.67      21.8  T
     SCC iter.                  ...        0 min,  0.208 sec
     gradient                   ...        0 min,  0.031 sec
 * total energy  :  -222.9524281 Eh     change       -0.4678625E-04 Eh
   gradient norm :     0.0012316 Eh/α   predicted    -0.1992242E-04 ( -57.42%)
   displ. norm   :     0.5436009 α      lambda       -0.3943366E-04
   maximum displ.:     0.3393023 α      in ANC's #2, #1, #3, ...

........................................................................
.............................. CYCLE   90 ..............................
........................................................................

 iter      E             dE          RMSdq      gap      omega  full diag
   1   -225.4359824 -0.225436E+03  0.448E-02    0.67       0.0  T
   2   -225.4359844 -0.196771E-05  0.268E-02    0.67       1.0  T
   3   -225.4359563  0.281036E-04  0.123E-02    0.66       1.0  T
   4   -225.4359793 -0.230366E-04  0.583E-03    0.67       1.6  T
   5   -225.4359857 -0.639636E-05  0.190E-03    0.67       4.8  T
   6   -225.4359862 -0.449630E-06  0.909E-04    0.67      10.1  T
   7   -225.4359863 -0.789204E-07  0.407E-04    0.67      22.6  T
     SCC iter.                  ...        0 min,  0.209 sec
     gradient                   ...        0 min,  0.032 sec
 * total energy  :  -222.9524788 Eh     change       -0.5069739E-04 Eh
   gradient norm :     0.0013697 Eh/α   predicted    -0.2231103E-04 ( -55.99%)
   displ. norm   :     0.5972174 α      lambda       -0.4084037E-04
   maximum displ.:     0.3732191 α      in ANC's #2, #1, #3, ...

........................................................................
.............................. CYCLE   91 ..............................
........................................................................

 iter      E             dE          RMSdq      gap      omega  full diag
   1   -225.4357252 -0.225436E+03  0.490E-02    0.67       0.0  T
   2   -225.4357274 -0.223050E-05  0.293E-02    0.67       1.0  T
   3   -225.4356925  0.349351E-04  0.135E-02    0.67       1.0  T
   4   -225.4357212 -0.287666E-04  0.636E-03    0.67       1.4  T
   5   -225.4357290 -0.777407E-05  0.207E-03    0.67       4.5  T
   6   -225.4357295 -0.510098E-06  0.997E-04    0.67       9.2  T
   7   -225.4357296 -0.951736E-07  0.458E-04    0.67      20.1  T
     SCC iter.                  ...        0 min,  0.201 sec
     gradient                   ...        0 min,  0.047 sec
 * total energy  :  -222.9525300 Eh     change       -0.5116691E-04 Eh
   gradient norm :     0.0013600 Eh/α   predicted    -0.2366101E-04 ( -53.76%)
   displ. norm   :     0.6058636 α      lambda       -0.3805746E-04
   maximum displ.:     0.3794926 α      in ANC's #2, #1, #3, ...

........................................................................
.............................. CYCLE   92 ..............................
........................................................................

 iter      E             dE          RMSdq      gap      omega  full diag
   1   -225.4355153 -0.225436E+03  0.494E-02    0.67       0.0  T
   2   -225.4355177 -0.243368E-05  0.294E-02    0.67       1.0  T
   3   -225.4354924  0.253374E-04  0.118E-02    0.67       1.0  T
   4   -225.4355134 -0.210324E-04  0.538E-03    0.67       1.7  T
   5   -225.4355189 -0.552660E-05  0.221E-03    0.67       4.2  T
   6   -225.4355195 -0.609919E-06  0.113E-03    0.67       8.1  T
   7   -225.4355197 -0.122879E-06  0.570E-04    0.67      16.1  T
   8   -225.4355197 -0.477273E-07  0.225E-04    0.67      40.9  T
     SCC iter.                  ...        0 min,  0.321 sec
     gradient                   ...        0 min,  0.043 sec
 * total energy  :  -222.9525770 Eh     change       -0.4703942E-04 Eh
   gradient norm :     0.0012863 Eh/α   predicted    -0.2213413E-04 ( -52.95%)
   displ. norm   :     0.5960630 α      lambda       -0.3540866E-04
   maximum displ.:     0.3736429 α      in ANC's #2, #1, #3, ...
 * RMSD in coord.:     0.5757907 α      energy gain  -0.1110125E-02 Eh

generating ANC from exact Hessian ...
Using Lindh-Hessian (1995)
 Shifting diagonal of input Hessian by   1.007995340719549E-002
 Lowest  eigenvalues of input Hessian
    0.010000    0.010010    0.010028    0.000000    0.000000    0.000000
    0.000000    0.000000    0.000000    0.010245    0.010298    0.010538
    0.010814    0.011025    0.011204    0.011661    0.012976    0.013334
 Highest eigenvalues
    2.095051    2.114636    2.154504    2.258815    2.276865    2.309036
 

........................................................................
.............................. CYCLE   93 ..............................
........................................................................

 iter      E             dE          RMSdq      gap      omega  full diag
   1   -225.4353940 -0.225435E+03  0.494E-02    0.67       0.0  T
   2   -225.4353964 -0.235028E-05  0.295E-02    0.67       1.0  T
   3   -225.4353730  0.233669E-04  0.113E-02    0.67       1.0  T
   4   -225.4353924 -0.194322E-04  0.515E-03    0.67       1.8  T
   5   -225.4353974 -0.500282E-05  0.219E-03    0.67       4.2  T
   6   -225.4353980 -0.606381E-06  0.109E-03    0.67       8.4  T
   7   -225.4353982 -0.108428E-06  0.578E-04    0.67      15.9  T
   8   -225.4353982 -0.509110E-07  0.216E-04    0.67      42.7  T
     SCC iter.                  ...        0 min,  0.218 sec
     gradient                   ...        0 min,  0.031 sec
 * total energy  :  -222.9526214 Eh     change       -0.4435542E-04 Eh
   gradient norm :     0.0012650 Eh/α   predicted     0.0000000E+00 (-100.00%)
   displ. norm   :     0.0391132 α      lambda       -0.1157801E-04
   maximum displ.:     0.0140427 α      in ANC's #12, #1, #4, ...

........................................................................
.............................. CYCLE   94 ..............................
........................................................................

 iter      E             dE          RMSdq      gap      omega  full diag
   1   -225.4360178 -0.225436E+03  0.724E-03    0.67       0.0  T
   2   -225.4360179 -0.680389E-07  0.429E-03    0.67       2.1  T
   3   -225.4360172  0.650524E-06  0.205E-03    0.67       4.5  T
   4   -225.4360178 -0.536482E-06  0.908E-04    0.67      10.1  T
   5   -225.4360179 -0.158904E-06  0.300E-04    0.67      30.7  T
     SCC iter.                  ...        0 min,  0.136 sec
     gradient                   ...        0 min,  0.031 sec
 * total energy  :  -222.9526363 Eh     change       -0.1496210E-04 Eh
   gradient norm :     0.0007122 Eh/α   predicted    -0.5809158E-05 ( -61.17%)
   displ. norm   :     0.1959565 α      lambda       -0.4423169E-04
   maximum displ.:     0.0707086 α      in ANC's #12, #4, #1, ...

........................................................................
.............................. CYCLE   95 ..............................
........................................................................

 iter      E             dE          RMSdq      gap      omega  full diag
   1   -225.4371103 -0.225437E+03  0.328E-02    0.67       0.0  T
   2   -225.4371114 -0.109746E-05  0.193E-02    0.67       1.0  T
   3   -225.4371014  0.100184E-04  0.788E-03    0.67       1.2  T
   4   -225.4371101 -0.875487E-05  0.312E-03    0.67       2.9  T
   5   -225.4371119 -0.179505E-05  0.132E-03    0.67       7.0  T
   6   -225.4371122 -0.278857E-06  0.539E-04    0.67      17.1  T
   7   -225.4371122 -0.148138E-07  0.339E-04    0.67      27.1  T
     SCC iter.                  ...        0 min,  0.202 sec
     gradient                   ...        0 min,  0.031 sec
 * total energy  :  -222.9526777 Eh     change       -0.4131048E-04 Eh
   gradient norm :     0.0016605 Eh/α   predicted    -0.2249980E-04 ( -45.53%)
   displ. norm   :     0.1313865 α      lambda       -0.1700640E-04
   maximum displ.:     0.0523653 α      in ANC's #1, #4, #9, ...

........................................................................
.............................. CYCLE   96 ..............................
........................................................................

 iter      E             dE          RMSdq      gap      omega  full diag
   1   -225.4366894 -0.225437E+03  0.202E-02    0.67       0.0  T
   2   -225.4366898 -0.380040E-06  0.119E-02    0.67       1.0  T
   3   -225.4366873  0.250002E-05  0.401E-03    0.67       2.3  T
   4   -225.4366896 -0.237172E-05  0.134E-03    0.67       6.9  T
   5   -225.4366899 -0.308071E-06  0.575E-04    0.67      16.0  T
   6   -225.4366900 -0.463164E-07  0.248E-04    0.67      37.1  T
     SCC iter.                  ...        0 min,  0.190 sec
     gradient                   ...        0 min,  0.032 sec
 * total energy  :  -222.9526948 Eh     change       -0.1714730E-04 Eh
   gradient norm :     0.0012990 Eh/α   predicted    -0.8571279E-05 ( -50.01%)
   displ. norm   :     0.1553693 α      lambda       -0.1796474E-04
   maximum displ.:     0.0664428 α      in ANC's #1, #4, #9, ...

........................................................................
.............................. CYCLE   97 ..............................
........................................................................

 iter      E             dE          RMSdq      gap      omega  full diag
   1   -225.4363130 -0.225436E+03  0.210E-02    0.67       0.0  T
   2   -225.4363133 -0.309006E-06  0.124E-02    0.67       1.0  T
   3   -225.4363104  0.286757E-05  0.411E-03    0.67       2.2  T
   4   -225.4363127 -0.233232E-05  0.191E-03    0.67       4.8  T
   5   -225.4363134 -0.701376E-06  0.567E-04    0.67      16.2  T
   6   -225.4363135 -0.370480E-07  0.283E-04    0.67      32.5  T
     SCC iter.                  ...        0 min,  0.167 sec
     gradient                   ...        0 min,  0.032 sec
 * total energy  :  -222.9527160 Eh     change       -0.2122844E-04 Eh
   gradient norm :     0.0010601 Eh/α   predicted    -0.9079405E-05 ( -57.23%)
   displ. norm   :     0.2376400 α      lambda       -0.2868638E-04
   maximum displ.:     0.1069697 α      in ANC's #1, #4, #9, ...

........................................................................
.............................. CYCLE   98 ..............................
........................................................................

 iter      E             dE          RMSdq      gap      omega  full diag
   1   -225.4358003 -0.225436E+03  0.287E-02    0.67       0.0  T
   2   -225.4358010 -0.628181E-06  0.169E-02    0.67       1.0  T
   3   -225.4357980  0.299813E-05  0.440E-03    0.67       2.1  T
   4   -225.4358004 -0.237837E-05  0.213E-03    0.67       4.3  T
   5   -225.4358012 -0.835667E-06  0.881E-04    0.67      10.4  T
   6   -225.4358013 -0.105355E-06  0.390E-04    0.67      23.6  T
     SCC iter.                  ...        0 min,  0.172 sec
     gradient                   ...        0 min,  0.029 sec
 * total energy  :  -222.9527487 Eh     change       -0.3270925E-04 Eh
   gradient norm :     0.0013009 Eh/α   predicted    -0.1471285E-04 ( -55.02%)
   displ. norm   :     0.2663328 α      lambda       -0.2861037E-04
   maximum displ.:     0.1252201 α      in ANC's #1, #4, #2, ...

........................................................................
.............................. CYCLE   99 ..............................
........................................................................

 iter      E             dE          RMSdq      gap      omega  full diag
   1   -225.4353595 -0.225435E+03  0.302E-02    0.67       0.0  T
   2   -225.4353603 -0.792870E-06  0.178E-02    0.67       1.0  T
   3   -225.4353571  0.319971E-05  0.467E-03    0.67       2.0  T
   4   -225.4353596 -0.256186E-05  0.221E-03    0.67       4.2  T
   5   -225.4353605 -0.891599E-06  0.985E-04    0.67       9.4  T
   6   -225.4353607 -0.131462E-06  0.434E-04    0.67      21.2  T
     SCC iter.                  ...        0 min,  0.206 sec
     gradient                   ...        0 min,  0.036 sec
 * total energy  :  -222.9527795 Eh     change       -0.3077539E-04 Eh
   gradient norm :     0.0017107 Eh/α   predicted    -0.1475622E-04 ( -52.05%)
   displ. norm   :     0.2326987 α      lambda       -0.2317396E-04
   maximum displ.:     0.1143574 α      in ANC's #1, #4, #2, ...

........................................................................
.............................. CYCLE  100 ..............................
........................................................................

 iter      E             dE          RMSdq      gap      omega  full diag
   1   -225.4357366 -0.225436E+03  0.249E-02    0.67       0.0  T
   2   -225.4357372 -0.552582E-06  0.147E-02    0.67       1.0  T
   3   -225.4357350  0.214447E-05  0.396E-03    0.67       2.3  T
   4   -225.4357370 -0.197032E-05  0.162E-03    0.67       5.7  T
   5   -225.4357373 -0.349633E-06  0.861E-04    0.67      10.7  T
   6   -225.4357374 -0.102063E-06  0.403E-04    0.67      22.9  T
     SCC iter.                  ...        0 min,  0.180 sec
     gradient                   ...        0 min,  0.032 sec
 * total energy  :  -222.9528054 Eh     change       -0.2586580E-04 Eh
   gradient norm :     0.0012973 Eh/α   predicted    -0.1186819E-04 ( -54.12%)
   displ. norm   :     0.2309840 α      lambda       -0.2333710E-04
   maximum displ.:     0.1176961 α      in ANC's #1, #4, #2, ...

........................................................................
.............................. CYCLE  101 ..............................
........................................................................

 iter      E             dE          RMSdq      gap      omega  full diag
   1   -225.4363956 -0.225436E+03  0.231E-02    0.67       0.0  T
   2   -225.4363959 -0.361314E-06  0.136E-02    0.67       1.0  T
   3   -225.4363883  0.766237E-05  0.653E-03    0.67       1.4  T
   4   -225.4363954 -0.718130E-05  0.226E-03    0.67       4.1  T
   5   -225.4363964 -0.903636E-06  0.759E-04    0.67      12.1  T
   6   -225.4363964 -0.412203E-07  0.516E-04    0.67      17.8  T
     SCC iter.                  ...        0 min,  0.202 sec
     gradient                   ...        0 min,  0.033 sec
 * total energy  :  -222.9528316 Eh     change       -0.2620112E-04 Eh
   gradient norm :     0.0011324 Eh/α   predicted    -0.1194835E-04 ( -54.40%)
   displ. norm   :     0.2518039 α      lambda       -0.2417325E-04
   maximum displ.:     0.1317397 α      in ANC's #1, #4, #2, ...

........................................................................
.............................. CYCLE  102 ..............................
........................................................................

 iter      E             dE          RMSdq      gap      omega  full diag
   1   -225.4365794 -0.225437E+03  0.243E-02    0.67       0.0  T
   2   -225.4365797 -0.336925E-06  0.144E-02    0.67       1.0  T
   3   -225.4365671  0.126209E-04  0.824E-03    0.67       1.1  T
   4   -225.4365785 -0.114421E-04  0.301E-03    0.67       3.1  T
   5   -225.4365803 -0.176044E-05  0.724E-04    0.67      12.7  T
   6   -225.4365803 -0.475714E-07  0.393E-04    0.67      23.4  T
   7   -225.4365803 -0.404395E-08  0.248E-04    0.67      37.1  T
     SCC iter.                  ...        0 min,  0.197 sec
     gradient                   ...        0 min,  0.030 sec
 * total energy  :  -222.9528578 Eh     change       -0.2623481E-04 Eh
   gradient norm :     0.0013506 Eh/α   predicted    -0.1242923E-04 ( -52.62%)
   displ. norm   :     0.2378694 α      lambda       -0.2094408E-04
   maximum displ.:     0.1282689 α      in ANC's #1, #4, #2, ...

........................................................................
.............................. CYCLE  103 ..............................
........................................................................

 iter      E             dE          RMSdq      gap      omega  full diag
   1   -225.4366236 -0.225437E+03  0.223E-02    0.67       0.0  T
   2   -225.4366239 -0.281903E-06  0.132E-02    0.67       1.0  T
   3   -225.4366141  0.983811E-05  0.744E-03    0.67       1.2  T
   4   -225.4366230 -0.897220E-05  0.266E-03    0.67       3.5  T
   5   -225.4366244 -0.132571E-05  0.765E-04    0.67      12.0  T
   6   -225.4366244 -0.738099E-07  0.394E-04    0.67      23.4  T
   7   -225.4366244 -0.853254E-08  0.241E-04    0.67      38.2  T
     SCC iter.                  ...        0 min,  0.189 sec
     gradient                   ...        0 min,  0.033 sec
 * total energy  :  -222.9528820 Eh     change       -0.2418473E-04 Eh
   gradient norm :     0.0014792 Eh/α   predicted    -0.1073565E-04 ( -55.61%)
   displ. norm   :     0.2502537 α      lambda       -0.2164930E-04
   maximum displ.:     0.1379177 α      in ANC's #1, #4, #2, ...

........................................................................
.............................. CYCLE  104 ..............................
........................................................................

 iter      E             dE          RMSdq      gap      omega  full diag
   1   -225.4365901 -0.225437E+03  0.235E-02    0.67       0.0  T
   2   -225.4365906 -0.436551E-06  0.140E-02    0.67       1.0  T
   3   -225.4365841  0.646395E-05  0.595E-03    0.67       1.5  T
   4   -225.4365893 -0.524016E-05  0.283E-03    0.67       3.3  T
   5   -225.4365909 -0.154245E-05  0.712E-04    0.67      12.9  T
   6   -225.4365909 -0.562214E-07  0.387E-04    0.67      23.8  T
   7   -225.4365910 -0.101144E-07  0.214E-04    0.67      42.9  T
     SCC iter.                  ...        0 min,  0.220 sec
     gradient                   ...        0 min,  0.032 sec
 * total energy  :  -222.9529089 Eh     change       -0.2686998E-04 Eh
   gradient norm :     0.0012928 Eh/α   predicted    -0.1113099E-04 ( -58.57%)
   displ. norm   :     0.3339434 α      lambda       -0.2949988E-04
   maximum displ.:     0.1853870 α      in ANC's #1, #4, #2, ...

........................................................................
.............................. CYCLE  105 ..............................
........................................................................

 iter      E             dE          RMSdq      gap      omega  full diag
   1   -225.4360156 -0.225436E+03  0.324E-02    0.67       0.0  T
   2   -225.4360164 -0.837490E-06  0.192E-02    0.67       1.0  T
   3   -225.4360079  0.852464E-05  0.690E-03    0.67       1.3  T
   4   -225.4360144 -0.649707E-05  0.356E-03    0.67       2.6  T
   5   -225.4360169 -0.246306E-05  0.982E-04    0.67       9.4  T
   6   -225.4360170 -0.126149E-06  0.462E-04    0.67      19.9  T
   7   -225.4360170 -0.130219E-07  0.235E-04    0.67      39.1  T
     SCC iter.                  ...        0 min,  0.268 sec
     gradient                   ...        0 min,  0.037 sec
 * total energy  :  -222.9529463 Eh     change       -0.3740343E-04 Eh
   gradient norm :     0.0011489 Eh/α   predicted    -0.1548462E-04 ( -58.60%)
   displ. norm   :     0.4561518 α      lambda       -0.4068677E-04
   maximum displ.:     0.2543248 α      in ANC's #1, #4, #2, ...

........................................................................
.............................. CYCLE  106 ..............................
........................................................................

 iter      E             dE          RMSdq      gap      omega  full diag
   1   -225.4353762 -0.225435E+03  0.447E-02    0.67       0.0  T
   2   -225.4353777 -0.150071E-05  0.264E-02    0.67       1.0  T
   3   -225.4353683  0.938683E-05  0.716E-03    0.67       1.3  T
   4   -225.4353754 -0.703610E-05  0.386E-03    0.67       2.4  T
   5   -225.4353782 -0.284678E-05  0.138E-03    0.67       6.7  T
   6   -225.4353785 -0.258875E-06  0.669E-04    0.67      13.8  T
   7   -225.4353785 -0.316163E-07  0.332E-04    0.67      27.8  T
     SCC iter.                  ...        0 min,  0.213 sec
     gradient                   ...        0 min,  0.030 sec
 * total energy  :  -222.9529981 Eh     change       -0.5185696E-04 Eh
   gradient norm :     0.0016701 Eh/α   predicted    -0.2222711E-04 ( -57.14%)
   displ. norm   :     0.6024600 α      lambda       -0.5378937E-04
   maximum displ.:     0.3366834 α      in ANC's #1, #4, #2, ...

........................................................................
.............................. CYCLE  107 ..............................
........................................................................

 iter      E             dE          RMSdq      gap      omega  full diag
   1   -225.4344696 -0.225434E+03  0.583E-02    0.67       0.0  T
   2   -225.4344721 -0.245221E-05  0.344E-02    0.67       1.0  T
   3   -225.4344584  0.137239E-04  0.856E-03    0.67       1.1  T
   4   -225.4344691 -0.107077E-04  0.440E-03    0.67       2.1  T
   5   -225.4344729 -0.380417E-05  0.173E-03    0.67       5.3  T
   6   -225.4344733 -0.374824E-06  0.938E-04    0.67       9.8  T
   7   -225.4344733 -0.661292E-07  0.521E-04    0.67      17.7  T
     SCC iter.                  ...        0 min,  0.199 sec
     gradient                   ...        0 min,  0.033 sec
 * total energy  :  -222.9530660 Eh     change       -0.6788082E-04 Eh
   gradient norm :     0.0026276 Eh/α   predicted    -0.3123485E-04 ( -53.99%)
   displ. norm   :     0.4463923 α      lambda       -0.6235598E-04
   maximum displ.:     0.2511890 α      in ANC's #1, #4, #2, ...

........................................................................
.............................. CYCLE  108 ..............................
........................................................................

 iter      E             dE          RMSdq      gap      omega  full diag
   1   -225.4343459 -0.225434E+03  0.432E-02    0.67       0.0  T
   2   -225.4343472 -0.127508E-05  0.254E-02    0.67       1.0  T
   3   -225.4343411  0.612216E-05  0.595E-03    0.67       1.5  T
   4   -225.4343463 -0.522824E-05  0.264E-03    0.67       3.5  T
   5   -225.4343476 -0.135214E-05  0.113E-03    0.67       8.2  T
   6   -225.4343478 -0.123951E-06  0.707E-04    0.67      13.0  T
   7   -225.4343478 -0.388698E-07  0.430E-04    0.67      21.4  T
     SCC iter.                  ...        0 min,  0.194 sec
     gradient                   ...        0 min,  0.031 sec
 * total energy  :  -222.9531210 Eh     change       -0.5496783E-04 Eh
   gradient norm :     0.0028477 Eh/α   predicted    -0.3739278E-04 ( -31.97%)
   displ. norm   :     0.5431885 α      lambda       -0.8181103E-04
   maximum displ.:     0.3078017 α      in ANC's #1, #4, #2, ...

........................................................................
.............................. CYCLE  109 ..............................
........................................................................

 iter      E             dE          RMSdq      gap      omega  full diag
   1   -225.4344636 -0.225434E+03  0.526E-02    0.67       0.0  T
   2   -225.4344655 -0.190818E-05  0.310E-02    0.67       1.0  T
   3   -225.4344569  0.858660E-05  0.755E-03    0.67       1.2  T
   4   -225.4344650 -0.804733E-05  0.277E-03    0.67       3.3  T
   5   -225.4344663 -0.133336E-05  0.130E-03    0.67       7.1  T
   6   -225.4344665 -0.177475E-06  0.715E-04    0.67      12.9  T
   7   -225.4344665 -0.315463E-07  0.444E-04    0.67      20.8  T
     SCC iter.                  ...        0 min,  0.212 sec
     gradient                   ...        0 min,  0.034 sec
 * total energy  :  -222.9531896 Eh     change       -0.6856550E-04 Eh
   gradient norm :     0.0028234 Eh/α   predicted    -0.5298027E-04 ( -22.73%)
   displ. norm   :     0.5287813 α      lambda       -0.7618045E-04
   maximum displ.:     0.3035758 α      in ANC's #1, #4, #2, ...

........................................................................
.............................. CYCLE  110 ..............................
........................................................................

 iter      E             dE          RMSdq      gap      omega  full diag
   1   -225.4348863 -0.225435E+03  0.513E-02    0.67       0.0  T
   2   -225.4348882 -0.187875E-05  0.302E-02    0.67       1.0  T
   3   -225.4348792  0.906856E-05  0.822E-03    0.67       1.1  T
   4   -225.4348881 -0.895695E-05  0.262E-03    0.67       3.5  T
   5   -225.4348891 -0.100590E-05  0.136E-03    0.67       6.7  T
   6   -225.4348893 -0.180272E-06  0.775E-04    0.67      11.9  T
   7   -225.4348893 -0.348930E-07  0.474E-04    0.67      19.4  T
     SCC iter.                  ...        0 min,  0.229 sec
     gradient                   ...        0 min,  0.029 sec
 * total energy  :  -222.9532506 Eh     change       -0.6102815E-04 Eh
   gradient norm :     0.0023350 Eh/α   predicted    -0.4874513E-04 ( -20.13%)
   displ. norm   :     0.4625864 α      lambda       -0.5563974E-04
   maximum displ.:     0.2703862 α      in ANC's #1, #4, #2, ...

........................................................................
.............................. CYCLE  111 ..............................
........................................................................

 iter      E             dE          RMSdq      gap      omega  full diag
   1   -225.4355495 -0.225436E+03  0.443E-02    0.67       0.0  T
   2   -225.4355510 -0.142315E-05  0.261E-02    0.67       1.0  T
   3   -225.4355427  0.827629E-05  0.772E-03    0.67       1.2  T
   4   -225.4355505 -0.780109E-05  0.266E-03    0.67       3.5  T
   5   -225.4355516 -0.114809E-05  0.138E-03    0.67       6.7  T
   6   -225.4355519 -0.236501E-06  0.748E-04    0.67      12.3  T
   7   -225.4355519 -0.442749E-07  0.412E-04    0.67      22.4  T
     SCC iter.                  ...        0 min,  0.248 sec
     gradient                   ...        0 min,  0.031 sec
 * total energy  :  -222.9532945 Eh     change       -0.4391702E-04 Eh
   gradient norm :     0.0017596 Eh/α   predicted    -0.3377548E-04 ( -23.09%)
   displ. norm   :     0.5616056 α      lambda       -0.3677957E-04
   maximum displ.:     0.3345878 α      in ANC's #1, #2, #4, ...

........................................................................
.............................. CYCLE  112 ..............................
........................................................................

 iter      E             dE          RMSdq      gap      omega  full diag
   1   -225.4359994 -0.225436E+03  0.524E-02    0.67       0.0  T
   2   -225.4360014 -0.199582E-05  0.309E-02    0.67       1.0  T
   3   -225.4359899  0.115170E-04  0.899E-03    0.67       1.0  T
   4   -225.4360001 -0.101433E-04  0.368E-03    0.67       2.5  T
   5   -225.4360023 -0.226748E-05  0.169E-03    0.67       5.4  T
   6   -225.4360027 -0.370395E-06  0.802E-04    0.67      11.5  T
   7   -225.4360027 -0.461646E-07  0.387E-04    0.67      23.8  T
     SCC iter.                  ...        0 min,  0.236 sec
     gradient                   ...        0 min,  0.037 sec
 * total energy  :  -222.9533365 Eh     change       -0.4202628E-04 Eh
   gradient norm :     0.0017261 Eh/α   predicted    -0.2097174E-04 ( -50.10%)
   displ. norm   :     0.3787050 α      lambda       -0.2642936E-04
   maximum displ.:     0.2328680 α      in ANC's #1, #2, #4, ...

........................................................................
.............................. CYCLE  113 ..............................
........................................................................

 iter      E             dE          RMSdq      gap      omega  full diag
   1   -225.4370435 -0.225437E+03  0.339E-02    0.67       0.0  T
   2   -225.4370444 -0.833992E-06  0.200E-02    0.67       1.0  T
   3   -225.4370371  0.726437E-05  0.654E-03    0.67       1.4  T
   4   -225.4370425 -0.543488E-05  0.345E-03    0.67       2.7  T
   5   -225.4370448 -0.229515E-05  0.981E-04    0.67       9.4  T
   6   -225.4370449 -0.927685E-07  0.492E-04    0.67      18.7  T
   7   -225.4370449 -0.158430E-07  0.219E-04    0.67      42.0  T
     SCC iter.                  ...        0 min,  0.314 sec
     gradient                   ...        0 min,  0.040 sec
 * total energy  :  -222.9533699 Eh     change       -0.3337881E-04 Eh
   gradient norm :     0.0014578 Eh/α   predicted    -0.1405926E-04 ( -57.88%)
   displ. norm   :     0.5920080 α      lambda       -0.3924384E-04
   maximum displ.:     0.3560650 α      in ANC's #1, #2, #4, ...

........................................................................
.............................. CYCLE  114 ..............................
........................................................................

 iter      E             dE          RMSdq      gap      omega  full diag
   1   -225.4339917 -0.225434E+03  0.538E-02    0.67       0.0  T
   2   -225.4339939 -0.219887E-05  0.318E-02    0.67       1.0  T
   3   -225.4339704  0.235234E-04  0.115E-02    0.67       1.0  T
   4   -225.4339888 -0.184449E-04  0.576E-03    0.67       1.6  T
   5   -225.4339951 -0.627535E-05  0.149E-03    0.67       6.2  T
   6   -225.4339953 -0.181137E-06  0.851E-04    0.67      10.8  T
   7   -225.4339953 -0.303384E-07  0.542E-04    0.67      17.0  T
     SCC iter.                  ...        0 min,  0.201 sec
     gradient                   ...        0 min,  0.034 sec
 * total energy  :  -222.9534064 Eh     change       -0.3646942E-04 Eh
   gradient norm :     0.0031729 Eh/α   predicted    -0.2268032E-04 ( -37.81%)
   displ. norm   :     0.2616012 α      lambda       -0.3963169E-04
   maximum displ.:     0.1686499 α      in ANC's #1, #2, #5, ...

........................................................................
.............................. CYCLE  115 ..............................
........................................................................

 iter      E             dE          RMSdq      gap      omega  full diag
   1   -225.4358045 -0.225436E+03  0.231E-02    0.67       0.0  T
   2   -225.4358049 -0.412946E-06  0.137E-02    0.67       1.0  T
   3   -225.4357963  0.855927E-05  0.713E-03    0.67       1.3  T
   4   -225.4358037 -0.736608E-05  0.301E-03    0.67       3.1  T
   5   -225.4358054 -0.168885E-05  0.768E-04    0.67      12.0  T
   6   -225.4358054 -0.232831E-07  0.556E-04    0.67      16.6  T
   7   -225.4358054 -0.395202E-07  0.270E-04    0.67      34.2  T
     SCC iter.                  ...        0 min,  0.192 sec
     gradient                   ...        0 min,  0.079 sec
 * total energy  :  -222.9534363 Eh     change       -0.2990802E-04 Eh
   gradient norm :     0.0018273 Eh/α   predicted    -0.2117559E-04 ( -29.20%)
   displ. norm   :     0.5693255 α      lambda       -0.3178362E-04
   maximum displ.:     0.3627808 α      in ANC's #1, #2, #4, ...

........................................................................
.............................. CYCLE  116 ..............................
........................................................................

 iter      E             dE          RMSdq      gap      omega  full diag
   1   -225.4363603 -0.225436E+03  0.505E-02    0.67       0.0  T
   2   -225.4363618 -0.147336E-05  0.299E-02    0.67       1.0  T
   3   -225.4363389  0.228101E-04  0.115E-02    0.67       1.0  T
   4   -225.4363587 -0.197683E-04  0.490E-03    0.67       1.9  T
   5   -225.4363630 -0.432588E-05  0.146E-03    0.67       6.3  T
   6   -225.4363631 -0.898973E-07  0.983E-04    0.67       9.4  T
   7   -225.4363632 -0.106422E-06  0.509E-04    0.67      18.1  T
     SCC iter.                  ...        0 min,  0.212 sec
     gradient                   ...        0 min,  0.028 sec
 * total energy  :  -222.9534659 Eh     change       -0.2963206E-04 Eh
   gradient norm :     0.0019360 Eh/α   predicted    -0.1818660E-04 ( -38.63%)
   displ. norm   :     0.4174990 α      lambda       -0.2082299E-04
   maximum displ.:     0.2655939 α      in ANC's #1, #2, #5, ...

........................................................................
.............................. CYCLE  117 ..............................
........................................................................

 iter      E             dE          RMSdq      gap      omega  full diag
   1   -225.4363252 -0.225436E+03  0.361E-02    0.67       0.0  T
   2   -225.4363262 -0.999663E-06  0.214E-02    0.67       1.0  T
   3   -225.4363172  0.896622E-05  0.730E-03    0.67       1.3  T
   4   -225.4363247 -0.754793E-05  0.336E-03    0.67       2.7  T
   5   -225.4363267 -0.198375E-05  0.110E-03    0.67       8.4  T
   6   -225.4363268 -0.734827E-07  0.720E-04    0.67      12.8  T
   7   -225.4363269 -0.591131E-07  0.373E-04    0.67      24.7  T
     SCC iter.                  ...        0 min,  0.190 sec
     gradient                   ...        0 min,  0.034 sec
 * total energy  :  -222.9534841 Eh     change       -0.1822813E-04 Eh
   gradient norm :     0.0018660 Eh/α   predicted    -0.1122233E-04 ( -38.43%)
   displ. norm   :     0.2544112 α      lambda       -0.1754966E-04
   maximum displ.:     0.1602749 α      in ANC's #1, #2, #4, ...

........................................................................
.............................. CYCLE  118 ..............................
........................................................................

 iter      E             dE          RMSdq      gap      omega  full diag
   1   -225.4360139 -0.225436E+03  0.249E-02    0.67       0.0  T
   2   -225.4360145 -0.523415E-06  0.147E-02    0.67       1.0  T
   3   -225.4360123  0.218409E-05  0.405E-03    0.67       2.3  T
   4   -225.4360142 -0.192791E-05  0.167E-03    0.67       5.5  T
   5   -225.4360147 -0.463780E-06  0.718E-04    0.67      12.8  T
   6   -225.4360147 -0.443846E-07  0.406E-04    0.67      22.7  T
     SCC iter.                  ...        0 min,  0.190 sec
     gradient                   ...        0 min,  0.033 sec
 * total energy  :  -222.9535016 Eh     change       -0.1741760E-04 Eh
   gradient norm :     0.0019750 Eh/α   predicted    -0.9031750E-05 ( -48.15%)
   displ. norm   :     0.2773197 α      lambda       -0.2217590E-04
   maximum displ.:     0.1787957 α      in ANC's #1, #2, #5, ...

........................................................................
.............................. CYCLE  119 ..............................
........................................................................

 iter      E             dE          RMSdq      gap      omega  full diag
   1   -225.4364831 -0.225436E+03  0.264E-02    0.67       0.0  T
   2   -225.4364841 -0.978211E-06  0.156E-02    0.67       1.0  T
   3   -225.4364810  0.306739E-05  0.460E-03    0.67       2.0  T
   4   -225.4364828 -0.182319E-05  0.273E-03    0.67       3.4  T
   5   -225.4364843 -0.145065E-05  0.996E-04    0.67       9.2  T
   6   -225.4364844 -0.142311E-06  0.431E-04    0.67      21.3  T
   7   -225.4364844 -0.627691E-08  0.262E-04    0.67      35.1  T
     SCC iter.                  ...        0 min,  0.183 sec
     gradient                   ...        0 min,  0.029 sec
 * total energy  :  -222.9535186 Eh     change       -0.1708025E-04 Eh
   gradient norm :     0.0021941 Eh/α   predicted    -0.1146806E-04 ( -32.86%)
   displ. norm   :     0.1293717 α      lambda       -0.1279386E-04
   maximum displ.:     0.0852986 α      in ANC's #1, #2, #5, ...

........................................................................
.............................. CYCLE  120 ..............................
........................................................................

 iter      E             dE          RMSdq      gap      omega  full diag
   1   -225.4368816 -0.225437E+03  0.119E-02    0.67       0.0  T
   2   -225.4368818 -0.179140E-06  0.708E-03    0.67       1.3  T
   3   -225.4368814  0.416189E-06  0.182E-03    0.67       5.1  T
   4   -225.4368818 -0.356317E-06  0.775E-04    0.67      11.9  T
   5   -225.4368819 -0.966723E-07  0.398E-04    0.67      23.1  T
     SCC iter.                  ...        0 min,  0.131 sec
     gradient                   ...        0 min,  0.034 sec
 * total energy  :  -222.9535290 Eh     change       -0.1037699E-04 Eh
   gradient norm :     0.0017955 Eh/α   predicted    -0.6505905E-05 ( -37.30%)
   displ. norm   :     0.2860108 α      lambda       -0.1790979E-04
   maximum displ.:     0.1898824 α      in ANC's #1, #2, #5, ...
 * RMSD in coord.:     0.6271049 α      energy gain  -0.9519821E-03 Eh

generating ANC from exact Hessian ...
Using Lindh-Hessian (1995)
 Shifting diagonal of input Hessian by   1.007852350252486E-002
 Lowest  eigenvalues of input Hessian
    0.010000    0.010008    0.010021    0.000000    0.000000    0.000000
    0.000000    0.000000    0.000000    0.010253    0.010338    0.010537
    0.010743    0.011112    0.011224    0.011629    0.013015    0.013235
 Highest eigenvalues
    2.090064    2.116245    2.153940    2.255659    2.282978    2.303417
 

........................................................................
.............................. CYCLE  121 ..............................
........................................................................

 iter      E             dE          RMSdq      gap      omega  full diag
   1   -225.4370910 -0.225437E+03  0.268E-02    0.67       0.0  T
   2   -225.4370918 -0.800944E-06  0.158E-02    0.67       1.0  T
   3   -225.4370886  0.313930E-05  0.452E-03    0.67       2.0  T
   4   -225.4370915 -0.284596E-05  0.185E-03    0.67       5.0  T
   5   -225.4370920 -0.498326E-06  0.964E-04    0.67       9.6  T
   6   -225.4370921 -0.122913E-06  0.516E-04    0.67      17.8  T
     SCC iter.                  ...        0 min,  0.175 sec
     gradient                   ...        0 min,  0.029 sec
 * total energy  :  -222.9535471 Eh     change       -0.1808785E-04 Eh
   gradient norm :     0.0016563 Eh/α   predicted     0.0000000E+00 (-100.00%)
   displ. norm   :     0.0192247 α      lambda       -0.6905736E-05
   maximum displ.:     0.0103599 α      in ANC's #1, #49, #9, ...

........................................................................
.............................. CYCLE  122 ..............................
........................................................................

 iter      E             dE          RMSdq      gap      omega  full diag
   1   -225.4368309 -0.225437E+03  0.578E-03    0.67       0.0  T
   2   -225.4368310 -0.992812E-07  0.349E-03    0.67       2.6  T
   3   -225.4368306  0.412947E-06  0.177E-03    0.67       5.2  T
   4   -225.4368308 -0.274900E-06  0.969E-04    0.67       9.5  T
   5   -225.4368310 -0.177094E-06  0.277E-04    0.67      33.2  T
     SCC iter.                  ...        0 min,  0.136 sec
     gradient                   ...        0 min,  0.029 sec
 * total energy  :  -222.9535529 Eh     change       -0.5752869E-05 Eh
   gradient norm :     0.0007273 Eh/α   predicted    -0.3497673E-05 ( -39.20%)
   displ. norm   :     0.0215723 α      lambda       -0.2642466E-05
   maximum displ.:     0.0141750 α      in ANC's #1, #9, #7, ...

........................................................................
.............................. CYCLE  123 ..............................
........................................................................

 iter      E             dE          RMSdq      gap      omega  full diag
   1   -225.4368221 -0.225437E+03  0.399E-03    0.67       0.0  T
   2   -225.4368221 -0.413054E-07  0.238E-03    0.67       3.9  T
   3   -225.4368219  0.203037E-06  0.125E-03    0.67       7.4  T
   4   -225.4368221 -0.177697E-06  0.518E-04    0.67      17.8  T
   5   -225.4368221 -0.455794E-07  0.225E-04    0.67      40.9  T
     SCC iter.                  ...        0 min,  0.167 sec
     gradient                   ...        0 min,  0.030 sec
 * total energy  :  -222.9535561 Eh     change       -0.3218328E-05 Eh
   gradient norm :     0.0005953 Eh/α   predicted    -0.1323824E-05 ( -58.87%)
   displ. norm   :     0.0557284 α      lambda       -0.4955689E-05
   maximum displ.:     0.0354702 α      in ANC's #1, #9, #7, ...

   *** GEOMETRY OPTIMIZATION CONVERGED AFTER 123 ITERATIONS ***

------------------------------------------------------------------------
 total energy gain   :        -0.0529788 Eh      -33.2447 kcal/mol
 total RMSD          :         2.4626706 a0        1.3032 Å
 total power (kW/mol):        -1.1308614 (step)   -4.0272 (real)
------------------------------------------------------------------------

 ANCopt (total)                0 d,  0 h,  0 min, 34.540 sec
 optimizer setup                ...        0 min,  0.000 sec (  0.000%)
 model hessian                  ...        0 min,  0.414 sec (  1.199%)
 ANC generation                 ...        0 min,  0.114 sec (  0.330%)
 coordinate transformation      ...        0 min,  0.016 sec (  0.046%)
 single point calculation       ...        0 min, 33.654 sec ( 97.435%)
 optimization log               ...        0 min,  0.193 sec (  0.559%)
 hessian update                 ...        0 min,  0.084 sec (  0.243%)
 rational function              ...        0 min,  0.039 sec (  0.113%)

================
 final structure:
================
118
 xtb: 6.7.1pre (5071a88)
C            5.30130695400050        0.67855939644841        5.72288661139314
N            5.53008417086526       -0.75257087342960        5.78713691069159
C            5.19398754869019       -1.34412533668878        7.07911272274976
C            3.71131444403059       -1.33547740281757        7.34262199088941
C            3.10250817649019       -0.29555658890676        8.03458647250370
C            1.72660456144000       -0.19762736023941        8.10090321790419
C            0.91158633452058       -1.13785165320091        7.47256263100952
C           -0.52511116025632       -0.94389523806611        7.37083814924344
C           -1.19836267448145        0.29800172525830        7.51829445032409
C           -2.53274393101331        0.09451532665703        7.23233637556227
N           -2.65225832140711       -1.19963047082199        6.81361439017464
C           -1.48684033219642       -1.87849218470625        6.99057919840077
C           -1.68984004323056       -3.31112163171067        7.34739945141111
C           -2.44593532218426       -3.35688926440471        8.73573889716070
N           -3.04056979114025       -2.09901721048624        9.15764251880721
C           -4.25305038872113       -1.68624662426262        8.67547331588338
O           -5.10493806942265       -2.46812769629178        8.30330226011912
C           -4.50436330227561       -0.19302822756811        8.64647611978356
C           -5.59685069377607        0.30718041808689        9.33818912445893
C           -5.89266574819749        1.66017646963028        9.31105614379718
C           -5.10298412655085        2.52957877600743        8.57830849815016
C           -4.02782178893201        2.02697139254154        7.86986878316529
F           -3.26627159021241        2.88228552082135        7.15686393696590
C           -3.70814509532724        0.67446882582675        7.86505483154207
C            1.52698996038899       -2.21659682617959        6.83430085176698
C            2.90190589026882       -2.30738856845481        6.76643203640985
H            5.94681155653196        1.16495334050039        6.45597643074823
H            4.26243529083022        0.97257462001577        5.92073880057865
H            5.57656946025781        1.02600125464826        4.72881847532388
H            4.97937083361468       -1.20727367146099        5.06319409659237
H            5.57167856916117       -2.37083339653232        7.06989502987601
H            5.72984646573016       -0.78276348659459        7.84942064249202
H            3.71498693586273        0.45541297264478        8.51400927877139
H            1.28042488868452        0.63132014401132        8.62771788773416
H           -0.76137874284432        1.22730168083296        7.81925875802533
H           -3.50822323565939       -1.62142459070107        6.49281395159129
H           -2.30204442599110       -3.80136413031631        6.58962979232166
H           -0.75222530241138       -3.85106392459232        7.44585803106295
H           -1.74209747599252       -3.65408613901450        9.51399662989445
H           -3.25481886534286       -4.08701898000577        8.68653521785711
H           -2.37550693395692       -1.37405473720269        9.38989385932519
H           -6.20842100306009       -0.37450085907335        9.90918804966867
H           -6.73936800814132        2.03904968275365        9.86178222014152
H           -5.31204314203370        3.58739757328699        8.54288646304402
H            0.92241006965347       -2.96087827377249        6.34187796155900
H            3.35741925727526       -3.12922639433023        6.23179428806806
B            4.09355140641502       -0.34277297997496        1.83534072886608
N            3.55908799065345        2.18547722970803        1.14531652673791
B            2.18570213223169        3.19411447568204       -0.92836550193873
N            2.27883690347537        0.15730697854198       -2.34849910530288
B            1.88648741815736       -2.85461420785380        3.23912049120145
N           -1.96666135263774       -2.61287736838494        2.71815511029893
B           -1.23431322244871        4.36758948581177        2.58007824478784
N           -0.82918335649927        0.28587831088233       -3.18821285844545
B           -0.94921847262035        1.71358800038981       -3.35956604581279
N            1.88131989032125       -3.10248331698330       -1.22270886530936
B           -3.93949655619704        1.98387686816762        0.62585800943734
N           -3.07276896142628        2.69343658116171       -0.22072502615826
B            0.89755498002745        1.39443778316765       -4.38302371310938
N           -0.20452976754642        3.81464973332826        3.47497043373603
B            1.28937436211915       -2.28613741639277       -2.25193834237093
N           -0.98931703461978        4.07154696811778       -0.30718464726900
B           -0.50755557858643        2.56496273095784        3.99354090219152
N            2.55619736131343       -0.42364541652388        3.94587674880016
B           -0.86716222110553        3.78745214426346       -1.69529217968901
N            2.01194741537965        0.84976559064237        4.28740102752180
B           -1.58123073589461       -0.42773906043201       -2.21360829864662
N           -3.69529992432921        1.59446026554538        1.94179609146353
B           -0.03508803494693        4.98254103223263        1.76410975941551
N            0.84426611325529        0.55865022204021        5.03582882070395
B           -2.58271316389523        2.25143764197237        2.56637025359131
N            3.87804946942467        0.95679819576816       -0.58401524263847
B           -1.19593509380460       -3.46906182658216        1.93742571262639
N            0.92445505022491        4.37575069440662        2.72063517027015
B           -1.00397802387341       -0.52558602133386        4.03839541954678
N           -1.55788303450065       -3.50044315655382        0.51286640320201
B            3.21229138017234       -0.11535749550726       -1.21939178429038
N           -2.66368840253612       -1.31159650631554        0.66076757490197
B            1.93703847544580        3.72427517493827        1.93465821137931
N           -0.03428144955822       -2.53323562189679       -1.69692650527712
B           -1.31621568571800       -1.95607270449189       -1.61218219993040
N            0.14479755731263        4.46880859807870        0.45096127865361
B            0.43179990090049        3.49147388350080       -2.65601467362447
N            1.29770156529286       -3.77364615391944        2.35367455786122
B           -2.12746672353368        3.56097247086926        0.45222138773079
N           -2.17328228366374        3.52788077861710        1.90877819808446
B            2.60488853122281       -3.40591368995449        1.95507477508900
N           -0.18784611494018        1.47675017928215        4.88142959883471
B           -2.07770503169358       -2.37654338016818       -0.18241200553828
N            0.09937034392701       -4.10305213727866        1.77709335557046
B           -2.52805432543718        0.47788706021420       -1.13536949205069
N            3.28664656666191       -2.95668121182366        0.80739335216814
B            4.20727598041369        0.94556469877445        0.87888193178087
N            1.51042271410346        2.66223775693214       -2.04601471775456
B            0.28939744279537        2.74768721063319       -4.07217800772606
N           -4.01775676417164        0.56939001797177        0.81932910057899
B           -1.84897444528892        2.58399873031483       -2.28595854910539
N           -2.65792953646160        1.91719408441163       -1.35356134025361
B            3.79440676527713       -1.60577418329356        0.86565122198150
N            3.05640053611218       -2.77949835828548       -0.60215750453029
B            2.67946919926358        1.44244844236165        3.15410108636042
N           -1.38541337699804        0.81345522852851        4.45050102584625
B           -0.15239048063973       -3.84816193472840        0.35760630852258
N           -3.01040081892115       -0.05803944857080        0.09666961237908
B            3.35323451572052        2.27828549876767       -0.29709365460147
N            2.73892533591614        2.55375100072514        2.24151817062591
B            1.53689143318365       -0.90015222877031       -3.02327162966956
N           -1.76687865240966        1.91295764684630        3.63954853252674
B            1.74198423300318        1.43713901760093       -2.79762378822224
N           -1.92183791467458       -1.26788706812724        3.30088123803075
B            0.44842690806794       -0.05945147836028       -3.88716245656036
N            0.57572668906613       -3.29630134525008       -0.66856065280632
B            1.52527415164045       -1.43695618134554        3.97946805333186
N            0.36019712026708       -0.71966512837804        4.44977079047735
B           -2.53744717063161       -1.49274582921445        2.04304011073314
N            3.34959587839725        0.13961903644524        2.92207735068391
B            1.51164341745715        4.07047482861408        0.29720232369598
N            3.37590672441198       -1.36151379953984       -0.49364996866036
 
 Bond Distances (Angstroems)
 ---------------------------
C1-N2=1.4507         C1-H27=1.0912        C1-H28=1.0977        C1-H29=1.0884        N2-C1=1.4507         N2-C3=1.4602         
N2-H30=1.0169        C3-N2=1.4602         C3-C4=1.5059         C3-H31=1.0940        C3-H32=1.0935        C4-C3=1.5059         
C4-C5=1.3896         C4-C26=1.3899        C5-C4=1.3896         C5-C6=1.3810         C5-H33=1.0812        C6-C5=1.3810         
C6-C7=1.3939         C6-H34=1.0788        C7-C6=1.3939         C7-C8=1.4533         C7-C25=1.3963        C8-C7=1.4533         
C8-C9=1.4203         C8-C12=1.3939        C9-C8=1.4203         C9-C10=1.3798        C9-H35=1.0701        C10-C9=1.3798        
C10-N11=1.3654       C10-C24=1.4554       N11-C10=1.3654       N11-C12=1.3603       N11-H36=1.0067       C12-C8=1.3939        
C12-N11=1.3603       C12-C13=1.4903       C13-C12=1.4903       C13-C14=1.5815       C13-H37=1.0906       C13-H38=1.0864       
C14-C13=1.5815       C14-N15=1.4539       C14-H39=1.0906       C14-H40=1.0908       N15-C14=1.4539       N15-C16=1.3686       
N15-H41=1.0109       C16-N15=1.3686       C16-O17=1.2147       C16-C18=1.5145       O17-C16=1.2147       C18-C16=1.5145       
C18-C19=1.3864       C18-C24=1.4132       C19-C18=1.3864       C19-C20=1.3852       C19-H42=1.0792       C20-C19=1.3852       
C20-C21=1.3843       C20-H43=1.0788       C21-C20=1.3843       C21-C22=1.3822       C21-H44=1.0789       C22-C21=1.3822       
C22-F23=1.3490       C22-C24=1.3898       F23-C22=1.3490       C24-C10=1.4554       C24-C18=1.4132       C24-C22=1.3898       
C25-C7=1.3963        C25-C26=1.3796       C25-H45=1.0779       C26-C4=1.3899        C26-C25=1.3796       C26-H46=1.0811       
H27-C1=1.0912        H28-C1=1.0977        H29-C1=1.0884        H30-N2=1.0169        H31-C3=1.0940        H32-C3=1.0935        
H33-C5=1.0812        H34-C6=1.0788        H35-C9=1.0701        H36-N11=1.0067       H37-C13=1.0906       H38-C13=1.0864       
H39-C14=1.0906       H40-C14=1.0908       H41-N15=1.0109       H42-C19=1.0792       H43-C20=1.0788       H44-C21=1.0789       
H45-C25=1.0779       H46-C26=1.0811       B47-B93=1.6086       B47-B99=1.6202       B47-N116=1.4026      N48-B93=1.4243       
N48-B105=1.4600      N48-N106=1.4177      B49-N94=1.4100       B49-B105=1.6126      B49-B117=1.6506      N50-B77=1.4902       
N50-B107=1.4574      N50-B109=1.4587      B51-N84=1.4055       B51-B87=1.5712       B51-B113=1.6396      N52-B73=1.3916       
N52-N110=1.4665      N52-B115=1.4270      B53-N60=1.4721       B53-B69=1.5755       B53-N86=1.4274       N54-B55=1.4430       
N54-B67=1.4229       N54-B111=1.4967      B55-N54=1.4430       B55-B59=2.1354       B55-B95=1.7639       B55-B97=1.6492       
N56-B61=1.4409       N56-N100=1.3676      N56-N112=1.4315      B57-N58=1.4041       B57-N68=1.3939       B57-N96=1.4298       
N58-B57=1.4041       N58-B85=1.4488       N58-N98=1.4346       B59-B55=2.1354       B59-B95=1.5158       B59-B109=1.7968      
B59-B111=1.6004      N60-B53=1.4721       N60-B63=1.3865       N60-N74=1.4692       B61-N56=1.4409       B61-N80=1.4564       
B61-B107=1.6054      B61-N112=2.0092      N62-B65=1.4221       N62-N82=1.4209       N62-B85=1.4604       B63-N60=1.3865       
B63-N88=1.4404       B63-N102=2.0118      B63-N108=1.4616      N64-N66=1.4263       N64-B113=1.4459      N64-N116=1.4124      
B65-N62=1.4221       B65-B83=1.6425       B65-B97=1.6617       N66-N64=1.4263       N66-N70=1.4172       N66-B101=1.4426      
B67-N54=1.4229       B67-B81=1.6637       B67-B91=1.6968       N68-B57=1.3939       N68-B71=1.4351       N68-N96=1.5539       
B69-B53=1.5755       B69-N74=1.4845       B69-N82=1.4215       N70-N66=1.4172       N70-N88=1.3900       N70-N114=1.4872      
B71-N68=1.4351       B71-N86=1.4931       B71-N108=1.3899      N72-B77=1.4130       N72-B93=1.4995       N72-B105=1.4505      
B73-N52=1.3916       B73-N76=1.4702       B73-N90=1.4510       B73-B103=1.9309      N74-N60=1.4692       N74-B69=1.4845       
N74-B79=1.4379       B75-N102=1.4520      B75-N110=1.3919      B75-N114=1.4380      N76-B73=1.4702       N76-B89=1.4201       
N76-B103=1.4562      B77-N50=1.4902       B77-N72=1.4130       B77-N118=1.4513      N78-B89=1.4793       N78-N104=1.4177      
N78-B115=1.3998      B79-N74=1.4379       B79-N106=1.4517      B79-B117=1.7269      N80-B61=1.4564       N80-B81=1.4084       
N80-N112=1.4184      B81-B67=1.6637       B81-N80=1.4084       B81-B89=1.6736       N82-N62=1.4209       N82-B69=1.4215       
N82-B117=1.4320      B83-B65=1.6425       B83-N94=1.4910       B83-B95=1.6059       N84-B51=1.4055       N84-B87=1.4152       
N84-N90=1.3700       B85-N58=1.4488       B85-N62=1.4604       B85-N86=1.4577       N86-B53=1.4274       N86-B71=1.4931       
N86-B85=1.4577       B87-B51=1.5712       B87-N84=1.4152       B87-N92=1.4085       N88-B63=1.4404       N88-N70=1.3900       
N88-N102=1.4352      B89-N76=1.4201       B89-N78=1.4793       B89-B81=1.6736       N90-B73=1.4510       N90-N84=1.3700       
N90-B103=1.4640      B91-B67=1.6968       B91-N98=1.4615       B91-N104=1.4275      N92-B87=1.4085       N92-B99=1.4444       
N92-N100=1.4392      B93-B47=1.6086       B93-N48=1.4243       B93-N72=1.4995       B93-B105=1.9719      N94-B49=1.4100       
N94-B83=1.4910       N94-B109=1.4558      B95-B55=1.7639       B95-B59=1.5158       B95-B83=1.6059       N96-B57=1.4298       
N96-N68=1.5539       N96-N104=1.3895      B97-B55=1.6492       B97-B65=1.6617       B97-N98=1.4030       N98-N58=1.4346       
N98-B91=1.4615       N98-B97=1.4030       B99-B47=1.6202       B99-N92=1.4444       B99-N118=1.4431      N100-N56=1.3676      
N100-N92=1.4392      N100-N118=1.4576     B101-N66=1.4426      B101-N106=1.4392     B101-N116=1.4833     N102-B63=2.0118      
N102-B75=1.4520      N102-N88=1.4352      N102-N108=1.4185     B103-B73=1.9309      B103-N76=1.4562      B103-N90=1.4640      
B103-N112=1.3739     N104-N78=1.4177      N104-B91=1.4275      N104-N96=1.3895      B105-N48=1.4600      B105-B49=1.6126      
B105-N72=1.4505      B105-B93=1.9719      N106-N48=1.4177      N106-B79=1.4517      N106-B101=1.4392     B107-N50=1.4574      
B107-B61=1.6054      B107-B111=1.6241     N108-B63=1.4616      N108-B71=1.3899      N108-N102=1.4185     B109-N50=1.4587      
B109-B59=1.7968      B109-N94=1.4558      N110-N52=1.4665      N110-B75=1.3919      N110-B115=1.4183     B111-N54=1.4967      
B111-B59=1.6004      B111-B107=1.6241     N112-N56=1.4315      N112-B61=2.0092      N112-N80=1.4184      N112-B103=1.3739     
B113-B51=1.6396      B113-N64=1.4459      B113-N114=1.4468     N114-N70=1.4872      N114-B75=1.4380      N114-B113=1.4468     
B115-N52=1.4270      B115-N78=1.3998      B115-N110=1.4183     N116-B47=1.4026      N116-N64=1.4124      N116-B101=1.4833     
B117-B49=1.6506      B117-B79=1.7269      B117-N82=1.4320      N118-B77=1.4513      N118-B99=1.4431      N118-N100=1.4576     
 B  B  Rav=1.6893 sigma=0.1393  Rmin=1.5158  Rmax=2.1354    24
 C  H  Rav=1.0852 sigma=0.0073  Rmin=1.0701  Rmax=1.0977    17
 C  C  Rav=1.4222 sigma=0.0553  Rmin=1.3796  Rmax=1.5815    21
 N  H  Rav=1.0115 sigma=0.0042  Rmin=1.0067  Rmax=1.0169     3
 N  B  Rav=1.4559 sigma=0.1008  Rmin=1.3739  Rmax=2.0118    68
 N  C  Rav=1.4098 sigma=0.0452  Rmin=1.3603  Rmax=1.4602     6
 N  N  Rav=1.4305 sigma=0.0404  Rmin=1.3676  Rmax=1.5539    21
 O  C  Rav=1.2147 sigma=0.0000  Rmin=1.2147  Rmax=1.2147     1
 F  C  Rav=1.3490 sigma=0.0000  Rmin=1.3490  Rmax=1.3490     1
 
 selected bond angles (degree)
 --------------------
H27-C1-N2=108.46               H28-C1-N2=113.92               H28-C1-H27=108.63              H29-C1-N2=108.39               
H29-C1-H27=108.77              H29-C1-H28=108.57              C3-N2-C1=113.74                H30-N2-C1=108.92               
H30-N2-C3=108.91               C4-C3-N2=112.28                H31-C3-N2=107.05               H31-C3-C4=110.29               
H32-C3-N2=107.61               H32-C3-C4=110.87               H32-C3-H31=108.58              C5-C4-C3=121.52                
C26-C4-C3=119.79               C26-C4-C5=118.33               C6-C5-C4=120.90                H33-C5-C4=119.50               
H33-C5-C6=119.59               C7-C6-C5=120.87                H34-C6-C5=119.34               H34-C6-C7=119.78               
C8-C7-C6=121.30                C25-C7-C6=118.00               C25-C7-C8=120.45               C9-C8-C7=125.31                
C12-C8-C7=127.71               C12-C8-C9=106.71               C10-C9-C8=107.94               H35-C9-C8=126.51               
H35-C9-C10=125.54              N11-C10-C9=106.74              C24-C10-C9=129.21              C24-C10-N11=116.12             
 
 selected dihedral angles (degree)
 ---------------------------------
C3-N2-C1-H27= 62.18           C3-N2-C1-H28=301.09           C3-N2-C1-H29=180.11           H30-N2-C1-H27=183.85          
H30-N2-C1-H28= 62.75          H30-N2-C1-H29=301.78          C4-C3-N2-C1= 68.84            C4-C3-N2-H30=307.17           
H31-C3-N2-C1=190.01           H31-C3-N2-H30= 68.35          H32-C3-N2-C1=306.56           H32-C3-N2-H30=184.90          
C5-C4-C3-N2=267.09            C5-C4-C3-H31=147.79           C5-C4-C3-H32= 27.49           C26-C4-C3-N2= 80.12           
C26-C4-C3-H31=320.82          C26-C4-C3-H32=200.52          C6-C5-C4-C3=170.42            C6-C5-C4-C26=357.30           
H33-C5-C4-C3=351.41           H33-C5-C4-C26=178.28          C7-C6-C5-C4=359.84            C7-C6-C5-H33=178.86           
H34-C6-C5-C4=181.26           H34-C6-C5-H33=  0.27          C8-C7-C6-C5=188.95            C8-C7-C6-H34=  7.53           
C25-C7-C6-C5=  3.23           C25-C7-C6-H34=181.81          C9-C8-C7-C6= 18.88            C9-C8-C7-C25=204.74           
C12-C8-C7-C6=192.15           C12-C8-C7-C25= 18.00          C10-C9-C8-C7=174.57           C10-C9-C8-C12=  0.13          
H35-C9-C8-C7=353.28           H35-C9-C8-C12=178.84          N11-C10-C9-C8=355.09          N11-C10-C9-H35=176.37         
C24-C10-C9-C8=142.10          C24-C10-C9-H35=323.38         
 
 CMA Distance (Angstroems)
 ---------------------------
R(CMA):  7.1401
           -------------------------------------------------
          |                Final Singlepoint                |
           -------------------------------------------------

          ...................................................
          :                      SETUP                      :
          :.................................................:
          :  # basis functions                 412          :
          :  # atomic orbitals                 412          :
          :  # shells                          216          :
          :  # electrons                       420          :
          :  max. iterations                    50          :
          :  Hamiltonian                  GFN2-xTB          :
          :  restarted?                      false          :
          :  GBSA solvation                  false          :
          :  PC potential                    false          :
          :  electronic temp.          300.0000000     K    :
          :  accuracy                    1.0000000          :
          :  -> integral cutoff          0.2500000E+02      :
          :  -> integral neglect         0.1000000E-07      :
          :  -> SCF convergence          0.1000000E-05 Eh   :
          :  -> wf. convergence          0.1000000E-03 e    :
          :  Broyden damping             0.4000000          :
          :  net charge                          0          :
          :  unpaired electrons                  0          :
          ...................................................

 iter      E             dE          RMSdq      gap      omega  full diag
   1   -225.4368221 -0.225437E+03  0.924E-05    0.67       0.0  T
   2   -225.4368221  0.293997E-08  0.137E-04    0.67      67.0  T
   3   -225.4368221 -0.392194E-08  0.366E-05    0.67     251.2  T

   *** convergence criteria satisfied after 3 iterations ***

         #    Occupation            Energy/Eh            Energy/eV
      -------------------------------------------------------------
         1        2.0000           -0.8069235             -21.9575
       ...           ...                  ...                  ...
       204        2.0000           -0.3278008              -8.9199
       205        2.0000           -0.3250406              -8.8448
       206        2.0000           -0.3237171              -8.8088
       207        2.0000           -0.3213890              -8.7454
       208        2.0000           -0.3159583              -8.5977
       209        2.0000           -0.3139276              -8.5424
       210        2.0000           -0.3081938              -8.3864 (HOMO)
       211        0.0000           -0.2836050              -7.7173 (LUMO)
       212                         -0.2753217              -7.4919
       213                         -0.2650530              -7.2125
       214                         -0.2528741              -6.8811
       215                         -0.2519793              -6.8567
       ...                                ...                  ...
       412                          0.9833909              26.7594
      -------------------------------------------------------------
                  HL-Gap            0.0245888 Eh            0.6691 eV
             Fermi-level           -0.2958982 Eh           -8.0518 eV

 SCC (total)                   0 d,  0 h,  0 min,  0.120 sec
 SCC setup                      ...        0 min,  0.000 sec (  0.000%)
 Dispersion                     ...        0 min,  0.002 sec (  1.667%)
 classical contributions        ...        0 min,  0.000 sec (  0.000%)
 integral evaluation            ...        0 min,  0.011 sec (  9.167%)
 iterations                     ...        0 min,  0.076 sec ( 63.333%)
 molecular gradient             ...        0 min,  0.028 sec ( 23.333%)
 printout                       ...        0 min,  0.003 sec (  2.500%)

         :::::::::::::::::::::::::::::::::::::::::::::::::::::
         ::                     SUMMARY                     ::
         :::::::::::::::::::::::::::::::::::::::::::::::::::::
         :: total energy            -222.953556081429 Eh    ::
         :: gradient norm              0.000598882634 Eh/a0 ::
         :: HOMO-LUMO gap              0.669094627891 eV    ::
         ::.................................................::
         :: SCC energy              -225.417791485167 Eh    ::
         :: -> isotropic ES            0.694149814343 Eh    ::
         :: -> anisotropic ES         -0.027142908189 Eh    ::
         :: -> anisotropic XC          0.094539687778 Eh    ::
         :: -> dispersion             -0.222933908497 Eh    ::
         :: repulsion energy           2.464235403737 Eh    ::
         :: add. restraining           0.000000000000 Eh    ::
         :: total charge              -0.000000000000 e     ::
         :::::::::::::::::::::::::::::::::::::::::::::::::::::

           -------------------------------------------------
          |                Property Printout                |
           -------------------------------------------------

    * Orbital Energies and Occupations

         #    Occupation            Energy/Eh            Energy/eV
      -------------------------------------------------------------
         1        2.0000           -0.8069235             -21.9575
       ...           ...                  ...                  ...
       198        2.0000           -0.3388924              -9.2217
       199        2.0000           -0.3357080              -9.1351
       200        2.0000           -0.3356185              -9.1326
       201        2.0000           -0.3328579              -9.0575
       202        2.0000           -0.3305035              -8.9935
       203        2.0000           -0.3296272              -8.9696
       204        2.0000           -0.3278008              -8.9199
       205        2.0000           -0.3250406              -8.8448
       206        2.0000           -0.3237171              -8.8088
       207        2.0000           -0.3213890              -8.7454
       208        2.0000           -0.3159583              -8.5977
       209        2.0000           -0.3139276              -8.5424
       210        2.0000           -0.3081938              -8.3864 (HOMO)
       211        0.0000           -0.2836050              -7.7173 (LUMO)
       212                         -0.2753217              -7.4919
       213                         -0.2650530              -7.2125
       214                         -0.2528741              -6.8811
       215                         -0.2519793              -6.8567
       216                         -0.2456927              -6.6856
       217                         -0.2401883              -6.5359
       218                         -0.2347580              -6.3881
       219                         -0.2328908              -6.3373
       220                         -0.2294867              -6.2446
       221                         -0.2240731              -6.0973
       ...                                ...                  ...
       412                          0.9833909              26.7594
      -------------------------------------------------------------
                  HL-Gap            0.0245888 Eh            0.6691 eV
             Fermi-level           -0.2958982 Eh           -8.0518 eV

     #   Z          covCN         q      C6AA      α(0)
     1   6 C        3.690    -0.038    21.451     6.628
     2   7 N        2.676    -0.259    26.713     7.676
     3   6 C        3.748    -0.001    20.662     6.483
     4   6 C        2.968    -0.005    28.140     8.701
     5   6 C        2.922    -0.039    28.971     8.827
     6   6 C        2.925    -0.039    28.982     8.828
     7   6 C        2.970     0.014    27.690     8.631
     8   6 C        3.096    -0.030    28.618     8.768
     9   6 C        3.048    -0.068    29.655     8.931
    10   6 C        3.054     0.028    27.335     8.574
    11   7 N        2.836    -0.105    23.299     7.169
    12   6 C        3.052     0.024    27.415     8.587
    13   6 C        3.804    -0.075    21.933     6.667
    14   6 C        3.736    -0.000    20.665     6.487
    15   7 N        2.682    -0.192    25.156     7.449
    16   6 C        2.755     0.278    22.292     7.732
    17   8 O        0.858    -0.427    22.228     6.321
    18   6 C        2.980    -0.032    28.784     8.800
    19   6 C        2.919    -0.029    28.734     8.790
    20   6 C        2.921    -0.034    28.836     8.806
    21   6 C        2.916    -0.050    29.233     8.866
    22   6 C        2.784     0.165    24.438     8.097
    23   9 F        0.787    -0.223    11.478     4.002
    24   6 C        2.974    -0.007    28.187     8.709
    25   6 C        2.925    -0.047    29.177     8.858
    26   6 C        2.923    -0.046    29.141     8.853
    27   1 H        0.924     0.037     2.490     2.467
    28   1 H        0.924     0.025     2.652     2.547
    29   1 H        0.925     0.039     2.465     2.455
    30   1 H        0.860     0.145     1.434     1.876
    31   1 H        0.924     0.037     2.490     2.468
    32   1 H        0.924     0.039     2.460     2.453
    33   1 H        0.926     0.030     2.592     2.518
    34   1 H        0.926     0.035     2.521     2.483
    35   1 H        0.927     0.047     2.357     2.401
    36   1 H        0.860     0.175     1.245     1.748
    37   1 H        0.924     0.054     2.266     2.354
    38   1 H        0.925     0.057     2.231     2.336
    39   1 H        0.924     0.052     2.300     2.372
    40   1 H        0.924     0.077     2.014     2.219
    41   1 H        0.860     0.171     1.267     1.763
    42   1 H        0.926     0.055     2.256     2.349
    43   1 H        0.926     0.049     2.329     2.386
    44   1 H        0.926     0.061     2.190     2.314
    45   1 H        0.926     0.034     2.531     2.488
    46   1 H        0.926     0.027     2.624     2.533
    47   5 B        2.781     0.077    20.189     7.513
    48   7 N        2.774    -0.228    25.983     7.571
    49   5 B        2.788     0.092    19.932     7.463
    50   7 N        2.524    -0.314    28.132     7.877
    51   5 B        2.780     0.083    20.085     7.493
    52   7 N        2.654    -0.276    27.127     7.735
    53   5 B        2.847     0.242    17.650     7.015
    54   7 N        2.529    -0.273    27.086     7.729
    55   5 B        3.196     0.150    18.926     7.256
    56   7 N        2.978    -0.111    23.416     7.187
    57   5 B        2.644     0.373    16.319     6.813
    58   7 N        2.669    -0.213    25.638     7.520
    59   5 B        3.182     0.022    20.993     7.642
    60   7 N        2.892    -0.219    25.777     7.541
    61   5 B        3.009     0.210    18.062     7.089
    62   7 N        2.660    -0.163    24.530     7.356
    63   5 B        2.911     0.320    16.599     6.799
    64   7 N        3.149    -0.095    23.080     7.135
    65   5 B        2.778     0.094    19.914     7.462
    66   7 N        3.030    -0.131    23.832     7.251
    67   5 B        2.758     0.090    20.008     7.484
    68   7 N        2.633    -0.310    27.977     7.856
    69   5 B        3.044     0.227    17.824     7.042
    70   7 N        2.986     0.002    21.228     6.843
    71   5 B        2.582     0.326    17.296     7.085
    72   7 N        2.596    -0.360    29.298     8.039
    73   5 B        3.286     0.340    16.331     6.739
    74   7 N        2.782    -0.253    26.564     7.655
    75   5 B        2.561     0.322    17.553     7.173
    76   7 N        2.580    -0.369    29.547     8.073
    77   5 B        2.530     0.301    18.221     7.376
    78   7 N        2.665    -0.206    25.491     7.498
    79   5 B        2.697     0.196    18.503     7.219
    80   7 N        2.842    -0.167    24.614     7.369
    81   5 B        2.758     0.082    20.130     7.507
    82   7 N        2.672    -0.174    24.771     7.392
    83   5 B        2.877     0.111    19.573     7.385
    84   7 N        2.663    -0.148    24.210     7.308
    85   5 B        2.594     0.312    17.395     7.088
    86   7 N        2.519    -0.353    29.148     8.018
    87   5 B        2.684     0.185    18.708     7.266
    88   7 N        3.012    -0.122    23.644     7.222
    89   5 B        2.678     0.211    18.349     7.200
    90   7 N        2.716    -0.250    26.507     7.647
    91   5 B        2.647     0.164    19.163     7.380
    92   7 N        2.826    -0.207    25.506     7.501
    93   5 B        3.321     0.230    17.780     7.031
    94   7 N        2.531    -0.286    27.412     7.775
    95   5 B        2.950     0.036    20.773     7.604
    96   7 N        2.783    -0.186    25.025     7.430
    97   5 B        2.796     0.085    20.038     7.481
    98   7 N        2.673    -0.156    24.370     7.332
    99   5 B        3.019     0.211    18.050     7.087
   100   7 N        3.271     0.016    20.971     6.801
   101   5 B        2.864     0.308    16.765     6.836
   102   7 N        3.161    -0.111    23.420     7.188
   103   5 B        3.261     0.320    16.578     6.790
   104   7 N        2.832    -0.061    22.427     7.034
   105   5 B        3.303     0.231    17.760     7.028
   106   7 N        2.656    -0.185    25.012     7.428
   107   5 B        2.838     0.112    19.567     7.387
   108   7 N        2.837    -0.221    25.810     7.545
   109   5 B        2.863     0.253    17.501     6.984
   110   7 N        2.654    -0.238    26.234     7.607
   111   5 B        3.012     0.114    19.487     7.364
   112   7 N        3.153    -0.087    22.922     7.111
   113   5 B        2.676     0.210    18.359     7.203
   114   7 N        2.697    -0.235    26.137     7.593
   115   5 B        2.586     0.371    16.687     6.953
   116   7 N        2.875    -0.182    24.933     7.416
   117   5 B        2.825     0.106    19.673     7.409
   118   7 N        2.829    -0.253    26.569     7.656

 Mol. C6AA /au·bohr⁶  :     245854.572436
 Mol. C8AA /au·bohr⁸  :    6826514.505553
 Mol. α(0) /au        :        781.651699


Wiberg/Mayer (AO) data.
largest (>0.10) Wiberg bond orders for each atom

 ---------------------------------------------------------------------------
     #   Z sym  total        # sym  WBO       # sym  WBO       # sym  WBO
 ---------------------------------------------------------------------------
     1   6 C    3.987 --     2 N    1.026    27 H    0.983    29 H    0.983
                            28 H    0.973
     2   7 N    3.073 --     1 C    1.026     3 C    1.000    30 H    0.953
     3   6 C    3.987 --     2 N    1.000     4 C    0.998    32 H    0.971
                            31 H    0.969
     4   6 C    3.980 --     5 C    1.401    26 C    1.399     3 C    0.998
     5   6 C    3.991 --     6 C    1.458     4 C    1.401    33 H    0.969
                            25 C    0.101
     6   6 C    3.990 --     5 C    1.458     7 C    1.376    34 H    0.968
                            26 C    0.102
     7   6 C    3.988 --     6 C    1.376    25 C    1.363     8 C    1.085
     8   6 C    3.973 --    12 C    1.415     9 C    1.293     7 C    1.085
     9   6 C    3.978 --    10 C    1.474     8 C    1.293    35 H    0.970
    10   6 C    3.932 --     9 C    1.474    11 N    1.179    24 C    1.065
                            12 C    0.113
    11   7 N    3.569 --    12 C    1.222    10 C    1.179    36 H    0.933
    12   6 C    3.923 --     8 C    1.415    11 N    1.222    13 C    1.023
                            10 C    0.113
    13   6 C    3.993 --    12 C    1.023    38 H    0.973    37 H    0.972
                            14 C    0.950
    14   6 C    3.963 --    15 N    0.999    39 H    0.977    40 H    0.972
                            13 C    0.950
    15   7 N    3.401 --    16 C    1.210    14 C    0.999    41 H    0.941
                            17 O    0.181
    16   6 C    3.948 --    17 O    1.696    15 N    1.210    18 C    0.959
    17   8 O    2.016 --    16 C    1.696    15 N    0.181
    18   6 C    3.983 --    19 C    1.428    24 C    1.328    16 C    0.959
                            21 C    0.102
    19   6 C    3.989 --    18 C    1.428    20 C    1.428    42 H    0.967
    20   6 C    3.980 --    21 C    1.435    19 C    1.428    43 H    0.970
    21   6 C    3.988 --    20 C    1.435    22 C    1.402    44 H    0.966
                            18 C    0.102
    22   6 C    3.884 --    21 C    1.402    24 C    1.352    23 F    0.960
    23   9 F    1.093 --    22 C    0.960
    24   6 C    3.987 --    22 C    1.352    18 C    1.328    10 C    1.065
    25   6 C    3.990 --    26 C    1.460     7 C    1.363    45 H    0.964
                             5 C    0.101
    26   6 C    3.991 --    25 C    1.460     4 C    1.399    46 H    0.968
                             6 C    0.102
    27   1 H    0.999 --     1 C    0.983
    28   1 H    0.999 --     1 C    0.973
    29   1 H    0.998 --     1 C    0.983
    30   1 H    0.979 --     2 N    0.953
    31   1 H    0.998 --     3 C    0.969
    32   1 H    0.998 --     3 C    0.971
    33   1 H    0.999 --     5 C    0.969
    34   1 H    0.998 --     6 C    0.968
    35   1 H    0.998 --     9 C    0.970
    36   1 H    0.969 --    11 N    0.933
    37   1 H    0.996 --    13 C    0.972
    38   1 H    0.996 --    13 C    0.973
    39   1 H    0.997 --    14 C    0.977
    40   1 H    0.994 --    14 C    0.972
    41   1 H    0.971 --    15 N    0.941
    42   1 H    0.996 --    19 C    0.967
    43   1 H    0.997 --    20 C    0.970
    44   1 H    0.995 --    21 C    0.966
    45   1 H    0.999 --    25 C    0.964
    46   1 H    0.999 --    26 C    0.968
    47   5 B    3.479 --   116 N    1.282    99 B    1.001    93 B    0.969
    48   7 N    3.398 --    93 B    1.142   106 N    1.007   105 B    1.001
    49   5 B    3.464 --    94 N    1.276   117 B    0.978   105 B    0.958
    50   7 N    3.530 --   109 B    1.151   107 B    1.151    77 B    1.018
    51   5 B    3.462 --    84 N    1.240   113 B    0.994    87 B    0.990
    52   7 N    3.255 --    73 B    1.197   115 B    0.966   110 N    0.887
    53   5 B    3.407 --    86 N    1.175    60 N    1.035    69 B    0.963
    54   7 N    3.568 --    67 B    1.277    55 B    1.157   111 B    0.973
    55   5 B    3.393 --    54 N    1.157    97 B    0.932    95 B    0.640
                            59 B    0.294
    56   7 N    3.320 --    61 B    1.111   100 N    1.044   112 N    0.944
    57   5 B    3.433 --    58 N    1.186    68 N    1.128    96 N    0.961
    58   7 N    3.445 --    57 B    1.186    85 B    1.086    98 N    0.967
    59   5 B    3.456 --    95 B    1.284   111 B    1.004   109 B    0.627
                            55 B    0.294
    60   7 N    3.430 --    63 B    1.231    53 B    1.035    74 N    0.930
    61   5 B    3.388 --    56 N    1.111    80 N    1.040   107 B    1.005
    62   7 N    3.510 --    65 B    1.207    85 B    1.121    82 N    0.999
    63   5 B    3.514 --    60 N    1.231    88 N    1.077   108 N    0.997
    64   7 N    3.320 --   113 B    1.112   116 N    0.987    66 N    0.981
    65   5 B    3.415 --    62 N    1.207    83 B    1.008    97 B    0.927
    66   7 N    3.316 --   101 B    1.128    64 N    0.981    70 N    0.976
    67   5 B    3.465 --    54 N    1.277    81 B    0.978    91 B    0.932
    68   7 N    3.216 --    57 B    1.128    71 B    1.064    96 N    0.792
    69   5 B    3.366 --    82 N    1.151    74 N    0.990    53 B    0.963
    70   7 N    3.101 --    88 N    1.014    66 N    0.976   114 N    0.934
    71   5 B    3.511 --   108 N    1.250    68 N    1.064    86 N    0.988
    72   7 N    3.433 --    77 B    1.203   105 B    1.062    93 B    0.924
    73   5 B    3.480 --    52 N    1.197    90 N    1.043    76 N    0.982
    74   7 N    3.285 --    79 B    1.173    69 B    0.990    60 N    0.930
    75   5 B    3.522 --   110 N    1.197   114 N    1.125   102 N    1.038
    76   7 N    3.431 --    89 B    1.219   103 B    0.993    73 B    0.982
    77   5 B    3.519 --    72 N    1.203   118 N    1.098    50 N    1.018
    78   7 N    3.442 --   115 B    1.263    89 B    0.997   104 N    0.990
    79   5 B    3.445 --    74 N    1.173   106 N    1.119   117 B    0.923
    80   7 N    3.469 --    81 B    1.259    61 B    1.040   112 N    0.983
    81   5 B    3.420 --    80 N    1.259    67 B    0.978    89 B    0.959
    82   7 N    3.511 --   117 B    1.172    69 B    1.151    62 N    0.999
    83   5 B    3.347 --    95 B    1.009    65 B    1.008    94 N    0.963
    84   7 N    3.505 --    51 B    1.240    87 B    1.090    90 N    1.034
    85   5 B    3.515 --    62 N    1.121    86 N    1.107    58 N    1.086
    86   7 N    3.477 --    53 B    1.175    85 B    1.107    71 B    0.988
    87   5 B    3.464 --    92 N    1.181    84 N    1.090    51 B    0.990
    88   7 N    3.271 --    63 B    1.077    70 N    1.014   102 N    0.976
    89   5 B    3.390 --    76 N    1.219    78 N    0.997    81 B    0.959
    90   7 N    3.370 --    73 B    1.043    84 N    1.034   103 B    0.984
    91   5 B    3.453 --   104 N    1.190    98 N    1.080    67 B    0.932
    92   7 N    3.406 --    87 B    1.181    99 B    1.069   100 N    0.960
    93   5 B    3.365 --    48 N    1.142    47 B    0.969    72 N    0.924
                           105 B    0.127
    94   7 N    3.561 --    49 B    1.276   109 B    1.106    83 B    0.963
    95   5 B    3.366 --    59 B    1.284    83 B    1.009    55 B    0.640
                           109 B    0.186
    96   7 N    2.986 --   104 N    1.045    57 B    0.961    68 N    0.792
    97   5 B    3.455 --    98 N    1.265    55 B    0.932    65 B    0.927
    98   7 N    3.481 --    97 B    1.265    91 B    1.080    58 N    0.967
    99   5 B    3.441 --   118 N    1.131    92 N    1.069    47 B    1.001
   100   7 N    3.188 --    56 N    1.044    92 N    0.960   118 N    0.951
   101   5 B    3.521 --   106 N    1.166    66 N    1.128   116 N    0.998
   102   7 N    3.224 --    75 B    1.038   108 N    0.984    88 N    0.976
   103   5 B    3.507 --   112 N    1.266    76 N    0.993    90 N    0.984
   104   7 N    3.439 --    91 B    1.190    96 N    1.045    78 N    0.990
   105   5 B    3.326 --    72 N    1.062    48 N    1.001    49 B    0.958
                            93 B    0.127
   106   7 N    3.490 --   101 B    1.166    79 B    1.119    48 N    1.007
   107   5 B    3.386 --    50 N    1.151    61 B    1.005   111 B    1.003
   108   7 N    3.448 --    71 B    1.250    63 B    0.997   102 N    0.984
   109   5 B    3.443 --    50 N    1.151    94 N    1.106    59 B    0.627
                            95 B    0.186   111 B    0.120
   110   7 N    3.316 --    75 B    1.197   115 B    1.034    52 N    0.887
   111   5 B    3.334 --    59 B    1.004   107 B    1.003    54 N    0.973
                           109 B    0.120
   112   7 N    3.440 --   103 B    1.266    80 N    0.983    56 N    0.944
   113   5 B    3.438 --   114 N    1.126    64 N    1.112    51 B    0.994
   114   7 N    3.404 --   113 B    1.126    75 B    1.125    70 N    0.934
   115   5 B    3.438 --    78 N    1.263   110 N    1.034    52 N    0.966
   116   7 N    3.475 --    47 B    1.282   101 B    0.998    64 N    0.987
   117   5 B    3.360 --    82 N    1.172    49 B    0.978    79 B    0.923
   118   7 N    3.417 --    99 B    1.131    77 B    1.098   100 N    0.951
 ---------------------------------------------------------------------------

Topologies differ in total number of bonds
Writing topology from bond orders to xtbtopo.mol

molecular dipole:
                 x           y           z       tot (Debye)
 q only:        1.276       1.971      -3.652
   full:       -0.332       1.166      -1.485       4.873
molecular quadrupole (traceless):
                xx          xy          yy          xz          yz          zz
 q only:      -28.121     -11.899       7.104      15.105     -16.261      21.018
  q+dip:      -25.546     -15.120      22.112       2.744       2.026       3.434
   full:      -22.536     -12.782      19.161       5.965       0.384       3.375

           -------------------------------------------------
          |                Geometry Summary                 |
           -------------------------------------------------

      molecular mass/u    :     1242.8405120
   center of mass at/Å    :       -0.1129485       0.1496133       2.6782372
  moments of inertia/u·Å² :        0.1489153E+05   0.2483520E+05   0.2786939E+05
rotational constants/cm⁻¹ :        0.1132028E-02   0.6787797E-03   0.6048798E-03

 * 137 selected distances

     #   Z          #   Z                                           value/Å
     1   6 C        2   7 N                                       1.4507244
     2   7 N        3   6 C                                       1.4601711
     4   6 C        5   6 C                                       1.3895667
     5   6 C        6   6 C                                       1.3809776
     6   6 C        7   6 C                                       1.3939472
     8   6 C        9   6 C                                       1.4203237
     9   6 C       10   6 C                                       1.3797654
    10   6 C       11   7 N                                       1.3654397
     8   6 C       12   6 C                                       1.3939124
    11   7 N       12   6 C                                       1.3602828
    12   6 C       13   6 C                                       1.4902876
    14   6 C       15   7 N                                       1.4539035
    15   7 N       16   6 C                                       1.3685672
    16   6 C       17   8 O                                       1.2147272
    18   6 C       19   6 C                                       1.3864359
    19   6 C       20   6 C                                       1.3852225
    20   6 C       21   6 C                                       1.3843327
    21   6 C       22   6 C                                       1.3821995
    18   6 C       24   6 C                                       1.4132000
    22   6 C       24   6 C                                       1.3897769
     7   6 C       25   6 C                                       1.3963493
     4   6 C       26   6 C                                       1.3898736
    25   6 C       26   6 C                                       1.3795809
     1   6 C       27   1 H                                       1.0911811
     1   6 C       28   1 H                                       1.0976543
     1   6 C       29   1 H                                       1.0884195
     2   7 N       30   1 H                                       1.0169234
     3   6 C       31   1 H                                       1.0940133
     3   6 C       32   1 H                                       1.0934562
     5   6 C       33   1 H                                       1.0811716
     6   6 C       34   1 H                                       1.0787790
     9   6 C       35   1 H                                       1.0701089
    11   7 N       36   1 H                                       1.0067270 (min)
    13   6 C       37   1 H                                       1.0905719
    13   6 C       38   1 H                                       1.0864407
    14   6 C       39   1 H                                       1.0905957
    14   6 C       40   1 H                                       1.0907810
    15   7 N       41   1 H                                       1.0108512
    19   6 C       42   1 H                                       1.0792347
    20   6 C       43   1 H                                       1.0787720
    21   6 C       44   1 H                                       1.0788611
    25   6 C       45   1 H                                       1.0779389
    26   6 C       46   1 H                                       1.0810863
    54   7 N       55   5 B                                       1.4429573
    57   5 B       58   7 N                                       1.4040637
    53   5 B       60   7 N                                       1.4720831
    56   7 N       61   5 B                                       1.4408795
    60   7 N       63   5 B                                       1.3865273
    62   7 N       65   5 B                                       1.4221373
    64   7 N       66   7 N                                       1.4263319
    54   7 N       67   5 B                                       1.4229123
    57   5 B       68   7 N                                       1.3939048
    53   5 B       69   5 B                                       1.5754718
    66   7 N       70   7 N                                       1.4171705
    68   7 N       71   5 B                                       1.4351174
    52   7 N       73   5 B                                       1.3916212
    69   5 B       74   7 N                                       1.4845399
    73   5 B       76   7 N                                       1.4701567
    50   7 N       77   5 B                                       1.4901567
    72   7 N       77   5 B                                       1.4129598
    74   7 N       79   5 B                                       1.4378824
    61   5 B       80   7 N                                       1.4564205
    67   5 B       81   5 B                                       1.6636558
    80   7 N       81   5 B                                       1.4084227
    69   5 B       82   7 N                                       1.4214919
    65   5 B       83   5 B                                       1.6425267
    51   5 B       84   7 N                                       1.4054549
    58   7 N       85   5 B                                       1.4488175
    62   7 N       85   5 B                                       1.4604003
    53   5 B       86   7 N                                       1.4273814
    71   5 B       86   7 N                                       1.4931070
    85   5 B       86   7 N                                       1.4576530
    51   5 B       87   5 B                                       1.5712432
    84   7 N       87   5 B                                       1.4152198
    63   5 B       88   7 N                                       1.4404053
    70   7 N       88   7 N                                       1.3899650
    76   7 N       89   5 B                                       1.4201331
    78   7 N       89   5 B                                       1.4793379
    81   5 B       89   5 B                                       1.6735904 (max)
    73   5 B       90   7 N                                       1.4510227
    84   7 N       90   7 N                                       1.3700191
    87   5 B       92   7 N                                       1.4084661
    47   5 B       93   5 B                                       1.6085898
    48   7 N       93   5 B                                       1.4242607
    72   7 N       93   5 B                                       1.4995282
    49   5 B       94   7 N                                       1.4099770
    83   5 B       94   7 N                                       1.4910265
    59   5 B       95   5 B                                       1.5158381
    83   5 B       95   5 B                                       1.6059315
    57   5 B       96   7 N                                       1.4298004
    55   5 B       97   5 B                                       1.6491844
    65   5 B       97   5 B                                       1.6616686
    91   5 B       98   7 N                                       1.4615336
    97   5 B       98   7 N                                       1.4029974
    47   5 B       99   5 B                                       1.6201721
    92   7 N       99   5 B                                       1.4443561
    56   7 N      100   7 N                                       1.3675592
    66   7 N      101   5 B                                       1.4426460
    75   5 B      102   7 N                                       1.4520178
    88   7 N      102   7 N                                       1.4352099
    76   7 N      103   5 B                                       1.4561675
    90   7 N      103   5 B                                       1.4640001
    91   5 B      104   7 N                                       1.4275140
    96   7 N      104   7 N                                       1.3894858
    48   7 N      105   5 B                                       1.4599783
    49   5 B      105   5 B                                       1.6125691
    72   7 N      105   5 B                                       1.4505460
    79   5 B      106   7 N                                       1.4516586
   101   5 B      106   7 N                                       1.4392138
    50   7 N      107   5 B                                       1.4574023
    61   5 B      107   5 B                                       1.6053583
    63   5 B      108   7 N                                       1.4616143
    71   5 B      108   7 N                                       1.3899161
   102   7 N      108   7 N                                       1.4184730
    50   7 N      109   5 B                                       1.4587303
    94   7 N      109   5 B                                       1.4558174
    75   5 B      110   7 N                                       1.3919070
    54   7 N      111   5 B                                       1.4966869
    59   5 B      111   5 B                                       1.6004340
   107   5 B      111   5 B                                       1.6241430
    56   7 N      112   7 N                                       1.4315096
    80   7 N      112   7 N                                       1.4184202
   103   5 B      112   7 N                                       1.3739446
    51   5 B      113   5 B                                       1.6396171
    64   7 N      113   5 B                                       1.4459357
    75   5 B      114   7 N                                       1.4380093
   113   5 B      114   7 N                                       1.4467536
    52   7 N      115   5 B                                       1.4269799
    78   7 N      115   5 B                                       1.3997963
   110   7 N      115   5 B                                       1.4183444
    47   5 B      116   7 N                                       1.4025579
    64   7 N      116   7 N                                       1.4124141
   101   5 B      116   7 N                                       1.4833306
    49   5 B      117   5 B                                       1.6505695
    82   7 N      117   5 B                                       1.4319845
    77   5 B      118   7 N                                       1.4513363
    99   5 B      118   7 N                                       1.4430889

 * 8 distinct bonds (by element types)

   Z      Z             #   av. dist./Å        max./Å        min./Å
   5 B    5 B          17     1.6188567     1.6735904     1.5158381
   1 H    6 C          17     1.0852392     1.0976543     1.0701089
   6 C    6 C          16     1.3972345     1.4902876     1.3795809
   1 H    7 N           3     1.0115005     1.0169234     1.0067270
   5 B    7 N          66     1.4391362     1.4995282     1.3739446
   6 C    7 N           6     1.4098481     1.4601711     1.3602828
   7 N    7 N          11     1.4069598     1.4352099     1.3675592
   6 C    8 O           1     1.2147272     1.2147272     1.2147272


optimized geometry written to: xtbopt.xyz


           -------------------------------------------------
          | TOTAL ENERGY             -222.953556081429 Eh   |
          | GRADIENT NORM               0.000598882634 Eh/α |
          | HOMO-LUMO GAP               0.669094627891 eV   |
           -------------------------------------------------

------------------------------------------------------------------------
 * finished run on 2026/08/31 at 21:09:00.492     
------------------------------------------------------------------------
 total:
 * wall-time:     0 d,  0 h,  0 min, 35.277 sec
 *  cpu-time:     0 d,  0 h,  5 min, 48.922 sec
 * ratio c/w:     9.891 speedup
 SCF:
 * wall-time:     0 d,  0 h,  0 min,  0.542 sec
 *  cpu-time:     0 d,  0 h,  0 min,  5.719 sec
 * ratio c/w:    10.551 speedup
 ANC optimizer:
 * wall-time:     0 d,  0 h,  0 min, 34.670 sec
 *  cpu-time:     0 d,  0 h,  5 min, 42.609 sec
 * ratio c/w:     9.882 speedup

normal termination of xtb
