      -----------------------------------------------------------      
     |                   =====================                   |     
     |                           x T B                           |     
     |                   =====================                   |     
     |                         S. Grimme                         |     
     |          Mulliken Center for Theoretical Chemistry        |     
     |                    University of Bonn                     |     
      -----------------------------------------------------------      

   * xtb version 6.7.1pre (5071a88) compiled by 'Marcel@Raven' on 2024-07-23

   xtb is free software: you can redistribute it and/or modify it under
   the terms of the GNU Lesser General Public License as published by
   the Free Software Foundation, either version 3 of the License, or
   (at your option) any later version.
   
   xtb is distributed in the hope that it will be useful,
   but WITHOUT ANY WARRANTY; without even the implied warranty of
   MERCHANTABILITY or FITNESS FOR A PARTICULAR PURPOSE.  See the
   GNU Lesser General Public License for more details.
   
   Cite this work as:
   * C. Bannwarth, E. Caldeweyher, S. Ehlert, A. Hansen, P. Pracht,
     J. Seibert, S. Spicher, S. Grimme, WIREs Comput. Mol. Sci., 2020, 11,
     e01493. DOI: 10.1002/wcms.1493
   
   for GFN2-xTB:
   * C. Bannwarth, S. Ehlert and S. Grimme., J. Chem. Theory Comput., 2019,
     15, 1652-1671. DOI: 10.1021/acs.jctc.8b01176
   for GFN1-xTB:
   * S. Grimme, C. Bannwarth, P. Shushkov, J. Chem. Theory Comput., 2017,
     13, 1989-2009. DOI: 10.1021/acs.jctc.7b00118
   for GFN0-xTB:
   * P. Pracht, E. Caldeweyher, S. Ehlert, S. Grimme, ChemRxiv, 2019, preprint.
     DOI: 10.26434/chemrxiv.8326202.v1
   for GFN-FF:
   * S. Spicher and S. Grimme, Angew. Chem. Int. Ed., 2020, 59, 15665-15673.
     DOI: 10.1002/anie.202004239
   
   for ALPB and GBSA implicit solvation:
   * S. Ehlert, M. Stahn, S. Spicher, S. Grimme, J. Chem. Theory Comput.,
     2021, 17, 4250-4261. DOI: 10.1021/acs.jctc.1c00471
   
   for ddCOSMO and CPCM-X implicit solvation:
   * M. Stahn, S. Ehlert, S. Grimme, J. Phys. Chem. A,
     2023, XX, XXXX-XXXX. DOI: 10.1021/acs.jpca.3c04382
   
   for DFT-D4:
   * E. Caldeweyher, C. Bannwarth and S. Grimme, J. Chem. Phys., 2017,
     147, 034112. DOI: 10.1063/1.4993215
   * E. Caldeweyher, S. Ehlert, A. Hansen, H. Neugebauer, S. Spicher,
     C. Bannwarth and S. Grimme, J. Chem. Phys., 2019, 150, 154122.
     DOI: 10.1063/1.5090222
   * E. Caldeweyher, J.-M. Mewes, S. Ehlert and S. Grimme, Phys. Chem. Chem. Phys.
     2020, 22, 8499-8512. DOI: 10.1039/D0CP00502A
   
   for sTDA-xTB:
   * S. Grimme and C. Bannwarth, J. Chem. Phys., 2016, 145, 054103.
     DOI: 10.1063/1.4959605
   
   in the mass-spec context:
   * V. Asgeirsson, C. Bauer and S. Grimme, Chem. Sci., 2017, 8, 4879.
     DOI: 10.1039/c7sc00601b
   * J. Koopman and S. Grimme, ACS Omega 2019, 4, 12, 15120-15133.
     DOI: 10.1021/acsomega.9b02011
   
   for metadynamics refer to:
   * S. Grimme, J. Chem. Theory Comput., 2019, 155, 2847-2862
     DOI: 10.1021/acs.jctc.9b00143
   
   for SPH calculations refer to:
   * S. Spicher and S. Grimme, J. Chem. Theory Comput., 2021, 17, 1701-1714
     DOI: 10.1021/acs.jctc.0c01306
   
   for ONIOM refer to:
   * C. Plett, A. Katbashev, S. Ehlert, S. Grimme, M. Bursch,
     Phys. Chem. Chem. Phys., 2023, 25, 17860-17868. DOI: 10.1039/D3CP02178E
   
   for DIPRO refer to:
   * J. Kohn, N. Gildemeister, S. Grimme, D. Fazzi, A. Hansen,
     J. Chem. Phys., 2023, just accepted.
   
   for PTB refer to:
   * S. Grimme, M. Mueller, A. Hansen, J. Chem. Phys., 2023, 158, 124111.
     DOI: 10.1063/5.0137838
   
   with help from (in alphabetical order)
   P. Atkinson, C. Bannwarth, F. Bohle, G. Brandenburg, E. Caldeweyher
   M. Checinski, S. Dohm, S. Ehlert, S. Ehrlich, I. Gerasimov, C. Hölzer
   A. Katbashev, J. Kohn, J. Koopman, C. Lavigne, S. Lehtola, F. März, M. Müller,
   F. Musil, H. Neugebauer, J. Pisarek, C. Plett, P. Pracht, F. Pultar,
   J. Seibert, P. Shushkov, S. Spicher, M. Stahn, M. Steiner, T. Strunk,
   J. Stückrath, T. Rose, and J. Unsleber
   
 * started run on 2026/08/31 at 22:23:22.392     
   ID    Z sym.   atoms
    1    6 C      1, 3-10, 12-14, 16, 18-22, 24-26
    2    7 N      2, 11, 15, 48, 50, 52, 54, 56, 58, 60, 62, 64, 66, 68, 70,
                  72, 74, 76, 78, 80, 82, 84, 86, 88, 90, 92, 94, 96, 98,
                  100, 102, 104, 106, 108, 110, 112, 114, 116, 118
    3    8 O      17
    4    9 F      23
    5    1 H      27-46
    6    5 B      47, 49, 51, 53, 55, 57, 59, 61, 63, 65, 67, 69, 71, 73, 75,
                  77, 79, 81, 83, 85, 87, 89, 91, 93, 95, 97, 99, 101, 103,
                  105, 107, 109, 111, 113, 115, 117

           -------------------------------------------------
          |                Calculation Setup                |
           -------------------------------------------------

          program call               : "c:\Users\Andre\Proyectos doctorado\kras-pancreatic-gC3N4-ai\tools\xtb\xtb-6.7.1\bin\xtb.exe" "c:\Users\Andre\Proyectos doctorado\nano-qsar-ai-therapeutics\calculations\tnbc\Rucaparib\Rucaparib_opt_0deg.xyz" --opt vloose --gfn 2 --chrg 0 --uhf 0 --etemp 300 --iterations 500 --cycles 15 --norestart
          coordinate file            : c:\Users\Andre\Proyectos doctorado\nano-qsar-ai-therapeutics\calculations\tnbc\Rucaparib\Rucaparib_opt_0deg.xyz
          omp threads                :                    16


molecular fragmentation (1/2 indicates fragments):
111111111111111111111111111111111111111111111122222222222222222222222222
2222222222222222222222222222222222222222222222
# atoms in fragment 1/2:    46    72
 fragment masses (1/2) :      349.40      893.44
CMA distance (Bohr)    :  19.070
constraining FC (au)   :  0.0500

           -------------------------------------------------
          |                 G F N 2 - x T B                 |
           -------------------------------------------------

        Reference                      10.1021/acs.jctc.8b01176
      * Hamiltonian:
        H0-scaling (s, p, d)           1.850000    2.230000    2.230000
        zeta-weighting                 0.500000
      * Dispersion:
        s8                             2.700000
        a1                             0.520000
        a2                             5.000000
        s9                             5.000000
      * Repulsion:
        kExp                           1.500000    1.000000
        rExp                           1.000000
      * Coulomb:
        alpha                          2.000000
        third order                    shell-resolved
        anisotropic                    true
        a3                             3.000000
        a5                             4.000000
        cn-shift                       1.200000
        cn-exp                         4.000000
        max-rad                        5.000000


          ...................................................
          :                      SETUP                      :
          :.................................................:
          :  # basis functions                 412          :
          :  # atomic orbitals                 412          :
          :  # shells                          216          :
          :  # electrons                       420          :
          :  max. iterations                   500          :
          :  Hamiltonian                  GFN2-xTB          :
          :  restarted?                      false          :
          :  GBSA solvation                  false          :
          :  PC potential                    false          :
          :  electronic temp.          300.0000000     K    :
          :  accuracy                    1.0000000          :
          :  -> integral cutoff          0.2500000E+02      :
          :  -> integral neglect         0.1000000E-07      :
          :  -> SCF convergence          0.1000000E-05 Eh   :
          :  -> wf. convergence          0.1000000E-03 e    :
          :  Broyden damping             0.4000000          :
          :  net charge                          0          :
          :  unpaired electrons                  0          :
          ...................................................

 iter      E             dE          RMSdq      gap      omega  full diag
   1   -224.3564891 -0.224356E+03  0.111E+01    0.61       0.0  T
   2   -224.8177563 -0.461267E+00  0.680E+00    0.43       1.0  T
   3   -222.0032258  0.281453E+01  0.434E+00    0.14       1.0  T
   4   -225.0516994 -0.304847E+01  0.127E+00    0.17       1.0  T
   5   -225.2649126 -0.213213E+00  0.693E-01    0.55       1.0  T
   6   -225.3024837 -0.375711E-01  0.496E-01    0.66       1.0  T
   7   -225.3045558 -0.207213E-02  0.363E-01    0.82       1.0  T
   8   -225.3017007  0.285511E-02  0.269E-01    0.66       1.0  T
   9   -225.3127685 -0.110679E-01  0.941E-02    0.68       1.0  T
  10   -225.3143745 -0.160598E-02  0.312E-02    0.68       1.0  T
  11   -225.3144990 -0.124457E-03  0.169E-02    0.67       1.0  T
  12   -225.3145131 -0.141674E-04  0.989E-03    0.67       1.0  T
  13   -225.3145150 -0.183289E-05  0.487E-03    0.67       1.9  T
  14   -225.3145187 -0.373487E-05  0.140E-03    0.67       6.6  T
  15   -225.3145189 -0.191653E-06  0.667E-04    0.67      13.8  T
  16   -225.3145189 -0.235026E-07  0.348E-04    0.67      26.5  T

   *** convergence criteria satisfied after 16 iterations ***

         #    Occupation            Energy/Eh            Energy/eV
      -------------------------------------------------------------
         1        2.0000           -0.8117207             -22.0880
       ...           ...                  ...                  ...
       204        2.0000           -0.3260757              -8.8730
       205        2.0000           -0.3233104              -8.7977
       206        2.0000           -0.3218257              -8.7573
       207        2.0000           -0.3194586              -8.6929
       208        2.0000           -0.3142268              -8.5505
       209        2.0000           -0.3122802              -8.4976
       210        2.0000           -0.3065729              -8.3423 (HOMO)
       211        0.0000           -0.2820357              -7.6746 (LUMO)
       212                         -0.2738028              -7.4506
       213                         -0.2643846              -7.1943
       214                         -0.2632304              -7.1629
       215                         -0.2502131              -6.8086
       ...                                ...                  ...
       412                          0.9848337              26.7987
      -------------------------------------------------------------
                  HL-Gap            0.0245371 Eh            0.6677 eV
             Fermi-level           -0.2943031 Eh           -8.0084 eV

 SCC (total)                   0 d,  0 h,  0 min,  0.553 sec
 SCC setup                      ...        0 min,  0.001 sec (  0.181%)
 Dispersion                     ...        0 min,  0.003 sec (  0.542%)
 classical contributions        ...        0 min,  0.000 sec (  0.000%)
 integral evaluation            ...        0 min,  0.014 sec (  2.532%)
 iterations                     ...        0 min,  0.498 sec ( 90.054%)
 molecular gradient             ...        0 min,  0.034 sec (  6.148%)
 printout                       ...        0 min,  0.003 sec (  0.542%)

         :::::::::::::::::::::::::::::::::::::::::::::::::::::
         ::                     SUMMARY                     ::
         :::::::::::::::::::::::::::::::::::::::::::::::::::::
         :: total energy            -222.893347656665 Eh    ::
         :: gradient norm              0.102959514688 Eh/a0 ::
         :: HOMO-LUMO gap              0.667689627512 eV    ::
         ::.................................................::
         :: SCC energy              -225.299130225185 Eh    ::
         :: -> isotropic ES            0.692304318093 Eh    ::
         :: -> anisotropic ES         -0.021686862449 Eh    ::
         :: -> anisotropic XC          0.095805148846 Eh    ::
         :: -> dispersion             -0.200055928168 Eh    ::
         :: repulsion energy           2.405782568520 Eh    ::
         :: add. restraining           0.000000000000 Eh    ::
         :: total charge              -0.000000000001 e     ::
         :::::::::::::::::::::::::::::::::::::::::::::::::::::

      ----------------------------------------------------------- 
     |                   =====================                   |
     |                        A N C O P T                        |
     |                   =====================                   |
     |               Approximate Normal Coordinate               |
     |                Rational Function Optimizer                |
      ----------------------------------------------------------- 
      ----------------------------------------------------------- 
     |                   =====================                   |
     |                        A N C O P T                        |
     |                   =====================                   |
     |               Approximate Normal Coordinate               |
     |                Rational Function Optimizer                |
      ----------------------------------------------------------- 

          ...................................................
          :                      SETUP                      :
          :.................................................:
          :   optimization level            normal          :
          :   max. optcycles                    15          :
          :   ANC micro-cycles                  15          :
          :   degrees of freedom               348          :
          :.................................................:
          :   RF solver                   davidson          :
          :   write xtbopt.log                true          :
          :   linear?                        false          :
          :   energy convergence         0.5000000E-05 Eh   :
          :   grad. convergence          0.1000000E-02 Eh/α :
          :   maxmium RF displ.          1.0000000          :
          :   Hlow (freq-cutoff)         0.1000000E-01      :
          :   Hmax (freq-cutoff)         5.0000000          :
          :   S6 in model hess.         20.0000000          :
          ...................................................

generating ANC from exact Hessian ...
Using Lindh-Hessian (1995)
 Shifting diagonal of input Hessian by   1.008563473226447E-002
 Lowest  eigenvalues of input Hessian
    0.010000    0.010005    0.010017    0.000000    0.000000    0.000000
    0.000000    0.000000    0.010090    0.000000    0.010111    0.010137
    0.010360    0.010499    0.010713    0.011328    0.012406    0.012762
 Highest eigenvalues
    2.065568    2.087493    2.154603    2.235878    2.260728    2.314982
 

........................................................................
.............................. CYCLE    1 ..............................
........................................................................

 iter      E             dE          RMSdq      gap      omega  full diag
   1   -225.3145189 -0.225315E+03  0.135E-04    0.67       0.0  T
   2   -225.3145189  0.610612E-09  0.119E-04    0.67      77.5  T
   3   -225.3145189 -0.207433E-08  0.579E-05    0.67     159.1  T
     SCC iter.                  ...        0 min,  0.099 sec
     gradient                   ...        0 min,  0.032 sec
 * total energy  :  -222.8933477 Eh     change       -0.7538233E-08 Eh
   gradient norm :     0.1029606 Eh/α   predicted     0.0000000E+00 (-100.00%)
   displ. norm   :     0.5232599 α      lambda       -0.3779278E-01
   maximum displ.:     0.2485542 α      in ANC's #27, #30, #22, ...

........................................................................
.............................. CYCLE    2 ..............................
........................................................................

 iter      E             dE          RMSdq      gap      omega  full diag
   1   -225.3721736 -0.225372E+03  0.198E-01    0.67       0.0  T
   2   -225.3722739 -0.100336E-03  0.115E-01    0.67       1.0  T
   3   -225.3721137  0.160158E-03  0.455E-02    0.67       1.0  T
   4   -225.3722964 -0.182653E-03  0.118E-02    0.67       1.0  T
   5   -225.3723105 -0.140918E-04  0.440E-03    0.67       2.1  T
   6   -225.3723082  0.223626E-05  0.446E-03    0.67       2.1  T
   7   -225.3723116 -0.331747E-05  0.156E-03    0.67       5.9  T
   8   -225.3723119 -0.361390E-06  0.412E-04    0.67      22.4  T
   9   -225.3723119 -0.517582E-08  0.267E-04    0.67      34.5  T
     SCC iter.                  ...        0 min,  0.323 sec
     gradient                   ...        0 min,  0.030 sec
 * total energy  :  -222.9201155 Eh     change       -0.2676780E-01 Eh
   gradient norm :     0.0520515 Eh/α   predicted    -0.2407138E-01 ( -10.07%)
   displ. norm   :     0.4558383 α      lambda       -0.1409426E-01
   maximum displ.:     0.2223780 α      in ANC's #27, #30, #22, ...

........................................................................
.............................. CYCLE    3 ..............................
........................................................................

 iter      E             dE          RMSdq      gap      omega  full diag
   1   -225.4020000 -0.225402E+03  0.143E-01    0.67       0.0  T
   2   -225.4021051 -0.105174E-03  0.801E-02    0.68       1.0  T
   3   -225.4020122  0.928982E-04  0.399E-02    0.68       1.0  T
   4   -225.4021328 -0.120580E-03  0.993E-03    0.67       1.0  T
   5   -225.4021443 -0.114375E-04  0.333E-03    0.68       2.8  T
   6   -225.4021440  0.298754E-06  0.300E-03    0.68       3.1  T
   7   -225.4021454 -0.143509E-05  0.117E-03    0.68       7.9  T
   8   -225.4021456 -0.168904E-06  0.396E-04    0.68      23.3  T
   9   -225.4021456 -0.148433E-07  0.222E-04    0.68      41.5  T
     SCC iter.                  ...        0 min,  0.269 sec
     gradient                   ...        0 min,  0.032 sec
 * total energy  :  -222.9289139 Eh     change       -0.8798425E-02 Eh
   gradient norm :     0.0374435 Eh/α   predicted    -0.8511454E-02 (  -3.26%)
   displ. norm   :     0.2463533 α      lambda       -0.2738894E-02
   maximum displ.:     0.0999159 α      in ANC's #27, #22, #30, ...

........................................................................
.............................. CYCLE    4 ..............................
........................................................................

 iter      E             dE          RMSdq      gap      omega  full diag
   1   -225.4094677 -0.225409E+03  0.730E-02    0.68       0.0  T
   2   -225.4095863 -0.118608E-03  0.404E-02    0.68       1.0  T
   3   -225.4096007 -0.143140E-04  0.249E-02    0.68       1.0  T
   4   -225.4096214 -0.207064E-04  0.898E-03    0.68       1.0  T
   5   -225.4096278 -0.644592E-05  0.265E-03    0.68       3.5  T
   6   -225.4096286 -0.792821E-06  0.172E-03    0.68       5.4  T
   7   -225.4096291 -0.529780E-06  0.552E-04    0.68      16.7  T
   8   -225.4096291 -0.161928E-07  0.277E-04    0.68      33.2  T
     SCC iter.                  ...        0 min,  0.230 sec
     gradient                   ...        0 min,  0.031 sec
 * total energy  :  -222.9306872 Eh     change       -0.1773293E-02 Eh
   gradient norm :     0.0186890 Eh/α   predicted    -0.1452620E-02 ( -18.08%)
   displ. norm   :     0.1797480 α      lambda       -0.8446582E-03
   maximum displ.:     0.0832123 α      in ANC's #12, #14, #7, ...

........................................................................
.............................. CYCLE    5 ..............................
........................................................................

 iter      E             dE          RMSdq      gap      omega  full diag
   1   -225.4115571 -0.225412E+03  0.445E-02    0.68       0.0  T
   2   -225.4116142 -0.571746E-04  0.254E-02    0.68       1.0  T
   3   -225.4116232 -0.898050E-05  0.152E-02    0.68       1.0  T
   4   -225.4116276 -0.441087E-05  0.654E-03    0.68       1.4  T
   5   -225.4116304 -0.281202E-05  0.242E-03    0.68       3.8  T
   6   -225.4116314 -0.957730E-06  0.104E-03    0.68       8.9  T
   7   -225.4116316 -0.160297E-06  0.426E-04    0.68      21.6  T
   8   -225.4116316 -0.658764E-08  0.271E-04    0.68      33.9  T
     SCC iter.                  ...        0 min,  0.290 sec
     gradient                   ...        0 min,  0.048 sec
 * total energy  :  -222.9312055 Eh     change       -0.5183674E-03 Eh
   gradient norm :     0.0046715 Eh/α   predicted    -0.4359787E-03 ( -15.89%)
   displ. norm   :     0.1381065 α      lambda       -0.2242533E-03
   maximum displ.:     0.0732346 α      in ANC's #12, #14, #9, ...

........................................................................
.............................. CYCLE    6 ..............................
........................................................................

 iter      E             dE          RMSdq      gap      omega  full diag
   1   -225.4104261 -0.225410E+03  0.231E-02    0.68       0.0  T
   2   -225.4104312 -0.506300E-05  0.136E-02    0.68       1.0  T
   3   -225.4104291  0.204151E-05  0.712E-03    0.68       1.3  T
   4   -225.4104317 -0.259037E-05  0.255E-03    0.68       3.6  T
   5   -225.4104322 -0.456144E-06  0.151E-03    0.68       6.1  T
   6   -225.4104327 -0.471780E-06  0.407E-04    0.68      22.6  T
   7   -225.4104327 -0.143234E-07  0.217E-04    0.68      42.3  T
     SCC iter.                  ...        0 min,  0.289 sec
     gradient                   ...        0 min,  0.032 sec
 * total energy  :  -222.9313732 Eh     change       -0.1676261E-03 Eh
   gradient norm :     0.0051538 Eh/α   predicted    -0.1142715E-03 ( -31.83%)
   displ. norm   :     0.2318345 α      lambda       -0.2489944E-03
   maximum displ.:     0.1213330 α      in ANC's #12, #14, #9, ...

........................................................................
.............................. CYCLE    7 ..............................
........................................................................

 iter      E             dE          RMSdq      gap      omega  full diag
   1   -225.4090132 -0.225409E+03  0.329E-02    0.68       0.0  T
   2   -225.4090171 -0.388063E-05  0.194E-02    0.68       1.0  T
   3   -225.4090123  0.477220E-05  0.746E-03    0.68       1.2  T
   4   -225.4090174 -0.507955E-05  0.240E-03    0.68       3.8  T
   5   -225.4090179 -0.519702E-06  0.137E-03    0.68       6.7  T
   6   -225.4090183 -0.344790E-06  0.525E-04    0.68      17.5  T
   7   -225.4090183 -0.190745E-07  0.271E-04    0.68      34.0  T
     SCC iter.                  ...        0 min,  0.238 sec
     gradient                   ...        0 min,  0.033 sec
 * total energy  :  -222.9315508 Eh     change       -0.1776283E-03 Eh
   gradient norm :     0.0069661 Eh/α   predicted    -0.1311902E-03 ( -26.14%)
   displ. norm   :     0.2479274 α      lambda       -0.1880882E-03
   maximum displ.:     0.1226619 α      in ANC's #12, #14, #9, ...

........................................................................
.............................. CYCLE    8 ..............................
........................................................................

 iter      E             dE          RMSdq      gap      omega  full diag
   1   -225.4083367 -0.225408E+03  0.325E-02    0.68       0.0  T
   2   -225.4083385 -0.183178E-05  0.190E-02    0.68       1.0  T
   3   -225.4083366  0.194907E-05  0.442E-03    0.68       2.1  T
   4   -225.4083386 -0.201893E-05  0.159E-03    0.68       5.8  T
   5   -225.4083388 -0.232808E-06  0.101E-03    0.68       9.2  T
   6   -225.4083390 -0.160155E-06  0.484E-04    0.68      19.0  T
   7   -225.4083390 -0.175667E-07  0.273E-04    0.68      33.7  T
     SCC iter.                  ...        0 min,  0.249 sec
     gradient                   ...        0 min,  0.031 sec
 * total energy  :  -222.9316912 Eh     change       -0.1404344E-03 Eh
   gradient norm :     0.0063870 Eh/α   predicted    -0.9982624E-04 ( -28.92%)
   displ. norm   :     0.2693311 α      lambda       -0.1785135E-03
   maximum displ.:     0.1213618 α      in ANC's #12, #14, #9, ...

........................................................................
.............................. CYCLE    9 ..............................
........................................................................

 iter      E             dE          RMSdq      gap      omega  full diag
   1   -225.4089693 -0.225409E+03  0.340E-02    0.68       0.0  T
   2   -225.4089719 -0.263042E-05  0.198E-02    0.68       1.0  T
   3   -225.4089705  0.142562E-05  0.438E-03    0.68       2.1  T
   4   -225.4089721 -0.160328E-05  0.150E-03    0.68       6.1  T
   5   -225.4089723 -0.239856E-06  0.667E-04    0.68      13.8  T
   6   -225.4089724 -0.298524E-07  0.453E-04    0.68      20.3  T
     SCC iter.                  ...        0 min,  0.205 sec
     gradient                   ...        0 min,  0.037 sec
 * total energy  :  -222.9318215 Eh     change       -0.1302620E-03 Eh
   gradient norm :     0.0041055 Eh/α   predicted    -0.9573408E-04 ( -26.51%)
   displ. norm   :     0.2264844 α      lambda       -0.1259904E-03
   maximum displ.:     0.0907193 α      in ANC's #14, #7, #9, ...

........................................................................
.............................. CYCLE   10 ..............................
........................................................................

 iter      E             dE          RMSdq      gap      omega  full diag
   1   -225.4103787 -0.225410E+03  0.281E-02    0.68       0.0  T
   2   -225.4103808 -0.209932E-05  0.163E-02    0.68       1.0  T
   3   -225.4103799  0.895061E-06  0.375E-03    0.68       2.5  T
   4   -225.4103803 -0.452768E-06  0.199E-03    0.68       4.6  T
   5   -225.4103808 -0.531321E-06  0.109E-03    0.68       8.4  T
   6   -225.4103811 -0.227560E-06  0.312E-04    0.68      29.5  T
   7   -225.4103811 -0.351349E-09  0.187E-04    0.68      49.3  T
     SCC iter.                  ...        0 min,  0.239 sec
     gradient                   ...        0 min,  0.032 sec
 * total energy  :  -222.9319109 Eh     change       -0.8937610E-04 Eh
   gradient norm :     0.0029805 Eh/α   predicted    -0.6623731E-04 ( -25.89%)
   displ. norm   :     0.1716029 α      lambda       -0.7109872E-04
   maximum displ.:     0.0804670 α      in ANC's #7, #5, #9, ...

........................................................................
.............................. CYCLE   11 ..............................
........................................................................

 iter      E             dE          RMSdq      gap      omega  full diag
   1   -225.4114889 -0.225411E+03  0.196E-02    0.68       0.0  T
   2   -225.4114899 -0.101894E-05  0.114E-02    0.68       1.0  T
   3   -225.4114891  0.803217E-06  0.312E-03    0.68       3.0  T
   4   -225.4114896 -0.519238E-06  0.161E-03    0.68       5.7  T
   5   -225.4114900 -0.374048E-06  0.826E-04    0.68      11.1  T
   6   -225.4114901 -0.120255E-06  0.277E-04    0.68      33.2  T
     SCC iter.                  ...        0 min,  0.191 sec
     gradient                   ...        0 min,  0.030 sec
 * total energy  :  -222.9319635 Eh     change       -0.5257687E-04 Eh
   gradient norm :     0.0030262 Eh/α   predicted    -0.3659812E-04 ( -30.39%)
   displ. norm   :     0.1516526 α      lambda       -0.5396714E-04
   maximum displ.:     0.0803597 α      in ANC's #7, #5, #9, ...

........................................................................
.............................. CYCLE   12 ..............................
........................................................................

 iter      E             dE          RMSdq      gap      omega  full diag
   1   -225.4119997 -0.225412E+03  0.152E-02    0.68       0.0  T
   2   -225.4120006 -0.963082E-06  0.886E-03    0.68       1.0  T
   3   -225.4119995  0.114152E-05  0.333E-03    0.68       2.8  T
   4   -225.4119996 -0.918251E-07  0.238E-03    0.68       3.9  T
   5   -225.4120008 -0.118344E-05  0.736E-04    0.68      12.5  T
   6   -225.4120009 -0.912683E-07  0.263E-04    0.68      35.0  T
   7   -225.4120009  0.297740E-08  0.223E-04    0.68      41.3  T
     SCC iter.                  ...        0 min,  0.228 sec
     gradient                   ...        0 min,  0.031 sec
 * total energy  :  -222.9320061 Eh     change       -0.4263185E-04 Eh
   gradient norm :     0.0024382 Eh/α   predicted    -0.2760599E-04 ( -35.25%)
   displ. norm   :     0.1591243 α      lambda       -0.5374870E-04
   maximum displ.:     0.0893672 α      in ANC's #7, #5, #9, ...

........................................................................
.............................. CYCLE   13 ..............................
........................................................................

 iter      E             dE          RMSdq      gap      omega  full diag
   1   -225.4120861 -0.225412E+03  0.148E-02    0.68       0.0  T
   2   -225.4120869 -0.785167E-06  0.867E-03    0.68       1.1  T
   3   -225.4120858  0.108711E-05  0.310E-03    0.68       3.0  T
   4   -225.4120860 -0.172431E-06  0.225E-03    0.68       4.1  T
   5   -225.4120870 -0.103811E-05  0.692E-04    0.68      13.3  T
   6   -225.4120871 -0.784012E-07  0.236E-04    0.68      39.0  T
   7   -225.4120871  0.210181E-08  0.169E-04    0.68      54.3  T
     SCC iter.                  ...        0 min,  0.227 sec
     gradient                   ...        0 min,  0.034 sec
 * total energy  :  -222.9320496 Eh     change       -0.4352495E-04 Eh
   gradient norm :     0.0018374 Eh/α   predicted    -0.2755683E-04 ( -36.69%)
   displ. norm   :     0.2687678 α      lambda       -0.5488437E-04
   maximum displ.:     0.1538371 α      in ANC's #5, #7, #9, ...

........................................................................
.............................. CYCLE   14 ..............................
........................................................................

 iter      E             dE          RMSdq      gap      omega  full diag
   1   -225.4114671 -0.225411E+03  0.258E-02    0.68       0.0  T
   2   -225.4114683 -0.119571E-05  0.152E-02    0.68       1.0  T
   3   -225.4114651  0.321197E-05  0.452E-03    0.68       2.0  T
   4   -225.4114661 -0.987774E-06  0.341E-03    0.68       2.7  T
   5   -225.4114686 -0.250284E-05  0.817E-04    0.68      11.3  T
   6   -225.4114687 -0.834358E-07  0.348E-04    0.68      26.5  T
   7   -225.4114687  0.650161E-08  0.292E-04    0.68      31.5  T
     SCC iter.                  ...        0 min,  0.262 sec
     gradient                   ...        0 min,  0.033 sec
 * total energy  :  -222.9321113 Eh     change       -0.6169693E-04 Eh
   gradient norm :     0.0028710 Eh/α   predicted    -0.2832537E-04 ( -54.09%)
   displ. norm   :     0.1575361 α      lambda       -0.4694594E-04
   maximum displ.:     0.0926210 α      in ANC's #5, #7, #9, ...

........................................................................
.............................. CYCLE   15 ..............................
........................................................................

 iter      E             dE          RMSdq      gap      omega  full diag
   1   -225.4112961 -0.225411E+03  0.160E-02    0.68       0.0  T
   2   -225.4112962 -0.113274E-06  0.938E-03    0.68       1.0  T
   3   -225.4112953  0.934472E-06  0.231E-03    0.68       4.0  T
   4   -225.4112961 -0.752856E-06  0.111E-03    0.68       8.3  T
   5   -225.4112963 -0.254534E-06  0.301E-04    0.68      30.6  T
   6   -225.4112963 -0.339131E-08  0.180E-04    0.68      51.1  T
     SCC iter.                  ...        0 min,  0.191 sec
     gradient                   ...        0 min,  0.029 sec
 * total energy  :  -222.9321548 Eh     change       -0.4351686E-04 Eh
   gradient norm :     0.0029646 Eh/α   predicted    -0.2405890E-04 ( -44.71%)
   displ. norm   :     0.2983175 α      lambda       -0.9769027E-04
   maximum displ.:     0.1750496 α      in ANC's #5, #7, #9, ...

   *** FAILED TO CONVERGE GEOMETRY OPTIMIZATION IN 15 ITERATIONS ***


 ANCopt (total)                0 d,  0 h,  0 min,  4.399 sec
 optimizer setup                ...        0 min,  0.002 sec (  0.045%)
 model hessian                  ...        0 min,  0.058 sec (  1.318%)
 ANC generation                 ...        0 min,  0.015 sec (  0.341%)
 coordinate transformation      ...        0 min,  0.003 sec (  0.068%)
 single point calculation       ...        0 min,  4.284 sec ( 97.386%)
 optimization log               ...        0 min,  0.025 sec (  0.568%)
 hessian update                 ...        0 min,  0.005 sec (  0.114%)
 rational function              ...        0 min,  0.005 sec (  0.114%)

================
 final structure:
================
118
 xtb: 6.7.1pre (5071a88)
C            6.01301134614169        1.39588125240555        8.80722287216945
N            6.26238848159591        0.17560375458670        9.54917583086756
C            5.46324553837732        0.05596124264425       10.76332174960537
C            3.98476852166756       -0.07503731803115       10.49599591526578
C            3.14245423634704        1.02894065327973       10.54385533495229
C            1.80158232104845        0.91087265595530       10.23330396661844
C            1.26272828434614       -0.32041390096119        9.86590313572077
C           -0.15991219490075       -0.46354431672879        9.59801559496348
C           -1.02969402830090        0.52692459439675        9.07251925624291
C           -2.31279544446666        0.01440996208199        9.09606685456469
N           -2.20863071220314       -1.28758393011501        9.49690235451608
C           -0.94349244127102       -1.56989904894849        9.90849228702608
C           -0.86757914231949       -2.52704951573958       11.04728387904701
C           -1.55051092082057       -1.83588340538049       12.29341397571215
N           -2.36128927648968       -0.67045925237286       11.97890651111020
C           -3.63664848298740       -0.79554723454362       11.50173786996782
O           -4.33005615925609       -1.76376131971848       11.74449648161277
C           -4.16598839278314        0.34185609681790       10.65369772311689
C           -5.32308096038977        0.98723176615690       11.06224012838390
C           -5.87543977369261        2.00139070939119       10.29629100058182
C           -5.27894999343740        2.37620906335003        9.10514666471121
C           -4.13649038387236        1.71860731587040        8.68771088527613
F           -3.56366886455464        2.08989868266775        7.52628107845156
C           -3.56463491627236        0.68667278246637        9.42161619033848
C            2.11294853007460       -1.42401851290729        9.79942758463336
C            3.45242756843036       -1.29967668022736       10.10751410241284
H            6.26593957133056        2.24421724304259        9.44445015524513
H            4.97276462903544        1.50973899813849        8.47134510809476
H            6.66467491004354        1.41150951012200        7.93510918194854
H            6.07663679973641       -0.62559562225569        8.95135002631012
H            5.82575565969904       -0.82572512478131       11.30117695580758
H            5.66278281584086        0.94019482182564       11.37532532861297
H            3.54112979665794        1.98925835375904       10.84009085129864
H            1.16015849369808        1.77786951917922       10.29090860173627
H           -0.75034718570762        1.51065651775429        8.75301235387160
H           -2.99232432803674       -1.90960441100893        9.61835588650472
H           -1.40611189135957       -3.44510877548707       10.80855488960100
H            0.16012109674569       -2.77549161011822       11.30065631049737
H           -0.77596593648083       -1.50994157201453       12.98811922821415
H           -2.20409600721237       -2.55145252967590       12.79346949201049
H           -1.84128187062268        0.14407356783765       11.68419157037697
H           -5.78294828940244        0.69127524103050       11.99290781514448
H           -6.77252393438190        2.50030632759752       10.62803971150947
H           -5.68981041614061        3.16206683749799        8.49104966310547
H            1.71666569813253       -2.37879238351713        9.48661006315563
H            4.09850287704588       -2.16568669198608       10.05098576366861
B            3.45893512180162       -1.45454708000964        1.66005852436538
N            3.45163081243503        1.13107592517263        0.97951655914855
B            2.53324837445383        2.36978601502166       -1.21713268370928
N            2.28885781671724       -0.63012976201347       -2.69611452134169
B            0.69605311695717       -3.56597851565757        2.73156532121949
N           -2.93540115112771       -2.66342592733876        1.74549028924342
B           -1.04383600564633        4.07891534455352        1.88607368933332
N           -0.62615238346674        0.02874663225073       -3.90261786564389
B           -0.48166324910096        1.45707907044912       -4.04717245623340
N            1.21062267823904       -3.78009231169579       -1.71299775735146
B           -3.84863900120627        2.20640003729805       -0.44241106236504
N           -2.77903641215482        2.76425965466278       -1.16068588936427
B            1.39697366966273        0.83491396301606       -4.84928803502585
N           -0.23933833148935        3.35760164803667        2.88573642346295
B            0.89685894550471       -2.86975447522063       -2.78412771648825
N           -0.49928828629416        3.76943783640214       -0.95867474237320
B           -0.80731199833788        2.17359366810397        3.33345508350466
N            1.66178705964339       -1.28272526379573        3.54302648402953
B           -0.25700103736236        3.47724111477036       -2.32950382596077
N            1.31301867420182        0.05932736327800        3.86093437689550
B           -1.60198553035823       -0.55257221732875       -3.04519265768751
N           -3.83441578665485        1.76908451982591        0.88108665521431
B            0.33038978633852        4.49239143392312        1.23690888420444
N            0.04712555584262       -0.02602479606080        4.50055238326242
B           -2.71097317568918        2.21816883863919        1.65263153817194
N            3.76947813579135       -0.12524146650281       -0.73052842302586
B           -2.24935025519459       -3.64463927424104        1.03977128500782
N            1.05086781576883        3.72817470917646        2.28560034108440
B           -1.82162848231600       -0.78916987973085        3.26271789323802
N           -2.43439568244706       -3.60348355939044       -0.41907586192882
B            3.01598657055707       -1.06484832511042       -1.47013427022060
N           -3.15633791534092       -1.25477391012090       -0.34397572824590
B            2.02938651856418        2.92004200926842        1.60852032486609
N           -0.50844663162003       -2.89354504377797       -2.40178081083953
B           -1.67559839717554       -2.10742987829467       -2.45679735348411
N            0.58330327675790        3.96613885449567       -0.05935004013356
B            1.08144118233409        2.97128259990445       -3.13574139137287
N            0.08276683535644       -4.36253221924252        1.74873636457293
B           -1.79013200305904        3.45121292927108       -0.35523659437150
N           -2.01805446368810        3.41274163781621        1.08434379716240
B            1.47067273067851       -4.21268884613130        1.52510577059318
N           -0.79431949079458        1.05054527935888        4.23737747807388
B           -2.66565535191814       -2.40129728331762       -1.13935861930430
N           -1.06926963209714       -4.48824377103422        1.01902300190082
B           -2.50756888915015        0.49493946702631       -2.06491196904033
N            2.35565751107682       -3.88487649750196        0.47844571733749
B            3.90931191408520       -0.19958734768179        0.76082025178895
N            1.92178256921274        1.96747703269649       -2.42225774047890
B            0.99141224245858        2.26992209786928       -4.57772251309975
N           -4.18785866426821        0.82496387374519       -0.29949707677226
B           -1.34676854569066        2.46169060039413       -3.06626388787118
N           -2.36597774641355        1.93710562051545       -2.25762994934390
B            3.07438560766943       -2.64245518917267        0.62921677589895
N            2.33690173072282       -3.66760316024371       -0.94504303308673
B            2.21718603514308        0.54025316418099        2.84935888149111
N           -2.02011101381843        0.59805037784269        3.64334458648220
B           -1.09844262347217       -4.18321658881266       -0.41237345264579
N           -3.21911636405104        0.04087626256228       -0.91454481489483
B            3.44257655494636        1.26466854039546       -0.47415073021661
N            2.57852404478573        1.62985210690817        1.97906534568015
B            1.46796790569158       -1.54201256915327       -3.48278606832898
N           -2.10202577666136        1.74251980841075        2.80881436491949
B            2.03436887923183        0.72483307368286       -3.17262180934614
N           -2.71513735092436       -1.35201353022260        2.36001633472879
B            0.65207915286273       -0.52429113329914       -4.45055945080368
N           -0.16731997756343       -3.75567943067916       -1.32841559679775
B            0.49058160078110       -2.11421256861141        3.47029168108475
N           -0.58185757298961       -1.21702001362396        3.86641916475159
B           -3.22004291665722       -1.45711529553010        1.04048440968998
N            2.67277562899376       -0.85999777178164        2.65722046867977
B            1.87203713991694        3.34197500574739       -0.05841624823595
N            2.87709167248707       -2.32543452772890       -0.76456798821726
 
 Bond Distances (Angstroems)
 ---------------------------
C1-N2=1.4497         C1-H27=1.0907        C1-H28=1.0990        C1-H29=1.0888        N2-C1=1.4497         N2-C3=1.4585         
N2-H30=1.0168        C3-N2=1.4585         C3-C4=1.5082         C3-H31=1.0946        C3-H32=1.0937        C4-C3=1.5082         
C4-C5=1.3894         C4-C26=1.3907        C5-C4=1.3894         C5-C6=1.3814         C5-H33=1.0812        C6-C5=1.3814         
C6-C7=1.3933         C6-H34=1.0800        C7-C6=1.3933         C7-C8=1.4547         C7-C25=1.3947        C8-C7=1.4547         
C8-C9=1.4190         C8-C12=1.3908        C9-C8=1.4190         C9-C10=1.3819        C9-H35=1.0714        C10-C9=1.3819        
C10-N11=1.3663       C10-C24=1.4577       N11-C10=1.3663       N11-C12=1.3600       N11-H36=1.0079       C12-C8=1.3908        
C12-N11=1.3600       C12-C13=1.4895       C13-C12=1.4895       C13-C14=1.5802       C13-H37=1.0908       C13-H38=1.0872       
C14-C13=1.5802       C14-N15=1.4541       C14-H39=1.0903       C14-H40=1.0905       N15-C14=1.4541       N15-C16=1.3674       
N15-H41=1.0103       C16-N15=1.3674       C16-O17=1.2154       C16-C18=1.5143       O17-C16=1.2154       C18-C16=1.5143       
C18-C19=1.3865       C18-C24=1.4137       C19-C18=1.3865       C19-C20=1.3857       C19-H42=1.0794       C20-C19=1.3857       
C20-C21=1.3839       C20-H43=1.0788       C21-C20=1.3839       C21-C22=1.3827       C21-H44=1.0787       C22-C21=1.3827       
C22-F23=1.3472       C22-C24=1.3894       F23-C22=1.3472       C24-C10=1.4577       C24-C18=1.4137       C24-C22=1.3894       
C25-C7=1.3947        C25-C26=1.3801       C25-H45=1.0800       C26-C4=1.3907        C26-C25=1.3801       C26-H46=1.0819       
H27-C1=1.0907        H28-C1=1.0990        H29-C1=1.0888        H30-N2=1.0168        H31-C3=1.0946        H32-C3=1.0937        
H33-C5=1.0812        H34-C6=1.0800        H35-C9=1.0714        H36-N11=1.0079       H37-C13=1.0908       H38-C13=1.0872       
H39-C14=1.0903       H40-C14=1.0905       H41-N15=1.0103       H42-C19=1.0794       H43-C20=1.0788       H44-C21=1.0787       
H45-C25=1.0800       H46-C26=1.0819       B47-B93=1.6082       B47-B99=1.6191       B47-N116=1.4021      N48-B93=1.4241       
N48-B105=1.4598      N48-N106=1.4178      B49-N94=1.4100       B49-B105=1.6125      B49-B117=1.6508      N50-B77=1.4902       
N50-B107=1.4575      N50-B109=1.4587      B51-N84=1.4059       B51-B87=1.5728       B51-B113=1.6418      N52-B73=1.3898       
N52-N110=1.4649      N52-B115=1.4259      B53-N60=1.4720       B53-B69=1.5751       B53-N86=1.4268       N54-B55=1.4429       
N54-B67=1.4232       N54-B111=1.4967      B55-N54=1.4429       B55-B59=2.1354       B55-B95=1.7641       B55-B97=1.6492       
N56-B61=1.4403       N56-N100=1.3678      N56-N112=1.4308      B57-N58=1.4040       B57-N68=1.3939       B57-N96=1.4296       
N58-B57=1.4040       N58-B85=1.4486       N58-N98=1.4346       B59-B55=2.1354       B59-B95=1.5157       B59-B109=1.7971      
B59-B111=1.6004      N60-B53=1.4720       N60-B63=1.3874       N60-N74=1.4704       B61-N56=1.4403       B61-N80=1.4566       
B61-B107=1.6054      B61-N112=2.0091      N62-B65=1.4224       N62-N82=1.4211       N62-B85=1.4600       B63-N60=1.3874       
B63-N88=1.4417       B63-N102=2.0123      B63-N108=1.4620      N64-N66=1.4226       N64-B113=1.4382      N64-N116=1.4091      
B65-N62=1.4224       B65-B83=1.6424       B65-B97=1.6619       N66-N64=1.4226       N66-N70=1.4209       N66-B101=1.4395      
B67-N54=1.4232       B67-B81=1.6641       B67-B91=1.6966       N68-B57=1.3939       N68-B71=1.4350       N68-N96=1.5524       
B69-B53=1.5751       B69-N74=1.4842       B69-N82=1.4217       N70-N66=1.4209       N70-N88=1.3915       N70-N114=1.4887      
B71-N68=1.4350       B71-N86=1.4933       B71-N108=1.3906      N72-B77=1.4134       N72-B93=1.4997       N72-B105=1.4507      
B73-N52=1.3898       B73-N76=1.4711       B73-N90=1.4508       B73-B103=1.9296      N74-N60=1.4704       N74-B69=1.4842       
N74-B79=1.4384       B75-N102=1.4521      B75-N110=1.3893      B75-N114=1.4438      N76-B73=1.4711       N76-B89=1.4204       
N76-B103=1.4563      B77-N50=1.4902       B77-N72=1.4134       B77-N118=1.4513      N78-B89=1.4792       N78-N104=1.4171      
N78-B115=1.4006      B79-N74=1.4384       B79-N106=1.4503      B79-B117=1.7267      N80-B61=1.4566       N80-B81=1.4083       
N80-N112=1.4184      B81-B67=1.6641       B81-N80=1.4083       B81-B89=1.6740       N82-N62=1.4211       N82-B69=1.4217       
N82-B117=1.4319      B83-B65=1.6424       B83-N94=1.4909       B83-B95=1.6060       N84-B51=1.4059       N84-B87=1.4138       
N84-N90=1.3695       B85-N58=1.4486       B85-N62=1.4600       B85-N86=1.4580       N86-B53=1.4268       N86-B71=1.4933       
N86-B85=1.4580       B87-B51=1.5728       B87-N84=1.4138       B87-N92=1.4093       N88-B63=1.4417       N88-N70=1.3915       
N88-N102=1.4353      B89-N76=1.4204       B89-N78=1.4792       B89-B81=1.6740       N90-B73=1.4508       N90-N84=1.3695       
N90-B103=1.4638      B91-B67=1.6966       B91-N98=1.4619       B91-N104=1.4268      N92-B87=1.4093       N92-B99=1.4432       
N92-N100=1.4401      B93-B47=1.6082       B93-N48=1.4241       B93-N72=1.4997       B93-B105=1.9716      N94-B49=1.4100       
N94-B83=1.4909       N94-B109=1.4560      B95-B55=1.7641       B95-B59=1.5157       B95-B83=1.6060       N96-B57=1.4296       
N96-N68=1.5524       N96-N104=1.3898      B97-B55=1.6492       B97-B65=1.6619       B97-N98=1.4028       N98-N58=1.4346       
N98-B91=1.4619       N98-B97=1.4028       B99-B47=1.6191       B99-N92=1.4432       B99-N118=1.4429      N100-N56=1.3678      
N100-N92=1.4401      N100-N118=1.4580     B101-N66=1.4395      B101-N106=1.4406     B101-N116=1.4850     N102-B63=2.0123      
N102-B75=1.4521      N102-N88=1.4353      N102-N108=1.4188     B103-B73=1.9296      B103-N76=1.4563      B103-N90=1.4638      
B103-N112=1.3744     N104-N78=1.4171      N104-B91=1.4268      N104-N96=1.3898      B105-N48=1.4598      B105-B49=1.6125      
B105-N72=1.4507      B105-B93=1.9716      N106-N48=1.4178      N106-B79=1.4503      N106-B101=1.4406     B107-N50=1.4575      
B107-B61=1.6054      B107-B111=1.6242     N108-B63=1.4620      N108-B71=1.3906      N108-N102=1.4188     B109-N50=1.4587      
B109-B59=1.7971      B109-N94=1.4560      N110-N52=1.4649      N110-B75=1.3893      N110-B115=1.4167     B111-N54=1.4967      
B111-B59=1.6004      B111-B107=1.6242     N112-N56=1.4308      N112-B61=2.0091      N112-N80=1.4184      N112-B103=1.3744     
B113-B51=1.6418      B113-N64=1.4382      B113-N114=1.4533     N114-N70=1.4887      N114-B75=1.4438      N114-B113=1.4533     
B115-N52=1.4259      B115-N78=1.4006      B115-N110=1.4167     N116-B47=1.4021      N116-N64=1.4091      N116-B101=1.4850     
B117-B49=1.6508      B117-B79=1.7267      B117-N82=1.4319      N118-B77=1.4513      N118-B99=1.4429      N118-N100=1.4580     
 B  B  Rav=1.6894 sigma=0.1391  Rmin=1.5157  Rmax=2.1354    24
 C  H  Rav=1.0857 sigma=0.0072  Rmin=1.0714  Rmax=1.0990    17
 C  C  Rav=1.4223 sigma=0.0553  Rmin=1.3801  Rmax=1.5802    21
 N  H  Rav=1.0117 sigma=0.0037  Rmin=1.0079  Rmax=1.0168     3
 N  B  Rav=1.4559 sigma=0.1009  Rmin=1.3744  Rmax=2.0123    68
 N  C  Rav=1.4093 sigma=0.0449  Rmin=1.3600  Rmax=1.4585     6
 N  N  Rav=1.4305 sigma=0.0403  Rmin=1.3678  Rmax=1.5524    21
 O  C  Rav=1.2154 sigma=0.0000  Rmin=1.2154  Rmax=1.2154     1
 F  C  Rav=1.3472 sigma=0.0000  Rmin=1.3472  Rmax=1.3472     1
 
 selected bond angles (degree)
 --------------------
H27-C1-N2=108.41               H28-C1-N2=113.98               H28-C1-H27=108.51              H29-C1-N2=108.61               
H29-C1-H27=108.54              H29-C1-H28=108.68              C3-N2-C1=113.63                H30-N2-C1=109.33               
H30-N2-C3=108.95               C4-C3-N2=113.37                H31-C3-N2=107.08               H31-C3-C4=109.99               
H32-C3-N2=107.43               H32-C3-C4=110.38               H32-C3-H31=108.41              C5-C4-C3=121.28                
C26-C4-C3=120.08               C26-C4-C5=118.51               C6-C5-C4=120.85                H33-C5-C4=119.45               
H33-C5-C6=119.70               C7-C6-C5=120.68                H34-C6-C5=119.73               H34-C6-C7=119.59               
C8-C7-C6=120.91                C25-C7-C6=118.43               C25-C7-C8=120.63               C9-C8-C7=126.79                
C12-C8-C7=126.02               C12-C8-C9=107.01               C10-C9-C8=107.69               H35-C9-C8=126.26               
H35-C9-C10=126.00              N11-C10-C9=106.72              C24-C10-C9=129.06              C24-C10-N11=116.07             
 
 selected dihedral angles (degree)
 ---------------------------------
C3-N2-C1-H27= 60.95           C3-N2-C1-H28=300.01           C3-N2-C1-H29=178.71           H30-N2-C1-H27=182.89          
H30-N2-C1-H28= 61.95          H30-N2-C1-H29=300.65          C4-C3-N2-C1= 65.76            C4-C3-N2-H30=303.61           
H31-C3-N2-C1=187.25           H31-C3-N2-H30= 65.10          H32-C3-N2-C1=303.53           H32-C3-N2-H30=181.38          
C5-C4-C3-N2=263.43            C5-C4-C3-H31=143.59           C5-C4-C3-H32= 24.01           C26-C4-C3-N2= 79.16           
C26-C4-C3-H31=319.31          C26-C4-C3-H32=199.73          C6-C5-C4-C3=176.79            C6-C5-C4-C26=  1.00           
H33-C5-C4-C3=356.03           H33-C5-C4-C26=180.24          C7-C6-C5-C4=  0.07            C7-C6-C5-H33=180.84           
H34-C6-C5-C4=179.08           H34-C6-C5-H33=359.85          C8-C7-C6-C5=177.13            C8-C7-C6-H34=358.12           
C25-C7-C6-C5=359.02           C25-C7-C6-H34=180.01          C9-C8-C7-C6= 30.86            C9-C8-C7-C25=208.92           
C12-C8-C7-C6=216.22           C12-C8-C7-C25= 34.28          C10-C9-C8-C7=185.52           C10-C9-C8-C12=  0.99          
H35-C9-C8-C7=  3.17           H35-C9-C8-C12=178.64          N11-C10-C9-C8=354.32          N11-C10-C9-H35=176.66         
C24-C10-C9-C8=140.89          C24-C10-C9-H35=323.24         
 
 CMA Distance (Angstroems)
 ---------------------------
R(CMA):  9.9909
           -------------------------------------------------
          |                Final Singlepoint                |
           -------------------------------------------------

          ...................................................
          :                      SETUP                      :
          :.................................................:
          :  # basis functions                 412          :
          :  # atomic orbitals                 412          :
          :  # shells                          216          :
          :  # electrons                       420          :
          :  max. iterations                   500          :
          :  Hamiltonian                  GFN2-xTB          :
          :  restarted?                      false          :
          :  GBSA solvation                  false          :
          :  PC potential                    false          :
          :  electronic temp.          300.0000000     K    :
          :  accuracy                    1.0000000          :
          :  -> integral cutoff          0.2500000E+02      :
          :  -> integral neglect         0.1000000E-07      :
          :  -> SCF convergence          0.1000000E-05 Eh   :
          :  -> wf. convergence          0.1000000E-03 e    :
          :  Broyden damping             0.4000000          :
          :  net charge                          0          :
          :  unpaired electrons                  0          :
          ...................................................

 iter      E             dE          RMSdq      gap      omega  full diag
   1   -225.4109838 -0.225411E+03  0.322E-02    0.68       0.0  T
   2   -225.4109843 -0.537178E-06  0.189E-02    0.68       1.0  T
   3   -225.4109812  0.311767E-05  0.466E-03    0.68       2.0  T
   4   -225.4109836 -0.244852E-05  0.219E-03    0.68       4.2  T
   5   -225.4109846 -0.949395E-06  0.648E-04    0.68      14.2  T
   6   -225.4109846 -0.458926E-07  0.271E-04    0.68      34.0  T

   *** convergence criteria satisfied after 6 iterations ***

         #    Occupation            Energy/Eh            Energy/eV
      -------------------------------------------------------------
         1        2.0000           -0.8092535             -22.0209
       ...           ...                  ...                  ...
       204        2.0000           -0.3262981              -8.8790
       205        2.0000           -0.3235658              -8.8047
       206        2.0000           -0.3220961              -8.7647
       207        2.0000           -0.3196980              -8.6994
       208        2.0000           -0.3144429              -8.5564
       209        2.0000           -0.3124813              -8.5030
       210        2.0000           -0.3070974              -8.3565 (HOMO)
       211        0.0000           -0.2822079              -7.6793 (LUMO)
       212                         -0.2740344              -7.4569
       213                         -0.2634531              -7.1689
       214                         -0.2567023              -6.9852
       215                         -0.2504776              -6.8158
       ...                                ...                  ...
       412                          0.9846770              26.7944
      -------------------------------------------------------------
                  HL-Gap            0.0248895 Eh            0.6773 eV
             Fermi-level           -0.2946508 Eh           -8.0179 eV

 SCC (total)                   0 d,  0 h,  0 min,  0.239 sec
 SCC setup                      ...        0 min,  0.000 sec (  0.000%)
 Dispersion                     ...        0 min,  0.002 sec (  0.837%)
 classical contributions        ...        0 min,  0.000 sec (  0.000%)
 integral evaluation            ...        0 min,  0.010 sec (  4.184%)
 iterations                     ...        0 min,  0.192 sec ( 80.335%)
 molecular gradient             ...        0 min,  0.033 sec ( 13.808%)
 printout                       ...        0 min,  0.002 sec (  0.837%)

         :::::::::::::::::::::::::::::::::::::::::::::::::::::
         ::                     SUMMARY                     ::
         :::::::::::::::::::::::::::::::::::::::::::::::::::::
         :: total energy            -222.932239761199 Eh    ::
         :: gradient norm              0.002849785354 Eh/a0 ::
         :: HOMO-LUMO gap              0.677277732208 eV    ::
         ::.................................................::
         :: SCC energy              -225.395585062053 Eh    ::
         :: -> isotropic ES            0.692813896242 Eh    ::
         :: -> anisotropic ES         -0.022941191413 Eh    ::
         :: -> anisotropic XC          0.094088266759 Eh    ::
         :: -> dispersion             -0.200835950530 Eh    ::
         :: repulsion energy           2.463345300853 Eh    ::
         :: add. restraining           0.000000000000 Eh    ::
         :: total charge              -0.000000000000 e     ::
         :::::::::::::::::::::::::::::::::::::::::::::::::::::

           -------------------------------------------------
          |                Property Printout                |
           -------------------------------------------------

    * Orbital Energies and Occupations

         #    Occupation            Energy/Eh            Energy/eV
      -------------------------------------------------------------
         1        2.0000           -0.8092535             -22.0209
       ...           ...                  ...                  ...
       198        2.0000           -0.3388113              -9.2195
       199        2.0000           -0.3374793              -9.1833
       200        2.0000           -0.3338034              -9.0833
       201        2.0000           -0.3313907              -9.0176
       202        2.0000           -0.3289970              -8.9525
       203        2.0000           -0.3279488              -8.9239
       204        2.0000           -0.3262981              -8.8790
       205        2.0000           -0.3235658              -8.8047
       206        2.0000           -0.3220961              -8.7647
       207        2.0000           -0.3196980              -8.6994
       208        2.0000           -0.3144429              -8.5564
       209        2.0000           -0.3124813              -8.5030
       210        2.0000           -0.3070974              -8.3565 (HOMO)
       211        0.0000           -0.2822079              -7.6793 (LUMO)
       212                         -0.2740344              -7.4569
       213                         -0.2634531              -7.1689
       214                         -0.2567023              -6.9852
       215                         -0.2504776              -6.8158
       216                         -0.2444241              -6.6511
       217                         -0.2443625              -6.6494
       218                         -0.2334436              -6.3523
       219                         -0.2296913              -6.2502
       220                         -0.2283035              -6.2125
       221                         -0.2279236              -6.2021
       ...                                ...                  ...
       412                          0.9846770              26.7944
      -------------------------------------------------------------
                  HL-Gap            0.0248895 Eh            0.6773 eV
             Fermi-level           -0.2946508 Eh           -8.0179 eV

     #   Z          covCN         q      C6AA      α(0)
     1   6 C        3.690    -0.028    21.257     6.598
     2   7 N        2.676    -0.254    26.610     7.661
     3   6 C        3.748     0.004    20.579     6.470
     4   6 C        2.968    -0.005    28.147     8.702
     5   6 C        2.922    -0.039    28.962     8.825
     6   6 C        2.924    -0.040    28.997     8.831
     7   6 C        2.972     0.011    27.768     8.644
     8   6 C        3.100    -0.030    28.630     8.768
     9   6 C        3.045    -0.068    29.654     8.931
    10   6 C        3.056     0.029    27.311     8.570
    11   7 N        2.835    -0.106    23.311     7.171
    12   6 C        3.053     0.024    27.411     8.586
    13   6 C        3.802    -0.072    21.881     6.660
    14   6 C        3.737     0.002    20.633     6.482
    15   7 N        2.682    -0.190    25.128     7.445
    16   6 C        2.755     0.278    22.287     7.731
    17   8 O        0.858    -0.428    22.253     6.325
    18   6 C        2.980    -0.032    28.782     8.800
    19   6 C        2.919    -0.029    28.723     8.789
    20   6 C        2.921    -0.032    28.799     8.800
    21   6 C        2.916    -0.049    29.212     8.863
    22   6 C        2.783     0.165    24.422     8.095
    23   9 F        0.787    -0.218    11.418     3.991
    24   6 C        2.974    -0.008    28.219     8.714
    25   6 C        2.924    -0.042    29.042     8.838
    26   6 C        2.923    -0.040    28.984     8.829
    27   1 H        0.924     0.038     2.476     2.461
    28   1 H        0.923     0.016     2.794     2.614
    29   1 H        0.925     0.037     2.486     2.466
    30   1 H        0.860     0.136     1.503     1.921
    31   1 H        0.924     0.036     2.500     2.473
    32   1 H        0.924     0.037     2.485     2.465
    33   1 H        0.926     0.028     2.618     2.530
    34   1 H        0.926     0.029     2.596     2.520
    35   1 H        0.926     0.041     2.429     2.437
    36   1 H        0.860     0.172     1.261     1.759
    37   1 H        0.924     0.052     2.298     2.371
    38   1 H        0.925     0.055     2.253     2.347
    39   1 H        0.924     0.050     2.317     2.380
    40   1 H        0.924     0.076     2.020     2.223
    41   1 H        0.860     0.170     1.275     1.769
    42   1 H        0.926     0.055     2.260     2.351
    43   1 H        0.926     0.050     2.319     2.381
    44   1 H        0.926     0.063     2.169     2.303
    45   1 H        0.926     0.030     2.584     2.514
    46   1 H        0.925     0.025     2.657     2.549
    47   5 B        2.781     0.076    20.205     7.515
    48   7 N        2.774    -0.228    25.976     7.570
    49   5 B        2.788     0.092    19.935     7.464
    50   7 N        2.524    -0.315    28.135     7.877
    51   5 B        2.779     0.083    20.088     7.494
    52   7 N        2.655    -0.271    27.013     7.719
    53   5 B        2.849     0.241    17.667     7.018
    54   7 N        2.529    -0.273    27.088     7.729
    55   5 B        3.196     0.150    18.929     7.256
    56   7 N        2.979    -0.110    23.405     7.185
    57   5 B        2.644     0.373    16.327     6.814
    58   7 N        2.669    -0.213    25.635     7.520
    59   5 B        3.182     0.022    21.001     7.643
    60   7 N        2.888    -0.221    25.816     7.546
    61   5 B        3.009     0.209    18.073     7.092
    62   7 N        2.660    -0.163    24.532     7.356
    63   5 B        2.909     0.319    16.614     6.802
    64   7 N        3.155    -0.083    22.853     7.100
    65   5 B        2.778     0.094    19.915     7.462
    66   7 N        3.037    -0.127    23.739     7.236
    67   5 B        2.758     0.090    20.006     7.484
    68   7 N        2.634    -0.308    27.941     7.851
    69   5 B        3.040     0.226    17.833     7.044
    70   7 N        2.981    -0.001    21.273     6.850
    71   5 B        2.581     0.325    17.318     7.090
    72   7 N        2.596    -0.360    29.300     8.039
    73   5 B        3.287     0.340    16.337     6.740
    74   7 N        2.784    -0.253    26.578     7.657
    75   5 B        2.560     0.319    17.603     7.185
    76   7 N        2.579    -0.369    29.534     8.071
    77   5 B        2.530     0.301    18.224     7.377
    78   7 N        2.665    -0.205    25.463     7.494
    79   5 B        2.698     0.195    18.510     7.220
    80   7 N        2.843    -0.167    24.614     7.369
    81   5 B        2.758     0.082    20.131     7.507
    82   7 N        2.672    -0.174    24.773     7.392
    83   5 B        2.877     0.110    19.576     7.385
    84   7 N        2.663    -0.145    24.141     7.297
    85   5 B        2.594     0.312    17.393     7.087
    86   7 N        2.519    -0.354    29.159     8.019
    87   5 B        2.684     0.184    18.725     7.269
    88   7 N        3.010    -0.123    23.663     7.225
    89   5 B        2.677     0.210    18.358     7.202
    90   7 N        2.716    -0.250    26.488     7.644
    91   5 B        2.647     0.164    19.168     7.381
    92   7 N        2.825    -0.207    25.491     7.499
    93   5 B        3.322     0.230    17.786     7.033
    94   7 N        2.531    -0.286    27.412     7.775
    95   5 B        2.950     0.036    20.780     7.605
    96   7 N        2.783    -0.185    25.012     7.428
    97   5 B        2.796     0.084    20.043     7.482
    98   7 N        2.673    -0.156    24.371     7.332
    99   5 B        3.021     0.211    18.052     7.087
   100   7 N        3.272     0.015    20.988     6.804
   101   5 B        2.868     0.305    16.806     6.844
   102   7 N        3.159    -0.110    23.390     7.183
   103   5 B        3.263     0.320    16.583     6.791
   104   7 N        2.833    -0.061    22.419     7.032
   105   5 B        3.304     0.231    17.765     7.029
   106   7 N        2.656    -0.183    24.973     7.422
   107   5 B        2.838     0.112    19.569     7.388
   108   7 N        2.836    -0.222    25.831     7.548
   109   5 B        2.863     0.253    17.504     6.985
   110   7 N        2.654    -0.230    26.037     7.578
   111   5 B        3.011     0.114    19.490     7.364
   112   7 N        3.153    -0.086    22.914     7.110
   113   5 B        2.674     0.202    18.492     7.230
   114   7 N        2.696    -0.231    26.045     7.580
   115   5 B        2.585     0.369    16.720     6.962
   116   7 N        2.880    -0.180    24.899     7.411
   117   5 B        2.825     0.106    19.676     7.409
   118   7 N        2.827    -0.253    26.564     7.655

 Mol. C6AA /au·bohr⁶  :     245931.940541
 Mol. C8AA /au·bohr⁸  :    6827444.097772
 Mol. α(0) /au        :        781.798272


Wiberg/Mayer (AO) data.
largest (>0.10) Wiberg bond orders for each atom

 ---------------------------------------------------------------------------
     #   Z sym  total        # sym  WBO       # sym  WBO       # sym  WBO
 ---------------------------------------------------------------------------
     1   6 C    3.987 --     2 N    1.026    29 H    0.984    27 H    0.983
                            28 H    0.976
     2   7 N    3.073 --     1 C    1.026     3 C    1.001    30 H    0.958
     3   6 C    3.987 --     2 N    1.001     4 C    0.997    32 H    0.971
                            31 H    0.969
     4   6 C    3.982 --     5 C    1.406    26 C    1.402     3 C    0.997
     5   6 C    3.991 --     6 C    1.455     4 C    1.406    33 H    0.969
                            25 C    0.104
     6   6 C    3.991 --     5 C    1.455     7 C    1.381    34 H    0.969
                            26 C    0.105
     7   6 C    3.989 --     6 C    1.381    25 C    1.373     8 C    1.074
     8   6 C    3.975 --    12 C    1.425     9 C    1.296     7 C    1.074
     9   6 C    3.978 --    10 C    1.475     8 C    1.296    35 H    0.972
    10   6 C    3.932 --     9 C    1.475    11 N    1.183    24 C    1.060
                            12 C    0.114
    11   7 N    3.567 --    12 C    1.218    10 C    1.183    36 H    0.933
    12   6 C    3.921 --     8 C    1.425    11 N    1.218    13 C    1.022
                            10 C    0.114
    13   6 C    3.993 --    12 C    1.022    38 H    0.974    37 H    0.973
                            14 C    0.950
    14   6 C    3.963 --    15 N    0.999    39 H    0.977    40 H    0.971
                            13 C    0.950
    15   7 N    3.404 --    16 C    1.213    14 C    0.999    41 H    0.941
                            17 O    0.182
    16   6 C    3.948 --    17 O    1.693    15 N    1.213    18 C    0.959
    17   8 O    2.014 --    16 C    1.693    15 N    0.182
    18   6 C    3.983 --    19 C    1.429    24 C    1.329    16 C    0.959
                            21 C    0.103
    19   6 C    3.989 --    18 C    1.429    20 C    1.427    42 H    0.967
    20   6 C    3.981 --    21 C    1.438    19 C    1.427    43 H    0.969
    21   6 C    3.988 --    20 C    1.438    22 C    1.399    44 H    0.966
                            18 C    0.103
    22   6 C    3.887 --    21 C    1.399    24 C    1.355    23 F    0.965
    23   9 F    1.100 --    22 C    0.965
    24   6 C    3.986 --    22 C    1.355    18 C    1.329    10 C    1.060
    25   6 C    3.991 --    26 C    1.464     7 C    1.373    45 H    0.969
                             5 C    0.104
    26   6 C    3.992 --    25 C    1.464     4 C    1.402    46 H    0.969
                             6 C    0.105
    27   1 H    0.999 --     1 C    0.983
    28   1 H    1.000 --     1 C    0.976
    29   1 H    0.998 --     1 C    0.984
    30   1 H    0.982 --     2 N    0.958
    31   1 H    0.998 --     3 C    0.969
    32   1 H    0.998 --     3 C    0.971
    33   1 H    0.999 --     5 C    0.969
    34   1 H    0.999 --     6 C    0.969
    35   1 H    0.998 --     9 C    0.972
    36   1 H    0.970 --    11 N    0.933
    37   1 H    0.996 --    13 C    0.973
    38   1 H    0.996 --    13 C    0.974
    39   1 H    0.997 --    14 C    0.977
    40   1 H    0.994 --    14 C    0.971
    41   1 H    0.971 --    15 N    0.941
    42   1 H    0.996 --    19 C    0.967
    43   1 H    0.997 --    20 C    0.969
    44   1 H    0.995 --    21 C    0.966
    45   1 H    0.999 --    25 C    0.969
    46   1 H    0.999 --    26 C    0.969
    47   5 B    3.478 --   116 N    1.283    99 B    1.000    93 B    0.970
    48   7 N    3.398 --    93 B    1.143   106 N    1.007   105 B    1.001
    49   5 B    3.464 --    94 N    1.276   117 B    0.978   105 B    0.958
    50   7 N    3.530 --   109 B    1.151   107 B    1.150    77 B    1.018
    51   5 B    3.464 --    84 N    1.240   113 B    0.996    87 B    0.990
    52   7 N    3.263 --    73 B    1.201   115 B    0.966   110 N    0.888
    53   5 B    3.408 --    86 N    1.176    60 N    1.035    69 B    0.963
    54   7 N    3.568 --    67 B    1.277    55 B    1.158   111 B    0.973
    55   5 B    3.393 --    54 N    1.158    97 B    0.932    95 B    0.640
                            59 B    0.294
    56   7 N    3.322 --    61 B    1.112   100 N    1.043   112 N    0.945
    57   5 B    3.433 --    58 N    1.186    68 N    1.128    96 N    0.961
    58   7 N    3.445 --    57 B    1.186    85 B    1.086    98 N    0.967
    59   5 B    3.456 --    95 B    1.285   111 B    1.004   109 B    0.627
                            55 B    0.294
    60   7 N    3.428 --    63 B    1.231    53 B    1.035    74 N    0.929
    61   5 B    3.390 --    56 N    1.112    80 N    1.039   107 B    1.005
    62   7 N    3.510 --    65 B    1.206    85 B    1.122    82 N    0.999
    63   5 B    3.514 --    60 N    1.231    88 N    1.077   108 N    0.998
    64   7 N    3.347 --   113 B    1.139   116 N    0.990    66 N    0.983
    65   5 B    3.414 --    62 N    1.206    83 B    1.008    97 B    0.926
    66   7 N    3.327 --   101 B    1.137    64 N    0.983    70 N    0.973
    67   5 B    3.464 --    54 N    1.277    81 B    0.978    91 B    0.932
    68   7 N    3.218 --    57 B    1.128    71 B    1.065    96 N    0.794
    69   5 B    3.367 --    82 N    1.151    74 N    0.992    53 B    0.963
    70   7 N    3.097 --    88 N    1.014    66 N    0.973   114 N    0.938
    71   5 B    3.511 --   108 N    1.249    68 N    1.065    86 N    0.988
    72   7 N    3.433 --    77 B    1.202   105 B    1.061    93 B    0.925
    73   5 B    3.481 --    52 N    1.201    90 N    1.041    76 N    0.981
    74   7 N    3.283 --    79 B    1.170    69 B    0.992    60 N    0.929
    75   5 B    3.524 --   110 N    1.208   114 N    1.118   102 N    1.039
    76   7 N    3.430 --    89 B    1.219   103 B    0.993    73 B    0.981
    77   5 B    3.519 --    72 N    1.202   118 N    1.098    50 N    1.018
    78   7 N    3.442 --   115 B    1.260    89 B    0.998   104 N    0.990
    79   5 B    3.446 --    74 N    1.170   106 N    1.122   117 B    0.923
    80   7 N    3.469 --    81 B    1.260    61 B    1.039   112 N    0.984
    81   5 B    3.420 --    80 N    1.260    67 B    0.978    89 B    0.959
    82   7 N    3.511 --   117 B    1.172    69 B    1.151    62 N    0.999
    83   5 B    3.347 --    95 B    1.009    65 B    1.008    94 N    0.963
    84   7 N    3.508 --    51 B    1.240    87 B    1.093    90 N    1.035
    85   5 B    3.515 --    62 N    1.122    86 N    1.106    58 N    1.086
    86   7 N    3.477 --    53 B    1.176    85 B    1.106    71 B    0.988
    87   5 B    3.464 --    92 N    1.179    84 N    1.093    51 B    0.990
    88   7 N    3.270 --    63 B    1.077    70 N    1.014   102 N    0.976
    89   5 B    3.391 --    76 N    1.219    78 N    0.998    81 B    0.959
    90   7 N    3.371 --    73 B    1.041    84 N    1.035   103 B    0.985
    91   5 B    3.454 --   104 N    1.192    98 N    1.079    67 B    0.932
    92   7 N    3.406 --    87 B    1.179    99 B    1.072   100 N    0.959
    93   5 B    3.365 --    48 N    1.143    47 B    0.970    72 N    0.925
                           105 B    0.127
    94   7 N    3.561 --    49 B    1.276   109 B    1.106    83 B    0.963
    95   5 B    3.367 --    59 B    1.285    83 B    1.009    55 B    0.640
                           109 B    0.186
    96   7 N    2.986 --   104 N    1.044    57 B    0.961    68 N    0.794
    97   5 B    3.455 --    98 N    1.266    55 B    0.932    65 B    0.926
    98   7 N    3.481 --    97 B    1.266    91 B    1.079    58 N    0.967
    99   5 B    3.442 --   118 N    1.131    92 N    1.072    47 B    1.000
   100   7 N    3.186 --    56 N    1.043    92 N    0.959   118 N    0.950
   101   5 B    3.523 --   106 N    1.163    66 N    1.137   116 N    0.993
   102   7 N    3.227 --    75 B    1.039   108 N    0.985    88 N    0.976
   103   5 B    3.507 --   112 N    1.265    76 N    0.993    90 N    0.985
   104   7 N    3.440 --    91 B    1.192    96 N    1.044    78 N    0.990
   105   5 B    3.327 --    72 N    1.061    48 N    1.001    49 B    0.958
                            93 B    0.127
   106   7 N    3.491 --   101 B    1.163    79 B    1.122    48 N    1.007
   107   5 B    3.386 --    50 N    1.150    61 B    1.005   111 B    1.002
   108   7 N    3.448 --    71 B    1.249    63 B    0.998   102 N    0.985
   109   5 B    3.443 --    50 N    1.151    94 N    1.106    59 B    0.627
                            95 B    0.186   111 B    0.120
   110   7 N    3.332 --    75 B    1.208   115 B    1.038    52 N    0.888
   111   5 B    3.334 --    59 B    1.004   107 B    1.002    54 N    0.973
                           109 B    0.120
   112   7 N    3.439 --   103 B    1.265    80 N    0.984    56 N    0.945
   113   5 B    3.447 --    64 N    1.139   114 N    1.120    51 B    0.996
   114   7 N    3.394 --   113 B    1.120    75 B    1.118    70 N    0.938
   115   5 B    3.439 --    78 N    1.260   110 N    1.038    52 N    0.966
   116   7 N    3.475 --    47 B    1.283   101 B    0.993    64 N    0.990
   117   5 B    3.360 --    82 N    1.172    49 B    0.978    79 B    0.923
   118   7 N    3.417 --    99 B    1.131    77 B    1.098   100 N    0.950
 ---------------------------------------------------------------------------

Topologies differ in total number of bonds
Writing topology from bond orders to xtbtopo.mol

molecular dipole:
                 x           y           z       tot (Debye)
 q only:        2.158       2.197      -3.410
   full:        0.125       1.434      -1.454       5.200
molecular quadrupole (traceless):
                xx          xy          yy          xz          yz          zz
 q only:      -31.584     -13.085       0.031      19.348      -4.981      31.554
  q+dip:      -23.001     -16.032      22.887       8.192       7.044       0.114
   full:      -19.909     -14.391      19.768      11.568       8.028       0.142

           -------------------------------------------------
          |                Geometry Summary                 |
           -------------------------------------------------

      molecular mass/u    :     1242.8405120
   center of mass at/Å    :       -0.2105360      -0.0156751       2.9211913
  moments of inertia/u·Å² :        0.1527796E+05   0.3696745E+05   0.3982675E+05
rotational constants/cm⁻¹ :        0.1103396E-02   0.4560129E-03   0.4232741E-03

 * 137 selected distances

     #   Z          #   Z                                           value/Å
     1   6 C        2   7 N                                       1.4497451
     2   7 N        3   6 C                                       1.4584562
     4   6 C        5   6 C                                       1.3894429
     5   6 C        6   6 C                                       1.3814196
     6   6 C        7   6 C                                       1.3933463
     8   6 C        9   6 C                                       1.4190475
     9   6 C       10   6 C                                       1.3818738
    10   6 C       11   7 N                                       1.3662752
     8   6 C       12   6 C                                       1.3908325
    11   7 N       12   6 C                                       1.3600306
    12   6 C       13   6 C                                       1.4895458
    14   6 C       15   7 N                                       1.4541287
    15   7 N       16   6 C                                       1.3674350
    16   6 C       17   8 O                                       1.2153949
    18   6 C       19   6 C                                       1.3864632
    19   6 C       20   6 C                                       1.3857478
    20   6 C       21   6 C                                       1.3838765
    21   6 C       22   6 C                                       1.3827173
    18   6 C       24   6 C                                       1.4137008
    22   6 C       24   6 C                                       1.3894333
     7   6 C       25   6 C                                       1.3947175
     4   6 C       26   6 C                                       1.3907002
    25   6 C       26   6 C                                       1.3800662
     1   6 C       27   1 H                                       1.0907362
     1   6 C       28   1 H                                       1.0990409
     1   6 C       29   1 H                                       1.0888031
     2   7 N       30   1 H                                       1.0167694
     3   6 C       31   1 H                                       1.0945652
     3   6 C       32   1 H                                       1.0937243
     5   6 C       33   1 H                                       1.0811605
     6   6 C       34   1 H                                       1.0800123
     9   6 C       35   1 H                                       1.0713767
    11   7 N       36   1 H                                       1.0078871 (min)
    13   6 C       37   1 H                                       1.0907988
    13   6 C       38   1 H                                       1.0872392
    14   6 C       39   1 H                                       1.0903090
    14   6 C       40   1 H                                       1.0905358
    15   7 N       41   1 H                                       1.0103111
    19   6 C       42   1 H                                       1.0794493
    20   6 C       43   1 H                                       1.0787651
    21   6 C       44   1 H                                       1.0786538
    25   6 C       45   1 H                                       1.0800409
    26   6 C       46   1 H                                       1.0819345
    54   7 N       55   5 B                                       1.4428815
    57   5 B       58   7 N                                       1.4039858
    53   5 B       60   7 N                                       1.4720176
    56   7 N       61   5 B                                       1.4403064
    60   7 N       63   5 B                                       1.3874153
    62   7 N       65   5 B                                       1.4224116
    64   7 N       66   7 N                                       1.4226069
    54   7 N       67   5 B                                       1.4231515
    57   5 B       68   7 N                                       1.3939490
    53   5 B       69   5 B                                       1.5750792
    66   7 N       70   7 N                                       1.4208737
    68   7 N       71   5 B                                       1.4349501
    52   7 N       73   5 B                                       1.3897788
    69   5 B       74   7 N                                       1.4842069
    73   5 B       76   7 N                                       1.4711122
    50   7 N       77   5 B                                       1.4902095
    72   7 N       77   5 B                                       1.4133746
    74   7 N       79   5 B                                       1.4384071
    61   5 B       80   7 N                                       1.4565848
    67   5 B       81   5 B                                       1.6640946
    80   7 N       81   5 B                                       1.4082782
    69   5 B       82   7 N                                       1.4216872
    65   5 B       83   5 B                                       1.6423888
    51   5 B       84   7 N                                       1.4059058
    58   7 N       85   5 B                                       1.4486496
    62   7 N       85   5 B                                       1.4600283
    53   5 B       86   7 N                                       1.4267656
    71   5 B       86   7 N                                       1.4933492
    85   5 B       86   7 N                                       1.4580195
    51   5 B       87   5 B                                       1.5728366
    84   7 N       87   5 B                                       1.4137704
    63   5 B       88   7 N                                       1.4416943
    70   7 N       88   7 N                                       1.3915079
    76   7 N       89   5 B                                       1.4204015
    78   7 N       89   5 B                                       1.4791618
    81   5 B       89   5 B                                       1.6739821 (max)
    73   5 B       90   7 N                                       1.4507549
    84   7 N       90   7 N                                       1.3694792
    87   5 B       92   7 N                                       1.4093107
    47   5 B       93   5 B                                       1.6082267
    48   7 N       93   5 B                                       1.4240664
    72   7 N       93   5 B                                       1.4997340
    49   5 B       94   7 N                                       1.4099893
    83   5 B       94   7 N                                       1.4909254
    59   5 B       95   5 B                                       1.5157429
    83   5 B       95   5 B                                       1.6060267
    57   5 B       96   7 N                                       1.4296365
    55   5 B       97   5 B                                       1.6491918
    65   5 B       97   5 B                                       1.6618520
    91   5 B       98   7 N                                       1.4618591
    97   5 B       98   7 N                                       1.4028065
    47   5 B       99   5 B                                       1.6191477
    92   7 N       99   5 B                                       1.4432301
    56   7 N      100   7 N                                       1.3678133
    66   7 N      101   5 B                                       1.4394769
    75   5 B      102   7 N                                       1.4521200
    88   7 N      102   7 N                                       1.4353369
    76   7 N      103   5 B                                       1.4563332
    90   7 N      103   5 B                                       1.4638268
    91   5 B      104   7 N                                       1.4268210
    96   7 N      104   7 N                                       1.3897982
    48   7 N      105   5 B                                       1.4598212
    49   5 B      105   5 B                                       1.6125089
    72   7 N      105   5 B                                       1.4506703
    79   5 B      106   7 N                                       1.4503262
   101   5 B      106   7 N                                       1.4405562
    50   7 N      107   5 B                                       1.4574783
    61   5 B      107   5 B                                       1.6053623
    63   5 B      108   7 N                                       1.4619702
    71   5 B      108   7 N                                       1.3906179
   102   7 N      108   7 N                                       1.4187887
    50   7 N      109   5 B                                       1.4586804
    94   7 N      109   5 B                                       1.4559829
    75   5 B      110   7 N                                       1.3892521
    54   7 N      111   5 B                                       1.4966519
    59   5 B      111   5 B                                       1.6004035
   107   5 B      111   5 B                                       1.6241974
    56   7 N      112   7 N                                       1.4308130
    80   7 N      112   7 N                                       1.4183640
   103   5 B      112   7 N                                       1.3743766
    51   5 B      113   5 B                                       1.6418161
    64   7 N      113   5 B                                       1.4381878
    75   5 B      114   7 N                                       1.4437947
   113   5 B      114   7 N                                       1.4532714
    52   7 N      115   5 B                                       1.4259172
    78   7 N      115   5 B                                       1.4006179
   110   7 N      115   5 B                                       1.4167360
    47   5 B      116   7 N                                       1.4020941
    64   7 N      116   7 N                                       1.4090596
   101   5 B      116   7 N                                       1.4849856
    49   5 B      117   5 B                                       1.6507501
    82   7 N      117   5 B                                       1.4319276
    77   5 B      118   7 N                                       1.4512731
    99   5 B      118   7 N                                       1.4429357

 * 8 distinct bonds (by element types)

   Z      Z             #   av. dist./Å        max./Å        min./Å
   5 B    5 B          17     1.6190357     1.6739821     1.5157429
   1 H    6 C          17     1.0857144     1.0990409     1.0713767
   6 C    6 C          16     1.3970582     1.4895458     1.3800662
   1 H    7 N           3     1.0116558     1.0167694     1.0078871
   5 B    7 N          66     1.4391132     1.4997340     1.3743766
   6 C    7 N           6     1.4093451     1.4584562     1.3600306
   7 N    7 N          11     1.4067674     1.4353369     1.3678133
   6 C    8 O           1     1.2153949     1.2153949     1.2153949


optimized geometry written to: xtbopt.xyz


           -------------------------------------------------
          | TOTAL ENERGY             -222.932239761199 Eh   |
          | GRADIENT NORM               0.002849785354 Eh/α |
          | HOMO-LUMO GAP               0.677277732208 eV   |
           -------------------------------------------------

------------------------------------------------------------------------
 * finished run on 2026/08/31 at 22:23:27.669     
------------------------------------------------------------------------
 total:
 * wall-time:     0 d,  0 h,  0 min,  5.275 sec
 *  cpu-time:     0 d,  0 h,  0 min, 47.859 sec
 * ratio c/w:     9.073 speedup
 SCF:
 * wall-time:     0 d,  0 h,  0 min,  0.554 sec
 *  cpu-time:     0 d,  0 h,  0 min,  5.562 sec
 * ratio c/w:    10.041 speedup
 ANC optimizer:
 * wall-time:     0 d,  0 h,  0 min,  4.650 sec
 *  cpu-time:     0 d,  0 h,  0 min, 41.812 sec
 * ratio c/w:     8.992 speedup

normal termination of xtb
