      -----------------------------------------------------------      
     |                   =====================                   |     
     |                           x T B                           |     
     |                   =====================                   |     
     |                         S. Grimme                         |     
     |          Mulliken Center for Theoretical Chemistry        |     
     |                    University of Bonn                     |     
      -----------------------------------------------------------      

   * xtb version 6.7.1pre (5071a88) compiled by 'Marcel@Raven' on 2024-07-23

   xtb is free software: you can redistribute it and/or modify it under
   the terms of the GNU Lesser General Public License as published by
   the Free Software Foundation, either version 3 of the License, or
   (at your option) any later version.
   
   xtb is distributed in the hope that it will be useful,
   but WITHOUT ANY WARRANTY; without even the implied warranty of
   MERCHANTABILITY or FITNESS FOR A PARTICULAR PURPOSE.  See the
   GNU Lesser General Public License for more details.
   
   Cite this work as:
   * C. Bannwarth, E. Caldeweyher, S. Ehlert, A. Hansen, P. Pracht,
     J. Seibert, S. Spicher, S. Grimme, WIREs Comput. Mol. Sci., 2020, 11,
     e01493. DOI: 10.1002/wcms.1493
   
   for GFN2-xTB:
   * C. Bannwarth, S. Ehlert and S. Grimme., J. Chem. Theory Comput., 2019,
     15, 1652-1671. DOI: 10.1021/acs.jctc.8b01176
   for GFN1-xTB:
   * S. Grimme, C. Bannwarth, P. Shushkov, J. Chem. Theory Comput., 2017,
     13, 1989-2009. DOI: 10.1021/acs.jctc.7b00118
   for GFN0-xTB:
   * P. Pracht, E. Caldeweyher, S. Ehlert, S. Grimme, ChemRxiv, 2019, preprint.
     DOI: 10.26434/chemrxiv.8326202.v1
   for GFN-FF:
   * S. Spicher and S. Grimme, Angew. Chem. Int. Ed., 2020, 59, 15665-15673.
     DOI: 10.1002/anie.202004239
   
   for ALPB and GBSA implicit solvation:
   * S. Ehlert, M. Stahn, S. Spicher, S. Grimme, J. Chem. Theory Comput.,
     2021, 17, 4250-4261. DOI: 10.1021/acs.jctc.1c00471
   
   for ddCOSMO and CPCM-X implicit solvation:
   * M. Stahn, S. Ehlert, S. Grimme, J. Phys. Chem. A,
     2023, XX, XXXX-XXXX. DOI: 10.1021/acs.jpca.3c04382
   
   for DFT-D4:
   * E. Caldeweyher, C. Bannwarth and S. Grimme, J. Chem. Phys., 2017,
     147, 034112. DOI: 10.1063/1.4993215
   * E. Caldeweyher, S. Ehlert, A. Hansen, H. Neugebauer, S. Spicher,
     C. Bannwarth and S. Grimme, J. Chem. Phys., 2019, 150, 154122.
     DOI: 10.1063/1.5090222
   * E. Caldeweyher, J.-M. Mewes, S. Ehlert and S. Grimme, Phys. Chem. Chem. Phys.
     2020, 22, 8499-8512. DOI: 10.1039/D0CP00502A
   
   for sTDA-xTB:
   * S. Grimme and C. Bannwarth, J. Chem. Phys., 2016, 145, 054103.
     DOI: 10.1063/1.4959605
   
   in the mass-spec context:
   * V. Asgeirsson, C. Bauer and S. Grimme, Chem. Sci., 2017, 8, 4879.
     DOI: 10.1039/c7sc00601b
   * J. Koopman and S. Grimme, ACS Omega 2019, 4, 12, 15120-15133.
     DOI: 10.1021/acsomega.9b02011
   
   for metadynamics refer to:
   * S. Grimme, J. Chem. Theory Comput., 2019, 155, 2847-2862
     DOI: 10.1021/acs.jctc.9b00143
   
   for SPH calculations refer to:
   * S. Spicher and S. Grimme, J. Chem. Theory Comput., 2021, 17, 1701-1714
     DOI: 10.1021/acs.jctc.0c01306
   
   for ONIOM refer to:
   * C. Plett, A. Katbashev, S. Ehlert, S. Grimme, M. Bursch,
     Phys. Chem. Chem. Phys., 2023, 25, 17860-17868. DOI: 10.1039/D3CP02178E
   
   for DIPRO refer to:
   * J. Kohn, N. Gildemeister, S. Grimme, D. Fazzi, A. Hansen,
     J. Chem. Phys., 2023, just accepted.
   
   for PTB refer to:
   * S. Grimme, M. Mueller, A. Hansen, J. Chem. Phys., 2023, 158, 124111.
     DOI: 10.1063/5.0137838
   
   with help from (in alphabetical order)
   P. Atkinson, C. Bannwarth, F. Bohle, G. Brandenburg, E. Caldeweyher
   M. Checinski, S. Dohm, S. Ehlert, S. Ehrlich, I. Gerasimov, C. Hölzer
   A. Katbashev, J. Kohn, J. Koopman, C. Lavigne, S. Lehtola, F. März, M. Müller,
   F. Musil, H. Neugebauer, J. Pisarek, C. Plett, P. Pracht, F. Pultar,
   J. Seibert, P. Shushkov, S. Spicher, M. Stahn, M. Steiner, T. Strunk,
   J. Stückrath, T. Rose, and J. Unsleber
   
 * started run on 2026/08/31 at 21:13:06.341     
   ID    Z sym.   atoms
    1    6 C      1, 3-10, 12-14, 16, 18-22, 24-26
    2    7 N      2, 11, 15, 48, 50, 52, 54, 56, 58, 60, 62, 64, 66, 68, 70,
                  72, 74, 76, 78, 80, 82, 84, 86, 88, 90, 92, 94, 96, 98,
                  100, 102, 104, 106, 108, 110, 112, 114, 116, 118
    3    8 O      17
    4    9 F      23
    5    1 H      27-46
    6    5 B      47, 49, 51, 53, 55, 57, 59, 61, 63, 65, 67, 69, 71, 73, 75,
                  77, 79, 81, 83, 85, 87, 89, 91, 93, 95, 97, 99, 101, 103,
                  105, 107, 109, 111, 113, 115, 117

           -------------------------------------------------
          |                Calculation Setup                |
           -------------------------------------------------

          program call               : "c:\Users\Andre\Proyectos doctorado\kras-pancreatic-gC3N4-ai\tools\xtb\xtb-6.7.1\bin\xtb.exe" "c:\Users\Andre\Proyectos doctorado\nano-qsar-ai-therapeutics\calculations\tnbc\Rucaparib\Rucaparib_B36N36_phys_complex.xyz" --gfn 2 --sp --chrg 0 --uhf 0 --etemp 300 --iterations 500 --norestart
          coordinate file            : c:\Users\Andre\Proyectos doctorado\nano-qsar-ai-therapeutics\calculations\tnbc\Rucaparib\Rucaparib_B36N36_phys_complex.xyz
          omp threads                :                    16


molecular fragmentation (1/2 indicates fragments):
111111111111111111111111111111111111111111111122222222222222222222222222
2222222222222222222222222222222222222222222222
# atoms in fragment 1/2:    46    72
 fragment masses (1/2) :      349.40      893.44
CMA distance (Bohr)    :  20.546
constraining FC (au)   :  0.0500

           -------------------------------------------------
          |                 G F N 2 - x T B                 |
           -------------------------------------------------

        Reference                      10.1021/acs.jctc.8b01176
      * Hamiltonian:
        H0-scaling (s, p, d)           1.850000    2.230000    2.230000
        zeta-weighting                 0.500000
      * Dispersion:
        s8                             2.700000
        a1                             0.520000
        a2                             5.000000
        s9                             5.000000
      * Repulsion:
        kExp                           1.500000    1.000000
        rExp                           1.000000
      * Coulomb:
        alpha                          2.000000
        third order                    shell-resolved
        anisotropic                    true
        a3                             3.000000
        a5                             4.000000
        cn-shift                       1.200000
        cn-exp                         4.000000
        max-rad                        5.000000


          ...................................................
          :                      SETUP                      :
          :.................................................:
          :  # basis functions                 412          :
          :  # atomic orbitals                 412          :
          :  # shells                          216          :
          :  # electrons                       420          :
          :  max. iterations                   500          :
          :  Hamiltonian                  GFN2-xTB          :
          :  restarted?                      false          :
          :  GBSA solvation                  false          :
          :  PC potential                    false          :
          :  electronic temp.          300.0000000     K    :
          :  accuracy                    1.0000000          :
          :  -> integral cutoff          0.2500000E+02      :
          :  -> integral neglect         0.1000000E-07      :
          :  -> SCF convergence          0.1000000E-05 Eh   :
          :  -> wf. convergence          0.1000000E-03 e    :
          :  Broyden damping             0.4000000          :
          :  net charge                          0          :
          :  unpaired electrons                  0          :
          ...................................................

 iter      E             dE          RMSdq      gap      omega  full diag
   1   -224.3564632 -0.224356E+03  0.111E+01    0.60       0.0  T
   2   -224.8155065 -0.459043E+00  0.680E+00    0.43       1.0  T
   3   -221.9457179  0.286979E+01  0.437E+00    0.14       1.0  T
   4   -224.7663285 -0.282061E+01  0.151E+00    0.03       1.0  T
   5   -224.9414877 -0.175159E+00  0.122E+00    0.18       1.0  T
   6   -225.2701086 -0.328621E+00  0.669E-01    0.34       1.0  T
   7   -225.3087565 -0.386479E-01  0.473E-01    0.73       1.0  T
   8   -225.3050840  0.367251E-02  0.405E-01    0.62       1.0  T
   9   -225.3008320  0.425194E-02  0.282E-01    0.70       1.0  T
  10   -225.3100928 -0.926076E-02  0.129E-01    0.68       1.0  T
  11   -225.3129186 -0.282579E-02  0.536E-02    0.69       1.0  T
  12   -225.3131760 -0.257378E-03  0.364E-02    0.68       1.0  T
  13   -225.3132064 -0.304708E-04  0.263E-02    0.68       1.0  T
  14   -225.3132226 -0.162148E-04  0.124E-02    0.68       1.0  T
  15   -225.3132343 -0.117049E-04  0.490E-03    0.67       1.9  T
  16   -225.3132357 -0.138594E-05  0.244E-03    0.67       3.8  T
  17   -225.3132359 -0.212558E-06  0.124E-03    0.67       7.4  T
  18   -225.3132360 -0.811825E-07  0.432E-04    0.67      21.3  T
  19   -225.3132360 -0.180350E-07  0.189E-04    0.67      48.7  T

   *** convergence criteria satisfied after 19 iterations ***

         #    Occupation            Energy/Eh            Energy/eV
      -------------------------------------------------------------
         1        2.0000           -0.8134992             -22.1364
       ...           ...                  ...                  ...
       204        2.0000           -0.3262683              -8.8782
       205        2.0000           -0.3235097              -8.8031
       206        2.0000           -0.3220871              -8.7644
       207        2.0000           -0.3196376              -8.6978
       208        2.0000           -0.3143886              -8.5549
       209        2.0000           -0.3124554              -8.5023
       210        2.0000           -0.3069434              -8.3524 (HOMO)
       211        0.0000           -0.2822293              -7.6799 (LUMO)
       212                         -0.2739962              -7.4558
       213                         -0.2655665              -7.2264
       214                         -0.2634034              -7.1676
       215                         -0.2503871              -6.8134
       ...                                ...                  ...
       412                          0.9846588              26.7939
      -------------------------------------------------------------
                  HL-Gap            0.0247141 Eh            0.6725 eV
             Fermi-level           -0.2945848 Eh           -8.0161 eV

 SCC (total)                   0 d,  0 h,  0 min,  0.603 sec
 SCC setup                      ...        0 min,  0.002 sec (  0.332%)
 Dispersion                     ...        0 min,  0.003 sec (  0.497%)
 classical contributions        ...        0 min,  0.000 sec (  0.000%)
 integral evaluation            ...        0 min,  0.012 sec (  1.990%)
 iterations                     ...        0 min,  0.551 sec ( 91.376%)
 molecular gradient             ...        0 min,  0.032 sec (  5.307%)
 printout                       ...        0 min,  0.003 sec (  0.498%)

         :::::::::::::::::::::::::::::::::::::::::::::::::::::
         ::                     SUMMARY                     ::
         :::::::::::::::::::::::::::::::::::::::::::::::::::::
         :: total energy            -222.892330179331 Eh    ::
         :: gradient norm              0.102897389212 Eh/a0 ::
         :: HOMO-LUMO gap              0.672505004068 eV    ::
         ::.................................................::
         :: SCC energy              -225.298112747851 Eh    ::
         :: -> isotropic ES            0.692295208738 Eh    ::
         :: -> anisotropic ES         -0.021701656123 Eh    ::
         :: -> anisotropic XC          0.095822784804 Eh    ::
         :: -> dispersion             -0.198932198292 Eh    ::
         :: repulsion energy           2.405782568520 Eh    ::
         :: add. restraining           0.000000000000 Eh    ::
         :: total charge              -0.000000000000 e     ::
         :::::::::::::::::::::::::::::::::::::::::::::::::::::

           -------------------------------------------------
          |                Property Printout                |
           -------------------------------------------------

    * Orbital Energies and Occupations

         #    Occupation            Energy/Eh            Energy/eV
      -------------------------------------------------------------
         1        2.0000           -0.8134992             -22.1364
       ...           ...                  ...                  ...
       198        2.0000           -0.3387211              -9.2171
       199        2.0000           -0.3374691              -9.1830
       200        2.0000           -0.3337305              -9.0813
       201        2.0000           -0.3313587              -9.0167
       202        2.0000           -0.3288644              -8.9489
       203        2.0000           -0.3278232              -8.9205
       204        2.0000           -0.3262683              -8.8782
       205        2.0000           -0.3235097              -8.8031
       206        2.0000           -0.3220871              -8.7644
       207        2.0000           -0.3196376              -8.6978
       208        2.0000           -0.3143886              -8.5549
       209        2.0000           -0.3124554              -8.5023
       210        2.0000           -0.3069434              -8.3524 (HOMO)
       211        0.0000           -0.2822293              -7.6799 (LUMO)
       212                         -0.2739962              -7.4558
       213                         -0.2655665              -7.2264
       214                         -0.2634034              -7.1676
       215                         -0.2503871              -6.8134
       216                         -0.2502953              -6.8109
       217                         -0.2443355              -6.6487
       218                         -0.2334657              -6.3529
       219                         -0.2321410              -6.3169
       220                         -0.2295490              -6.2463
       221                         -0.2279018              -6.2015
       ...                                ...                  ...
       412                          0.9846588              26.7939
      -------------------------------------------------------------
                  HL-Gap            0.0247141 Eh            0.6725 eV
             Fermi-level           -0.2945848 Eh           -8.0161 eV

     #   Z          covCN         q      C6AA      α(0)
     1   6 C        3.690    -0.027    21.239     6.595
     2   7 N        2.675    -0.253    26.568     7.655
     3   6 C        3.746     0.005    20.567     6.469
     4   6 C        2.960    -0.004    28.120     8.698
     5   6 C        2.913    -0.040    28.998     8.830
     6   6 C        2.915    -0.040    28.985     8.828
     7   6 C        2.966     0.013    27.729     8.637
     8   6 C        3.103    -0.028    28.559     8.757
     9   6 C        3.075    -0.061    29.442     8.896
    10   6 C        3.125     0.036    27.012     8.510
    11   7 N        2.843    -0.134    23.906     7.262
    12   6 C        3.146     0.033    27.005     8.502
    13   6 C        3.798    -0.070    21.834     6.653
    14   6 C        3.732     0.009    20.511     6.464
    15   7 N        2.681    -0.196    25.247     7.463
    16   6 C        2.754     0.278    22.289     7.731
    17   8 O        0.858    -0.421    22.115     6.305
    18   6 C        2.972    -0.026    28.643     8.779
    19   6 C        2.912    -0.029    28.718     8.787
    20   6 C        2.911    -0.032    28.790     8.798
    21   6 C        2.911    -0.050    29.237     8.866
    22   6 C        2.775     0.165    24.419     8.093
    23   9 F        0.787    -0.211    11.353     3.980
    24   6 C        2.963    -0.011    28.299     8.726
    25   6 C        2.916    -0.040    28.986     8.829
    26   6 C        2.913    -0.040    28.992     8.829
    27   1 H        0.924     0.038     2.482     2.464
    28   1 H        0.924     0.016     2.794     2.614
    29   1 H        0.924     0.036     2.509     2.477
    30   1 H        0.860     0.139     1.481     1.906
    31   1 H        0.924     0.036     2.508     2.477
    32   1 H        0.924     0.036     2.500     2.473
    33   1 H        0.925     0.028     2.612     2.527
    34   1 H        0.925     0.027     2.625     2.534
    35   1 H        0.925     0.040     2.453     2.449
    36   1 H        0.860     0.159     1.339     1.813
    37   1 H        0.924     0.054     2.273     2.358
    38   1 H        0.924     0.051     2.305     2.374
    39   1 H        0.924     0.049     2.337     2.390
    40   1 H        0.924     0.072     2.064     2.247
    41   1 H        0.860     0.168     1.287     1.777
    42   1 H        0.925     0.055     2.254     2.348
    43   1 H        0.925     0.050     2.321     2.383
    44   1 H        0.925     0.061     2.184     2.311
    45   1 H        0.925     0.031     2.573     2.508
    46   1 H        0.925     0.027     2.624     2.533
    47   5 B        2.781     0.076    20.202     7.515
    48   7 N        2.774    -0.228    25.978     7.570
    49   5 B        2.788     0.092    19.935     7.464
    50   7 N        2.524    -0.314    28.132     7.877
    51   5 B        2.779     0.083    20.083     7.493
    52   7 N        2.655    -0.270    26.997     7.717
    53   5 B        2.849     0.241    17.667     7.018
    54   7 N        2.529    -0.273    27.088     7.729
    55   5 B        3.195     0.150    18.930     7.256
    56   7 N        2.979    -0.110    23.402     7.185
    57   5 B        2.644     0.373    16.325     6.814
    58   7 N        2.669    -0.213    25.635     7.520
    59   5 B        3.181     0.022    21.000     7.643
    60   7 N        2.888    -0.221    25.822     7.547
    61   5 B        3.009     0.209    18.075     7.092
    62   7 N        2.660    -0.163    24.533     7.356
    63   5 B        2.906     0.320    16.611     6.802
    64   7 N        3.156    -0.082    22.835     7.097
    65   5 B        2.779     0.094    19.915     7.462
    66   7 N        3.037    -0.126    23.726     7.235
    67   5 B        2.758     0.090    20.007     7.484
    68   7 N        2.634    -0.309    27.953     7.852
    69   5 B        3.040     0.226    17.833     7.044
    70   7 N        2.981    -0.000    21.261     6.848
    71   5 B        2.582     0.325    17.309     7.088
    72   7 N        2.596    -0.360    29.296     8.039
    73   5 B        3.287     0.340    16.338     6.741
    74   7 N        2.784    -0.254    26.583     7.658
    75   5 B        2.559     0.320    17.598     7.185
    76   7 N        2.579    -0.369    29.528     8.070
    77   5 B        2.530     0.301    18.225     7.377
    78   7 N        2.665    -0.205    25.462     7.494
    79   5 B        2.698     0.195    18.511     7.220
    80   7 N        2.844    -0.167    24.613     7.368
    81   5 B        2.758     0.082    20.132     7.507
    82   7 N        2.672    -0.174    24.772     7.392
    83   5 B        2.877     0.110    19.577     7.386
    84   7 N        2.663    -0.145    24.136     7.297
    85   5 B        2.594     0.312    17.392     7.086
    86   7 N        2.519    -0.354    29.165     8.020
    87   5 B        2.684     0.184    18.725     7.269
    88   7 N        3.008    -0.125    23.712     7.232
    89   5 B        2.677     0.210    18.360     7.202
    90   7 N        2.716    -0.249    26.479     7.642
    91   5 B        2.647     0.164    19.167     7.380
    92   7 N        2.825    -0.207    25.487     7.498
    93   5 B        3.321     0.230    17.784     7.032
    94   7 N        2.531    -0.286    27.412     7.775
    95   5 B        2.950     0.036    20.780     7.606
    96   7 N        2.783    -0.185    25.009     7.427
    97   5 B        2.796     0.085    20.043     7.482
    98   7 N        2.673    -0.156    24.371     7.332
    99   5 B        3.021     0.211    18.052     7.087
   100   7 N        3.272     0.015    20.987     6.804
   101   5 B        2.869     0.305    16.808     6.844
   102   7 N        3.154    -0.113    23.451     7.192
   103   5 B        3.263     0.320    16.585     6.792
   104   7 N        2.833    -0.061    22.413     7.031
   105   5 B        3.303     0.231    17.765     7.029
   106   7 N        2.656    -0.183    24.967     7.421
   107   5 B        2.838     0.112    19.569     7.388
   108   7 N        2.834    -0.223    25.857     7.552
   109   5 B        2.863     0.253    17.504     6.985
   110   7 N        2.654    -0.230    26.030     7.577
   111   5 B        3.011     0.114    19.490     7.364
   112   7 N        3.153    -0.086    22.912     7.109
   113   5 B        2.674     0.202    18.491     7.230
   114   7 N        2.696    -0.230    26.033     7.578
   115   5 B        2.585     0.369    16.722     6.962
   116   7 N        2.881    -0.180    24.894     7.410
   117   5 B        2.825     0.106    19.676     7.409
   118   7 N        2.827    -0.253    26.562     7.655

 Mol. C6AA /au·bohr⁶  :     245932.228053
 Mol. C8AA /au·bohr⁸  :    6826488.740675
 Mol. α(0) /au        :        781.754000


Wiberg/Mayer (AO) data.
largest (>0.10) Wiberg bond orders for each atom

 ---------------------------------------------------------------------------
     #   Z sym  total        # sym  WBO       # sym  WBO       # sym  WBO
 ---------------------------------------------------------------------------
     1   6 C    3.987 --     2 N    1.024    27 H    0.984    29 H    0.984
                            28 H    0.979
     2   7 N    3.066 --     1 C    1.024     3 C    1.002    30 H    0.956
     3   6 C    3.986 --     2 N    1.002     4 C    0.997    32 H    0.972
                            31 H    0.966
     4   6 C    3.977 --     5 C    1.408    26 C    1.405     3 C    0.997
     5   6 C    3.990 --     6 C    1.449     4 C    1.408    33 H    0.969
                            25 C    0.106
     6   6 C    3.990 --     5 C    1.449     7 C    1.385    34 H    0.970
                            26 C    0.107
     7   6 C    3.989 --     6 C    1.385    25 C    1.379     8 C    1.064
     8   6 C    3.972 --    12 C    1.507     9 C    1.211     7 C    1.064
     9   6 C    3.955 --    10 C    1.547     8 C    1.211    35 H    0.970
    10   6 C    3.940 --     9 C    1.547    11 N    1.145    24 C    1.070
    11   7 N    3.486 --    12 C    1.170    10 C    1.145    36 H    0.942
    12   6 C    3.931 --     8 C    1.507    11 N    1.170    13 C    1.024
    13   6 C    3.994 --    12 C    1.024    38 H    0.971    37 H    0.970
                            14 C    0.961
    14   6 C    3.964 --    15 N    0.989    39 H    0.978    40 H    0.971
                            13 C    0.961
    15   7 N    3.388 --    16 C    1.206    14 C    0.989    41 H    0.945
                            17 O    0.185
    16   6 C    3.949 --    17 O    1.701    15 N    1.206    18 C    0.974
    17   8 O    2.017 --    16 C    1.701    15 N    0.185
    18   6 C    3.984 --    19 C    1.420    24 C    1.324    16 C    0.974
                            21 C    0.102
    19   6 C    3.988 --    20 C    1.429    18 C    1.420    42 H    0.967
    20   6 C    3.963 --    21 C    1.435    19 C    1.429    43 H    0.969
    21   6 C    3.987 --    20 C    1.435    22 C    1.396    44 H    0.967
                            18 C    0.102
    22   6 C    3.886 --    21 C    1.396    24 C    1.348    23 F    0.971
    23   9 F    1.109 --    22 C    0.971
    24   6 C    3.985 --    22 C    1.348    18 C    1.324    10 C    1.070
    25   6 C    3.990 --    26 C    1.456     7 C    1.379    45 H    0.970
                             5 C    0.106
    26   6 C    3.990 --    25 C    1.456     4 C    1.405    46 H    0.969
                             6 C    0.107
    27   1 H    0.999 --     1 C    0.984
    28   1 H    1.000 --     1 C    0.979
    29   1 H    0.999 --     1 C    0.984
    30   1 H    0.981 --     2 N    0.956
    31   1 H    0.998 --     3 C    0.966
    32   1 H    0.998 --     3 C    0.972
    33   1 H    0.998 --     5 C    0.969
    34   1 H    0.999 --     6 C    0.970
    35   1 H    0.998 --     9 C    0.970
    36   1 H    0.974 --    11 N    0.942
    37   1 H    0.996 --    13 C    0.970
    38   1 H    0.997 --    13 C    0.971
    39   1 H    0.997 --    14 C    0.978
    40   1 H    0.995 --    14 C    0.971
    41   1 H    0.972 --    15 N    0.945
    42   1 H    0.996 --    19 C    0.967
    43   1 H    0.997 --    20 C    0.969
    44   1 H    0.995 --    21 C    0.967
    45   1 H    0.999 --    25 C    0.970
    46   1 H    0.999 --    26 C    0.969
    47   5 B    3.478 --   116 N    1.283    99 B    1.000    93 B    0.970
    48   7 N    3.398 --    93 B    1.143   106 N    1.007   105 B    1.001
    49   5 B    3.464 --    94 N    1.276   117 B    0.978   105 B    0.958
    50   7 N    3.530 --   109 B    1.152   107 B    1.150    77 B    1.018
    51   5 B    3.464 --    84 N    1.240   113 B    0.996    87 B    0.990
    52   7 N    3.264 --    73 B    1.201   115 B    0.967   110 N    0.888
    53   5 B    3.408 --    86 N    1.176    60 N    1.034    69 B    0.963
    54   7 N    3.568 --    67 B    1.277    55 B    1.158   111 B    0.973
    55   5 B    3.393 --    54 N    1.158    97 B    0.932    95 B    0.640
                            59 B    0.294
    56   7 N    3.322 --    61 B    1.113   100 N    1.043   112 N    0.945
    57   5 B    3.433 --    58 N    1.186    68 N    1.128    96 N    0.961
    58   7 N    3.445 --    57 B    1.186    85 B    1.086    98 N    0.967
    59   5 B    3.456 --    95 B    1.285   111 B    1.004   109 B    0.627
                            55 B    0.294
    60   7 N    3.428 --    63 B    1.232    53 B    1.034    74 N    0.929
    61   5 B    3.390 --    56 N    1.113    80 N    1.039   107 B    1.005
    62   7 N    3.510 --    65 B    1.206    85 B    1.123    82 N    0.999
    63   5 B    3.514 --    60 N    1.232    88 N    1.075   108 N    1.000
    64   7 N    3.349 --   113 B    1.141   116 N    0.991    66 N    0.983
    65   5 B    3.414 --    62 N    1.206    83 B    1.008    97 B    0.926
    66   7 N    3.329 --   101 B    1.137    64 N    0.983    70 N    0.973
    67   5 B    3.464 --    54 N    1.277    81 B    0.978    91 B    0.932
    68   7 N    3.218 --    57 B    1.128    71 B    1.066    96 N    0.792
    69   5 B    3.368 --    82 N    1.151    74 N    0.992    53 B    0.963
    70   7 N    3.097 --    88 N    1.014    66 N    0.973   114 N    0.938
    71   5 B    3.511 --   108 N    1.248    68 N    1.066    86 N    0.988
    72   7 N    3.433 --    77 B    1.202   105 B    1.061    93 B    0.925
    73   5 B    3.481 --    52 N    1.201    90 N    1.042    76 N    0.980
    74   7 N    3.282 --    79 B    1.169    69 B    0.992    60 N    0.929
    75   5 B    3.524 --   110 N    1.209   114 N    1.120   102 N    1.035
    76   7 N    3.430 --    89 B    1.220   103 B    0.993    73 B    0.980
    77   5 B    3.519 --    72 N    1.202   118 N    1.099    50 N    1.018
    78   7 N    3.442 --   115 B    1.261    89 B    0.998   104 N    0.990
    79   5 B    3.446 --    74 N    1.169   106 N    1.123   117 B    0.923
    80   7 N    3.469 --    81 B    1.260    61 B    1.039   112 N    0.984
    81   5 B    3.420 --    80 N    1.260    67 B    0.978    89 B    0.959
    82   7 N    3.511 --   117 B    1.172    69 B    1.151    62 N    0.999
    83   5 B    3.347 --    95 B    1.009    65 B    1.008    94 N    0.963
    84   7 N    3.509 --    51 B    1.240    87 B    1.093    90 N    1.035
    85   5 B    3.515 --    62 N    1.123    86 N    1.105    58 N    1.086
    86   7 N    3.477 --    53 B    1.176    85 B    1.105    71 B    0.988
    87   5 B    3.464 --    92 N    1.179    84 N    1.093    51 B    0.990
    88   7 N    3.266 --    63 B    1.075    70 N    1.014   102 N    0.976
    89   5 B    3.391 --    76 N    1.220    78 N    0.998    81 B    0.959
    90   7 N    3.371 --    73 B    1.042    84 N    1.035   103 B    0.985
    91   5 B    3.454 --   104 N    1.191    98 N    1.079    67 B    0.932
    92   7 N    3.406 --    87 B    1.179    99 B    1.072   100 N    0.959
    93   5 B    3.365 --    48 N    1.143    47 B    0.970    72 N    0.925
                           105 B    0.127
    94   7 N    3.561 --    49 B    1.276   109 B    1.105    83 B    0.963
    95   5 B    3.367 --    59 B    1.285    83 B    1.009    55 B    0.640
                           109 B    0.186
    96   7 N    2.986 --   104 N    1.045    57 B    0.961    68 N    0.792
    97   5 B    3.455 --    98 N    1.266    55 B    0.932    65 B    0.926
    98   7 N    3.481 --    97 B    1.266    91 B    1.079    58 N    0.967
    99   5 B    3.442 --   118 N    1.131    92 N    1.072    47 B    1.000
   100   7 N    3.186 --    56 N    1.043    92 N    0.959   118 N    0.950
   101   5 B    3.524 --   106 N    1.163    66 N    1.137   116 N    0.993
   102   7 N    3.221 --    75 B    1.035   108 N    0.984    88 N    0.976
   103   5 B    3.507 --   112 N    1.265    76 N    0.993    90 N    0.985
   104   7 N    3.440 --    91 B    1.191    96 N    1.045    78 N    0.990
   105   5 B    3.327 --    72 N    1.061    48 N    1.001    49 B    0.958
                            93 B    0.127
   106   7 N    3.491 --   101 B    1.163    79 B    1.123    48 N    1.007
   107   5 B    3.386 --    50 N    1.150    61 B    1.005   111 B    1.002
   108   7 N    3.448 --    71 B    1.248    63 B    1.000   102 N    0.984
   109   5 B    3.443 --    50 N    1.152    94 N    1.105    59 B    0.627
                            95 B    0.186   111 B    0.120
   110   7 N    3.332 --    75 B    1.209   115 B    1.037    52 N    0.888
   111   5 B    3.334 --    59 B    1.004   107 B    1.002    54 N    0.973
                           109 B    0.120
   112   7 N    3.439 --   103 B    1.265    80 N    0.984    56 N    0.945
   113   5 B    3.447 --    64 N    1.141   114 N    1.118    51 B    0.996
   114   7 N    3.395 --    75 B    1.120   113 B    1.118    70 N    0.938
   115   5 B    3.439 --    78 N    1.261   110 N    1.037    52 N    0.967
   116   7 N    3.475 --    47 B    1.283   101 B    0.993    64 N    0.991
   117   5 B    3.360 --    82 N    1.172    49 B    0.978    79 B    0.923
   118   7 N    3.417 --    99 B    1.131    77 B    1.099   100 N    0.950
 ---------------------------------------------------------------------------

Topologies differ in total number of bonds
Writing topology from bond orders to xtbtopo.mol

molecular dipole:
                 x           y           z       tot (Debye)
 q only:        2.254       2.309      -3.400
   full:        0.173       1.592      -1.332       5.295
molecular quadrupole (traceless):
                xx          xy          yy          xz          yz          zz
 q only:      -32.161     -13.681      -3.224      22.198       0.043      35.385
  q+dip:      -25.227     -15.765      17.400       7.730      13.235       7.827
   full:      -22.098     -14.072      14.768      11.505      13.991       7.330


           -------------------------------------------------
          | TOTAL ENERGY             -222.892330179331 Eh   |
          | GRADIENT NORM               0.102897389212 Eh/α |
          | HOMO-LUMO GAP               0.672505004068 eV   |
           -------------------------------------------------

------------------------------------------------------------------------
 * finished run on 2026/08/31 at 21:13:07.002     
------------------------------------------------------------------------
 total:
 * wall-time:     0 d,  0 h,  0 min,  0.660 sec
 *  cpu-time:     0 d,  0 h,  0 min,  6.922 sec
 * ratio c/w:    10.488 speedup
 SCF:
 * wall-time:     0 d,  0 h,  0 min,  0.605 sec
 *  cpu-time:     0 d,  0 h,  0 min,  6.422 sec
 * ratio c/w:    10.615 speedup

normal termination of xtb
