118
 energy: -222.953556081429 gnorm: 0.000598882634 xtb: 6.7.1pre (5071a88)
C            5.30130695400050        0.67855939644841        5.72288661139314
N            5.53008417086526       -0.75257087342960        5.78713691069159
C            5.19398754869019       -1.34412533668878        7.07911272274976
C            3.71131444403059       -1.33547740281757        7.34262199088941
C            3.10250817649019       -0.29555658890676        8.03458647250370
C            1.72660456144000       -0.19762736023941        8.10090321790419
C            0.91158633452058       -1.13785165320091        7.47256263100952
C           -0.52511116025632       -0.94389523806611        7.37083814924344
C           -1.19836267448145        0.29800172525830        7.51829445032409
C           -2.53274393101331        0.09451532665703        7.23233637556227
N           -2.65225832140711       -1.19963047082199        6.81361439017464
C           -1.48684033219642       -1.87849218470625        6.99057919840077
C           -1.68984004323056       -3.31112163171067        7.34739945141111
C           -2.44593532218426       -3.35688926440471        8.73573889716070
N           -3.04056979114025       -2.09901721048624        9.15764251880721
C           -4.25305038872113       -1.68624662426262        8.67547331588338
O           -5.10493806942265       -2.46812769629178        8.30330226011912
C           -4.50436330227561       -0.19302822756811        8.64647611978356
C           -5.59685069377607        0.30718041808689        9.33818912445893
C           -5.89266574819749        1.66017646963028        9.31105614379718
C           -5.10298412655085        2.52957877600743        8.57830849815016
C           -4.02782178893201        2.02697139254154        7.86986878316529
F           -3.26627159021241        2.88228552082135        7.15686393696590
C           -3.70814509532724        0.67446882582675        7.86505483154207
C            1.52698996038899       -2.21659682617959        6.83430085176698
C            2.90190589026882       -2.30738856845481        6.76643203640985
H            5.94681155653196        1.16495334050039        6.45597643074823
H            4.26243529083022        0.97257462001577        5.92073880057865
H            5.57656946025781        1.02600125464826        4.72881847532388
H            4.97937083361468       -1.20727367146099        5.06319409659237
H            5.57167856916117       -2.37083339653232        7.06989502987601
H            5.72984646573016       -0.78276348659459        7.84942064249202
H            3.71498693586273        0.45541297264478        8.51400927877139
H            1.28042488868452        0.63132014401132        8.62771788773416
H           -0.76137874284432        1.22730168083296        7.81925875802533
H           -3.50822323565939       -1.62142459070107        6.49281395159129
H           -2.30204442599110       -3.80136413031631        6.58962979232166
H           -0.75222530241138       -3.85106392459232        7.44585803106295
H           -1.74209747599252       -3.65408613901450        9.51399662989445
H           -3.25481886534286       -4.08701898000577        8.68653521785711
H           -2.37550693395692       -1.37405473720269        9.38989385932519
H           -6.20842100306009       -0.37450085907335        9.90918804966867
H           -6.73936800814132        2.03904968275365        9.86178222014152
H           -5.31204314203370        3.58739757328699        8.54288646304402
H            0.92241006965347       -2.96087827377249        6.34187796155900
H            3.35741925727526       -3.12922639433023        6.23179428806806
B            4.09355140641502       -0.34277297997496        1.83534072886608
N            3.55908799065345        2.18547722970803        1.14531652673791
B            2.18570213223169        3.19411447568204       -0.92836550193873
N            2.27883690347537        0.15730697854198       -2.34849910530288
B            1.88648741815736       -2.85461420785380        3.23912049120145
N           -1.96666135263774       -2.61287736838494        2.71815511029893
B           -1.23431322244871        4.36758948581177        2.58007824478784
N           -0.82918335649927        0.28587831088233       -3.18821285844545
B           -0.94921847262035        1.71358800038981       -3.35956604581279
N            1.88131989032125       -3.10248331698330       -1.22270886530936
B           -3.93949655619704        1.98387686816762        0.62585800943734
N           -3.07276896142628        2.69343658116171       -0.22072502615826
B            0.89755498002745        1.39443778316765       -4.38302371310938
N           -0.20452976754642        3.81464973332826        3.47497043373603
B            1.28937436211915       -2.28613741639277       -2.25193834237093
N           -0.98931703461978        4.07154696811778       -0.30718464726900
B           -0.50755557858643        2.56496273095784        3.99354090219152
N            2.55619736131343       -0.42364541652388        3.94587674880016
B           -0.86716222110553        3.78745214426346       -1.69529217968901
N            2.01194741537965        0.84976559064237        4.28740102752180
B           -1.58123073589461       -0.42773906043201       -2.21360829864662
N           -3.69529992432921        1.59446026554538        1.94179609146353
B           -0.03508803494693        4.98254103223263        1.76410975941551
N            0.84426611325529        0.55865022204021        5.03582882070395
B           -2.58271316389523        2.25143764197237        2.56637025359131
N            3.87804946942467        0.95679819576816       -0.58401524263847
B           -1.19593509380460       -3.46906182658216        1.93742571262639
N            0.92445505022491        4.37575069440662        2.72063517027015
B           -1.00397802387341       -0.52558602133386        4.03839541954678
N           -1.55788303450065       -3.50044315655382        0.51286640320201
B            3.21229138017234       -0.11535749550726       -1.21939178429038
N           -2.66368840253612       -1.31159650631554        0.66076757490197
B            1.93703847544580        3.72427517493827        1.93465821137931
N           -0.03428144955822       -2.53323562189679       -1.69692650527712
B           -1.31621568571800       -1.95607270449189       -1.61218219993040
N            0.14479755731263        4.46880859807870        0.45096127865361
B            0.43179990090049        3.49147388350080       -2.65601467362447
N            1.29770156529286       -3.77364615391944        2.35367455786122
B           -2.12746672353368        3.56097247086926        0.45222138773079
N           -2.17328228366374        3.52788077861710        1.90877819808446
B            2.60488853122281       -3.40591368995449        1.95507477508900
N           -0.18784611494018        1.47675017928215        4.88142959883471
B           -2.07770503169358       -2.37654338016818       -0.18241200553828
N            0.09937034392701       -4.10305213727866        1.77709335557046
B           -2.52805432543718        0.47788706021420       -1.13536949205069
N            3.28664656666191       -2.95668121182366        0.80739335216814
B            4.20727598041369        0.94556469877445        0.87888193178087
N            1.51042271410346        2.66223775693214       -2.04601471775456
B            0.28939744279537        2.74768721063319       -4.07217800772606
N           -4.01775676417164        0.56939001797177        0.81932910057899
B           -1.84897444528892        2.58399873031483       -2.28595854910539
N           -2.65792953646160        1.91719408441163       -1.35356134025361
B            3.79440676527713       -1.60577418329356        0.86565122198150
N            3.05640053611218       -2.77949835828548       -0.60215750453029
B            2.67946919926358        1.44244844236165        3.15410108636042
N           -1.38541337699804        0.81345522852851        4.45050102584625
B           -0.15239048063973       -3.84816193472840        0.35760630852258
N           -3.01040081892115       -0.05803944857080        0.09666961237908
B            3.35323451572052        2.27828549876767       -0.29709365460147
N            2.73892533591614        2.55375100072514        2.24151817062591
B            1.53689143318365       -0.90015222877031       -3.02327162966956
N           -1.76687865240966        1.91295764684630        3.63954853252674
B            1.74198423300318        1.43713901760093       -2.79762378822224
N           -1.92183791467458       -1.26788706812724        3.30088123803075
B            0.44842690806794       -0.05945147836028       -3.88716245656036
N            0.57572668906613       -3.29630134525008       -0.66856065280632
B            1.52527415164045       -1.43695618134554        3.97946805333186
N            0.36019712026708       -0.71966512837804        4.44977079047735
B           -2.53744717063161       -1.49274582921445        2.04304011073314
N            3.34959587839725        0.13961903644524        2.92207735068391
B            1.51164341745715        4.07047482861408        0.29720232369598
N            3.37590672441198       -1.36151379953984       -0.49364996866036
