114
Rucaparib/B36N36 GFN2 opt
C       6.18478953      0.71078231      5.52818442
N       5.09157886      0.86786752      6.46339287
C       4.31731298     -0.34353936      6.65756267
C       2.96673894     -0.06219622      7.25733663
C       2.24686854     -1.06662458      7.89177294
C       0.95460738     -0.84712129      8.32733395
C       0.34145435      0.38861916      8.13182535
C       1.08253091      1.41132887      7.53272273
C       2.38026810      1.18775052      7.11106908
C      -1.05159278      0.60740690      8.47962562
C      -2.13283284     -0.23531046      8.34765646
C      -2.18120924     -1.59425966      7.73819549
C      -3.44836179     -1.71184655      6.87768620
N      -4.62732633     -1.95871904      7.67495212
C      -5.24913082     -1.14477893      8.56122862
O      -6.28019801     -1.51184692      9.10022660
C      -4.65062834      0.18429937      8.85592012
C      -3.28536968      0.49434548      8.75317270
C      -2.83510840      1.78493334      9.14026742
C      -3.69559650      2.76539346      9.61203312
C      -5.02723852      2.41654456      9.69415473
C      -5.50686568      1.16128809      9.34023932
F      -5.90704155      3.33908614     10.14546589
N      -1.48872119      1.82223407      8.95646570
H       5.77108211      0.46536323      4.54864382
H       6.89987002     -0.07626604      5.81452181
H       6.72072599      1.65583200      5.45455903
H       5.43601962      1.20462915      7.35758604
H       4.13876921     -0.77743693      5.66655770
H       4.84886048     -1.10162613      7.26182190
H       2.69777916     -2.03842902      8.03245955
H       0.41413290     -1.63450737      8.82849720
H       0.63234127      2.37986702      7.37361171
H       2.94352108      1.96912760      6.62742907
H      -2.20001757     -2.37316299      8.50694520
H      -1.30382447     -1.74068512      7.10578697
H      -3.34145398     -2.53880567      6.17489722
H      -3.56382849     -0.79119047      6.29613259
H      -5.08991986     -2.84903201      7.56111707
H      -3.35805732      3.74655852      9.90458735
H      -6.55587047      0.93646708      9.45008898
H      -0.89026473      2.60366819      9.16185183
B       1.06416347     -4.16866068      0.26390946
N       1.04162778     -4.38321075      1.70316777
B      -0.38026999     -4.22701586      1.43460344
N      -0.34875544     -4.38019172     -0.01142049
N      -3.90798140     -0.96202499     -0.30276753
B      -3.87831033     -0.86854586      1.14862075
N      -4.10625732      0.56184634      1.28204396
B      -3.77273079      0.47681904     -0.13178733
B      -0.96123766     -3.30264448     -0.71265817
N      -2.13964073     -2.68010331     -0.12672125
B      -2.75355276     -1.58161703     -0.85961790
N      -1.99692525     -0.85294604     -1.86736965
B      -0.82060262     -1.50327782     -2.42637959
N      -0.17681544     -2.60027890     -1.71766955
N       1.44569079      0.78763896     -3.22002894
B       1.33870184     -0.65652162     -3.07969128
N      -0.06922079     -0.80633076     -3.41467882
B      -0.00069793      0.62970708     -3.19013436
B      -2.45123319     -0.91950835      3.11750815
N      -3.02112502     -1.62431067      1.98364801
B      -2.22596587     -2.64516387      1.32438701
N      -1.23562064     -3.33912797      2.12926164
B      -0.65222636     -2.64573759      3.26295354
N      -1.46110857     -1.62780602      3.91012527
N       0.59631962     -0.96626333      5.24134950
B       0.46535442      0.48003075      5.10332475
N      -0.99287801      0.55955983      5.12250858
B      -0.81502787     -0.86783224      4.91469931
N      -0.86775345      1.34880492     -2.33432502
B      -1.97186779      0.59815903     -1.76373445
N      -2.79292949      1.27052364     -0.77303156
B      -2.19698858      2.32300303      0.03002894
N      -1.09140216      3.06057735     -0.55457299
B      -0.25709225      2.40187661     -1.54323042
B       2.83203142     -2.50595574      0.44152718
N       1.87438105     -3.21129399     -0.39054674
B       1.25804594     -2.50317367     -1.49850247
N       2.01439288     -1.41824075     -2.09715323
B       2.97307403     -0.69913308     -1.27767913
N       3.57638963     -1.42045396     -0.17078761
N      -2.41585996      2.35522013      1.46797285
B      -3.12042805      1.22876735      2.06300027
N      -2.55994553      0.52777334      3.21038011
B      -1.55139853      1.22628171      3.99606650
N      -0.82674158      2.35647572      3.43249652
B      -1.41329838      3.02734800      2.28149479
B       0.73227830      3.98256395      1.73916420
N       0.99932742      4.20209421      0.32613731
B      -0.43927368      3.98420056      0.29559661
N      -0.71479686      4.13248581      1.71659096
N       3.01281837      0.75474631     -1.30796372
B       1.97310127      1.43556369     -2.06720772
N       1.19214292      2.50205920     -1.45768495
B       1.74866221      3.15514504     -0.28189973
N       2.78547981      2.50131980      0.50460013
B       3.54142149      1.43407377     -0.13418528
B       1.37562481     -1.58416595      4.22774214
N       0.78609403     -2.68454735      3.47940195
B       1.60198056     -3.30633347      2.44686152
N       2.75143174     -2.60613581      1.89120156
B       3.31106086     -1.50865176      2.66611966
N       2.52380325     -0.85984513      3.70315223
N       1.42914056      3.05798227      2.55172701
B       0.62628747      2.31656083      3.50785092
N       1.28448204      1.26189346      4.25000424
B       2.42340087      0.59346001      3.65659596
N       3.21472020      1.34358574      2.69933530
B       2.56826483      2.39887989      1.93944644
N       4.43893046     -0.81311611      2.14180754
B       4.39871064     -0.66052861      0.69387577
N       4.55957699      0.78318711      0.62048483
B       4.23025340      0.62447290      2.02821529
