      -----------------------------------------------------------      
     |                   =====================                   |     
     |                           x T B                           |     
     |                   =====================                   |     
     |                         S. Grimme                         |     
     |          Mulliken Center for Theoretical Chemistry        |     
     |                    University of Bonn                     |     
      -----------------------------------------------------------      

   * xtb version 6.7.1pre (5071a88) compiled by 'Marcel@Raven' on 2024-07-23

   xtb is free software: you can redistribute it and/or modify it under
   the terms of the GNU Lesser General Public License as published by
   the Free Software Foundation, either version 3 of the License, or
   (at your option) any later version.
   
   xtb is distributed in the hope that it will be useful,
   but WITHOUT ANY WARRANTY; without even the implied warranty of
   MERCHANTABILITY or FITNESS FOR A PARTICULAR PURPOSE.  See the
   GNU Lesser General Public License for more details.
   
   Cite this work as:
   * C. Bannwarth, E. Caldeweyher, S. Ehlert, A. Hansen, P. Pracht,
     J. Seibert, S. Spicher, S. Grimme, WIREs Comput. Mol. Sci., 2020, 11,
     e01493. DOI: 10.1002/wcms.1493
   
   for GFN2-xTB:
   * C. Bannwarth, S. Ehlert and S. Grimme., J. Chem. Theory Comput., 2019,
     15, 1652-1671. DOI: 10.1021/acs.jctc.8b01176
   for GFN1-xTB:
   * S. Grimme, C. Bannwarth, P. Shushkov, J. Chem. Theory Comput., 2017,
     13, 1989-2009. DOI: 10.1021/acs.jctc.7b00118
   for GFN0-xTB:
   * P. Pracht, E. Caldeweyher, S. Ehlert, S. Grimme, ChemRxiv, 2019, preprint.
     DOI: 10.26434/chemrxiv.8326202.v1
   for GFN-FF:
   * S. Spicher and S. Grimme, Angew. Chem. Int. Ed., 2020, 59, 15665-15673.
     DOI: 10.1002/anie.202004239
   
   for ALPB and GBSA implicit solvation:
   * S. Ehlert, M. Stahn, S. Spicher, S. Grimme, J. Chem. Theory Comput.,
     2021, 17, 4250-4261. DOI: 10.1021/acs.jctc.1c00471
   
   for ddCOSMO and CPCM-X implicit solvation:
   * M. Stahn, S. Ehlert, S. Grimme, J. Phys. Chem. A,
     2023, XX, XXXX-XXXX. DOI: 10.1021/acs.jpca.3c04382
   
   for DFT-D4:
   * E. Caldeweyher, C. Bannwarth and S. Grimme, J. Chem. Phys., 2017,
     147, 034112. DOI: 10.1063/1.4993215
   * E. Caldeweyher, S. Ehlert, A. Hansen, H. Neugebauer, S. Spicher,
     C. Bannwarth and S. Grimme, J. Chem. Phys., 2019, 150, 154122.
     DOI: 10.1063/1.5090222
   * E. Caldeweyher, J.-M. Mewes, S. Ehlert and S. Grimme, Phys. Chem. Chem. Phys.
     2020, 22, 8499-8512. DOI: 10.1039/D0CP00502A
   
   for sTDA-xTB:
   * S. Grimme and C. Bannwarth, J. Chem. Phys., 2016, 145, 054103.
     DOI: 10.1063/1.4959605
   
   in the mass-spec context:
   * V. Asgeirsson, C. Bauer and S. Grimme, Chem. Sci., 2017, 8, 4879.
     DOI: 10.1039/c7sc00601b
   * J. Koopman and S. Grimme, ACS Omega 2019, 4, 12, 15120-15133.
     DOI: 10.1021/acsomega.9b02011
   
   for metadynamics refer to:
   * S. Grimme, J. Chem. Theory Comput., 2019, 155, 2847-2862
     DOI: 10.1021/acs.jctc.9b00143
   
   for SPH calculations refer to:
   * S. Spicher and S. Grimme, J. Chem. Theory Comput., 2021, 17, 1701-1714
     DOI: 10.1021/acs.jctc.0c01306
   
   for ONIOM refer to:
   * C. Plett, A. Katbashev, S. Ehlert, S. Grimme, M. Bursch,
     Phys. Chem. Chem. Phys., 2023, 25, 17860-17868. DOI: 10.1039/D3CP02178E
   
   for DIPRO refer to:
   * J. Kohn, N. Gildemeister, S. Grimme, D. Fazzi, A. Hansen,
     J. Chem. Phys., 2023, just accepted.
   
   for PTB refer to:
   * S. Grimme, M. Mueller, A. Hansen, J. Chem. Phys., 2023, 158, 124111.
     DOI: 10.1063/5.0137838
   
   with help from (in alphabetical order)
   P. Atkinson, C. Bannwarth, F. Bohle, G. Brandenburg, E. Caldeweyher
   M. Checinski, S. Dohm, S. Ehlert, S. Ehrlich, I. Gerasimov, C. Hölzer
   A. Katbashev, J. Kohn, J. Koopman, C. Lavigne, S. Lehtola, F. März, M. Müller,
   F. Musil, H. Neugebauer, J. Pisarek, C. Plett, P. Pracht, F. Pultar,
   J. Seibert, P. Shushkov, S. Spicher, M. Stahn, M. Steiner, T. Strunk,
   J. Stückrath, T. Rose, and J. Unsleber
   
 * started run on 2026/08/31 at 18:35:37.957     
   ID    Z sym.   atoms
    1    8 O      1, 16
    2    6 C      2, 3, 5-8, 10-12, 14, 15, 17, 18, 20, 22, 24, 26, 27,
                  29-32, 34
    3    7 N      4, 25
    4    9 F      9, 19, 21, 23, 28, 35
    5   53 I      13, 33
    6    1 H      36-51

           -------------------------------------------------
          |                Calculation Setup                |
           -------------------------------------------------

          program call               : "c:\Users\Andre\Proyectos doctorado\kras-pancreatic-gC3N4-ai\tools\xtb\xtb-6.7.1\bin\xtb.exe" "c:\Users\Andre\Proyectos doctorado\nano-qsar-ai-therapeutics\calculations\tnbc\Cobimetinib\Cobimetinib_drug.xyz" --gfn 2 --sp --chrg 0 --uhf 0 --iterations 500 --norestart
          coordinate file            : c:\Users\Andre\Proyectos doctorado\nano-qsar-ai-therapeutics\calculations\tnbc\Cobimetinib\Cobimetinib_drug.xyz
          omp threads                :                    16


           -------------------------------------------------
          |                 G F N 2 - x T B                 |
           -------------------------------------------------

        Reference                      10.1021/acs.jctc.8b01176
      * Hamiltonian:
        H0-scaling (s, p, d)           1.850000    2.230000    2.230000
        zeta-weighting                 0.500000
      * Dispersion:
        s8                             2.700000
        a1                             0.520000
        a2                             5.000000
        s9                             5.000000
      * Repulsion:
        kExp                           1.500000    1.000000
        rExp                           1.000000
      * Coulomb:
        alpha                          2.000000
        third order                    shell-resolved
        anisotropic                    true
        a3                             3.000000
        a5                             4.000000
        cn-shift                       1.200000
        cn-exp                         4.000000
        max-rad                        5.000000


          ...................................................
          :                      SETUP                      :
          :.................................................:
          :  # basis functions                 168          :
          :  # atomic orbitals                 166          :
          :  # shells                           88          :
          :  # electrons                       186          :
          :  max. iterations                   500          :
          :  Hamiltonian                  GFN2-xTB          :
          :  restarted?                      false          :
          :  GBSA solvation                  false          :
          :  PC potential                    false          :
          :  electronic temp.          300.0000000     K    :
          :  accuracy                    1.0000000          :
          :  -> integral cutoff          0.2500000E+02      :
          :  -> integral neglect         0.1000000E-07      :
          :  -> SCF convergence          0.1000000E-05 Eh   :
          :  -> wf. convergence          0.1000000E-03 e    :
          :  Broyden damping             0.4000000          :
          :  net charge                          0          :
          :  unpaired electrons                  0          :
          ...................................................

 iter      E             dE          RMSdq      gap      omega  full diag
   1   -108.3303155 -0.108330E+03  0.527E+00    2.56       0.0  T
   2   -108.4197489 -0.894334E-01  0.330E+00    3.04       1.0  T
   3   -108.3946085  0.251403E-01  0.122E+00    2.70       1.0  T
   4   -108.4350612 -0.404527E-01  0.471E-01    2.58       1.0  T
   5   -108.4369644 -0.190316E-02  0.302E-01    2.58       1.0  T
   6   -108.4369848 -0.204225E-04  0.176E-01    2.58       1.0  T
   7   -108.4374651 -0.480310E-03  0.950E-02    2.60       1.0  T
   8   -108.4374214  0.437136E-04  0.732E-02    2.60       1.0  T
   9   -108.4375050 -0.835518E-04  0.167E-02    2.60       1.0  T
  10   -108.4375095 -0.456028E-05  0.791E-03    2.60       1.8  T
  11   -108.4375098 -0.239705E-06  0.346E-03    2.60       4.1  T
  12   -108.4375099 -0.142727E-06  0.175E-03    2.60       8.0  T
  13   -108.4375100 -0.595527E-07  0.767E-04    2.60      18.2  T
  14   -108.4375100 -0.602914E-08  0.450E-04    2.60      31.1  T

   *** convergence criteria satisfied after 14 iterations ***

         #    Occupation            Energy/Eh            Energy/eV
      -------------------------------------------------------------
         1        2.0000           -0.8525048             -23.1978
       ...           ...                  ...                  ...
        87        2.0000           -0.4266211             -11.6090
        88        2.0000           -0.4263211             -11.6008
        89        2.0000           -0.4213691             -11.4660
        90        2.0000           -0.4181520             -11.3785
        91        2.0000           -0.4120159             -11.2115
        92        2.0000           -0.3979991             -10.8301
        93        2.0000           -0.3774180             -10.2701 (HOMO)
        94                         -0.2817413              -7.6666 (LUMO)
        95                         -0.2785073              -7.5786
        96                         -0.2724535              -7.4138
        97                         -0.2682079              -7.2983
        98                         -0.2672711              -7.2728
       ...                                ...                  ...
       166                          0.5911268              16.0854
      -------------------------------------------------------------
                  HL-Gap            0.0956767 Eh            2.6035 eV
             Fermi-level           -0.3295796 Eh           -8.9683 eV

 SCC (total)                   0 d,  0 h,  0 min,  0.090 sec
 SCC setup                      ...        0 min,  0.001 sec (  1.111%)
 Dispersion                     ...        0 min,  0.001 sec (  1.111%)
 classical contributions        ...        0 min,  0.000 sec (  0.000%)
 integral evaluation            ...        0 min,  0.004 sec (  4.444%)
 iterations                     ...        0 min,  0.076 sec ( 84.444%)
 molecular gradient             ...        0 min,  0.007 sec (  7.778%)
 printout                       ...        0 min,  0.001 sec (  1.111%)

         :::::::::::::::::::::::::::::::::::::::::::::::::::::
         ::                     SUMMARY                     ::
         :::::::::::::::::::::::::::::::::::::::::::::::::::::
         :: total energy            -107.390929935975 Eh    ::
         :: gradient norm              0.070611083137 Eh/a0 ::
         :: HOMO-LUMO gap              2.603494169254 eV    ::
         ::.................................................::
         :: SCC energy              -108.437406945951 Eh    ::
         :: -> isotropic ES            0.120162896596 Eh    ::
         :: -> anisotropic ES          0.007369550636 Eh    ::
         :: -> anisotropic XC         -0.003311786300 Eh    ::
         :: -> dispersion             -0.066960216423 Eh    ::
         :: repulsion energy           1.046477009976 Eh    ::
         :: add. restraining           0.000000000000 Eh    ::
         :: total charge              -0.000000000000 e     ::
         :::::::::::::::::::::::::::::::::::::::::::::::::::::

           -------------------------------------------------
          |                Property Printout                |
           -------------------------------------------------

    * Orbital Energies and Occupations

         #    Occupation            Energy/Eh            Energy/eV
      -------------------------------------------------------------
         1        2.0000           -0.8525048             -23.1978
       ...           ...                  ...                  ...
        81        2.0000           -0.4552610             -12.3883
        82        2.0000           -0.4511386             -12.2761
        83        2.0000           -0.4504148             -12.2564
        84        2.0000           -0.4429953             -12.0545
        85        2.0000           -0.4405865             -11.9890
        86        2.0000           -0.4373279             -11.9003
        87        2.0000           -0.4266211             -11.6090
        88        2.0000           -0.4263211             -11.6008
        89        2.0000           -0.4213691             -11.4660
        90        2.0000           -0.4181520             -11.3785
        91        2.0000           -0.4120159             -11.2115
        92        2.0000           -0.3979991             -10.8301
        93        2.0000           -0.3774180             -10.2701 (HOMO)
        94                         -0.2817413              -7.6666 (LUMO)
        95                         -0.2785073              -7.5786
        96                         -0.2724535              -7.4138
        97                         -0.2682079              -7.2983
        98                         -0.2672711              -7.2728
        99                         -0.2512134              -6.8359
       100                         -0.2433642              -6.6223
       101                         -0.2386167              -6.4931
       102                         -0.1567704              -4.2659
       103                         -0.1483937              -4.0380
       104                         -0.1394277              -3.7940
       ...                                ...                  ...
       166                          0.5911268              16.0854
      -------------------------------------------------------------
                  HL-Gap            0.0956767 Eh            2.6035 eV
             Fermi-level           -0.3295796 Eh           -8.9683 eV

     #   Z          covCN         q      C6AA      α(0)
     1   8 O        1.654    -0.440    21.640     6.280
     2   6 C        3.662     0.278    16.607     5.846
     3   6 C        3.741    -0.015    20.919     6.526
     4   7 N        2.721    -0.183    24.964     7.421
     5   6 C        3.751     0.016    20.370     6.436
     6   6 C        3.045     0.006    27.854     8.656
     7   6 C        2.917    -0.057    29.411     8.893
     8   6 C        2.772     0.171    24.315     8.076
     9   9 F        0.787    -0.211    11.345     3.979
    10   6 C        2.912    -0.050    29.243     8.867
    11   6 C        3.083    -0.033    28.729     8.787
    12   6 C        2.945     0.049    26.895     8.506
    13  53 I        1.223    -0.105   379.748    33.640
    14   6 C        3.743     0.007    20.535     6.465
    15   6 C        3.688     0.075    19.512     6.323
    16   8 O        1.697    -0.324    19.419     5.950
    17   6 C        2.958    -0.035    28.865     8.812
    18   6 C        2.782     0.146    24.804     8.158
    19   9 F        0.787    -0.172    10.952     3.909
    20   6 C        2.771     0.137    24.984     8.186
    21   9 F        0.787    -0.166    10.889     3.898
    22   6 C        2.778     0.143    24.878     8.169
    23   9 F        0.787    -0.176    10.990     3.916
    24   6 C        2.891     0.042    27.051     8.527
    25   7 N        2.700    -0.126    23.740     7.236
    26   6 C        2.987     0.053    26.797     8.491
    27   6 C        2.777     0.160    24.534     8.113
    28   9 F        0.787    -0.210    11.338     3.977
    29   6 C        2.911    -0.047    29.165     8.856
    30   6 C        2.912    -0.035    28.859     8.809
    31   6 C        3.066    -0.037    28.846     8.807
    32   6 C        2.952     0.032    27.281     8.567
    33  53 I        1.230    -0.108   379.967    33.649
    34   6 C        2.785     0.140    24.930     8.179
    35   9 F        0.787    -0.188    11.107     3.937
    36   1 H        0.805     0.305     0.706     1.320
    37   1 H        0.923     0.049     2.338     2.391
    38   1 H        0.924     0.060     2.199     2.319
    39   1 H        0.924     0.017     2.784     2.609
    40   1 H        0.924     0.060     2.202     2.321
    41   1 H        0.925     0.063     2.166     2.301
    42   1 H        0.925     0.069     2.094     2.263
    43   1 H        0.925     0.068     2.112     2.273
    44   1 H        0.924     0.042     2.425     2.435
    45   1 H        0.924     0.024     2.680     2.560
    46   1 H        0.924     0.047     2.361     2.403
    47   1 H        0.924     0.063     2.159     2.298
    48   1 H        0.860     0.200     1.108     1.649
    49   1 H        0.925     0.072     2.060     2.244
    50   1 H        0.925     0.059     2.207     2.323
    51   1 H        0.925     0.065     2.141     2.288

 Mol. C6AA /au·bohr⁶  :      46476.003921
 Mol. C8AA /au·bohr⁸  :    1538214.634536
 Mol. α(0) /au        :        338.843594


Wiberg/Mayer (AO) data.
largest (>0.10) Wiberg bond orders for each atom

 ---------------------------------------------------------------------------
     #   Z sym  total        # sym  WBO       # sym  WBO       # sym  WBO
 ---------------------------------------------------------------------------
     1   8 O    1.973 --     2 C    0.980    36 H    0.882
     2   6 C    3.935 --     1 O    0.980    17 C    0.973    16 O    0.967
                             3 C    0.940
     3   6 C    3.980 --     4 N    1.000    38 H    0.970    37 H    0.969
                             2 C    0.940
     4   7 N    3.118 --     3 C    1.000    14 C    0.996     5 C    0.993
     5   6 C    3.984 --     6 C    1.005     4 N    0.993    39 H    0.960
                            40 H    0.959
     6   6 C    3.986 --     7 C    1.408    12 C    1.392     5 C    1.005
                            10 C    0.105
     7   6 C    3.986 --     6 C    1.408     8 C    1.395    41 H    0.963
                            11 C    0.108
     8   6 C    3.891 --     7 C    1.395    10 C    1.388     9 F    0.972
     9   9 F    1.107 --     8 C    0.972
    10   6 C    3.988 --    11 C    1.441     8 C    1.388    42 H    0.964
                             6 C    0.105
    11   6 C    3.987 --    10 C    1.441    12 C    1.416    43 H    0.967
                             7 C    0.108
    12   6 C    3.956 --    11 C    1.416     6 C    1.392    13 I    0.988
    13  53 I    1.115 --    12 C    0.988
    14   6 C    3.987 --    15 C    1.001     4 N    0.996    44 H    0.971
                            45 H    0.963
    15   6 C    3.947 --    14 C    1.001    16 O    0.973    46 H    0.969
                            47 H    0.968
    16   8 O    2.082 --    15 C    0.973     2 C    0.967
    17   6 C    3.981 --    34 C    1.383    18 C    1.346     2 C    0.973
    18   6 C    3.890 --    17 C    1.346    20 C    1.342    19 F    0.995
    19   9 F    1.134 --    18 C    0.995
    20   6 C    3.902 --    22 C    1.348    18 C    1.342    21 F    0.998
    21   9 F    1.140 --    20 C    0.998
    22   6 C    3.891 --    20 C    1.348    24 C    1.316    23 F    0.990
    23   9 F    1.133 --    22 C    0.990
    24   6 C    3.974 --    22 C    1.316    34 C    1.302    25 N    1.129
    25   7 N    3.420 --    24 C    1.129    26 C    1.093    48 H    0.918
    26   6 C    3.967 --    32 C    1.342    27 C    1.322    25 N    1.093
    27   6 C    3.881 --    29 C    1.399    26 C    1.322    28 F    0.969
    28   9 F    1.106 --    27 C    0.969
    29   6 C    3.986 --    30 C    1.433    27 C    1.399    49 H    0.965
    30   6 C    3.978 --    29 C    1.433    31 C    1.429    50 H    0.967
    31   6 C    3.987 --    30 C    1.429    32 C    1.426    51 H    0.967
    32   6 C    3.944 --    31 C    1.426    26 C    1.342    33 I    0.983
    33  53 I    1.118 --    32 C    0.983
    34   6 C    3.885 --    17 C    1.383    24 C    1.302    35 F    0.983
    35   9 F    1.125 --    34 C    0.983
    36   1 H    0.906 --     1 O    0.882
    37   1 H    0.997 --     3 C    0.969
    38   1 H    0.996 --     3 C    0.970
    39   1 H    0.999 --     5 C    0.960
    40   1 H    0.996 --     5 C    0.959
    41   1 H    0.996 --     7 C    0.963
    42   1 H    0.995 --    10 C    0.964
    43   1 H    0.995 --    11 C    0.967
    44   1 H    0.998 --    14 C    0.971
    45   1 H    0.999 --    14 C    0.963
    46   1 H    0.998 --    15 C    0.969
    47   1 H    0.995 --    15 C    0.968
    48   1 H    0.959 --    25 N    0.918
    49   1 H    0.994 --    29 C    0.965
    50   1 H    0.996 --    30 C    0.967
    51   1 H    0.995 --    31 C    0.967
 ---------------------------------------------------------------------------

Topologies differ in total number of bonds
Writing topology from bond orders to xtbtopo.mol

molecular dipole:
                 x           y           z       tot (Debye)
 q only:        0.126      -0.060       1.591
   full:        0.297       0.875       0.961       3.388
molecular quadrupole (traceless):
                xx          xy          yy          xz          yz          zz
 q only:       31.427     -12.613     -14.529     -11.558       2.142     -16.898
  q+dip:       51.338      -9.949     -23.934     -10.496       5.157     -27.404
   full:       48.302      -9.395     -21.640     -10.647       6.133     -26.662


           -------------------------------------------------
          | TOTAL ENERGY             -107.390929935975 Eh   |
          | GRADIENT NORM               0.070611083137 Eh/α |
          | HOMO-LUMO GAP               2.603494169254 eV   |
           -------------------------------------------------

------------------------------------------------------------------------
 * finished run on 2026/08/31 at 18:35:38.094     
------------------------------------------------------------------------
 total:
 * wall-time:     0 d,  0 h,  0 min,  0.136 sec
 *  cpu-time:     0 d,  0 h,  0 min,  1.203 sec
 * ratio c/w:     8.846 speedup
 SCF:
 * wall-time:     0 d,  0 h,  0 min,  0.091 sec
 *  cpu-time:     0 d,  0 h,  0 min,  0.750 sec
 * ratio c/w:     8.242 speedup

normal termination of xtb
