123
Drug@B36N36 clean complex
O      0.760844      1.222035      9.055272
C      0.431823      0.549150     10.268951
C      1.427546     -0.641264     10.507140
N      2.809703     -0.268779     10.887800
C      3.780923     -0.445849      9.804499
C      5.220610     -0.371071     10.274463
C      5.955606      0.793337      9.976136
C      7.276300      0.926843     10.392570
F      7.949202      2.046119     10.096782
C      7.903951     -0.079702     11.109755
C      7.197837     -1.241859     11.416572
C      5.863814     -1.390767     11.004109
I      4.926090     -3.197643     11.530431
C      2.864800      1.050060     11.538387
C      1.538786      1.391938     12.228538
O      0.481770      1.557739     11.281017
C     -0.980553      0.014828     10.127172
C     -1.390140     -0.614559      8.945085
F     -0.517041     -0.796364      7.942350
C     -2.679361     -1.113652      8.795552
F     -3.025821     -1.731242      7.656653
C     -3.595433     -1.007947      9.832553
F     -4.809548     -1.558786      9.674860
C     -3.235766     -0.413740     11.046106
N     -4.113671     -0.268289     12.140534
C     -5.504761     -0.029234     12.205204
C     -6.238079      0.527862     11.143708
F     -5.614390      0.965895     10.038487
C     -7.620075      0.711363     11.212186
C     -8.315594      0.338290     12.357101
C     -7.622598     -0.210508     13.433816
C     -6.233673     -0.391578     13.357066
I     -5.284645     -1.231542     15.040210
C     -1.917448      0.071761     11.170322
F     -1.562275      0.570591     12.366798
H      1.709844      1.402019      9.105213
H      1.044446     -1.245563     11.341111
H      1.434514     -1.309084      9.636250
H      3.608361      0.292370      9.010572
H      3.644231     -1.418038      9.314232
H      5.507469      1.611446      9.418510
H      8.934954      0.044316     11.425128
H      7.699688     -2.025845     11.979519
H      3.669580      1.055524     12.281339
H      3.075865      1.834148     10.800750
H      1.252188      0.625829     12.958879
H      1.637447      2.336640     12.772990
H     -3.640512     -0.072801     13.021460
H     -8.139242      1.153221     10.366893
H     -9.392128      0.479022     12.412835
H     -8.175436     -0.496628     14.325760
B      3.459180     -1.454569      1.628037
N      3.456400      1.129904      0.940040
B      2.539920      2.362499     -1.261047
N      2.293067     -0.641637     -2.730603
B      0.690534     -3.561069      2.702709
N     -2.939724     -2.654773      1.709476
B     -1.038202      4.085096      1.831238
N     -0.619347      0.017651     -3.941904
B     -0.473710      1.445324     -4.091730
N      1.209559     -3.786796     -1.739405
B     -3.844500      2.209440     -0.493722
N     -2.772864      2.763562     -1.211833
B      1.405725      0.818091     -4.889311
N     -0.235789      3.364215      2.833544
B      0.898320     -2.879798     -2.813849
N     -0.491833      3.766578     -1.010119
B     -0.805996      2.182269      3.281874
N      1.656110     -1.274433      3.503622
B     -0.248484      3.469937     -2.379863
N      1.308703      0.068898      3.816981
B     -1.597441     -0.559934     -3.084689
N     -3.832496      1.776842      0.831624
B      0.337602      4.495994      1.183894
N      0.043256     -0.013955      4.456653
B     -2.708837      2.226751      1.601242
N      3.772728     -0.132624     -0.765541
B     -2.253381     -3.639412      1.008482
N      1.055818      3.733398      2.235734
B     -1.825620     -0.777460      3.219840
N     -2.436768     -3.601880     -0.450773
B      3.018658     -1.073670     -1.502768
N     -3.157960     -1.252592     -0.384321
B      2.034656      2.922326      1.561722
N     -0.507447     -2.900148     -2.432795
B     -1.673548     -2.112882     -2.491621
N      0.590135      3.964583     -0.110225
B      1.090314      2.959649     -3.182489
N      0.077350     -4.359230      1.721289
B     -1.784034      3.452384     -0.408220
N     -2.013520      3.418515      1.031553
B      1.465878     -4.212148      1.499138
N     -0.797987      1.064153      4.194581
B     -2.666242     -2.402096     -1.175256
N     -1.074388     -4.484335      0.991235
B     -2.503710      0.491370     -2.109143
N      2.352728     -3.887335      0.453103
B      3.912327     -0.202357      0.725926
N      1.928548      1.957009     -2.465077
B      1.001184      2.254351     -4.622507
N     -4.186016      0.829005     -0.347538
B     -1.338881      2.453658     -3.114870
N     -2.359649      1.932605     -2.305841
B      3.073063     -2.645483      0.601111
N      2.335213     -3.673670     -0.970876
B      2.217863      0.545803      2.808407
N     -2.026423      0.611912      3.601492
B     -1.101749     -4.183787     -0.441007
N     -3.218144      0.041654     -0.958566
B      3.447752      1.258593     -0.514065
N      2.582085      1.632977      1.936454
B      1.472054     -1.555001     -3.515610
N     -2.102601      1.754194      2.760799
B      2.040765      0.711921     -3.211483
N     -2.720915     -1.341699      2.320567
B      0.658648     -0.538875     -4.486937
N     -0.168664     -3.759421     -1.356472
B      0.485560     -2.105634      3.433764
N     -0.587253     -1.205033      3.824488
B     -3.224373     -1.451411      1.000320
N      2.671324     -0.855529      2.621135
B      1.878557      3.339348     -0.106427
N      2.876911     -2.331783     -0.793563
