      -----------------------------------------------------------      
     |                   =====================                   |     
     |                           x T B                           |     
     |                   =====================                   |     
     |                         S. Grimme                         |     
     |          Mulliken Center for Theoretical Chemistry        |     
     |                    University of Bonn                     |     
      -----------------------------------------------------------      

   * xtb version 6.7.1pre (5071a88) compiled by 'Marcel@Raven' on 2024-07-23

   xtb is free software: you can redistribute it and/or modify it under
   the terms of the GNU Lesser General Public License as published by
   the Free Software Foundation, either version 3 of the License, or
   (at your option) any later version.
   
   xtb is distributed in the hope that it will be useful,
   but WITHOUT ANY WARRANTY; without even the implied warranty of
   MERCHANTABILITY or FITNESS FOR A PARTICULAR PURPOSE.  See the
   GNU Lesser General Public License for more details.
   
   Cite this work as:
   * C. Bannwarth, E. Caldeweyher, S. Ehlert, A. Hansen, P. Pracht,
     J. Seibert, S. Spicher, S. Grimme, WIREs Comput. Mol. Sci., 2020, 11,
     e01493. DOI: 10.1002/wcms.1493
   
   for GFN2-xTB:
   * C. Bannwarth, S. Ehlert and S. Grimme., J. Chem. Theory Comput., 2019,
     15, 1652-1671. DOI: 10.1021/acs.jctc.8b01176
   for GFN1-xTB:
   * S. Grimme, C. Bannwarth, P. Shushkov, J. Chem. Theory Comput., 2017,
     13, 1989-2009. DOI: 10.1021/acs.jctc.7b00118
   for GFN0-xTB:
   * P. Pracht, E. Caldeweyher, S. Ehlert, S. Grimme, ChemRxiv, 2019, preprint.
     DOI: 10.26434/chemrxiv.8326202.v1
   for GFN-FF:
   * S. Spicher and S. Grimme, Angew. Chem. Int. Ed., 2020, 59, 15665-15673.
     DOI: 10.1002/anie.202004239
   
   for ALPB and GBSA implicit solvation:
   * S. Ehlert, M. Stahn, S. Spicher, S. Grimme, J. Chem. Theory Comput.,
     2021, 17, 4250-4261. DOI: 10.1021/acs.jctc.1c00471
   
   for ddCOSMO and CPCM-X implicit solvation:
   * M. Stahn, S. Ehlert, S. Grimme, J. Phys. Chem. A,
     2023, XX, XXXX-XXXX. DOI: 10.1021/acs.jpca.3c04382
   
   for DFT-D4:
   * E. Caldeweyher, C. Bannwarth and S. Grimme, J. Chem. Phys., 2017,
     147, 034112. DOI: 10.1063/1.4993215
   * E. Caldeweyher, S. Ehlert, A. Hansen, H. Neugebauer, S. Spicher,
     C. Bannwarth and S. Grimme, J. Chem. Phys., 2019, 150, 154122.
     DOI: 10.1063/1.5090222
   * E. Caldeweyher, J.-M. Mewes, S. Ehlert and S. Grimme, Phys. Chem. Chem. Phys.
     2020, 22, 8499-8512. DOI: 10.1039/D0CP00502A
   
   for sTDA-xTB:
   * S. Grimme and C. Bannwarth, J. Chem. Phys., 2016, 145, 054103.
     DOI: 10.1063/1.4959605
   
   in the mass-spec context:
   * V. Asgeirsson, C. Bauer and S. Grimme, Chem. Sci., 2017, 8, 4879.
     DOI: 10.1039/c7sc00601b
   * J. Koopman and S. Grimme, ACS Omega 2019, 4, 12, 15120-15133.
     DOI: 10.1021/acsomega.9b02011
   
   for metadynamics refer to:
   * S. Grimme, J. Chem. Theory Comput., 2019, 155, 2847-2862
     DOI: 10.1021/acs.jctc.9b00143
   
   for SPH calculations refer to:
   * S. Spicher and S. Grimme, J. Chem. Theory Comput., 2021, 17, 1701-1714
     DOI: 10.1021/acs.jctc.0c01306
   
   for ONIOM refer to:
   * C. Plett, A. Katbashev, S. Ehlert, S. Grimme, M. Bursch,
     Phys. Chem. Chem. Phys., 2023, 25, 17860-17868. DOI: 10.1039/D3CP02178E
   
   for DIPRO refer to:
   * J. Kohn, N. Gildemeister, S. Grimme, D. Fazzi, A. Hansen,
     J. Chem. Phys., 2023, just accepted.
   
   for PTB refer to:
   * S. Grimme, M. Mueller, A. Hansen, J. Chem. Phys., 2023, 158, 124111.
     DOI: 10.1063/5.0137838
   
   with help from (in alphabetical order)
   P. Atkinson, C. Bannwarth, F. Bohle, G. Brandenburg, E. Caldeweyher
   M. Checinski, S. Dohm, S. Ehlert, S. Ehrlich, I. Gerasimov, C. Hölzer
   A. Katbashev, J. Kohn, J. Koopman, C. Lavigne, S. Lehtola, F. März, M. Müller,
   F. Musil, H. Neugebauer, J. Pisarek, C. Plett, P. Pracht, F. Pultar,
   J. Seibert, P. Shushkov, S. Spicher, M. Stahn, M. Steiner, T. Strunk,
   J. Stückrath, T. Rose, and J. Unsleber
   
 * started run on 2026/08/31 at 18:35:09.708     
   ID    Z sym.   atoms
    1    6 C      1, 2, 4-8, 10, 12-15, 17, 18, 20-22, 25, 27-31
    2    8 O      3
    3    7 N      9, 11, 16, 19, 23, 24, 26, 97-132
    4    1 H      32-60
    5    5 B      61-96

           -------------------------------------------------
          |                Calculation Setup                |
           -------------------------------------------------

          program call               : "c:\Users\Andre\Proyectos doctorado\kras-pancreatic-gC3N4-ai\tools\xtb\xtb-6.7.1\bin\xtb.exe" "c:\Users\Andre\Proyectos doctorado\nano-qsar-ai-therapeutics\calculations\tnbc\Palbociclib\Palbociclib_B36N36_complex.xyz" --gfn 2 --sp --chrg 0 --uhf 0 --iterations 500 --norestart
          coordinate file            : c:\Users\Andre\Proyectos doctorado\nano-qsar-ai-therapeutics\calculations\tnbc\Palbociclib\Palbociclib_B36N36_complex.xyz
          omp threads                :                    16


molecular fragmentation (1/2 indicates fragments):
111111111111111111111111111111111111111111111111111111111111111111111111
112212121111111111111111111111111111112212121111111111111111
# atoms in fragment 1/2:   124     8
 fragment masses (1/2) :     1213.69       99.27
CMA distance (Bohr)    :   6.524
constraining FC (au)   :  0.0500

           -------------------------------------------------
          |                 G F N 2 - x T B                 |
           -------------------------------------------------

        Reference                      10.1021/acs.jctc.8b01176
      * Hamiltonian:
        H0-scaling (s, p, d)           1.850000    2.230000    2.230000
        zeta-weighting                 0.500000
      * Dispersion:
        s8                             2.700000
        a1                             0.520000
        a2                             5.000000
        s9                             5.000000
      * Repulsion:
        kExp                           1.500000    1.000000
        rExp                           1.000000
      * Coulomb:
        alpha                          2.000000
        third order                    shell-resolved
        anisotropic                    true
        a3                             3.000000
        a5                             4.000000
        cn-shift                       1.200000
        cn-exp                         4.000000
        max-rad                        5.000000


          ...................................................
          :                      SETUP                      :
          :.................................................:
          :  # basis functions                 441          :
          :  # atomic orbitals                 441          :
          :  # shells                          235          :
          :  # electrons                       450          :
          :  max. iterations                   500          :
          :  Hamiltonian                  GFN2-xTB          :
          :  restarted?                      false          :
          :  GBSA solvation                  false          :
          :  PC potential                    false          :
          :  electronic temp.          300.0000000     K    :
          :  accuracy                    1.0000000          :
          :  -> integral cutoff          0.2500000E+02      :
          :  -> integral neglect         0.1000000E-07      :
          :  -> SCF convergence          0.1000000E-05 Eh   :
          :  -> wf. convergence          0.1000000E-03 e    :
          :  Broyden damping             0.4000000          :
          :  net charge                          0          :
          :  unpaired electrons                  0          :
          ...................................................

 iter      E             dE          RMSdq      gap      omega  full diag
   1   -228.0939033 -0.228094E+03  0.134E+01    0.34       0.0  T
   2   -144.8359589  0.832579E+02  0.121E+01    0.07       1.0  T
   3    454.9033053  0.599739E+03  0.189E+01    0.14       1.0  T
   4    121.7389009 -0.333164E+03  0.141E+01    0.38       1.0  T
   5   -180.6868584 -0.302426E+03  0.901E+00    0.01       1.0  T
   6   -204.4337040 -0.237468E+02  0.721E+00    0.11       1.0  T
   7   -235.8496173 -0.314159E+02  0.462E+00    0.34       1.0  T
   8   -234.7710123  0.107861E+01  0.358E+00    0.17       1.0  T
   9   -234.8937373 -0.122725E+00  0.322E+00    0.31       1.0  T
  10   -232.4921995  0.240154E+01  0.288E+00    0.15       1.0  T
  11   -237.3703401 -0.487814E+01  0.215E+00    0.10       1.0  T
  12   -238.8966378 -0.152630E+01  0.184E+00    0.07       1.0  T
  13   -238.9030683 -0.643048E-02  0.151E+00    0.12       1.0  T
  14   -238.9410924 -0.380241E-01  0.161E+00    0.01       1.0  T
  15   -238.9080522  0.330402E-01  0.158E+00    0.14       1.0  T
  16   -238.9371654 -0.291132E-01  0.154E+00    0.12       1.0  T
  17   -239.0061874 -0.690220E-01  0.987E-01    0.02       1.0  T
  18   -239.0577986 -0.516112E-01  0.821E-01    0.03       1.0  T
  19   -238.9342152  0.123583E+00  0.780E-01    0.24       1.0  T
  20   -239.1061584 -0.171943E+00  0.505E-01    0.10       1.0  T
  21   -239.1714920 -0.653336E-01  0.327E-01    0.06       1.0  T
  22   -239.1553617  0.161303E-01  0.393E-01    0.04       1.0  T
  23   -239.1705090 -0.151474E-01  0.340E-01    0.04       1.0  T
  24   -239.1804387 -0.992969E-02  0.290E-01    0.02       1.0  T
  25   -239.1938435 -0.134048E-01  0.160E-01    0.04       1.0  T
  26   -239.1996817 -0.583820E-02  0.996E-02    0.04       1.0  T
  27   -239.1973971  0.228466E-02  0.951E-02    0.04       1.0  T
  28   -239.2011361 -0.373904E-02  0.509E-02    0.04       1.0  T
  29   -239.2002392  0.896881E-03  0.509E-02    0.04       1.0  T
  30   -239.2006737 -0.434410E-03  0.419E-02    0.04       1.0  T
  31   -239.2009955 -0.321815E-03  0.290E-02    0.04       1.0  T
  32   -239.2011313 -0.135833E-03  0.233E-02    0.04       1.0  T
  33   -239.2013461 -0.214810E-03  0.799E-03    0.04       1.1  T
  34   -239.2013628 -0.167363E-04  0.399E-03    0.04       2.2  T
  35   -239.2013648 -0.191677E-05  0.212E-03    0.04       4.1  T
  36   -239.2013649 -0.141906E-06  0.183E-03    0.04       4.8  T
  37   -239.2013654 -0.473697E-06  0.790E-04    0.04      11.0  T
  38   -239.2013656 -0.203570E-06  0.420E-04    0.04      20.7  T

   *** convergence criteria satisfied after 38 iterations ***

         #    Occupation            Energy/Eh            Energy/eV
      -------------------------------------------------------------
         1        2.0000           -0.9995019             -27.1978
       ...           ...                  ...                  ...
       219        2.0000           -0.2212630              -6.0209
       220        2.0000           -0.2150354              -5.8514
       221        2.0000           -0.2082314              -5.6663
       222        2.0000           -0.1933047              -5.2601
       223        2.0000           -0.1897619              -5.1637
       224        1.9833           -0.1775106              -4.8303
       225        1.3736           -0.1737187              -4.7271 (HOMO)
       226        0.5893           -0.1721435              -4.6843 (LUMO)
       227        0.0538           -0.1695630              -4.6140
       228        0.0000           -0.1600742              -4.3558
       229                         -0.1505571              -4.0969
       230                         -0.1480812              -4.0295
       ...                                ...                  ...
       441                        203.9004831            5548.4146
      -------------------------------------------------------------
                  HL-Gap            0.0015753 Eh            0.0429 eV
             Fermi-level           -0.1729727 Eh           -4.7068 eV

 SCC (total)                   0 d,  0 h,  0 min,  1.150 sec
 SCC setup                      ...        0 min,  0.001 sec (  0.087%)
 Dispersion                     ...        0 min,  0.010 sec (  0.870%)
 classical contributions        ...        0 min,  0.000 sec (  0.000%)
 integral evaluation            ...        0 min,  0.017 sec (  1.478%)
 iterations                     ...        0 min,  1.078 sec ( 93.739%)
 molecular gradient             ...        0 min,  0.041 sec (  3.565%)
 printout                       ...        0 min,  0.003 sec (  0.261%)

         :::::::::::::::::::::::::::::::::::::::::::::::::::::
         ::                     SUMMARY                     ::
         :::::::::::::::::::::::::::::::::::::::::::::::::::::
         :: total energy              90.109392908855 Eh    ::
         :: gradient norm            890.906829375066 Eh/a0 ::
         :: HOMO-LUMO gap              0.042865720092 eV    ::
         ::.................................................::
         :: SCC energy              -239.167450872304 Eh    ::
         :: -> isotropic ES            1.246825785598 Eh    ::
         :: -> anisotropic ES          0.163040187722 Eh    ::
         :: -> anisotropic XC          0.388995538514 Eh    ::
         :: -> dispersion             -0.399891001063 Eh    ::
         :: repulsion energy         329.276843781160 Eh    ::
         :: add. restraining           0.000000000000 Eh    ::
         :: total charge              -0.000000000032 e     ::
         :::::::::::::::::::::::::::::::::::::::::::::::::::::

           -------------------------------------------------
          |                Property Printout                |
           -------------------------------------------------

    * Orbital Energies and Occupations

         #    Occupation            Energy/Eh            Energy/eV
      -------------------------------------------------------------
         1        2.0000           -0.9995019             -27.1978
       ...           ...                  ...                  ...
       213        2.0000           -0.2555471              -6.9538
       214        2.0000           -0.2473926              -6.7319
       215        2.0000           -0.2449247              -6.6647
       216        2.0000           -0.2343954              -6.3782
       217        2.0000           -0.2323351              -6.3222
       218        2.0000           -0.2287220              -6.2238
       219        2.0000           -0.2212630              -6.0209
       220        2.0000           -0.2150354              -5.8514
       221        2.0000           -0.2082314              -5.6663
       222        2.0000           -0.1933047              -5.2601
       223        2.0000           -0.1897619              -5.1637
       224        1.9833           -0.1775106              -4.8303
       225        1.3736           -0.1737187              -4.7271 (HOMO)
       226        0.5893           -0.1721435              -4.6843 (LUMO)
       227        0.0538           -0.1695630              -4.6140
       228        0.0000           -0.1600742              -4.3558
       229                         -0.1505571              -4.0969
       230                         -0.1480812              -4.0295
       231                         -0.1336354              -3.6364
       232                         -0.1261655              -3.4331
       233                         -0.1241710              -3.3789
       234                         -0.1152147              -3.1352
       235                         -0.1089578              -2.9649
       236                         -0.0965804              -2.6281
       ...                                ...                  ...
       441                        203.9004831            5548.4146
      -------------------------------------------------------------
                  HL-Gap            0.0015753 Eh            0.0429 eV
             Fermi-level           -0.1729727 Eh           -4.7068 eV

     #   Z          covCN         q      C6AA      α(0)
     1   6 C        3.828    -0.131    22.997     6.824
     2   6 C        3.617     0.035    20.457     6.525
     3   8 O        0.858    -0.692    28.503     7.158
     4   6 C        7.700     0.069    19.343     6.246
     5   6 C        8.240     0.423    14.564     5.420
     6   6 C        6.529    -0.532    32.861     8.141
     7   6 C        7.027    -0.224    24.857     7.081
     8   6 C        5.493    -0.235    25.088     7.113
     9   7 N        1.907    -0.424    32.044     8.393
    10   6 C        2.860     0.153    24.676     8.142
    11   7 N        2.706    -0.263    26.803     7.689
    12   6 C        4.715     0.004    20.422     6.418
    13   6 C        7.280    -0.190    24.114     6.974
    14   6 C        7.994     0.338    15.558     5.602
    15   6 C        6.245    -0.165    23.601     6.899
    16   7 N        2.728    -0.215    25.679     7.526
    17   6 C        3.744     0.006    20.555     6.468
    18   6 C        3.746     0.008    20.502     6.459
    19   7 N        2.672    -0.267    26.923     7.706
    20   6 C        3.746     0.001    20.633     6.479
    21   6 C        3.739    -0.006    20.772     6.503
    22   6 C        7.416    -0.231    25.013     7.103
    23   7 N        2.274    -0.421    31.354     8.312
    24   7 N        1.865    -0.505    34.533     8.710
    25   6 C        5.030    -0.032    21.057     6.517
    26   7 N        5.508    -0.271    27.000     7.718
    27   6 C        9.159     0.187    17.554     5.950
    28   6 C        7.281    -0.103    22.370     6.717
    29   6 C        4.160    -0.129    22.877     6.793
    30   6 C        3.837    -0.110    22.577     6.760
    31   6 C        6.319    -0.179    23.889     6.941
    32   1 H        0.924    -0.006     3.161     2.781
    33   1 H        0.924     0.004     2.993     2.706
    34   1 H        0.924     0.038     2.478     2.462
    35   1 H        2.217     0.257     0.847     1.437
    36   1 H        0.924    -0.007     3.175     2.786
    37   1 H        0.924    -0.043     3.919     3.096
    38   1 H        2.437     0.302     0.698     1.304
    39   1 H        0.860     0.196     1.128     1.664
    40   1 H        1.089     0.012     2.844     2.633
    41   1 H        1.935    -0.777   982.240    48.927
    42   1 H        0.923     0.006     2.952     2.687
    43   1 H        0.924     0.009     2.912     2.668
    44   1 H        0.924     0.026     2.651     2.546
    45   1 H        0.924     0.039     2.466     2.456
    46   1 H        0.860     0.138     1.484     1.908
    47   1 H        0.924     0.032     2.560     2.502
    48   1 H        0.924     0.044     2.394     2.420
    49   1 H        0.924     0.062     2.177     2.307
    50   1 H        0.924     0.016     2.789     2.612
    51   1 H        3.761     0.531     0.296     0.850
    52   1 H        3.865     0.646     0.205     0.707
    53   1 H        1.436     0.003     2.985     2.697
    54   1 H        2.744     0.469     0.367     0.946
    55   1 H        0.924     0.044     2.392     2.419
    56   1 H        0.924    -0.002     3.088     2.748
    57   1 H        0.924     0.015     2.806     2.619
    58   1 H        0.924     0.087     1.909     2.161
    59   1 H        0.929     0.021     2.723     2.580
    60   1 H        2.510     0.424     0.432     1.026
    61   5 B        5.102     0.131    20.455     7.287
    62   5 B        9.595     0.364    17.094     6.662
    63   5 B        5.276     0.213    19.182     7.057
    64   5 B        5.102     0.136    20.380     7.274
    65   5 B        7.666     0.338    17.427     6.726
    66   5 B        6.188     0.170    19.832     7.175
    67   5 B        5.682     0.175    19.765     7.163
    68   5 B        7.138     0.172    19.811     7.172
    69   5 B        5.753     0.255    18.572     6.944
    70   5 B        5.231     0.181    19.673     7.147
    71   5 B        9.687     0.261    18.476     6.926
    72   5 B        7.760    -0.222    27.438     8.440
    73   5 B        1.850     0.096    41.162    13.513
    74   5 B        1.850     0.044    42.934    13.801
    75   5 B        1.850     0.096    41.170    13.514
    76   5 B        1.850     0.097    41.139    13.509
    77   5 B        1.850     0.112    40.631    13.426
    78   5 B        1.851     0.099    41.068    13.497
    79   5 B        1.850     0.071    42.025    13.654
    80   5 B        1.850     0.095    41.199    13.519
    81   5 B        1.942     0.126    39.895    13.288
    82   5 B        1.850     0.120    40.397    13.387
    83   5 B        1.850     0.092    41.316    13.538
    84   5 B        1.850     0.066    42.182    13.679
    85   5 B        4.397     0.326    17.582     6.756
    86   5 B        5.775     0.319    17.687     6.776
    87   5 B        4.397     0.302    17.915     6.820
    88   5 B        4.532     0.279    18.225     6.879
    89   5 B        4.599     0.377    16.924     6.628
    90   5 B        6.153     0.271    18.344     6.901
    91   5 B        8.136     0.255    18.573     6.944
    92   5 B        4.897     0.342    17.380     6.717
    93   5 B        7.021     0.319    17.678     6.774
    94   5 B        6.979     0.171    19.821     7.173
    95   5 B        7.966    -0.209    27.150     8.396
    96   5 B        7.153    -0.086    24.420     7.962
    97   7 N        4.372    -0.056    22.308     7.015
    98   7 N        6.940    -0.351    29.021     8.001
    99   7 N        4.372    -0.101    23.209     7.155
   100   7 N        4.372    -0.039    21.982     6.963
   101   7 N        6.313    -0.422    30.972     8.266
   102   7 N        5.658    -0.140    24.013     7.278
   103   7 N        4.717    -0.144    24.114     7.293
   104   7 N        6.293    -0.237    26.190     7.601
   105   7 N        4.717    -0.291    27.494     7.788
   106   7 N        4.540    -0.270    26.974     7.714
   107   7 N        8.237     0.621    12.741     5.301
   108   7 N        7.873     0.212    17.760     6.259
   109   7 N        0.932    -0.200    25.228     7.253
   110   7 N        0.932    -0.204    25.318     7.266
   111   7 N        0.932    -0.116    23.420     6.988
   112   7 N        0.932    -0.099    23.081     6.937
   113   7 N        0.932    -0.145    24.032     7.079
   114   7 N        0.932    -0.117    23.439     6.991
   115   7 N        0.932    -0.115    23.409     6.986
   116   7 N        0.932    -0.095    22.998     6.925
   117   7 N        0.932    -0.181    24.799     7.191
   118   7 N        0.932    -0.122    23.538     7.006
   119   7 N        0.932    -0.144    24.004     7.075
   120   7 N        0.932    -0.136    23.834     7.050
   121   7 N        3.977    -0.325    28.340     7.907
   122   7 N        4.054    -0.417    30.836     8.247
   123   7 N        3.977    -0.325    28.335     7.906
   124   7 N        3.978    -0.357    29.186     8.024
   125   7 N        4.024    -0.343    28.800     7.971
   126   7 N        5.450    -0.358    29.213     8.027
   127   7 N        7.570     1.113     8.769     4.398
   128   7 N        4.418    -0.377    29.706     8.095
   129   7 N        4.971    -0.445    31.630     8.353
   130   7 N        6.728    -0.144    24.096     7.291
   131   7 N        6.902     0.225    17.566     6.225
   132   7 N        7.160     0.210    17.788     6.264

 Mol. C6AA /au·bohr⁶  :     334200.423438
 Mol. C8AA /au·bohr⁸  :    8960204.655668
 Mol. α(0) /au        :        921.053467


Wiberg/Mayer (AO) data.
largest (>0.10) Wiberg bond orders for each atom

 ---------------------------------------------------------------------------
     #   Z sym  total        # sym  WBO       # sym  WBO       # sym  WBO
 ---------------------------------------------------------------------------
     1   6 C    3.982 --    32 H    0.980    34 H    0.978    33 H    0.976
                             2 C    0.961
     2   6 C    3.599 --     3 O    1.265     1 C    0.961     4 C    0.860
                            94 B    0.127   130 N    0.103
     3   8 O    1.567 --     2 C    1.265
     4   6 C    3.773 --     2 C    0.860    26 N    0.823   130 N    0.821
                           107 N    0.669    94 B    0.137
     5   6 C    3.898 --   107 N    1.758    71 B    1.142     6 C    0.495
                             7 C    0.138
     6   6 C    3.757 --    36 H    0.982    37 H    0.967    35 H    0.667
                             5 C    0.495
     7   6 C    3.745 --    71 B    0.978     8 C    0.881    25 C    0.756
                            62 B    0.196   107 N    0.175     5 C    0.138
     8   6 C    3.743 --     9 N    1.063     7 C    0.881    38 H    0.688
                            86 B    0.363    62 B    0.207
     9   7 N    2.983 --    10 C    1.322     8 C    1.063    24 N    0.117
    10   6 C    3.911 --     9 N    1.322    24 N    1.223    11 N    1.043
    11   7 N    3.241 --    10 C    1.043    12 C    0.996    39 H    0.886
    12   6 C    3.693 --    23 N    1.096    11 N    0.996    13 C    0.689
                            65 B    0.206    22 C    0.150    91 B    0.100
    13   6 C    3.808 --    91 B    1.925    40 H    0.772    12 C    0.689
    14   6 C    3.961 --   127 N    3.455    91 B    0.302
    15   6 C    3.393 --    22 C    1.475    16 N    1.027   104 N    0.124
    16   7 N    3.139 --    15 C    1.027    17 C    0.976    21 C    0.974
    17   6 C    3.986 --    18 C    0.991    16 N    0.976    42 H    0.969
                            43 H    0.964
    18   6 C    3.986 --    19 N    1.015    17 C    0.991    44 H    0.975
                            45 H    0.975
    19   7 N    3.059 --    18 C    1.015    20 C    1.012    46 H    0.958
    20   6 C    3.985 --    19 N    1.012    21 C    0.990    48 H    0.974
                            47 H    0.974
    21   6 C    3.970 --    20 C    0.990    16 N    0.974    50 H    0.963
                            49 H    0.951
    22   6 C    3.774 --    15 C    1.475    23 N    1.271    51 H    0.299
                            12 C    0.150
    23   7 N    2.951 --    22 C    1.271    12 C    1.096
    24   7 N    2.859 --    10 C    1.223    25 C    1.130     9 N    0.117
    25   6 C    3.625 --    24 N    1.130    26 N    0.871     7 C    0.756
                            93 B    0.162
    26   7 N    3.160 --    27 C    0.895    25 C    0.871     4 C    0.823
    27   6 C    3.802 --   108 N    1.003    26 N    0.895    31 C    0.466
                           131 N    0.437    28 C    0.354    72 B    0.222
                            95 B    0.149
    28   6 C    3.878 --   132 N    1.299    29 C    0.849    53 H    0.668
                            27 C    0.354   108 N    0.142    96 B    0.116
    29   6 C    3.985 --    30 C    0.981    56 H    0.967    55 H    0.967
                            28 C    0.849
    30   6 C    3.985 --    29 C    0.981    57 H    0.974    58 H    0.972
                            31 C    0.912
    31   6 C    3.903 --    30 C    0.912   131 N    0.908    59 H    0.864
                            27 C    0.466    60 H    0.332    95 B    0.154
    32   1 H    0.998 --     1 C    0.980
    33   1 H    0.992 --     1 C    0.976
    34   1 H    0.993 --     1 C    0.978
    35   1 H    0.932 --     6 C    0.667    98 N    0.206
    36   1 H    0.999 --     6 C    0.982
    37   1 H    0.994 --     6 C    0.967
    38   1 H    0.901 --     8 C    0.688
    39   1 H    0.959 --    11 N    0.886
    40   1 H    0.994 --    13 C    0.772
    41   1 H    0.389 --    91 B    0.135
    42   1 H    1.000 --    17 C    0.969
    43   1 H    1.000 --    17 C    0.964
    44   1 H    0.999 --    18 C    0.975
    45   1 H    0.998 --    18 C    0.975
    46   1 H    0.981 --    19 N    0.958
    47   1 H    0.998 --    20 C    0.974
    48   1 H    0.998 --    20 C    0.974
    49   1 H    0.996 --    21 C    0.951
    50   1 H    0.999 --    21 C    0.963
    51   1 H    0.717 --    22 C    0.299   126 N    0.281    90 B    0.102
    52   1 H    0.583 --   108 N    0.247    72 B    0.246
    53   1 H    0.975 --    28 C    0.668
    54   1 H    0.780 --   132 N    0.409    96 B    0.241
    55   1 H    0.994 --    29 C    0.967
    56   1 H    1.000 --    29 C    0.967
    57   1 H    0.998 --    30 C    0.974
    58   1 H    0.992 --    30 C    0.972
    59   1 H    0.997 --    31 C    0.864
    60   1 H    0.809 --    31 C    0.332   131 N    0.310
    61   5 B    3.606 --    97 N    2.947    67 B    0.209    87 B    0.150
                            85 B    0.143
    62   5 B    3.454 --    98 N    2.673     8 C    0.207     7 C    0.196
    63   5 B    3.557 --    99 N    3.027    77 B    0.142    85 B    0.125
    64   5 B    3.597 --   100 N    3.071    79 B    0.161    87 B    0.140
                            88 B    0.135
    65   5 B    3.411 --   101 N    2.833    12 C    0.206    81 B    0.123
    66   5 B    3.594 --   102 N    3.001    83 B    0.160    90 B    0.147
                            92 B    0.131
    67   5 B    3.590 --   103 N    2.885    61 B    0.209    90 B    0.167
                            89 B    0.122
    68   5 B    3.555 --   104 N    3.017    73 B    0.192    92 B    0.111
    69   5 B    3.592 --   105 N    3.049    95 B    0.164    82 B    0.120
                            93 B    0.110
    70   5 B    3.609 --   106 N    2.850    96 B    0.276    94 B    0.212
                            84 B    0.152
    71   5 B    3.454 --     5 C    1.142     7 C    0.978   107 N    0.806
    72   5 B    3.354 --   108 N    1.940    74 B    0.302    52 H    0.246
                            27 C    0.222    96 B    0.221    95 B    0.137
    73   5 B    3.655 --   109 N    3.397    68 B    0.192
    74   5 B    3.679 --   110 N    3.276    72 B    0.302
    75   5 B    3.666 --   111 N    3.517    78 B    0.115
    76   5 B    3.667 --   112 N    3.540    80 B    0.123
    77   5 B    3.657 --   113 N    3.472    63 B    0.142
    78   5 B    3.664 --   114 N    3.515    75 B    0.115
    79   5 B    3.676 --   115 N    3.480    64 B    0.161
    80   5 B    3.668 --   116 N    3.542    76 B    0.123
    81   5 B    3.640 --   117 N    3.444    65 B    0.123
    82   5 B    3.653 --   118 N    3.512    69 B    0.120
    83   5 B    3.667 --   119 N    3.465    66 B    0.160
    84   5 B    3.672 --   120 N    3.462    70 B    0.152
    85   5 B    3.439 --   121 N    2.880    61 B    0.143    63 B    0.125
    86   5 B    3.451 --   122 N    2.734     8 C    0.363
    87   5 B    3.431 --   123 N    2.845    61 B    0.150    64 B    0.140
    88   5 B    3.463 --   124 N    2.952    64 B    0.135
    89   5 B    3.357 --   125 N    2.908    67 B    0.122
    90   5 B    3.378 --   126 N    2.509    67 B    0.167    66 B    0.147
                            51 H    0.102
    91   5 B    3.185 --    13 C    1.925   127 N    0.375    14 C    0.302
                            41 H    0.135    12 C    0.100
    92   5 B    3.394 --   128 N    2.963    66 B    0.131    68 B    0.111
    93   5 B    3.473 --   129 N    2.873    25 C    0.162    69 B    0.110
    94   5 B    3.019 --   130 N    2.065    70 B    0.212     4 C    0.137
                             2 C    0.127
    95   5 B    2.936 --   131 N    1.741    69 B    0.164    31 C    0.154
                            27 C    0.149    72 B    0.137
    96   5 B    3.077 --   132 N    1.573    70 B    0.276    54 H    0.241
                            72 B    0.221    28 C    0.116   106 N    0.108
    97   7 N    3.592 --    61 B    2.947   123 N    0.149   121 N    0.139
    98   7 N    3.391 --    62 B    2.673    35 H    0.206
    99   7 N    3.608 --    63 B    3.027   121 N    0.123   122 N    0.101
   100   7 N    3.620 --    64 B    3.071   123 N    0.141   124 N    0.121
   101   7 N    3.281 --    65 B    2.833
   102   7 N    3.594 --    66 B    3.001   126 N    0.107   128 N    0.105
   103   7 N    3.547 --    67 B    2.885   125 N    0.121   126 N    0.108
   104   7 N    3.542 --    68 B    3.017    15 C    0.124
   105   7 N    3.534 --    69 B    3.049
   106   7 N    3.471 --    70 B    2.850    96 B    0.108
   107   7 N    3.762 --     5 C    1.758    71 B    0.806     4 C    0.669
                             7 C    0.175
   108   7 N    3.698 --    72 B    1.940    27 C    1.003    52 H    0.247
                            28 C    0.142
   109   7 N    3.547 --    73 B    3.397
   110   7 N    3.490 --    74 B    3.276
   111   7 N    3.644 --    75 B    3.517   114 N    0.102
   112   7 N    3.658 --    76 B    3.540   116 N    0.115
   113   7 N    3.621 --    77 B    3.472
   114   7 N    3.645 --    78 B    3.515   111 N    0.102
   115   7 N    3.623 --    79 B    3.480
   116   7 N    3.661 --    80 B    3.542   112 N    0.115
   117   7 N    3.578 --    81 B    3.444
   118   7 N    3.643 --    82 B    3.512
   119   7 N    3.610 --    83 B    3.465
   120   7 N    3.602 --    84 B    3.462
   121   7 N    3.350 --    85 B    2.880    97 N    0.139    99 N    0.123
   122   7 N    3.187 --    86 B    2.734    99 N    0.101
   123   7 N    3.375 --    87 B    2.845    97 N    0.149   100 N    0.141
   124   7 N    3.339 --    88 B    2.952   100 N    0.121
   125   7 N    3.322 --    89 B    2.908   103 N    0.121
   126   7 N    3.322 --    90 B    2.509    51 H    0.281   103 N    0.108
                           102 N    0.107
   127   7 N    3.982 --    14 C    3.455    91 B    0.375
   128   7 N    3.357 --    92 B    2.963   102 N    0.105
   129   7 N    3.326 --    93 B    2.873
   130   7 N    3.424 --    94 B    2.065     4 C    0.821     2 C    0.103
   131   7 N    3.600 --    95 B    1.741    31 C    0.908    27 C    0.437
                            60 H    0.310
   132   7 N    3.570 --    96 B    1.573    28 C    1.299    54 H    0.409
 ---------------------------------------------------------------------------

Topologies differ in total number of bonds
Writing topology from bond orders to xtbtopo.mol

molecular dipole:
                 x           y           z       tot (Debye)
 q only:       -1.617      -0.418      -3.433
   full:       -4.934       0.168      -3.792      15.823
molecular quadrupole (traceless):
                xx          xy          yy          xz          yz          zz
 q only:      -53.210     -16.774      34.160      73.782       1.943      19.050
  q+dip:       36.352       5.699     -34.666      66.986      -0.393      -1.686
   full:       28.881       6.541     -23.215      67.044      -2.538      -5.666


           -------------------------------------------------
          | TOTAL ENERGY               90.109392908855 Eh   |
          | GRADIENT NORM             890.906829375066 Eh/α |
          | HOMO-LUMO GAP               0.042865720092 eV   |
           -------------------------------------------------

------------------------------------------------------------------------
 * finished run on 2026/08/31 at 18:35:10.927     
------------------------------------------------------------------------
 total:
 * wall-time:     0 d,  0 h,  0 min,  1.217 sec
 *  cpu-time:     0 d,  0 h,  0 min, 13.641 sec
 * ratio c/w:    11.208 speedup
 SCF:
 * wall-time:     0 d,  0 h,  0 min,  1.151 sec
 *  cpu-time:     0 d,  0 h,  0 min, 13.172 sec
 * ratio c/w:    11.444 speedup

normal termination of xtb
