      -----------------------------------------------------------      
     |                   =====================                   |     
     |                           x T B                           |     
     |                   =====================                   |     
     |                         S. Grimme                         |     
     |          Mulliken Center for Theoretical Chemistry        |     
     |                    University of Bonn                     |     
      -----------------------------------------------------------      

   * xtb version 6.7.1pre (5071a88) compiled by 'Marcel@Raven' on 2024-07-23

   xtb is free software: you can redistribute it and/or modify it under
   the terms of the GNU Lesser General Public License as published by
   the Free Software Foundation, either version 3 of the License, or
   (at your option) any later version.
   
   xtb is distributed in the hope that it will be useful,
   but WITHOUT ANY WARRANTY; without even the implied warranty of
   MERCHANTABILITY or FITNESS FOR A PARTICULAR PURPOSE.  See the
   GNU Lesser General Public License for more details.
   
   Cite this work as:
   * C. Bannwarth, E. Caldeweyher, S. Ehlert, A. Hansen, P. Pracht,
     J. Seibert, S. Spicher, S. Grimme, WIREs Comput. Mol. Sci., 2020, 11,
     e01493. DOI: 10.1002/wcms.1493
   
   for GFN2-xTB:
   * C. Bannwarth, S. Ehlert and S. Grimme., J. Chem. Theory Comput., 2019,
     15, 1652-1671. DOI: 10.1021/acs.jctc.8b01176
   for GFN1-xTB:
   * S. Grimme, C. Bannwarth, P. Shushkov, J. Chem. Theory Comput., 2017,
     13, 1989-2009. DOI: 10.1021/acs.jctc.7b00118
   for GFN0-xTB:
   * P. Pracht, E. Caldeweyher, S. Ehlert, S. Grimme, ChemRxiv, 2019, preprint.
     DOI: 10.26434/chemrxiv.8326202.v1
   for GFN-FF:
   * S. Spicher and S. Grimme, Angew. Chem. Int. Ed., 2020, 59, 15665-15673.
     DOI: 10.1002/anie.202004239
   
   for ALPB and GBSA implicit solvation:
   * S. Ehlert, M. Stahn, S. Spicher, S. Grimme, J. Chem. Theory Comput.,
     2021, 17, 4250-4261. DOI: 10.1021/acs.jctc.1c00471
   
   for ddCOSMO and CPCM-X implicit solvation:
   * M. Stahn, S. Ehlert, S. Grimme, J. Phys. Chem. A,
     2023, XX, XXXX-XXXX. DOI: 10.1021/acs.jpca.3c04382
   
   for DFT-D4:
   * E. Caldeweyher, C. Bannwarth and S. Grimme, J. Chem. Phys., 2017,
     147, 034112. DOI: 10.1063/1.4993215
   * E. Caldeweyher, S. Ehlert, A. Hansen, H. Neugebauer, S. Spicher,
     C. Bannwarth and S. Grimme, J. Chem. Phys., 2019, 150, 154122.
     DOI: 10.1063/1.5090222
   * E. Caldeweyher, J.-M. Mewes, S. Ehlert and S. Grimme, Phys. Chem. Chem. Phys.
     2020, 22, 8499-8512. DOI: 10.1039/D0CP00502A
   
   for sTDA-xTB:
   * S. Grimme and C. Bannwarth, J. Chem. Phys., 2016, 145, 054103.
     DOI: 10.1063/1.4959605
   
   in the mass-spec context:
   * V. Asgeirsson, C. Bauer and S. Grimme, Chem. Sci., 2017, 8, 4879.
     DOI: 10.1039/c7sc00601b
   * J. Koopman and S. Grimme, ACS Omega 2019, 4, 12, 15120-15133.
     DOI: 10.1021/acsomega.9b02011
   
   for metadynamics refer to:
   * S. Grimme, J. Chem. Theory Comput., 2019, 155, 2847-2862
     DOI: 10.1021/acs.jctc.9b00143
   
   for SPH calculations refer to:
   * S. Spicher and S. Grimme, J. Chem. Theory Comput., 2021, 17, 1701-1714
     DOI: 10.1021/acs.jctc.0c01306
   
   for ONIOM refer to:
   * C. Plett, A. Katbashev, S. Ehlert, S. Grimme, M. Bursch,
     Phys. Chem. Chem. Phys., 2023, 25, 17860-17868. DOI: 10.1039/D3CP02178E
   
   for DIPRO refer to:
   * J. Kohn, N. Gildemeister, S. Grimme, D. Fazzi, A. Hansen,
     J. Chem. Phys., 2023, just accepted.
   
   for PTB refer to:
   * S. Grimme, M. Mueller, A. Hansen, J. Chem. Phys., 2023, 158, 124111.
     DOI: 10.1063/5.0137838
   
   with help from (in alphabetical order)
   P. Atkinson, C. Bannwarth, F. Bohle, G. Brandenburg, E. Caldeweyher
   M. Checinski, S. Dohm, S. Ehlert, S. Ehrlich, I. Gerasimov, C. Hölzer
   A. Katbashev, J. Kohn, J. Koopman, C. Lavigne, S. Lehtola, F. März, M. Müller,
   F. Musil, H. Neugebauer, J. Pisarek, C. Plett, P. Pracht, F. Pultar,
   J. Seibert, P. Shushkov, S. Spicher, M. Stahn, M. Steiner, T. Strunk,
   J. Stückrath, T. Rose, and J. Unsleber
   
 * started run on 2026/08/31 at 22:22:06.511     
   ID    Z sym.   atoms
    1    6 C      1, 2, 4-8, 10, 12-15, 17, 18, 20-22, 25, 27-31
    2    8 O      3
    3    7 N      9, 11, 16, 19, 23, 24, 26, 62, 64, 66, 68, 70, 72, 74, 76,
                  78, 80, 82, 84, 86, 88, 90, 92, 94, 96, 98, 100, 102, 104,
                  106, 108, 110, 112, 114, 116, 118, 120, 122, 124, 126, 128,
                  130, 132
    4    1 H      32-60
    5    5 B      61, 63, 65, 67, 69, 71, 73, 75, 77, 79, 81, 83, 85, 87, 89,
                  91, 93, 95, 97, 99, 101, 103, 105, 107, 109, 111, 113, 115,
                  117, 119, 121, 123, 125, 127, 129, 131

           -------------------------------------------------
          |                Calculation Setup                |
           -------------------------------------------------

          program call               : "c:\Users\Andre\Proyectos doctorado\kras-pancreatic-gC3N4-ai\tools\xtb\xtb-6.7.1\bin\xtb.exe" "c:\Users\Andre\Proyectos doctorado\nano-qsar-ai-therapeutics\calculations\tnbc\Palbociclib\Palbociclib_B36N36_clean_complex.xyz" --gfn 2 --sp --chrg 0 --uhf 0 --etemp 300 --iterations 500 --norestart
          coordinate file            : c:\Users\Andre\Proyectos doctorado\nano-qsar-ai-therapeutics\calculations\tnbc\Palbociclib\Palbociclib_B36N36_clean_complex.xyz
          omp threads                :                    16


molecular fragmentation (1/2 indicates fragments):
111111111111111111111111111111111111111111111111111111111111222222222222
222222222222222222222222222222222222222222222222222222222222
# atoms in fragment 1/2:    60    72
 fragment masses (1/2) :      419.52      893.44
CMA distance (Bohr)    :  21.643
constraining FC (au)   :  0.0500

           -------------------------------------------------
          |                 G F N 2 - x T B                 |
           -------------------------------------------------

        Reference                      10.1021/acs.jctc.8b01176
      * Hamiltonian:
        H0-scaling (s, p, d)           1.850000    2.230000    2.230000
        zeta-weighting                 0.500000
      * Dispersion:
        s8                             2.700000
        a1                             0.520000
        a2                             5.000000
        s9                             5.000000
      * Repulsion:
        kExp                           1.500000    1.000000
        rExp                           1.000000
      * Coulomb:
        alpha                          2.000000
        third order                    shell-resolved
        anisotropic                    true
        a3                             3.000000
        a5                             4.000000
        cn-shift                       1.200000
        cn-exp                         4.000000
        max-rad                        5.000000


          ...................................................
          :                      SETUP                      :
          :.................................................:
          :  # basis functions                 441          :
          :  # atomic orbitals                 441          :
          :  # shells                          235          :
          :  # electrons                       450          :
          :  max. iterations                   500          :
          :  Hamiltonian                  GFN2-xTB          :
          :  restarted?                      false          :
          :  GBSA solvation                  false          :
          :  PC potential                    false          :
          :  electronic temp.          300.0000000     K    :
          :  accuracy                    1.0000000          :
          :  -> integral cutoff          0.2500000E+02      :
          :  -> integral neglect         0.1000000E-07      :
          :  -> SCF convergence          0.1000000E-05 Eh   :
          :  -> wf. convergence          0.1000000E-03 e    :
          :  Broyden damping             0.4000000          :
          :  net charge                          0          :
          :  unpaired electrons                  0          :
          ...................................................

 iter      E             dE          RMSdq      gap      omega  full diag
   1   -240.4414479 -0.240441E+03  0.105E+01    0.64       0.0  T
   2   -240.9195308 -0.478083E+00  0.642E+00    0.28       1.0  T
   3   -238.0413047  0.287823E+01  0.410E+00    0.15       1.0  T
   4   -239.7617967 -0.172049E+01  0.232E+00    0.25       1.0  T
   5   -239.7644767 -0.268002E-02  0.197E+00    0.09       1.0  T
   6   -241.3733164 -0.160884E+01  0.820E-01    0.80       1.0  T
   7   -241.4033605 -0.300441E-01  0.556E-01    0.79       1.0  T
   8   -241.3964929  0.686763E-02  0.439E-01    0.84       1.0  T
   9   -241.3947156  0.177730E-02  0.324E-01    0.70       1.0  T
  10   -241.4061829 -0.114673E-01  0.113E-01    0.71       1.0  T
  11   -241.4074059 -0.122302E-02  0.575E-02    0.70       1.0  T
  12   -241.4077829 -0.377007E-03  0.377E-02    0.69       1.0  T
  13   -241.4078510 -0.680928E-04  0.320E-02    0.70       1.0  T
  14   -241.4079112 -0.602201E-04  0.223E-02    0.70       1.0  T
  15   -241.4079404 -0.291361E-04  0.149E-02    0.70       1.0  T
  16   -241.4079534 -0.130102E-04  0.812E-03    0.71       1.1  T
  17   -241.4079588 -0.546988E-05  0.231E-03    0.71       3.8  T
  18   -241.4079594 -0.545769E-06  0.962E-04    0.71       9.1  T
  19   -241.4079595 -0.908875E-07  0.577E-04    0.71      15.1  T

   *** convergence criteria satisfied after 19 iterations ***

         #    Occupation            Energy/Eh            Energy/eV
      -------------------------------------------------------------
         1        2.0000           -0.6945027             -18.8984
       ...           ...                  ...                  ...
       219        2.0000           -0.3284009              -8.9362
       220        2.0000           -0.3257702              -8.8647
       221        2.0000           -0.3246091              -8.8331
       222        2.0000           -0.3218053              -8.7568
       223        2.0000           -0.3164914              -8.6122
       224        2.0000           -0.3144847              -8.5576
       225        2.0000           -0.3103636              -8.4454 (HOMO)
       226        0.0000           -0.2842992              -7.7362 (LUMO)
       227                         -0.2762667              -7.5176
       228                         -0.2755117              -7.4971
       229                         -0.2653829              -7.2214
       230                         -0.2527274              -6.8771
       ...                                ...                  ...
       441                          0.9826946              26.7405
      -------------------------------------------------------------
                  HL-Gap            0.0260643 Eh            0.7092 eV
             Fermi-level           -0.2973246 Eh           -8.0906 eV

 SCC (total)                   0 d,  0 h,  0 min,  1.177 sec
 SCC setup                      ...        0 min,  0.001 sec (  0.085%)
 Dispersion                     ...        0 min,  0.007 sec (  0.595%)
 classical contributions        ...        0 min,  0.000 sec (  0.000%)
 integral evaluation            ...        0 min,  0.017 sec (  1.444%)
 iterations                     ...        0 min,  1.104 sec ( 93.798%)
 molecular gradient             ...        0 min,  0.044 sec (  3.738%)
 printout                       ...        0 min,  0.004 sec (  0.340%)

         :::::::::::::::::::::::::::::::::::::::::::::::::::::
         ::                     SUMMARY                     ::
         :::::::::::::::::::::::::::::::::::::::::::::::::::::
         :: total energy            -238.837952341834 Eh    ::
         :: gradient norm              0.116160618387 Eh/a0 ::
         :: HOMO-LUMO gap              0.709247021619 eV    ::
         ::.................................................::
         :: SCC energy              -241.393666447075 Eh    ::
         :: -> isotropic ES            0.710767469877 Eh    ::
         :: -> anisotropic ES         -0.017301126674 Eh    ::
         :: -> anisotropic XC          0.120238421920 Eh    ::
         :: -> dispersion             -0.209792696859 Eh    ::
         :: repulsion energy           2.555714105240 Eh    ::
         :: add. restraining           0.000000000000 Eh    ::
         :: total charge               0.000000000000 e     ::
         :::::::::::::::::::::::::::::::::::::::::::::::::::::

           -------------------------------------------------
          |                Property Printout                |
           -------------------------------------------------

    * Orbital Energies and Occupations

         #    Occupation            Energy/Eh            Energy/eV
      -------------------------------------------------------------
         1        2.0000           -0.6945027             -18.8984
       ...           ...                  ...                  ...
       213        2.0000           -0.3410880              -9.2815
       214        2.0000           -0.3398122              -9.2468
       215        2.0000           -0.3357780              -9.1370
       216        2.0000           -0.3335537              -9.0765
       217        2.0000           -0.3314153              -9.0183
       218        2.0000           -0.3298895              -8.9767
       219        2.0000           -0.3284009              -8.9362
       220        2.0000           -0.3257702              -8.8647
       221        2.0000           -0.3246091              -8.8331
       222        2.0000           -0.3218053              -8.7568
       223        2.0000           -0.3164914              -8.6122
       224        2.0000           -0.3144847              -8.5576
       225        2.0000           -0.3103636              -8.4454 (HOMO)
       226        0.0000           -0.2842992              -7.7362 (LUMO)
       227                         -0.2762667              -7.5176
       228                         -0.2755117              -7.4971
       229                         -0.2653829              -7.2214
       230                         -0.2527274              -6.8771
       231                         -0.2464224              -6.7055
       232                         -0.2396625              -6.5215
       233                         -0.2388247              -6.4988
       234                         -0.2357382              -6.4148
       235                         -0.2317571              -6.3064
       236                         -0.2301052              -6.2615
       ...                                ...                  ...
       441                          0.9826946              26.7405
      -------------------------------------------------------------
                  HL-Gap            0.0260643 Eh            0.7092 eV
             Fermi-level           -0.2973246 Eh           -8.0906 eV

     #   Z          covCN         q      C6AA      α(0)
     1   6 C        3.752    -0.133    23.110     6.855
     2   6 C        2.812     0.233    23.128     7.879
     3   8 O        0.858    -0.381    21.304     6.188
     4   6 C        3.019     0.004    27.911     8.666
     5   6 C        3.066    -0.021    28.454     8.747
     6   6 C        3.751    -0.104    22.555     6.773
     7   6 C        3.075    -0.044    29.010     8.831
     8   6 C        2.889     0.072    26.396     8.423
     9   7 N        1.836    -0.260    27.611     7.787
    10   6 C        2.860     0.240    23.007     7.862
    11   7 N        2.701    -0.176    24.812     7.398
    12   6 C        2.861     0.152    24.705     8.147
    13   6 C        2.912    -0.062    29.554     8.914
    14   6 C        2.935    -0.036    28.893     8.816
    15   6 C        2.901     0.052    26.840     8.495
    16   7 N        2.728    -0.145    24.143     7.298
    17   6 C        3.744     0.004    20.583     6.472
    18   6 C        3.746     0.003    20.590     6.473
    19   7 N        2.672    -0.259    26.709     7.676
    20   6 C        3.746     0.004    20.583     6.471
    21   6 C        3.739     0.002    20.623     6.480
    22   6 C        2.894     0.028    27.373     8.578
    23   7 N        1.834    -0.243    27.181     7.726
    24   7 N        1.839    -0.322    29.207     8.009
    25   6 C        3.082     0.144    24.782     8.161
    26   7 N        2.829    -0.044    22.086     6.980
    27   6 C        3.814     0.036    19.962     6.359
    28   6 C        3.824    -0.058    21.593     6.613
    29   6 C        3.829    -0.058    21.592     6.612
    30   6 C        3.825    -0.060    21.635     6.619
    31   6 C        3.816    -0.062    21.671     6.626
    32   1 H        0.924     0.051     2.305     2.374
    33   1 H        0.924     0.072     2.062     2.246
    34   1 H        0.924     0.068     2.109     2.271
    35   1 H        0.924     0.048     2.348     2.396
    36   1 H        0.924     0.049     2.327     2.385
    37   1 H        0.924     0.045     2.388     2.417
    38   1 H        0.925     0.045     2.384     2.415
    39   1 H        0.860     0.198     1.118     1.656
    40   1 H        0.925     0.041     2.438     2.442
    41   1 H        0.925     0.036     2.498     2.472
    42   1 H        0.923     0.017     2.784     2.609
    43   1 H        0.924     0.042     2.418     2.432
    44   1 H        0.924     0.037     2.485     2.465
    45   1 H        0.924     0.047     2.355     2.400
    46   1 H        0.860     0.139     1.479     1.905
    47   1 H        0.924     0.038     2.471     2.458
    48   1 H        0.924     0.048     2.349     2.397
    49   1 H        0.924     0.042     2.425     2.435
    50   1 H        0.924     0.019     2.751     2.594
    51   1 H        0.925     0.038     2.476     2.461
    52   1 H        0.923     0.066     2.130     2.282
    53   1 H        0.924     0.041     2.442     2.444
    54   1 H        0.924     0.029     2.601     2.522
    55   1 H        0.924     0.035     2.520     2.483
    56   1 H        0.924     0.035     2.511     2.478
    57   1 H        0.924     0.031     2.578     2.511
    58   1 H        0.924     0.053     2.277     2.360
    59   1 H        0.924     0.053     2.279     2.361
    60   1 H        0.924     0.031     2.575     2.509
    61   5 B        2.781     0.076    20.194     7.513
    62   7 N        2.774    -0.228    25.976     7.570
    63   5 B        2.788     0.092    19.935     7.464
    64   7 N        2.524    -0.314    28.124     7.876
    65   5 B        2.779     0.083    20.083     7.493
    66   7 N        2.655    -0.270    26.987     7.715
    67   5 B        2.849     0.241    17.665     7.018
    68   7 N        2.529    -0.272    27.080     7.728
    69   5 B        3.195     0.150    18.927     7.256
    70   7 N        2.979    -0.110    23.395     7.184
    71   5 B        2.644     0.373    16.320     6.813
    72   7 N        2.669    -0.212    25.629     7.519
    73   5 B        3.181     0.022    20.992     7.641
    74   7 N        2.888    -0.223    25.849     7.551
    75   5 B        3.009     0.209    18.074     7.092
    76   7 N        2.660    -0.163    24.529     7.356
    77   5 B        2.906     0.320    16.610     6.801
    78   7 N        3.156    -0.082    22.835     7.097
    79   5 B        2.779     0.094    19.910     7.461
    80   7 N        3.037    -0.127    23.743     7.237
    81   5 B        2.758     0.090    20.005     7.484
    82   7 N        2.634    -0.309    27.958     7.853
    83   5 B        3.040     0.226    17.828     7.043
    84   7 N        2.981    -0.003    21.308     6.856
    85   5 B        2.582     0.326    17.306     7.087
    86   7 N        2.596    -0.360    29.285     8.037
    87   5 B        3.287     0.340    16.337     6.741
    88   7 N        2.784    -0.254    26.586     7.658
    89   5 B        2.559     0.320    17.596     7.185
    90   7 N        2.579    -0.368    29.515     8.068
    91   5 B        2.530     0.301    18.225     7.377
    92   7 N        2.665    -0.205    25.456     7.493
    93   5 B        2.698     0.196    18.508     7.220
    94   7 N        2.844    -0.167    24.607     7.367
    95   5 B        2.758     0.082    20.130     7.507
    96   7 N        2.672    -0.174    24.768     7.391
    97   5 B        2.877     0.110    19.574     7.385
    98   7 N        2.663    -0.144    24.127     7.295
    99   5 B        2.594     0.312    17.390     7.086
   100   7 N        2.519    -0.354    29.165     8.020
   101   5 B        2.684     0.184    18.721     7.269
   102   7 N        3.008    -0.129    23.791     7.244
   103   5 B        2.677     0.210    18.358     7.202
   104   7 N        2.716    -0.249    26.469     7.641
   105   5 B        2.647     0.164    19.166     7.380
   106   7 N        2.825    -0.206    25.478     7.497
   107   5 B        3.321     0.230    17.780     7.031
   108   7 N        2.531    -0.286    27.404     7.774
   109   5 B        2.950     0.036    20.772     7.604
   110   7 N        2.783    -0.185    24.997     7.426
   111   5 B        2.796     0.085    20.039     7.482
   112   7 N        2.673    -0.155    24.365     7.331
   113   5 B        3.021     0.211    18.052     7.087
   114   7 N        3.272     0.015    20.981     6.803
   115   5 B        2.869     0.305    16.806     6.843
   116   7 N        3.154    -0.115    23.503     7.200
   117   5 B        3.263     0.320    16.584     6.792
   118   7 N        2.833    -0.061    22.410     7.031
   119   5 B        3.303     0.231    17.764     7.029
   120   7 N        2.656    -0.183    24.966     7.421
   121   5 B        2.838     0.112    19.566     7.387
   122   7 N        2.834    -0.224    25.882     7.556
   123   5 B        2.863     0.253    17.504     6.985
   124   7 N        2.654    -0.230    26.038     7.579
   125   5 B        3.011     0.114    19.486     7.363
   126   7 N        3.153    -0.086    22.908     7.109
   127   5 B        2.674     0.202    18.485     7.229
   128   7 N        2.696    -0.231    26.052     7.581
   129   5 B        2.585     0.369    16.722     6.962
   130   7 N        2.881    -0.180    24.892     7.410
   131   5 B        2.825     0.106    19.672     7.409
   132   7 N        2.827    -0.253    26.555     7.654

 Mol. C6AA /au·bohr⁶  :     282830.899875
 Mol. C8AA /au·bohr⁸  :    7666587.518601
 Mol. α(0) /au        :        830.958002


Wiberg/Mayer (AO) data.
largest (>0.10) Wiberg bond orders for each atom

 ---------------------------------------------------------------------------
     #   Z sym  total        # sym  WBO       # sym  WBO       # sym  WBO
 ---------------------------------------------------------------------------
     1   6 C    3.993 --     2 C    0.999    32 H    0.978    34 H    0.977
                            33 H    0.953
     2   6 C    3.931 --     3 O    1.782     4 C    1.065     1 C    0.999
     3   8 O    2.023 --     2 C    1.782
     4   6 C    3.941 --     5 C    1.479    26 N    1.137     2 C    1.065
     5   6 C    3.978 --     4 C    1.479     7 C    1.214     6 C    1.034
     6   6 C    3.996 --     5 C    1.034    35 H    0.982    37 H    0.974
                            36 H    0.966
     7   6 C    3.981 --     8 C    1.334    25 C    1.223     5 C    1.214
     8   6 C    3.967 --     9 N    1.475     7 C    1.334    38 H    0.962
     9   7 N    3.044 --     8 C    1.475    10 C    1.312
    10   6 C    3.954 --    24 N    1.360     9 N    1.312    11 N    1.138
    11   7 N    3.378 --    10 C    1.138    12 C    1.064    39 H    0.920
    12   6 C    3.964 --    23 N    1.386    13 C    1.346    11 N    1.064
    13   6 C    3.985 --    14 C    1.477    12 C    1.346    40 H    0.968
                            22 C    0.109
    14   6 C    3.990 --    13 C    1.477    15 C    1.344    41 H    0.966
    15   6 C    3.969 --    22 C    1.366    14 C    1.344    16 N    1.097
    16   7 N    3.265 --    15 C    1.097    21 C    0.993    17 C    0.978
    17   6 C    3.981 --    18 C    0.992    16 N    0.978    42 H    0.970
                            43 H    0.970
    18   6 C    3.986 --    19 N    1.015    17 C    0.992    45 H    0.974
                            44 H    0.974
    19   7 N    3.063 --    18 C    1.015    20 C    1.014    46 H    0.957
    20   6 C    3.986 --    19 N    1.014    21 C    0.992    48 H    0.974
                            47 H    0.974
    21   6 C    3.983 --    16 N    0.993    20 C    0.992    49 H    0.972
                            50 H    0.968
    22   6 C    3.980 --    23 N    1.417    15 C    1.366    51 H    0.962
                            13 C    0.109
    23   7 N    3.046 --    22 C    1.417    12 C    1.386
    24   7 N    3.015 --    10 C    1.360    25 C    1.324
    25   6 C    3.965 --    24 N    1.324     7 C    1.223    26 N    1.199
    26   7 N    3.592 --    25 C    1.199     4 C    1.137    27 C    0.975
    27   6 C    3.959 --    28 C    0.984    31 C    0.978    26 N    0.975
                            52 H    0.961
    28   6 C    3.995 --    29 C    1.006    27 C    0.984    54 H    0.980
                            53 H    0.975
    29   6 C    3.996 --    30 C    1.007    28 C    1.006    56 H    0.980
                            55 H    0.979
    30   6 C    3.995 --    29 C    1.007    31 C    1.005    57 H    0.981
                            58 H    0.978
    31   6 C    3.993 --    30 C    1.005    60 H    0.982    27 C    0.978
                            59 H    0.977
    32   1 H    0.997 --     1 C    0.978
    33   1 H    0.994 --     1 C    0.953
    34   1 H    0.995 --     1 C    0.977
    35   1 H    0.997 --     6 C    0.982
    36   1 H    0.997 --     6 C    0.966
    37   1 H    0.997 --     6 C    0.974
    38   1 H    0.997 --     8 C    0.962
    39   1 H    0.960 --    11 N    0.920
    40   1 H    0.998 --    13 C    0.968
    41   1 H    0.998 --    14 C    0.966
    42   1 H    0.999 --    17 C    0.970
    43   1 H    0.998 --    17 C    0.970
    44   1 H    0.998 --    18 C    0.974
    45   1 H    0.998 --    18 C    0.974
    46   1 H    0.981 --    19 N    0.957
    47   1 H    0.998 --    20 C    0.974
    48   1 H    0.998 --    20 C    0.974
    49   1 H    0.998 --    21 C    0.972
    50   1 H    0.999 --    21 C    0.968
    51   1 H    0.998 --    22 C    0.962
    52   1 H    0.995 --    27 C    0.961
    53   1 H    0.998 --    28 C    0.975
    54   1 H    0.999 --    28 C    0.980
    55   1 H    0.998 --    29 C    0.979
    56   1 H    0.999 --    29 C    0.980
    57   1 H    0.998 --    30 C    0.981
    58   1 H    0.997 --    30 C    0.978
    59   1 H    0.997 --    31 C    0.977
    60   1 H    0.999 --    31 C    0.982
    61   5 B    3.477 --   130 N    1.282   113 B    1.000   107 B    0.970
    62   7 N    3.398 --   107 B    1.143   120 N    1.007   119 B    1.001
    63   5 B    3.465 --   108 N    1.276   131 B    0.978   119 B    0.959
    64   7 N    3.530 --   123 B    1.152   121 B    1.150    91 B    1.018
    65   5 B    3.464 --    98 N    1.241   127 B    0.995   101 B    0.990
    66   7 N    3.264 --    87 B    1.200   129 B    0.968   124 N    0.888
    67   5 B    3.407 --   100 N    1.177    74 N    1.033    83 B    0.963
    68   7 N    3.568 --    81 B    1.277    69 B    1.158   125 B    0.973
    69   5 B    3.393 --    68 N    1.158   111 B    0.932   109 B    0.640
                            73 B    0.294
    70   7 N    3.323 --    75 B    1.113   114 N    1.043   126 N    0.945
    71   5 B    3.433 --    72 N    1.187    82 N    1.127   110 N    0.962
    72   7 N    3.446 --    71 B    1.187    99 B    1.086   112 N    0.967
    73   5 B    3.456 --   109 B    1.284   125 B    1.004   123 B    0.626
                            69 B    0.294
    74   7 N    3.428 --    77 B    1.233    67 B    1.033    88 N    0.929
    75   5 B    3.390 --    70 N    1.113    94 N    1.039   121 B    1.005
    76   7 N    3.510 --    79 B    1.206    99 B    1.123    96 N    0.999
    77   5 B    3.514 --    74 N    1.233   102 N    1.072   122 N    1.001
    78   7 N    3.349 --   127 B    1.142   130 N    0.990    80 N    0.982
    79   5 B    3.414 --    76 N    1.206    97 B    1.008   111 B    0.926
    80   7 N    3.327 --   115 B    1.136    78 N    0.982    84 N    0.973
    81   5 B    3.464 --    68 N    1.277    95 B    0.978   105 B    0.932
    82   7 N    3.218 --    71 B    1.127    85 B    1.067   110 N    0.792
    83   5 B    3.368 --    96 N    1.152    88 N    0.991    67 B    0.963
    84   7 N    3.096 --   102 N    1.013    80 N    0.973   128 N    0.938
    85   5 B    3.511 --   122 N    1.246    82 N    1.067   100 N    0.989
    86   7 N    3.434 --    91 B    1.201   119 B    1.062   107 B    0.926
    87   5 B    3.481 --    66 N    1.200   104 N    1.042    90 N    0.981
    88   7 N    3.282 --    93 B    1.169    83 B    0.991    74 N    0.929
    89   5 B    3.524 --   124 N    1.211   128 N    1.120   116 N    1.033
    90   7 N    3.431 --   103 B    1.220   117 B    0.993    87 B    0.981
    91   5 B    3.519 --    86 N    1.201   132 N    1.099    64 N    1.018
    92   7 N    3.442 --   129 B    1.261   103 B    0.997   118 N    0.990
    93   5 B    3.445 --    88 N    1.169   120 N    1.123   131 B    0.923
    94   7 N    3.470 --    95 B    1.260    75 B    1.039   126 N    0.984
    95   5 B    3.420 --    94 N    1.260    81 B    0.978   103 B    0.959
    96   7 N    3.511 --   131 B    1.171    83 B    1.152    76 N    0.999
    97   5 B    3.347 --   109 B    1.009    79 B    1.008   108 N    0.963
    98   7 N    3.509 --    65 B    1.241   101 B    1.093   104 N    1.035
    99   5 B    3.515 --    76 N    1.123   100 N    1.104    72 N    1.086
   100   7 N    3.477 --    67 B    1.177    99 B    1.104    85 B    0.989
   101   5 B    3.464 --   106 N    1.179    98 N    1.093    65 B    0.990
   102   7 N    3.262 --    77 B    1.072    84 N    1.013   116 N    0.975
   103   5 B    3.391 --    90 N    1.220    92 N    0.997    95 B    0.959
   104   7 N    3.372 --    87 B    1.042    98 N    1.035   117 B    0.985
   105   5 B    3.454 --   118 N    1.191   112 N    1.079    81 B    0.932
   106   7 N    3.407 --   101 B    1.179   113 B    1.072   114 N    0.959
   107   5 B    3.365 --    62 N    1.143    61 B    0.970    86 N    0.926
                           119 B    0.127
   108   7 N    3.561 --    63 B    1.276   123 B    1.105    97 B    0.963
   109   5 B    3.367 --    73 B    1.284    97 B    1.009    69 B    0.640
                           123 B    0.186
   110   7 N    2.986 --   118 N    1.045    71 B    0.962    82 N    0.792
   111   5 B    3.455 --   112 N    1.266    69 B    0.932    79 B    0.926
   112   7 N    3.481 --   111 B    1.266   105 B    1.079    72 N    0.967
   113   5 B    3.443 --   132 N    1.131   106 N    1.072    61 B    1.000
   114   7 N    3.186 --    70 N    1.043   106 N    0.959   132 N    0.950
   115   5 B    3.523 --   120 N    1.163    80 N    1.136   130 N    0.994
   116   7 N    3.217 --    89 B    1.033   122 N    0.984   102 N    0.975
   117   5 B    3.507 --   126 N    1.265    90 N    0.993   104 N    0.985
   118   7 N    3.440 --   105 B    1.191   110 N    1.045    92 N    0.990
   119   5 B    3.327 --    86 N    1.062    62 N    1.001    63 B    0.959
                           107 B    0.127
   120   7 N    3.491 --   115 B    1.163    93 B    1.123    62 N    1.007
   121   5 B    3.385 --    64 N    1.150    75 B    1.005   125 B    1.002
   122   7 N    3.446 --    85 B    1.246    77 B    1.001   116 N    0.984
   123   5 B    3.444 --    64 N    1.152   108 N    1.105    73 B    0.626
                           109 B    0.186   125 B    0.120
   124   7 N    3.332 --    89 B    1.211   129 B    1.036    66 N    0.888
   125   5 B    3.333 --    73 B    1.004   121 B    1.002    68 N    0.973
                           123 B    0.120
   126   7 N    3.440 --   117 B    1.265    94 N    0.984    70 N    0.945
   127   5 B    3.446 --    78 N    1.142   128 N    1.117    65 B    0.995
   128   7 N    3.393 --    89 B    1.120   127 B    1.117    84 N    0.938
   129   5 B    3.439 --    92 N    1.261   124 N    1.036    66 N    0.968
   130   7 N    3.475 --    61 B    1.282   115 B    0.994    78 N    0.990
   131   5 B    3.360 --    96 N    1.171    63 B    0.978    93 B    0.923
   132   7 N    3.418 --   113 B    1.131    91 B    1.099   114 N    0.950
 ---------------------------------------------------------------------------

Topologies differ in total number of bonds
Writing topology from bond orders to xtbtopo.mol

molecular dipole:
                 x           y           z       tot (Debye)
 q only:        2.836       1.590      -4.386
   full:        0.830       0.739      -1.904       5.605
molecular quadrupole (traceless):
                xx          xy          yy          xz          yz          zz
 q only:      -10.665       8.179       7.135      34.526     -35.924       3.530
  q+dip:      -21.824      15.113      16.985      21.671     -31.104       4.839
   full:      -18.689      14.911      18.163      26.335     -28.393       0.526


           -------------------------------------------------
          | TOTAL ENERGY             -238.837952341834 Eh   |
          | GRADIENT NORM               0.116160618387 Eh/α |
          | HOMO-LUMO GAP               0.709247021619 eV   |
           -------------------------------------------------

------------------------------------------------------------------------
 * finished run on 2026/08/31 at 22:22:07.758     
------------------------------------------------------------------------
 total:
 * wall-time:     0 d,  0 h,  0 min,  1.246 sec
 *  cpu-time:     0 d,  0 h,  0 min,  9.656 sec
 * ratio c/w:     7.750 speedup
 SCF:
 * wall-time:     0 d,  0 h,  0 min,  1.179 sec
 *  cpu-time:     0 d,  0 h,  0 min,  9.109 sec
 * ratio c/w:     7.726 speedup

normal termination of xtb
