      -----------------------------------------------------------      
     |                   =====================                   |     
     |                           x T B                           |     
     |                   =====================                   |     
     |                         S. Grimme                         |     
     |          Mulliken Center for Theoretical Chemistry        |     
     |                    University of Bonn                     |     
      -----------------------------------------------------------      

   * xtb version 6.7.1pre (5071a88) compiled by 'Marcel@Raven' on 2024-07-23

   xtb is free software: you can redistribute it and/or modify it under
   the terms of the GNU Lesser General Public License as published by
   the Free Software Foundation, either version 3 of the License, or
   (at your option) any later version.
   
   xtb is distributed in the hope that it will be useful,
   but WITHOUT ANY WARRANTY; without even the implied warranty of
   MERCHANTABILITY or FITNESS FOR A PARTICULAR PURPOSE.  See the
   GNU Lesser General Public License for more details.
   
   Cite this work as:
   * C. Bannwarth, E. Caldeweyher, S. Ehlert, A. Hansen, P. Pracht,
     J. Seibert, S. Spicher, S. Grimme, WIREs Comput. Mol. Sci., 2020, 11,
     e01493. DOI: 10.1002/wcms.1493
   
   for GFN2-xTB:
   * C. Bannwarth, S. Ehlert and S. Grimme., J. Chem. Theory Comput., 2019,
     15, 1652-1671. DOI: 10.1021/acs.jctc.8b01176
   for GFN1-xTB:
   * S. Grimme, C. Bannwarth, P. Shushkov, J. Chem. Theory Comput., 2017,
     13, 1989-2009. DOI: 10.1021/acs.jctc.7b00118
   for GFN0-xTB:
   * P. Pracht, E. Caldeweyher, S. Ehlert, S. Grimme, ChemRxiv, 2019, preprint.
     DOI: 10.26434/chemrxiv.8326202.v1
   for GFN-FF:
   * S. Spicher and S. Grimme, Angew. Chem. Int. Ed., 2020, 59, 15665-15673.
     DOI: 10.1002/anie.202004239
   
   for ALPB and GBSA implicit solvation:
   * S. Ehlert, M. Stahn, S. Spicher, S. Grimme, J. Chem. Theory Comput.,
     2021, 17, 4250-4261. DOI: 10.1021/acs.jctc.1c00471
   
   for ddCOSMO and CPCM-X implicit solvation:
   * M. Stahn, S. Ehlert, S. Grimme, J. Phys. Chem. A,
     2023, XX, XXXX-XXXX. DOI: 10.1021/acs.jpca.3c04382
   
   for DFT-D4:
   * E. Caldeweyher, C. Bannwarth and S. Grimme, J. Chem. Phys., 2017,
     147, 034112. DOI: 10.1063/1.4993215
   * E. Caldeweyher, S. Ehlert, A. Hansen, H. Neugebauer, S. Spicher,
     C. Bannwarth and S. Grimme, J. Chem. Phys., 2019, 150, 154122.
     DOI: 10.1063/1.5090222
   * E. Caldeweyher, J.-M. Mewes, S. Ehlert and S. Grimme, Phys. Chem. Chem. Phys.
     2020, 22, 8499-8512. DOI: 10.1039/D0CP00502A
   
   for sTDA-xTB:
   * S. Grimme and C. Bannwarth, J. Chem. Phys., 2016, 145, 054103.
     DOI: 10.1063/1.4959605
   
   in the mass-spec context:
   * V. Asgeirsson, C. Bauer and S. Grimme, Chem. Sci., 2017, 8, 4879.
     DOI: 10.1039/c7sc00601b
   * J. Koopman and S. Grimme, ACS Omega 2019, 4, 12, 15120-15133.
     DOI: 10.1021/acsomega.9b02011
   
   for metadynamics refer to:
   * S. Grimme, J. Chem. Theory Comput., 2019, 155, 2847-2862
     DOI: 10.1021/acs.jctc.9b00143
   
   for SPH calculations refer to:
   * S. Spicher and S. Grimme, J. Chem. Theory Comput., 2021, 17, 1701-1714
     DOI: 10.1021/acs.jctc.0c01306
   
   for ONIOM refer to:
   * C. Plett, A. Katbashev, S. Ehlert, S. Grimme, M. Bursch,
     Phys. Chem. Chem. Phys., 2023, 25, 17860-17868. DOI: 10.1039/D3CP02178E
   
   for DIPRO refer to:
   * J. Kohn, N. Gildemeister, S. Grimme, D. Fazzi, A. Hansen,
     J. Chem. Phys., 2023, just accepted.
   
   for PTB refer to:
   * S. Grimme, M. Mueller, A. Hansen, J. Chem. Phys., 2023, 158, 124111.
     DOI: 10.1063/5.0137838
   
   with help from (in alphabetical order)
   P. Atkinson, C. Bannwarth, F. Bohle, G. Brandenburg, E. Caldeweyher
   M. Checinski, S. Dohm, S. Ehlert, S. Ehrlich, I. Gerasimov, C. Hölzer
   A. Katbashev, J. Kohn, J. Koopman, C. Lavigne, S. Lehtola, F. März, M. Müller,
   F. Musil, H. Neugebauer, J. Pisarek, C. Plett, P. Pracht, F. Pultar,
   J. Seibert, P. Shushkov, S. Spicher, M. Stahn, M. Steiner, T. Strunk,
   J. Stückrath, T. Rose, and J. Unsleber
   
 * started run on 2026/08/31 at 21:09:00.563     
   ID    Z sym.   atoms
    1    7 N      1, 14, 20, 51, 53, 55, 57, 59, 61, 63, 65, 67, 69, 71, 73,
                  75, 77, 79, 81, 83, 85, 87, 89, 91, 93, 95, 97, 99, 101,
                  103, 105, 107, 109, 111, 113, 115, 117, 119, 121
    2    6 C      2, 4-13, 15-19, 21-26
    3    8 O      3
    4    1 H      27-49
    5    5 B      50, 52, 54, 56, 58, 60, 62, 64, 66, 68, 70, 72, 74, 76, 78,
                  80, 82, 84, 86, 88, 90, 92, 94, 96, 98, 100, 102, 104, 106,
                  108, 110, 112, 114, 116, 118, 120

           -------------------------------------------------
          |                Calculation Setup                |
           -------------------------------------------------

          program call               : "c:\Users\Andre\Proyectos doctorado\kras-pancreatic-gC3N4-ai\tools\xtb\xtb-6.7.1\bin\xtb.exe" "c:\Users\Andre\Proyectos doctorado\nano-qsar-ai-therapeutics\calculations\tnbc\Niraparib\Niraparib_B36N36_relaxed_complex.xyz" --gfn 2 --opt normal --chrg 0 --uhf 0 --iterations 50 --norestart
          coordinate file            : c:\Users\Andre\Proyectos doctorado\nano-qsar-ai-therapeutics\calculations\tnbc\Niraparib\Niraparib_B36N36_relaxed_complex.xyz
          omp threads                :                    16


molecular fragmentation (1/2 indicates fragments):
111111111111111111111111111111111111111111111111122222222222222222222222
2222222222222222222222222222222222222222222222222
# atoms in fragment 1/2:    49    72
 fragment masses (1/2) :      345.44      893.44
CMA distance (Bohr)    :  15.823
constraining FC (au)   :  0.0500

           -------------------------------------------------
          |                 G F N 2 - x T B                 |
           -------------------------------------------------

        Reference                      10.1021/acs.jctc.8b01176
      * Hamiltonian:
        H0-scaling (s, p, d)           1.850000    2.230000    2.230000
        zeta-weighting                 0.500000
      * Dispersion:
        s8                             2.700000
        a1                             0.520000
        a2                             5.000000
        s9                             5.000000
      * Repulsion:
        kExp                           1.500000    1.000000
        rExp                           1.000000
      * Coulomb:
        alpha                          2.000000
        third order                    shell-resolved
        anisotropic                    true
        a3                             3.000000
        a5                             4.000000
        cn-shift                       1.200000
        cn-exp                         4.000000
        max-rad                        5.000000


          ...................................................
          :                      SETUP                      :
          :.................................................:
          :  # basis functions                 415          :
          :  # atomic orbitals                 415          :
          :  # shells                          219          :
          :  # electrons                       420          :
          :  max. iterations                    50          :
          :  Hamiltonian                  GFN2-xTB          :
          :  restarted?                      false          :
          :  GBSA solvation                  false          :
          :  PC potential                    false          :
          :  electronic temp.          300.0000000     K    :
          :  accuracy                    1.0000000          :
          :  -> integral cutoff          0.2500000E+02      :
          :  -> integral neglect         0.1000000E-07      :
          :  -> SCF convergence          0.1000000E-05 Eh   :
          :  -> wf. convergence          0.1000000E-03 e    :
          :  Broyden damping             0.4000000          :
          :  net charge                          0          :
          :  unpaired electrons                  0          :
          ...................................................

 iter      E             dE          RMSdq      gap      omega  full diag
   1   -223.4197859 -0.223420E+03  0.111E+01    0.68       0.0  T
   2   -223.8759139 -0.456128E+00  0.672E+00    0.27       1.0  T
   3   -220.9236743  0.295224E+01  0.431E+00    0.14       1.0  T
   4   -222.8184212 -0.189475E+01  0.239E+00    0.18       1.0  T
   5   -222.6197480  0.198673E+00  0.236E+00    0.42       1.0  T
   6   -224.3176658 -0.169792E+01  0.894E-01    0.78       1.0  T
   7   -224.3548359 -0.371701E-01  0.579E-01    0.74       1.0  T
   8   -224.3502161  0.461982E-02  0.472E-01    0.80       1.0  T
   9   -224.3448811  0.533496E-02  0.318E-01    0.63       1.0  T
  10   -224.3552951 -0.104140E-01  0.134E-01    0.72       1.0  T
  11   -224.3578053 -0.251014E-02  0.450E-02    0.69       1.0  T
  12   -224.3579742 -0.168888E-03  0.312E-02    0.69       1.0  T
  13   -224.3580214 -0.471830E-04  0.263E-02    0.69       1.0  T
  14   -224.3580557 -0.343873E-04  0.176E-02    0.69       1.0  T
  15   -224.3580668 -0.110663E-04  0.118E-02    0.69       1.0  T
  16   -224.3580729 -0.606110E-05  0.644E-03    0.69       1.4  T
  17   -224.3580755 -0.267424E-05  0.290E-03    0.69       3.1  T
  18   -224.3580761 -0.587782E-06  0.147E-03    0.69       6.2  T
  19   -224.3580763 -0.215686E-06  0.731E-04    0.69      12.4  T
  20   -224.3580764 -0.577780E-07  0.429E-04    0.69      21.2  T

   *** convergence criteria satisfied after 20 iterations ***

         #    Occupation            Energy/Eh            Energy/eV
      -------------------------------------------------------------
         1        2.0000           -0.6839458             -18.6111
       ...           ...                  ...                  ...
       204        2.0000           -0.3233968              -8.8001
       205        2.0000           -0.3206436              -8.7252
       206        2.0000           -0.3191573              -8.6847
       207        2.0000           -0.3162142              -8.6046
       208        2.0000           -0.3108401              -8.4584
       209        2.0000           -0.3093056              -8.4166
       210        2.0000           -0.3049488              -8.2981 (HOMO)
       211        0.0000           -0.2794671              -7.6047 (LUMO)
       212                         -0.2709770              -7.3737
       213                         -0.2700096              -7.3473
       214                         -0.2604767              -7.0879
       215                         -0.2526950              -6.8762
       ...                                ...                  ...
       415                          0.9874896              26.8710
      -------------------------------------------------------------
                  HL-Gap            0.0254817 Eh            0.6934 eV
             Fermi-level           -0.2922022 Eh           -7.9512 eV

 SCC (total)                   0 d,  0 h,  0 min,  0.617 sec
 SCC setup                      ...        0 min,  0.001 sec (  0.162%)
 Dispersion                     ...        0 min,  0.003 sec (  0.486%)
 classical contributions        ...        0 min,  0.000 sec (  0.000%)
 integral evaluation            ...        0 min,  0.012 sec (  1.945%)
 iterations                     ...        0 min,  0.566 sec ( 91.734%)
 molecular gradient             ...        0 min,  0.033 sec (  5.348%)
 printout                       ...        0 min,  0.002 sec (  0.324%)

         :::::::::::::::::::::::::::::::::::::::::::::::::::::
         ::                     SUMMARY                     ::
         :::::::::::::::::::::::::::::::::::::::::::::::::::::
         :: total energy            -221.886858452819 Eh    ::
         :: gradient norm              0.099539702130 Eh/a0 ::
         :: HOMO-LUMO gap              0.693392211517 eV    ::
         ::.................................................::
         :: SCC energy              -224.342952472826 Eh    ::
         :: -> isotropic ES            0.686175688916 Eh    ::
         :: -> anisotropic ES         -0.019944008141 Eh    ::
         :: -> anisotropic XC          0.108535972060 Eh    ::
         :: -> dispersion             -0.204078230258 Eh    ::
         :: repulsion energy           2.456094020007 Eh    ::
         :: add. restraining           0.000000000000 Eh    ::
         :: total charge               0.000000000001 e     ::
         :::::::::::::::::::::::::::::::::::::::::::::::::::::

      ----------------------------------------------------------- 
     |                   =====================                   |
     |                        A N C O P T                        |
     |                   =====================                   |
     |               Approximate Normal Coordinate               |
     |                Rational Function Optimizer                |
      ----------------------------------------------------------- 
      ----------------------------------------------------------- 
     |                   =====================                   |
     |                        A N C O P T                        |
     |                   =====================                   |
     |               Approximate Normal Coordinate               |
     |                Rational Function Optimizer                |
      ----------------------------------------------------------- 

          ...................................................
          :                      SETUP                      :
          :.................................................:
          :   optimization level            normal          :
          :   max. optcycles                   363          :
          :   ANC micro-cycles                  20          :
          :   degrees of freedom               357          :
          :.................................................:
          :   RF solver                   davidson          :
          :   write xtbopt.log                true          :
          :   linear?                        false          :
          :   energy convergence         0.5000000E-05 Eh   :
          :   grad. convergence          0.1000000E-02 Eh/α :
          :   maxmium RF displ.          1.0000000          :
          :   Hlow (freq-cutoff)         0.1000000E-01      :
          :   Hmax (freq-cutoff)         5.0000000          :
          :   S6 in model hess.         20.0000000          :
          ...................................................

generating ANC from exact Hessian ...
Using Lindh-Hessian (1995)
 Shifting diagonal of input Hessian by   1.008409747970683E-002
 Lowest  eigenvalues of input Hessian
    0.010000    0.010014    0.010021    0.000000    0.000000    0.000000
    0.000000    0.000000    0.000000    0.010156    0.010183    0.010237
    0.010296    0.010408    0.010588    0.010771    0.011384    0.011995
 Highest eigenvalues
    2.087504    2.154602    2.164374    2.260732    2.301323    2.314996
 

........................................................................
.............................. CYCLE    1 ..............................
........................................................................

 iter      E             dE          RMSdq      gap      omega  full diag
   1   -224.3580764 -0.224358E+03  0.294E-04    0.69       0.0  T
   2   -224.3580764  0.151971E-08  0.323E-04    0.69      28.2  T
   3   -224.3580764 -0.108947E-07  0.167E-04    0.69      54.5  T
     SCC iter.                  ...        0 min,  0.086 sec
     gradient                   ...        0 min,  0.028 sec
 * total energy  :  -221.8868585 Eh     change       -0.2334460E-07 Eh
   gradient norm :     0.0995370 Eh/α   predicted     0.0000000E+00 (-100.00%)
   displ. norm   :     0.2981574 α      lambda       -0.1217494E-01
   maximum displ.:     0.0951675 α      in ANC's #19, #50, #14, ...

........................................................................
.............................. CYCLE    2 ..............................
........................................................................

 iter      E             dE          RMSdq      gap      omega  full diag
   1   -224.3972162 -0.224397E+03  0.102E-01    0.70       0.0  T
   2   -224.3972987 -0.824845E-04  0.634E-02    0.70       1.0  T
   3   -224.3972538  0.448717E-04  0.273E-02    0.69       1.0  T
   4   -224.3973175 -0.636864E-04  0.764E-03    0.70       1.2  T
   5   -224.3973241 -0.658490E-05  0.341E-03    0.69       2.7  T
   6   -224.3973254 -0.131090E-05  0.186E-03    0.70       4.9  T
   7   -224.3973258 -0.368957E-06  0.962E-04    0.70       9.4  T
   8   -224.3973259 -0.620006E-07  0.562E-04    0.70      16.2  T
     SCC iter.                  ...        0 min,  0.207 sec
     gradient                   ...        0 min,  0.031 sec
 * total energy  :  -221.8950561 Eh     change       -0.8197663E-02 Eh
   gradient norm :     0.0412212 Eh/α   predicted    -0.6634884E-02 ( -19.06%)
   displ. norm   :     0.2958015 α      lambda       -0.3563625E-02
   maximum displ.:     0.1259052 α      in ANC's #19, #14, #17, ...

........................................................................
.............................. CYCLE    3 ..............................
........................................................................

 iter      E             dE          RMSdq      gap      omega  full diag
   1   -224.4181760 -0.224418E+03  0.588E-02    0.70       0.0  T
   2   -224.4182191 -0.431728E-04  0.378E-02    0.70       1.0  T
   3   -224.4182094  0.969155E-05  0.181E-02    0.70       1.0  T
   4   -224.4182279 -0.185106E-04  0.592E-03    0.70       1.5  T
   5   -224.4182315 -0.354857E-05  0.315E-03    0.70       2.9  T
   6   -224.4182331 -0.160392E-05  0.140E-03    0.70       6.5  T
   7   -224.4182333 -0.245173E-06  0.637E-04    0.70      14.3  T
   8   -224.4182334 -0.164917E-07  0.433E-04    0.70      21.0  T
     SCC iter.                  ...        0 min,  0.214 sec
     gradient                   ...        0 min,  0.028 sec
 * total energy  :  -221.8971215 Eh     change       -0.2065337E-02 Eh
   gradient norm :     0.0094781 Eh/α   predicted    -0.1940137E-02 (  -6.06%)
   displ. norm   :     0.2961284 α      lambda        0.1786753E-02
   maximum displ.:     0.1260568 α      in ANC's #19, #14, #17, ...

........................................................................
.............................. CYCLE    4 ..............................
........................................................................

 iter      E             dE          RMSdq      gap      omega  full diag
   1   -224.4372170 -0.224437E+03  0.590E-02    0.70       0.0  T
   2   -224.4372628 -0.457566E-04  0.379E-02    0.70       1.0  T
   3   -224.4372544  0.837187E-05  0.179E-02    0.70       1.0  T
   4   -224.4372722 -0.178495E-04  0.536E-03    0.70       1.7  T
   5   -224.4372757 -0.344482E-05  0.218E-03    0.70       4.2  T
   6   -224.4372763 -0.655925E-06  0.112E-03    0.70       8.1  T
   7   -224.4372765 -0.169083E-06  0.565E-04    0.70      16.1  T
   8   -224.4372765 -0.267377E-07  0.295E-04    0.70      30.8  T
     SCC iter.                  ...        0 min,  0.204 sec
     gradient                   ...        0 min,  0.032 sec
 * total energy  :  -221.8960951 Eh     change        0.1026374E-02 Eh
   gradient norm :     0.0488685 Eh/α   predicted     0.9717177E-03 (  -5.33%)
   displ. norm   :     0.1298219 α      lambda       -0.2868544E-02
   maximum displ.:     0.0350364 α      in ANC's #43, #50, #17, ...

........................................................................
.............................. CYCLE    5 ..............................
........................................................................

 iter      E             dE          RMSdq      gap      omega  full diag
   1   -224.4206319 -0.224421E+03  0.501E-02    0.70       0.0  T
   2   -224.4206679 -0.360402E-04  0.324E-02    0.70       1.0  T
   3   -224.4206646  0.337310E-05  0.150E-02    0.70       1.0  T
   4   -224.4206744 -0.985633E-05  0.483E-03    0.70       1.9  T
   5   -224.4206761 -0.168883E-05  0.299E-03    0.70       3.0  T
   6   -224.4206777 -0.161984E-05  0.107E-03    0.70       8.5  T
   7   -224.4206779 -0.135782E-06  0.459E-04    0.70      19.8  T
   8   -224.4206779 -0.119894E-07  0.229E-04    0.70      39.7  T
     SCC iter.                  ...        0 min,  0.226 sec
     gradient                   ...        0 min,  0.031 sec
 * total energy  :  -221.8977476 Eh     change       -0.1652500E-02 Eh
   gradient norm :     0.0093145 Eh/α   predicted    -0.1458461E-02 ( -11.74%)
   displ. norm   :     0.1707918 α      lambda       -0.4555928E-03
   maximum displ.:     0.0725886 α      in ANC's #11, #5, #14, ...

........................................................................
.............................. CYCLE    6 ..............................
........................................................................

 iter      E             dE          RMSdq      gap      omega  full diag
   1   -224.4183837 -0.224418E+03  0.242E-02    0.70       0.0  T
   2   -224.4183856 -0.190222E-05  0.146E-02    0.70       1.0  T
   3   -224.4183817  0.397323E-05  0.559E-03    0.70       1.6  T
   4   -224.4183850 -0.337337E-05  0.241E-03    0.70       3.8  T
   5   -224.4183862 -0.120504E-05  0.102E-03    0.70       8.9  T
   6   -224.4183864 -0.174941E-06  0.441E-04    0.70      20.6  T
   7   -224.4183864 -0.757376E-08  0.318E-04    0.70      28.6  T
     SCC iter.                  ...        0 min,  0.189 sec
     gradient                   ...        0 min,  0.029 sec
 * total energy  :  -221.8981118 Eh     change       -0.3641826E-03 Eh
   gradient norm :     0.0032508 Eh/α   predicted    -0.2344321E-03 ( -35.63%)
   displ. norm   :     0.4026645 α      lambda       -0.6518458E-03
   maximum displ.:     0.1781196 α      in ANC's #11, #5, #14, ...

........................................................................
.............................. CYCLE    7 ..............................
........................................................................

 iter      E             dE          RMSdq      gap      omega  full diag
   1   -224.4178655 -0.224418E+03  0.495E-02    0.71       0.0  T
   2   -224.4178694 -0.387156E-05  0.292E-02    0.71       1.0  T
   3   -224.4178529  0.164301E-04  0.102E-02    0.71       1.0  T
   4   -224.4178663 -0.133630E-04  0.460E-03    0.71       2.0  T
   5   -224.4178708 -0.452561E-05  0.186E-03    0.71       4.9  T
   6   -224.4178713 -0.459932E-06  0.963E-04    0.71       9.4  T
   7   -224.4178714 -0.794485E-07  0.583E-04    0.71      15.6  T
     SCC iter.                  ...        0 min,  0.189 sec
     gradient                   ...        0 min,  0.031 sec
 * total energy  :  -221.8985761 Eh     change       -0.4643513E-03 Eh
   gradient norm :     0.0069673 Eh/α   predicted    -0.3787567E-03 ( -18.43%)
   displ. norm   :     0.3575897 α      lambda       -0.3672391E-03
   maximum displ.:     0.1795253 α      in ANC's #5, #11, #9, ...

........................................................................
.............................. CYCLE    8 ..............................
........................................................................

 iter      E             dE          RMSdq      gap      omega  full diag
   1   -224.4196366 -0.224420E+03  0.405E-02    0.71       0.0  T
   2   -224.4196384 -0.184508E-05  0.238E-02    0.71       1.0  T
   3   -224.4196254  0.130677E-04  0.849E-03    0.71       1.1  T
   4   -224.4196369 -0.115040E-04  0.351E-03    0.71       2.6  T
   5   -224.4196395 -0.261466E-05  0.138E-03    0.71       6.6  T
   6   -224.4196396 -0.165188E-06  0.879E-04    0.71      10.3  T
   7   -224.4196397 -0.922471E-07  0.448E-04    0.71      20.3  T
     SCC iter.                  ...        0 min,  0.182 sec
     gradient                   ...        0 min,  0.029 sec
 * total energy  :  -221.8988644 Eh     change       -0.2883136E-03 Eh
   gradient norm :     0.0067713 Eh/α   predicted    -0.2070882E-03 ( -28.17%)
   displ. norm   :     0.3753579 α      lambda       -0.3552652E-03
   maximum displ.:     0.2093950 α      in ANC's #5, #11, #9, ...

........................................................................
.............................. CYCLE    9 ..............................
........................................................................

 iter      E             dE          RMSdq      gap      omega  full diag
   1   -224.4224700 -0.224422E+03  0.424E-02    0.71       0.0  T
   2   -224.4224722 -0.218339E-05  0.250E-02    0.71       1.0  T
   3   -224.4224582  0.139370E-04  0.871E-03    0.71       1.0  T
   4   -224.4224703 -0.120809E-04  0.378E-03    0.71       2.4  T
   5   -224.4224733 -0.300035E-05  0.150E-03    0.71       6.1  T
   6   -224.4224735 -0.222890E-06  0.895E-04    0.71      10.2  T
   7   -224.4224736 -0.902980E-07  0.459E-04    0.71      19.8  T
     SCC iter.                  ...        0 min,  0.185 sec
     gradient                   ...        0 min,  0.031 sec
 * total energy  :  -221.8991648 Eh     change       -0.3003171E-03 Eh
   gradient norm :     0.0042899 Eh/α   predicted    -0.2026513E-03 ( -32.52%)
   displ. norm   :     0.4556630 α      lambda       -0.4282552E-03
   maximum displ.:     0.2684943 α      in ANC's #5, #11, #9, ...

........................................................................
.............................. CYCLE   10 ..............................
........................................................................

 iter      E             dE          RMSdq      gap      omega  full diag
   1   -224.4251468 -0.224425E+03  0.530E-02    0.72       0.0  T
   2   -224.4251499 -0.315449E-05  0.311E-02    0.71       1.0  T
   3   -224.4251317  0.181773E-04  0.989E-03    0.71       1.0  T
   4   -224.4251477 -0.159722E-04  0.430E-03    0.72       2.1  T
   5   -224.4251515 -0.376029E-05  0.179E-03    0.71       5.1  T
   6   -224.4251518 -0.291257E-06  0.109E-03    0.71       8.4  T
   7   -224.4251519 -0.147044E-06  0.517E-04    0.71      17.6  T
   8   -224.4251520 -0.451701E-07  0.174E-04    0.71      52.1  T
     SCC iter.                  ...        0 min,  0.237 sec
     gradient                   ...        0 min,  0.030 sec
 * total energy  :  -221.8995326 Eh     change       -0.3678453E-03 Eh
   gradient norm :     0.0036405 Eh/α   predicted    -0.2585700E-03 ( -29.71%)
   displ. norm   :     0.5404379 α      lambda       -0.4747609E-03
   maximum displ.:     0.3255587 α      in ANC's #5, #11, #9, ...

........................................................................
.............................. CYCLE   11 ..............................
........................................................................

 iter      E             dE          RMSdq      gap      omega  full diag
   1   -224.4258520 -0.224426E+03  0.646E-02    0.72       0.0  T
   2   -224.4258561 -0.410017E-05  0.379E-02    0.72       1.0  T
   3   -224.4258359  0.202025E-04  0.105E-02    0.72       1.0  T
   4   -224.4258543 -0.184377E-04  0.443E-03    0.72       2.1  T
   5   -224.4258579 -0.359084E-05  0.212E-03    0.72       4.3  T
   6   -224.4258584 -0.444376E-06  0.124E-03    0.72       7.3  T
   7   -224.4258586 -0.212584E-06  0.530E-04    0.72      17.1  T
   8   -224.4258586 -0.486224E-07  0.189E-04    0.72      48.2  T
     SCC iter.                  ...        0 min,  0.211 sec
     gradient                   ...        0 min,  0.029 sec
 * total energy  :  -221.8999468 Eh     change       -0.4141959E-03 Eh
   gradient norm :     0.0056422 Eh/α   predicted    -0.3066903E-03 ( -25.96%)
   displ. norm   :     0.5821164 α      lambda       -0.4985628E-03
   maximum displ.:     0.3577163 α      in ANC's #5, #11, #9, ...

........................................................................
.............................. CYCLE   12 ..............................
........................................................................

 iter      E             dE          RMSdq      gap      omega  full diag
   1   -224.4255421 -0.224426E+03  0.705E-02    0.72       0.0  T
   2   -224.4255468 -0.463115E-05  0.412E-02    0.72       1.0  T
   3   -224.4255314  0.153792E-04  0.954E-03    0.72       1.0  T
   4   -224.4255455 -0.141381E-04  0.414E-03    0.72       2.2  T
   5   -224.4255483 -0.279635E-05  0.223E-03    0.72       4.1  T
   6   -224.4255489 -0.559834E-06  0.123E-03    0.72       7.4  T
   7   -224.4255491 -0.210672E-06  0.536E-04    0.72      17.0  T
   8   -224.4255491 -0.502599E-07  0.186E-04    0.72      48.8  T
     SCC iter.                  ...        0 min,  0.200 sec
     gradient                   ...        0 min,  0.029 sec
 * total energy  :  -221.9003867 Eh     change       -0.4399253E-03 Eh
   gradient norm :     0.0065689 Eh/α   predicted    -0.3337287E-03 ( -24.14%)
   displ. norm   :     0.5982238 α      lambda       -0.5132584E-03
   maximum displ.:     0.3756000 α      in ANC's #5, #11, #6, ...

........................................................................
.............................. CYCLE   13 ..............................
........................................................................

 iter      E             dE          RMSdq      gap      omega  full diag
   1   -224.4244338 -0.224424E+03  0.730E-02    0.72       0.0  T
   2   -224.4244383 -0.445339E-05  0.427E-02    0.72       1.0  T
   3   -224.4244263  0.119999E-04  0.890E-03    0.72       1.0  T
   4   -224.4244381 -0.118358E-04  0.349E-03    0.72       2.6  T
   5   -224.4244398 -0.162028E-05  0.212E-03    0.72       4.3  T
   6   -224.4244403 -0.522597E-06  0.119E-03    0.72       7.6  T
   7   -224.4244405 -0.214382E-06  0.488E-04    0.72      18.6  T
   8   -224.4244405 -0.403664E-07  0.180E-04    0.72      50.6  T
     SCC iter.                  ...        0 min,  0.206 sec
     gradient                   ...        0 min,  0.032 sec
 * total energy  :  -221.9008409 Eh     change       -0.4541779E-03 Eh
   gradient norm :     0.0058448 Eh/α   predicted    -0.3484455E-03 ( -23.28%)
   displ. norm   :     0.5978899 α      lambda       -0.5195416E-03
   maximum displ.:     0.3861470 α      in ANC's #5, #6, #10, ...

........................................................................
.............................. CYCLE   14 ..............................
........................................................................

 iter      E             dE          RMSdq      gap      omega  full diag
   1   -224.4244901 -0.224424E+03  0.717E-02    0.72       0.0  T
   2   -224.4244950 -0.484105E-05  0.419E-02    0.72       1.0  T
   3   -224.4244880  0.694257E-05  0.753E-03    0.72       1.2  T
   4   -224.4244954 -0.739091E-05  0.285E-03    0.72       3.2  T
   5   -224.4244962 -0.831419E-06  0.174E-03    0.72       5.2  T
   6   -224.4244966 -0.341694E-06  0.102E-03    0.72       9.0  T
   7   -224.4244967 -0.154931E-06  0.488E-04    0.72      18.6  T
   8   -224.4244968 -0.386690E-07  0.185E-04    0.72      49.1  T
     SCC iter.                  ...        0 min,  0.285 sec
     gradient                   ...        0 min,  0.033 sec
 * total energy  :  -221.9012914 Eh     change       -0.4504645E-03 Eh
   gradient norm :     0.0049136 Eh/α   predicted    -0.3526083E-03 ( -21.72%)
   displ. norm   :     0.6089628 α      lambda       -0.4879521E-03
   maximum displ.:     0.4002542 α      in ANC's #5, #6, #10, ...

........................................................................
.............................. CYCLE   15 ..............................
........................................................................

 iter      E             dE          RMSdq      gap      omega  full diag
   1   -224.4231130 -0.224423E+03  0.699E-02    0.73       0.0  T
   2   -224.4231176 -0.455677E-05  0.408E-02    0.72       1.0  T
   3   -224.4231092  0.839382E-05  0.829E-03    0.73       1.1  T
   4   -224.4231186 -0.942101E-05  0.251E-03    0.73       3.6  T
   5   -224.4231192 -0.606842E-06  0.146E-03    0.72       6.2  T
   6   -224.4231194 -0.160901E-06  0.898E-04    0.73      10.1  T
   7   -224.4231195 -0.118831E-06  0.462E-04    0.72      19.7  T
     SCC iter.                  ...        0 min,  0.193 sec
     gradient                   ...        0 min,  0.033 sec
 * total energy  :  -221.9017031 Eh     change       -0.4117611E-03 Eh
   gradient norm :     0.0047715 Eh/α   predicted    -0.3344254E-03 ( -18.78%)
   displ. norm   :     0.5573315 α      lambda       -0.4313348E-03
   maximum displ.:     0.3806561 α      in ANC's #5, #6, #10, ...

........................................................................
.............................. CYCLE   16 ..............................
........................................................................

 iter      E             dE          RMSdq      gap      omega  full diag
   1   -224.4257198 -0.224426E+03  0.601E-02    0.73       0.0  T
   2   -224.4257242 -0.439348E-05  0.351E-02    0.73       1.0  T
   3   -224.4257189  0.537111E-05  0.682E-03    0.73       1.3  T
   4   -224.4257240 -0.513159E-05  0.300E-03    0.73       3.0  T
   5   -224.4257249 -0.921238E-06  0.188E-03    0.73       4.8  T
   6   -224.4257254 -0.508482E-06  0.914E-04    0.73       9.9  T
   7   -224.4257255 -0.123844E-06  0.318E-04    0.73      28.6  T
     SCC iter.                  ...        0 min,  0.188 sec
     gradient                   ...        0 min,  0.031 sec
 * total energy  :  -221.9020547 Eh     change       -0.3515307E-03 Eh
   gradient norm :     0.0057831 Eh/α   predicted    -0.2826395E-03 ( -19.60%)
   displ. norm   :     0.5206540 α      lambda       -0.3311724E-03
   maximum displ.:     0.3545629 α      in ANC's #5, #6, #10, ...

........................................................................
.............................. CYCLE   17 ..............................
........................................................................

 iter      E             dE          RMSdq      gap      omega  full diag
   1   -224.4253336 -0.224425E+03  0.519E-02    0.73       0.0  T
   2   -224.4253361 -0.243602E-05  0.303E-02    0.73       1.0  T
   3   -224.4253316  0.447895E-05  0.607E-03    0.73       1.5  T
   4   -224.4253368 -0.516549E-05  0.181E-03    0.73       5.0  T
   5   -224.4253370 -0.266677E-06  0.102E-03    0.73       8.9  T
   6   -224.4253370 -0.928026E-09  0.797E-04    0.73      11.4  T
   7   -224.4253371 -0.108184E-06  0.310E-04    0.73      29.4  T
     SCC iter.                  ...        0 min,  0.187 sec
     gradient                   ...        0 min,  0.031 sec
 * total energy  :  -221.9023416 Eh     change       -0.2869206E-03 Eh
   gradient norm :     0.0044331 Eh/α   predicted    -0.2104614E-03 ( -26.65%)
   displ. norm   :     0.4354130 α      lambda       -0.2797913E-03
   maximum displ.:     0.3116307 α      in ANC's #5, #6, #10, ...

........................................................................
.............................. CYCLE   18 ..............................
........................................................................

 iter      E             dE          RMSdq      gap      omega  full diag
   1   -224.4284716 -0.224428E+03  0.379E-02    0.73       0.0  T
   2   -224.4284732 -0.163722E-05  0.222E-02    0.73       1.0  T
   3   -224.4284673  0.590334E-05  0.611E-03    0.73       1.5  T
   4   -224.4284732 -0.585842E-05  0.208E-03    0.73       4.4  T
   5   -224.4284738 -0.662143E-06  0.106E-03    0.73       8.6  T
   6   -224.4284740 -0.155008E-06  0.501E-04    0.73      18.2  T
   7   -224.4284740 -0.272654E-07  0.242E-04    0.73      37.6  T
     SCC iter.                  ...        0 min,  0.181 sec
     gradient                   ...        0 min,  0.029 sec
 * total energy  :  -221.9025831 Eh     change       -0.2415256E-03 Eh
   gradient norm :     0.0041809 Eh/α   predicted    -0.1664189E-03 ( -31.10%)
   displ. norm   :     0.4225478 α      lambda       -0.2509131E-03
   maximum displ.:     0.2966869 α      in ANC's #5, #6, #10, ...

........................................................................
.............................. CYCLE   19 ..............................
........................................................................

 iter      E             dE          RMSdq      gap      omega  full diag
   1   -224.4282917 -0.224428E+03  0.380E-02    0.73       0.0  T
   2   -224.4282943 -0.258459E-05  0.221E-02    0.73       1.0  T
   3   -224.4282874  0.684798E-05  0.661E-03    0.73       1.4  T
   4   -224.4282927 -0.526687E-05  0.352E-03    0.73       2.6  T
   5   -224.4282948 -0.211210E-05  0.144E-03    0.73       6.3  T
   6   -224.4282951 -0.302391E-06  0.674E-04    0.73      13.5  T
   7   -224.4282951 -0.209040E-07  0.435E-04    0.73      20.9  T
     SCC iter.                  ...        0 min,  0.222 sec
     gradient                   ...        0 min,  0.030 sec
 * total energy  :  -221.9027979 Eh     change       -0.2147560E-03 Eh
   gradient norm :     0.0033448 Eh/α   predicted    -0.1478564E-03 ( -31.15%)
   displ. norm   :     0.3751162 α      lambda       -0.2160634E-03
   maximum displ.:     0.2752823 α      in ANC's #5, #6, #10, ...

........................................................................
.............................. CYCLE   20 ..............................
........................................................................

 iter      E             dE          RMSdq      gap      omega  full diag
   1   -224.4303204 -0.224430E+03  0.303E-02    0.73       0.0  T
   2   -224.4303212 -0.854151E-06  0.177E-02    0.73       1.0  T
   3   -224.4303106  0.106377E-04  0.762E-03    0.73       1.2  T
   4   -224.4303213 -0.106635E-04  0.213E-03    0.73       4.3  T
   5   -224.4303220 -0.744314E-06  0.103E-03    0.73       8.8  T
   6   -224.4303221 -0.131709E-06  0.505E-04    0.73      18.0  T
   7   -224.4303222 -0.462788E-08  0.369E-04    0.73      24.6  T
     SCC iter.                  ...        0 min,  0.184 sec
     gradient                   ...        0 min,  0.027 sec
 * total energy  :  -221.9029807 Eh     change       -0.1828191E-03 Eh
   gradient norm :     0.0030157 Eh/α   predicted    -0.1232303E-03 ( -32.59%)
   displ. norm   :     0.3381978 α      lambda       -0.1653498E-03
   maximum displ.:     0.2477039 α      in ANC's #5, #6, #10, ...
 * RMSD in coord.:     0.6487817 α      energy gain  -0.1612224E-01 Eh

generating ANC from exact Hessian ...
Using Lindh-Hessian (1995)
 Shifting diagonal of input Hessian by   1.008309619349155E-002
 Lowest  eigenvalues of input Hessian
    0.010000    0.010026    0.010039    0.000000    0.000000    0.000000
    0.000000    0.000000    0.000000    0.010204    0.010259    0.010286
    0.010431    0.010506    0.010649    0.010800    0.011620    0.012207
 Highest eigenvalues
    2.087765    2.154723    2.196640    2.260700    2.316916    2.383785
 

........................................................................
.............................. CYCLE   21 ..............................
........................................................................

 iter      E             dE          RMSdq      gap      omega  full diag
   1   -224.4300945 -0.224430E+03  0.299E-02    0.73       0.0  T
   2   -224.4300953 -0.758211E-06  0.175E-02    0.73       1.0  T
   3   -224.4300844  0.108513E-04  0.758E-03    0.73       1.2  T
   4   -224.4300955 -0.110650E-04  0.193E-03    0.73       4.7  T
   5   -224.4300960 -0.553982E-06  0.103E-03    0.73       8.8  T
   6   -224.4300962 -0.128435E-06  0.506E-04    0.73      18.0  T
   7   -224.4300962 -0.103936E-07  0.352E-04    0.73      25.8  T
     SCC iter.                  ...        0 min,  0.205 sec
     gradient                   ...        0 min,  0.030 sec
 * total energy  :  -221.9031208 Eh     change       -0.1401023E-03 Eh
   gradient norm :     0.0029207 Eh/α   predicted     0.0000000E+00 (-100.00%)
   displ. norm   :     0.0620526 α      lambda       -0.5890876E-04
   maximum displ.:     0.0360996 α      in ANC's #5, #6, #11, ...

........................................................................
.............................. CYCLE   22 ..............................
........................................................................

 iter      E             dE          RMSdq      gap      omega  full diag
   1   -224.4292757 -0.224429E+03  0.853E-03    0.73       0.0  T
   2   -224.4292758 -0.186224E-06  0.505E-03    0.73       1.8  T
   3   -224.4292752  0.626194E-06  0.209E-03    0.73       4.4  T
   4   -224.4292758 -0.615788E-06  0.730E-04    0.73      12.5  T
   5   -224.4292759 -0.880375E-07  0.359E-04    0.73      25.3  T
     SCC iter.                  ...        0 min,  0.179 sec
     gradient                   ...        0 min,  0.053 sec
 * total energy  :  -221.9031741 Eh     change       -0.5330886E-04 Eh
   gradient norm :     0.0013939 Eh/α   predicted    -0.2986097E-04 ( -43.98%)
   displ. norm   :     0.3762449 α      lambda       -0.1882130E-03
   maximum displ.:     0.2052359 α      in ANC's #5, #6, #11, ...

........................................................................
.............................. CYCLE   23 ..............................
........................................................................

 iter      E             dE          RMSdq      gap      omega  full diag
   1   -224.4262707 -0.224426E+03  0.497E-02    0.72       0.0  T
   2   -224.4262752 -0.452588E-05  0.294E-02    0.73       1.0  T
   3   -224.4262501  0.251303E-04  0.126E-02    0.72       1.0  T
   4   -224.4262762 -0.261509E-04  0.361E-03    0.73       2.5  T
   5   -224.4262779 -0.170677E-05  0.202E-03    0.73       4.5  T
   6   -224.4262785 -0.524436E-06  0.112E-03    0.73       8.1  T
   7   -224.4262786 -0.164834E-06  0.469E-04    0.73      19.4  T
   8   -224.4262786 -0.219877E-07  0.226E-04    0.73      40.3  T
     SCC iter.                  ...        0 min,  0.269 sec
     gradient                   ...        0 min,  0.032 sec
 * total energy  :  -221.9033510 Eh     change       -0.1768776E-03 Eh
   gradient norm :     0.0065388 Eh/α   predicted    -0.1000383E-03 ( -43.44%)
   displ. norm   :     0.1671604 α      lambda       -0.9569753E-04
   maximum displ.:     0.0970457 α      in ANC's #5, #6, #11, ...

........................................................................
.............................. CYCLE   24 ..............................
........................................................................

 iter      E             dE          RMSdq      gap      omega  full diag
   1   -224.4268241 -0.224427E+03  0.184E-02    0.72       0.0  T
   2   -224.4268245 -0.338517E-06  0.108E-02    0.73       1.0  T
   3   -224.4268201  0.435807E-05  0.493E-03    0.72       1.8  T
   4   -224.4268245 -0.437832E-05  0.147E-03    0.73       6.2  T
   5   -224.4268248 -0.328195E-06  0.750E-04    0.73      12.1  T
   6   -224.4268249 -0.863567E-07  0.344E-04    0.73      26.4  T
     SCC iter.                  ...        0 min,  0.156 sec
     gradient                   ...        0 min,  0.031 sec
 * total energy  :  -221.9034382 Eh     change       -0.8719031E-04 Eh
   gradient norm :     0.0059888 Eh/α   predicted    -0.4918716E-04 ( -43.59%)
   displ. norm   :     0.3303229 α      lambda       -0.2130315E-03
   maximum displ.:     0.1941104 α      in ANC's #5, #6, #11, ...

........................................................................
.............................. CYCLE   25 ..............................
........................................................................

 iter      E             dE          RMSdq      gap      omega  full diag
   1   -224.4288135 -0.224429E+03  0.330E-02    0.72       0.0  T
   2   -224.4288147 -0.119755E-05  0.194E-02    0.73       1.0  T
   3   -224.4288019  0.128923E-04  0.865E-03    0.72       1.1  T
   4   -224.4288150 -0.131283E-04  0.251E-03    0.72       3.6  T
   5   -224.4288158 -0.863606E-06  0.135E-03    0.72       6.7  T
   6   -224.4288161 -0.260430E-06  0.666E-04    0.73      13.7  T
   7   -224.4288161 -0.374411E-07  0.324E-04    0.72      28.0  T
     SCC iter.                  ...        0 min,  0.234 sec
     gradient                   ...        0 min,  0.030 sec
 * total energy  :  -221.9036170 Eh     change       -0.1787951E-03 Eh
   gradient norm :     0.0030533 Eh/α   predicted    -0.1181501E-03 ( -33.92%)
   displ. norm   :     0.4555570 α      lambda       -0.2195873E-03
   maximum displ.:     0.2706487 α      in ANC's #5, #6, #11, ...

........................................................................
.............................. CYCLE   26 ..............................
........................................................................

 iter      E             dE          RMSdq      gap      omega  full diag
   1   -224.4298525 -0.224430E+03  0.430E-02    0.72       0.0  T
   2   -224.4298548 -0.237495E-05  0.253E-02    0.73       1.0  T
   3   -224.4298314  0.234530E-04  0.117E-02    0.72       1.0  T
   4   -224.4298561 -0.247224E-04  0.279E-03    0.72       3.3  T
   5   -224.4298572 -0.106698E-05  0.146E-03    0.72       6.2  T
   6   -224.4298574 -0.198180E-06  0.962E-04    0.72       9.5  T
   7   -224.4298575 -0.921052E-07  0.499E-04    0.72      18.2  T
     SCC iter.                  ...        0 min,  0.176 sec
     gradient                   ...        0 min,  0.031 sec
 * total energy  :  -221.9037995 Eh     change       -0.1825658E-03 Eh
   gradient norm :     0.0022680 Eh/α   predicted    -0.1325905E-03 ( -27.37%)
   displ. norm   :     0.4616576 α      lambda       -0.1769790E-03
   maximum displ.:     0.2799560 α      in ANC's #5, #6, #11, ...

........................................................................
.............................. CYCLE   27 ..............................
........................................................................

 iter      E             dE          RMSdq      gap      omega  full diag
   1   -224.4301680 -0.224430E+03  0.401E-02    0.72       0.0  T
   2   -224.4301696 -0.161296E-05  0.237E-02    0.72       1.0  T
   3   -224.4301451  0.245472E-04  0.117E-02    0.72       1.0  T
   4   -224.4301711 -0.260552E-04  0.247E-03    0.72       3.7  T
   5   -224.4301720 -0.890247E-06  0.128E-03    0.72       7.1  T
   6   -224.4301721 -0.126482E-06  0.899E-04    0.72      10.1  T
   7   -224.4301722 -0.972114E-07  0.479E-04    0.72      19.0  T
     SCC iter.                  ...        0 min,  0.186 sec
     gradient                   ...        0 min,  0.035 sec
 * total energy  :  -221.9039478 Eh     change       -0.1482744E-03 Eh
   gradient norm :     0.0023769 Eh/α   predicted    -0.1073517E-03 ( -27.60%)
   displ. norm   :     0.4033167 α      lambda       -0.1329694E-03
   maximum displ.:     0.2514281 α      in ANC's #5, #6, #11, ...

........................................................................
.............................. CYCLE   28 ..............................
........................................................................

 iter      E             dE          RMSdq      gap      omega  full diag
   1   -224.4306028 -0.224431E+03  0.323E-02    0.72       0.0  T
   2   -224.4306037 -0.916663E-06  0.191E-02    0.72       1.0  T
   3   -224.4305860  0.177445E-04  0.990E-03    0.72       1.0  T
   4   -224.4306047 -0.187690E-04  0.206E-03    0.72       4.4  T
   5   -224.4306053 -0.610891E-06  0.112E-03    0.72       8.1  T
   6   -224.4306055 -0.127840E-06  0.726E-04    0.72      12.5  T
   7   -224.4306055 -0.576275E-07  0.402E-04    0.72      22.6  T
     SCC iter.                  ...        0 min,  0.241 sec
     gradient                   ...        0 min,  0.028 sec
 * total energy  :  -221.9040581 Eh     change       -0.1103270E-03 Eh
   gradient norm :     0.0019771 Eh/α   predicted    -0.7730262E-04 ( -29.93%)
   displ. norm   :     0.5105919 α      lambda       -0.9120494E-04
   maximum displ.:     0.3245371 α      in ANC's #5, #6, #13, ...

........................................................................
.............................. CYCLE   29 ..............................
........................................................................

 iter      E             dE          RMSdq      gap      omega  full diag
   1   -224.4305289 -0.224431E+03  0.390E-02    0.72       0.0  T
   2   -224.4305300 -0.103230E-05  0.232E-02    0.72       1.0  T
   3   -224.4304971  0.328300E-04  0.133E-02    0.72       1.0  T
   4   -224.4305312 -0.340796E-04  0.310E-03    0.72       2.9  T
   5   -224.4305326 -0.141101E-05  0.181E-03    0.72       5.0  T
   6   -224.4305331 -0.514595E-06  0.836E-04    0.72      10.9  T
   7   -224.4305332 -0.486641E-07  0.470E-04    0.72      19.3  T
     SCC iter.                  ...        0 min,  0.189 sec
     gradient                   ...        0 min,  0.030 sec
 * total energy  :  -221.9041616 Eh     change       -0.1034212E-03 Eh
   gradient norm :     0.0017338 Eh/α   predicted    -0.5088932E-04 ( -50.79%)
   displ. norm   :     0.2891204 α      lambda       -0.4976617E-04
   maximum displ.:     0.1907803 α      in ANC's #5, #6, #2, ...

........................................................................
.............................. CYCLE   30 ..............................
........................................................................

 iter      E             dE          RMSdq      gap      omega  full diag
   1   -224.4317972 -0.224432E+03  0.211E-02    0.72       0.0  T
   2   -224.4317976 -0.398758E-06  0.126E-02    0.72       1.0  T
   3   -224.4317862  0.113655E-04  0.777E-03    0.72       1.2  T
   4   -224.4317972 -0.110030E-04  0.249E-03    0.72       3.7  T
   5   -224.4317984 -0.111131E-05  0.119E-03    0.72       7.7  T
   6   -224.4317986 -0.240702E-06  0.442E-04    0.72      20.6  T
   7   -224.4317986 -0.117552E-09  0.316E-04    0.72      28.8  T
     SCC iter.                  ...        0 min,  0.185 sec
     gradient                   ...        0 min,  0.030 sec
 * total energy  :  -221.9042176 Eh     change       -0.5606205E-04 Eh
   gradient norm :     0.0032031 Eh/α   predicted    -0.2581271E-04 ( -53.96%)
   displ. norm   :     0.2373265 α      lambda       -0.6504067E-04
   maximum displ.:     0.1519264 α      in ANC's #5, #6, #2, ...

........................................................................
.............................. CYCLE   31 ..............................
........................................................................

 iter      E             dE          RMSdq      gap      omega  full diag
   1   -224.4311189 -0.224431E+03  0.191E-02    0.72       0.0  T
   2   -224.4311195 -0.620220E-06  0.114E-02    0.72       1.0  T
   3   -224.4311109  0.863713E-05  0.698E-03    0.72       1.3  T
   4   -224.4311193 -0.835341E-05  0.233E-03    0.72       3.9  T
   5   -224.4311201 -0.879431E-06  0.126E-03    0.72       7.2  T
   6   -224.4311204 -0.292545E-06  0.424E-04    0.72      21.4  T
   7   -224.4311204 -0.433471E-08  0.283E-04    0.72      32.2  T
     SCC iter.                  ...        0 min,  0.188 sec
     gradient                   ...        0 min,  0.028 sec
 * total energy  :  -221.9042712 Eh     change       -0.5358008E-04 Eh
   gradient norm :     0.0018141 Eh/α   predicted    -0.3435941E-04 ( -35.87%)
   displ. norm   :     0.4934378 α      lambda       -0.8739484E-04
   maximum displ.:     0.3093033 α      in ANC's #5, #6, #3, ...

........................................................................
.............................. CYCLE   32 ..............................
........................................................................

 iter      E             dE          RMSdq      gap      omega  full diag
   1   -224.4302503 -0.224430E+03  0.395E-02    0.72       0.0  T
   2   -224.4302521 -0.179861E-05  0.236E-02    0.72       1.0  T
   3   -224.4302164  0.357082E-04  0.141E-02    0.72       1.0  T
   4   -224.4302512 -0.348620E-04  0.449E-03    0.72       2.0  T
   5   -224.4302544 -0.320206E-05  0.250E-03    0.72       3.6  T
   6   -224.4302555 -0.112161E-05  0.838E-04    0.72      10.8  T
   7   -224.4302555 -0.642555E-08  0.549E-04    0.72      16.6  T
   8   -224.4302556 -0.517120E-07  0.205E-04    0.72      44.3  T
     SCC iter.                  ...        0 min,  0.245 sec
     gradient                   ...        0 min,  0.031 sec
 * total energy  :  -221.9043712 Eh     change       -0.1000345E-03 Eh
   gradient norm :     0.0027292 Eh/α   predicted    -0.4842854E-04 ( -51.59%)
   displ. norm   :     0.3625096 α      lambda       -0.9585072E-04
   maximum displ.:     0.2176598 α      in ANC's #5, #6, #3, ...

........................................................................
.............................. CYCLE   33 ..............................
........................................................................

 iter      E             dE          RMSdq      gap      omega  full diag
   1   -224.4302559 -0.224430E+03  0.301E-02    0.72       0.0  T
   2   -224.4302574 -0.143263E-05  0.179E-02    0.72       1.0  T
   3   -224.4302436  0.137693E-04  0.895E-03    0.72       1.0  T
   4   -224.4302566 -0.130625E-04  0.315E-03    0.72       2.9  T
   5   -224.4302581 -0.140630E-05  0.190E-03    0.72       4.8  T
   6   -224.4302587 -0.662664E-06  0.608E-04    0.72      14.9  T
   7   -224.4302587 -0.121130E-07  0.345E-04    0.72      26.4  T
     SCC iter.                  ...        0 min,  0.180 sec
     gradient                   ...        0 min,  0.030 sec
 * total energy  :  -221.9044521 Eh     change       -0.8085538E-04 Eh
   gradient norm :     0.0029004 Eh/α   predicted    -0.5422467E-04 ( -32.94%)
   displ. norm   :     0.4873438 α      lambda       -0.1263478E-03
   maximum displ.:     0.2831489 α      in ANC's #5, #6, #11, ...

........................................................................
.............................. CYCLE   34 ..............................
........................................................................

 iter      E             dE          RMSdq      gap      omega  full diag
   1   -224.4306096 -0.224431E+03  0.402E-02    0.72       0.0  T
   2   -224.4306115 -0.185681E-05  0.239E-02    0.72       1.0  T
   3   -224.4305920  0.194996E-04  0.107E-02    0.72       1.0  T
   4   -224.4306123 -0.202703E-04  0.269E-03    0.72       3.4  T
   5   -224.4306128 -0.562555E-06  0.200E-03    0.72       4.5  T
   6   -224.4306134 -0.617344E-06  0.918E-04    0.72       9.9  T
   7   -224.4306135 -0.949663E-07  0.405E-04    0.72      22.4  T
     SCC iter.                  ...        0 min,  0.188 sec
     gradient                   ...        0 min,  0.030 sec
 * total energy  :  -221.9045571 Eh     change       -0.1050370E-03 Eh
   gradient norm :     0.0030743 Eh/α   predicted    -0.7818104E-04 ( -25.57%)
   displ. norm   :     0.5529381 α      lambda       -0.1283386E-03
   maximum displ.:     0.3104820 α      in ANC's #5, #6, #11, ...

........................................................................
.............................. CYCLE   35 ..............................
........................................................................

 iter      E             dE          RMSdq      gap      omega  full diag
   1   -224.4306874 -0.224431E+03  0.457E-02    0.72       0.0  T
   2   -224.4306897 -0.225649E-05  0.272E-02    0.72       1.0  T
   3   -224.4306691  0.205379E-04  0.111E-02    0.72       1.0  T
   4   -224.4306913 -0.221672E-04  0.235E-03    0.72       3.9  T
   5   -224.4306918 -0.536129E-06  0.128E-03    0.72       7.1  T
   6   -224.4306918 -0.264352E-07  0.941E-04    0.72       9.7  T
   7   -224.4306919 -0.102138E-06  0.519E-04    0.72      17.5  T
     SCC iter.                  ...        0 min,  0.197 sec
     gradient                   ...        0 min,  0.031 sec
 * total energy  :  -221.9046618 Eh     change       -0.1046830E-03 Eh
   gradient norm :     0.0032342 Eh/α   predicted    -0.8378865E-04 ( -19.96%)
   displ. norm   :     0.4998813 α      lambda       -0.1117015E-03
   maximum displ.:     0.2621381 α      in ANC's #5, #6, #11, ...

........................................................................
.............................. CYCLE   36 ..............................
........................................................................

 iter      E             dE          RMSdq      gap      omega  full diag
   1   -224.4313513 -0.224431E+03  0.429E-02    0.72       0.0  T
   2   -224.4313533 -0.202000E-05  0.256E-02    0.72       1.0  T
   3   -224.4313338  0.195781E-04  0.106E-02    0.72       1.0  T
   4   -224.4313525 -0.186891E-04  0.376E-03    0.72       2.4  T
   5   -224.4313547 -0.219549E-05  0.197E-03    0.72       4.6  T
   6   -224.4313552 -0.579795E-06  0.936E-04    0.72       9.7  T
   7   -224.4313553 -0.611813E-07  0.518E-04    0.72      17.5  T
     SCC iter.                  ...        0 min,  0.216 sec
     gradient                   ...        0 min,  0.030 sec
 * total energy  :  -221.9047503 Eh     change       -0.8847253E-04 Eh
   gradient norm :     0.0031011 Eh/α   predicted    -0.6980988E-04 ( -21.09%)
   displ. norm   :     0.3986742 α      lambda       -0.8785950E-04
   maximum displ.:     0.1858138 α      in ANC's #5, #6, #8, ...

........................................................................
.............................. CYCLE   37 ..............................
........................................................................

 iter      E             dE          RMSdq      gap      omega  full diag
   1   -224.4324955 -0.224432E+03  0.366E-02    0.73       0.0  T
   2   -224.4324969 -0.142544E-05  0.219E-02    0.72       1.0  T
   3   -224.4324747  0.221943E-04  0.106E-02    0.72       1.0  T
   4   -224.4324941 -0.193731E-04  0.451E-03    0.73       2.0  T
   5   -224.4324984 -0.426924E-05  0.147E-03    0.72       6.2  T
   6   -224.4324986 -0.211009E-06  0.908E-04    0.72      10.0  T
   7   -224.4324986 -0.714085E-07  0.505E-04    0.72      18.0  T
     SCC iter.                  ...        0 min,  0.306 sec
     gradient                   ...        0 min,  0.032 sec
 * total energy  :  -221.9048196 Eh     change       -0.6928984E-04 Eh
   gradient norm :     0.0028226 Eh/α   predicted    -0.5091275E-04 ( -26.52%)
   displ. norm   :     0.3382147 α      lambda       -0.7590737E-04
   maximum displ.:     0.1473666 α      in ANC's #8, #5, #6, ...

........................................................................
.............................. CYCLE   38 ..............................
........................................................................

 iter      E             dE          RMSdq      gap      omega  full diag
   1   -224.4333330 -0.224433E+03  0.330E-02    0.73       0.0  T
   2   -224.4333342 -0.121699E-05  0.198E-02    0.73       1.0  T
   3   -224.4333110  0.232526E-04  0.108E-02    0.72       1.0  T
   4   -224.4333313 -0.203078E-04  0.454E-03    0.73       2.0  T
   5   -224.4333358 -0.445688E-05  0.138E-03    0.73       6.6  T
   6   -224.4333359 -0.182134E-06  0.871E-04    0.73      10.4  T
   7   -224.4333360 -0.755878E-07  0.458E-04    0.73      19.9  T
     SCC iter.                  ...        0 min,  0.200 sec
     gradient                   ...        0 min,  0.030 sec
 * total energy  :  -221.9048814 Eh     change       -0.6186607E-04 Eh
   gradient norm :     0.0025375 Eh/α   predicted    -0.4229939E-04 ( -31.63%)
   displ. norm   :     0.3350970 α      lambda       -0.8415382E-04
   maximum displ.:     0.1607020 α      in ANC's #8, #5, #6, ...

........................................................................
.............................. CYCLE   39 ..............................
........................................................................

 iter      E             dE          RMSdq      gap      omega  full diag
   1   -224.4337096 -0.224434E+03  0.348E-02    0.73       0.0  T
   2   -224.4337111 -0.146564E-05  0.208E-02    0.73       1.0  T
   3   -224.4336841  0.269931E-04  0.117E-02    0.73       1.0  T
   4   -224.4337083 -0.242036E-04  0.464E-03    0.73       2.0  T
   5   -224.4337130 -0.469501E-05  0.153E-03    0.73       6.0  T
   6   -224.4337132 -0.247890E-06  0.946E-04    0.73       9.6  T
   7   -224.4337133 -0.902193E-07  0.502E-04    0.73      18.1  T
     SCC iter.                  ...        0 min,  0.192 sec
     gradient                   ...        0 min,  0.036 sec
 * total energy  :  -221.9049508 Eh     change       -0.6934356E-04 Eh
   gradient norm :     0.0023924 Eh/α   predicted    -0.4680277E-04 ( -32.51%)
   displ. norm   :     0.3568779 α      lambda       -0.9449819E-04
   maximum displ.:     0.1743800 α      in ANC's #8, #4, #3, ...

........................................................................
.............................. CYCLE   40 ..............................
........................................................................

 iter      E             dE          RMSdq      gap      omega  full diag
   1   -224.4331409 -0.224433E+03  0.385E-02    0.73       0.0  T
   2   -224.4331427 -0.177407E-05  0.230E-02    0.73       1.0  T
   3   -224.4331127  0.299494E-04  0.126E-02    0.73       1.0  T
   4   -224.4331408 -0.281233E-04  0.438E-03    0.73       2.1  T
   5   -224.4331450 -0.418304E-05  0.156E-03    0.73       5.8  T
   6   -224.4331453 -0.242102E-06  0.971E-04    0.73       9.4  T
   7   -224.4331453 -0.703021E-07  0.614E-04    0.73      14.8  T
     SCC iter.                  ...        0 min,  0.201 sec
     gradient                   ...        0 min,  0.030 sec
 * total energy  :  -221.9050276 Eh     change       -0.7677584E-04 Eh
   gradient norm :     0.0028305 Eh/α   predicted    -0.5326900E-04 ( -30.62%)
   displ. norm   :     0.3585079 α      lambda       -0.9511679E-04
   maximum displ.:     0.1712359 α      in ANC's #8, #4, #9, ...

........................................................................
.............................. CYCLE   41 ..............................
........................................................................

 iter      E             dE          RMSdq      gap      omega  full diag
   1   -224.4322322 -0.224432E+03  0.401E-02    0.74       0.0  T
   2   -224.4322339 -0.173454E-05  0.238E-02    0.73       1.0  T
   3   -224.4322063  0.276034E-04  0.123E-02    0.74       1.0  T
   4   -224.4322333 -0.269262E-04  0.381E-03    0.74       2.4  T
   5   -224.4322363 -0.301093E-05  0.139E-03    0.73       6.6  T
   6   -224.4322365 -0.221278E-06  0.616E-04    0.73      14.8  T
   7   -224.4322365 -0.603396E-08  0.352E-04    0.74      25.8  T
     SCC iter.                  ...        0 min,  0.204 sec
     gradient                   ...        0 min,  0.033 sec
 * total energy  :  -221.9051032 Eh     change       -0.7563948E-04 Eh
   gradient norm :     0.0035323 Eh/α   predicted    -0.5367459E-04 ( -29.04%)
   displ. norm   :     0.3480730 α      lambda       -0.9050981E-04
   maximum displ.:     0.1548202 α      in ANC's #8, #9, #4, ...

........................................................................
.............................. CYCLE   42 ..............................
........................................................................

 iter      E             dE          RMSdq      gap      omega  full diag
   1   -224.4313235 -0.224431E+03  0.399E-02    0.74       0.0  T
   2   -224.4313250 -0.150345E-05  0.236E-02    0.74       1.0  T
   3   -224.4313012  0.237838E-04  0.115E-02    0.74       1.0  T
   4   -224.4313246 -0.233731E-04  0.349E-03    0.74       2.6  T
   5   -224.4313268 -0.225260E-05  0.148E-03    0.74       6.2  T
   6   -224.4313270 -0.234588E-06  0.772E-04    0.74      11.8  T
   7   -224.4313270 -0.497892E-09  0.613E-04    0.74      14.8  T
     SCC iter.                  ...        0 min,  0.176 sec
     gradient                   ...        0 min,  0.029 sec
 * total energy  :  -221.9051746 Eh     change       -0.7143600E-04 Eh
   gradient norm :     0.0037238 Eh/α   predicted    -0.5073925E-04 ( -28.97%)
   displ. norm   :     0.3448278 α      lambda       -0.9271217E-04
   maximum displ.:     0.1376453 α      in ANC's #8, #9, #4, ...
 * RMSD in coord.:     0.5980630 α      energy gain  -0.2193938E-02 Eh

generating ANC from exact Hessian ...
Using Lindh-Hessian (1995)
 Shifting diagonal of input Hessian by   1.008005302880114E-002
 Lowest  eigenvalues of input Hessian
    0.010000    0.010034    0.000000    0.010049    0.000000    0.000000
    0.000000    0.000000    0.000000    0.010230    0.010294    0.010389
    0.010461    0.010491    0.010638    0.010858    0.011589    0.012175
 Highest eigenvalues
    2.089700    2.155202    2.195039    2.259769    2.316968    2.371531
 

........................................................................
.............................. CYCLE   43 ..............................
........................................................................

 iter      E             dE          RMSdq      gap      omega  full diag
   1   -224.4310854 -0.224431E+03  0.408E-02    0.74       0.0  T
   2   -224.4310868 -0.137904E-05  0.240E-02    0.74       1.0  T
   3   -224.4310596  0.272150E-04  0.123E-02    0.74       1.0  T
   4   -224.4310849 -0.252999E-04  0.438E-03    0.74       2.1  T
   5   -224.4310884 -0.351001E-05  0.165E-03    0.74       5.5  T
   6   -224.4310887 -0.364481E-06  0.818E-04    0.74      11.1  T
   7   -224.4310888 -0.363907E-07  0.519E-04    0.74      17.5  T
     SCC iter.                  ...        0 min,  0.180 sec
     gradient                   ...        0 min,  0.030 sec
 * total energy  :  -221.9052475 Eh     change       -0.7290402E-04 Eh
   gradient norm :     0.0033689 Eh/α   predicted     0.0000000E+00 (-100.00%)
   displ. norm   :     0.0390672 α      lambda       -0.3194225E-04
   maximum displ.:     0.0231580 α      in ANC's #19, #9, #5, ...

........................................................................
.............................. CYCLE   44 ..............................
........................................................................

 iter      E             dE          RMSdq      gap      omega  full diag
   1   -224.4328318 -0.224433E+03  0.706E-03    0.74       0.0  T
   2   -224.4328320 -0.171015E-06  0.417E-03    0.74       2.2  T
   3   -224.4328316  0.344621E-06  0.169E-03    0.74       5.4  T
   4   -224.4328320 -0.340047E-06  0.603E-04    0.74      15.1  T
   5   -224.4328320 -0.675795E-07  0.244E-04    0.74      37.3  T
     SCC iter.                  ...        0 min,  0.140 sec
     gradient                   ...        0 min,  0.033 sec
 * total energy  :  -221.9052805 Eh     change       -0.3296098E-04 Eh
   gradient norm :     0.0016888 Eh/α   predicted    -0.1993604E-04 ( -39.52%)
   displ. norm   :     0.1792330 α      lambda       -0.7666181E-04
   maximum displ.:     0.1040566 α      in ANC's #19, #9, #5, ...

........................................................................
.............................. CYCLE   45 ..............................
........................................................................

 iter      E             dE          RMSdq      gap      omega  full diag
   1   -224.4356810 -0.224436E+03  0.311E-02    0.73       0.0  T
   2   -224.4356826 -0.152495E-05  0.184E-02    0.74       1.0  T
   3   -224.4356688  0.138041E-04  0.872E-03    0.73       1.0  T
   4   -224.4356815 -0.127514E-04  0.324E-03    0.73       2.8  T
   5   -224.4356837 -0.222094E-05  0.132E-03    0.74       6.9  T
   6   -224.4356839 -0.197881E-06  0.775E-04    0.73      11.7  T
   7   -224.4356840 -0.539240E-07  0.465E-04    0.73      19.6  T
     SCC iter.                  ...        0 min,  0.175 sec
     gradient                   ...        0 min,  0.029 sec
 * total energy  :  -221.9053323 Eh     change       -0.5182857E-04 Eh
   gradient norm :     0.0032577 Eh/α   predicted    -0.3887945E-04 ( -24.98%)
   displ. norm   :     0.0272271 α      lambda       -0.1513909E-04
   maximum displ.:     0.0155996 α      in ANC's #9, #5, #19, ...

........................................................................
.............................. CYCLE   46 ..............................
........................................................................

 iter      E             dE          RMSdq      gap      omega  full diag
   1   -224.4344320 -0.224434E+03  0.483E-03    0.73       0.0  T
   2   -224.4344321 -0.793256E-07  0.287E-03    0.73       3.2  T
   3   -224.4344318  0.349866E-06  0.150E-03    0.74       6.0  T
   4   -224.4344320 -0.256506E-06  0.739E-04    0.73      12.3  T
   5   -224.4344321 -0.123034E-06  0.220E-04    0.73      41.4  T
     SCC iter.                  ...        0 min,  0.154 sec
     gradient                   ...        0 min,  0.031 sec
 * total energy  :  -221.9053452 Eh     change       -0.1286890E-04 Eh
   gradient norm :     0.0019314 Eh/α   predicted    -0.7577189E-05 ( -41.12%)
   displ. norm   :     0.1292869 α      lambda       -0.3173781E-04
   maximum displ.:     0.0728709 α      in ANC's #9, #5, #16, ...

........................................................................
.............................. CYCLE   47 ..............................
........................................................................

 iter      E             dE          RMSdq      gap      omega  full diag
   1   -224.4304911 -0.224430E+03  0.207E-02    0.73       0.0  T
   2   -224.4304920 -0.887771E-06  0.122E-02    0.73       1.0  T
   3   -224.4304848  0.716009E-05  0.654E-03    0.74       1.4  T
   4   -224.4304909 -0.610078E-05  0.271E-03    0.73       3.4  T
   5   -224.4304925 -0.154370E-05  0.111E-03    0.73       8.2  T
   6   -224.4304927 -0.222356E-06  0.414E-04    0.73      22.0  T
   7   -224.4304927 -0.100983E-07  0.277E-04    0.73      32.8  T
     SCC iter.                  ...        0 min,  0.182 sec
     gradient                   ...        0 min,  0.029 sec
 * total energy  :  -221.9053689 Eh     change       -0.2366301E-04 Eh
   gradient norm :     0.0027376 Eh/α   predicted    -0.1602384E-04 ( -32.28%)
   displ. norm   :     0.0445893 α      lambda       -0.1154899E-04
   maximum displ.:     0.0251763 α      in ANC's #9, #5, #16, ...

........................................................................
.............................. CYCLE   48 ..............................
........................................................................

 iter      E             dE          RMSdq      gap      omega  full diag
   1   -224.4308600 -0.224431E+03  0.679E-03    0.73       0.0  T
   2   -224.4308601 -0.247946E-07  0.402E-03    0.73       2.3  T
   3   -224.4308595  0.590944E-06  0.176E-03    0.73       5.2  T
   4   -224.4308600 -0.584452E-06  0.487E-04    0.73      18.6  T
   5   -224.4308601 -0.427067E-07  0.212E-04    0.73      42.9  T
     SCC iter.                  ...        0 min,  0.126 sec
     gradient                   ...        0 min,  0.030 sec
 * total energy  :  -221.9053794 Eh     change       -0.1059167E-04 Eh
   gradient norm :     0.0023232 Eh/α   predicted    -0.5788235E-05 ( -45.35%)
   displ. norm   :     0.1675835 α      lambda       -0.4291545E-04
   maximum displ.:     0.0917836 α      in ANC's #9, #5, #12, ...

........................................................................
.............................. CYCLE   49 ..............................
........................................................................

 iter      E             dE          RMSdq      gap      omega  full diag
   1   -224.4328565 -0.224433E+03  0.231E-02    0.73       0.0  T
   2   -224.4328569 -0.380933E-06  0.136E-02    0.73       1.0  T
   3   -224.4328507  0.617455E-05  0.579E-03    0.73       1.6  T
   4   -224.4328570 -0.626508E-05  0.142E-03    0.73       6.4  T
   5   -224.4328573 -0.343172E-06  0.731E-04    0.73      12.4  T
   6   -224.4328574 -0.812759E-07  0.318E-04    0.73      28.5  T
     SCC iter.                  ...        0 min,  0.153 sec
     gradient                   ...        0 min,  0.031 sec
 * total energy  :  -221.9054112 Eh     change       -0.3172841E-04 Eh
   gradient norm :     0.0008579 Eh/α   predicted    -0.2206068E-04 ( -30.47%)
   displ. norm   :     0.2795535 α      lambda       -0.2522812E-04
   maximum displ.:     0.1534252 α      in ANC's #9, #5, #12, ...

........................................................................
.............................. CYCLE   50 ..............................
........................................................................

 iter      E             dE          RMSdq      gap      omega  full diag
   1   -224.4338364 -0.224434E+03  0.369E-02    0.73       0.0  T
   2   -224.4338371 -0.758058E-06  0.217E-02    0.73       1.0  T
   3   -224.4338243  0.128310E-04  0.841E-03    0.73       1.1  T
   4   -224.4338375 -0.132337E-04  0.191E-03    0.73       4.8  T
   5   -224.4338381 -0.529337E-06  0.108E-03    0.73       8.5  T
   6   -224.4338382 -0.157832E-06  0.492E-04    0.73      18.5  T
   7   -224.4338382 -0.132571E-07  0.271E-04    0.73      33.6  T
     SCC iter.                  ...        0 min,  0.174 sec
     gradient                   ...        0 min,  0.030 sec
 * total energy  :  -221.9054345 Eh     change       -0.2336228E-04 Eh
   gradient norm :     0.0020609 Eh/α   predicted    -0.1305364E-04 ( -44.13%)
   displ. norm   :     0.1891510 α      lambda        0.1307010E-04
   maximum displ.:     0.1038259 α      in ANC's #9, #5, #12, ...

........................................................................
.............................. CYCLE   51 ..............................
........................................................................

 iter      E             dE          RMSdq      gap      omega  full diag
   1   -224.4341140 -0.224434E+03  0.250E-02    0.73       0.0  T
   2   -224.4341143 -0.347737E-06  0.147E-02    0.73       1.0  T
   3   -224.4341080  0.632503E-05  0.583E-03    0.73       1.6  T
   4   -224.4341145 -0.651582E-05  0.130E-03    0.73       7.0  T
   5   -224.4341148 -0.257018E-06  0.733E-04    0.73      12.4  T
   6   -224.4341148 -0.765482E-07  0.327E-04    0.73      27.8  T
     SCC iter.                  ...        0 min,  0.155 sec
     gradient                   ...        0 min,  0.038 sec
 * total energy  :  -221.9054342 Eh     change        0.3357909E-06 Eh
   gradient norm :     0.0031233 Eh/α   predicted     0.6765565E-05 (1914.81%)
   displ. norm   :     0.0357127 α      lambda       -0.1412659E-04
   maximum displ.:     0.0159860 α      in ANC's #9, #5, #16, ...

........................................................................
.............................. CYCLE   52 ..............................
........................................................................

 iter      E             dE          RMSdq      gap      omega  full diag
   1   -224.4337485 -0.224434E+03  0.741E-03    0.73       0.0  T
   2   -224.4337486 -0.114010E-06  0.443E-03    0.73       2.1  T
   3   -224.4337475  0.107151E-05  0.247E-03    0.73       3.7  T
   4   -224.4337484 -0.895390E-06  0.114E-03    0.73       8.0  T
   5   -224.4337486 -0.230962E-06  0.463E-04    0.73      19.6  T
   6   -224.4337487 -0.411932E-07  0.150E-04    0.73      60.6  T
     SCC iter.                  ...        0 min,  0.153 sec
     gradient                   ...        0 min,  0.032 sec
 * total energy  :  -221.9054452 Eh     change       -0.1100818E-04 Eh
   gradient norm :     0.0017759 Eh/α   predicted    -0.7073236E-05 ( -35.75%)
   displ. norm   :     0.0836813 α      lambda       -0.2153419E-04
   maximum displ.:     0.0336495 α      in ANC's #4, #8, #5, ...

........................................................................
.............................. CYCLE   53 ..............................
........................................................................

 iter      E             dE          RMSdq      gap      omega  full diag
   1   -224.4324004 -0.224432E+03  0.137E-02    0.73       0.0  T
   2   -224.4324013 -0.881056E-06  0.825E-03    0.73       1.1  T
   3   -224.4323978  0.350261E-05  0.503E-03    0.73       1.8  T
   4   -224.4324001 -0.233504E-05  0.266E-03    0.73       3.4  T
   5   -224.4324017 -0.154106E-05  0.980E-04    0.73       9.3  T
   6   -224.4324018 -0.174604E-06  0.370E-04    0.73      24.6  T
   7   -224.4324018 -0.103149E-07  0.248E-04    0.73      36.6  T
     SCC iter.                  ...        0 min,  0.181 sec
     gradient                   ...        0 min,  0.031 sec
 * total energy  :  -221.9054627 Eh     change       -0.1744498E-04 Eh
   gradient norm :     0.0020456 Eh/α   predicted    -0.1080446E-04 ( -38.07%)
   displ. norm   :     0.0789196 α      lambda       -0.1068301E-04
   maximum displ.:     0.0417647 α      in ANC's #5, #9, #4, ...

........................................................................
.............................. CYCLE   54 ..............................
........................................................................

 iter      E             dE          RMSdq      gap      omega  full diag
   1   -224.4322887 -0.224432E+03  0.853E-03    0.73       0.0  T
   2   -224.4322887 -0.645095E-07  0.508E-03    0.73       1.8  T
   3   -224.4322867  0.199479E-05  0.306E-03    0.73       3.0  T
   4   -224.4322886 -0.185055E-05  0.111E-03    0.73       8.2  T
   5   -224.4322888 -0.263730E-06  0.368E-04    0.73      24.7  T
   6   -224.4322889 -0.179037E-07  0.195E-04    0.73      46.6  T
     SCC iter.                  ...        0 min,  0.166 sec
     gradient                   ...        0 min,  0.031 sec
 * total energy  :  -221.9054728 Eh     change       -0.1011047E-04 Eh
   gradient norm :     0.0019931 Eh/α   predicted    -0.5375174E-05 ( -46.84%)
   displ. norm   :     0.4459430 α      lambda       -0.4468467E-04
   maximum displ.:     0.2286536 α      in ANC's #5, #9, #4, ...

........................................................................
.............................. CYCLE   55 ..............................
........................................................................

 iter      E             dE          RMSdq      gap      omega  full diag
   1   -224.4318997 -0.224432E+03  0.498E-02    0.74       0.0  T
   2   -224.4319018 -0.217828E-05  0.299E-02    0.74       1.0  T
   3   -224.4318193  0.825815E-04  0.200E-02    0.73       1.0  T
   4   -224.4318951 -0.758753E-04  0.754E-03    0.74       1.2  T
   5   -224.4319073 -0.121542E-04  0.245E-03    0.74       3.7  T
   6   -224.4319081 -0.852419E-06  0.121E-03    0.74       7.5  T
   7   -224.4319083 -0.137970E-06  0.707E-04    0.74      12.9  T
   8   -224.4319083 -0.617949E-07  0.229E-04    0.74      39.8  T
     SCC iter.                  ...        0 min,  0.213 sec
     gradient                   ...        0 min,  0.030 sec
 * total energy  :  -221.9055193 Eh     change       -0.4657249E-04 Eh
   gradient norm :     0.0017235 Eh/α   predicted    -0.2432127E-04 ( -47.78%)
   displ. norm   :     0.3784496 α      lambda       -0.2273599E-04
   maximum displ.:     0.1992513 α      in ANC's #5, #9, #4, ...

........................................................................
.............................. CYCLE   56 ..............................
........................................................................

 iter      E             dE          RMSdq      gap      omega  full diag
   1   -224.4320590 -0.224432E+03  0.397E-02    0.74       0.0  T
   2   -224.4320604 -0.135223E-05  0.236E-02    0.74       1.0  T
   3   -224.4320225  0.378994E-04  0.135E-02    0.73       1.0  T
   4   -224.4320577 -0.352416E-04  0.490E-03    0.74       1.9  T
   5   -224.4320629 -0.512511E-05  0.164E-03    0.74       5.5  T
   6   -224.4320632 -0.359513E-06  0.851E-04    0.74      10.7  T
   7   -224.4320633 -0.578335E-07  0.537E-04    0.74      16.9  T
     SCC iter.                  ...        0 min,  0.195 sec
     gradient                   ...        0 min,  0.034 sec
 * total energy  :  -221.9055447 Eh     change       -0.2533011E-04 Eh
   gradient norm :     0.0015418 Eh/α   predicted    -0.1209412E-04 ( -52.25%)
   displ. norm   :     0.3430145 α      lambda       -0.2057212E-04
   maximum displ.:     0.1816062 α      in ANC's #5, #9, #4, ...

........................................................................
.............................. CYCLE   57 ..............................
........................................................................

 iter      E             dE          RMSdq      gap      omega  full diag
   1   -224.4326152 -0.224433E+03  0.354E-02    0.74       0.0  T
   2   -224.4326161 -0.864872E-06  0.210E-02    0.74       1.0  T
   3   -224.4325905  0.255928E-04  0.110E-02    0.74       1.0  T
   4   -224.4326151 -0.245455E-04  0.361E-03    0.74       2.5  T
   5   -224.4326178 -0.275378E-05  0.122E-03    0.74       7.4  T
   6   -224.4326180 -0.166593E-06  0.726E-04    0.74      12.5  T
   7   -224.4326180 -0.429519E-07  0.459E-04    0.74      19.8  T
     SCC iter.                  ...        0 min,  0.181 sec
     gradient                   ...        0 min,  0.029 sec
 * total energy  :  -221.9055691 Eh     change       -0.2445713E-04 Eh
   gradient norm :     0.0011130 Eh/α   predicted    -0.1082561E-04 ( -55.74%)
   displ. norm   :     0.3835871 α      lambda       -0.2360880E-04
   maximum displ.:     0.2031339 α      in ANC's #5, #9, #4, ...

........................................................................
.............................. CYCLE   58 ..............................
........................................................................

 iter      E             dE          RMSdq      gap      omega  full diag
   1   -224.4331029 -0.224433E+03  0.395E-02    0.74       0.0  T
   2   -224.4331041 -0.113311E-05  0.233E-02    0.74       1.0  T
   3   -224.4330858  0.183087E-04  0.976E-03    0.74       1.0  T
   4   -224.4331043 -0.185177E-04  0.268E-03    0.74       3.4  T
   5   -224.4331056 -0.129476E-05  0.107E-03    0.74       8.5  T
   6   -224.4331057 -0.150792E-06  0.493E-04    0.74      18.4  T
   7   -224.4331057  0.201925E-08  0.316E-04    0.74      28.7  T
     SCC iter.                  ...        0 min,  0.177 sec
     gradient                   ...        0 min,  0.027 sec
 * total energy  :  -221.9055959 Eh     change       -0.2676872E-04 Eh
   gradient norm :     0.0011542 Eh/α   predicted    -0.1258040E-04 ( -53.00%)
   displ. norm   :     0.3091146 α      lambda       -0.1722944E-04
   maximum displ.:     0.1608616 α      in ANC's #5, #4, #9, ...

........................................................................
.............................. CYCLE   59 ..............................
........................................................................

 iter      E             dE          RMSdq      gap      omega  full diag
   1   -224.4332831 -0.224433E+03  0.326E-02    0.74       0.0  T
   2   -224.4332839 -0.839165E-06  0.193E-02    0.74       1.0  T
   3   -224.4332730  0.108995E-04  0.776E-03    0.74       1.2  T
   4   -224.4332842 -0.111734E-04  0.202E-03    0.74       4.5  T
   5   -224.4332848 -0.638838E-06  0.984E-04    0.74       9.2  T
   6   -224.4332850 -0.135983E-06  0.450E-04    0.74      20.2  T
     SCC iter.                  ...        0 min,  0.177 sec
     gradient                   ...        0 min,  0.030 sec
 * total energy  :  -221.9056153 Eh     change       -0.1943113E-04 Eh
   gradient norm :     0.0011007 Eh/α   predicted    -0.8984751E-05 ( -53.76%)
   displ. norm   :     0.2387812 α      lambda       -0.1269958E-04
   maximum displ.:     0.1200419 α      in ANC's #5, #4, #2, ...

........................................................................
.............................. CYCLE   60 ..............................
........................................................................

 iter      E             dE          RMSdq      gap      omega  full diag
   1   -224.4334691 -0.224433E+03  0.266E-02    0.74       0.0  T
   2   -224.4334697 -0.565762E-06  0.157E-02    0.74       1.0  T
   3   -224.4334592  0.104444E-04  0.769E-03    0.74       1.2  T
   4   -224.4334684 -0.920175E-05  0.311E-03    0.74       2.9  T
   5   -224.4334704 -0.193138E-05  0.986E-04    0.74       9.2  T
   6   -224.4334705 -0.142416E-06  0.405E-04    0.74      22.5  T
   7   -224.4334705 -0.407240E-08  0.236E-04    0.74      38.6  T
     SCC iter.                  ...        0 min,  0.295 sec
     gradient                   ...        0 min,  0.032 sec
 * total energy  :  -221.9056297 Eh     change       -0.1439405E-04 Eh
   gradient norm :     0.0009025 Eh/α   predicted    -0.6514194E-05 ( -54.74%)
   displ. norm   :     0.1916742 α      lambda       -0.9852404E-05
   maximum displ.:     0.0906916 α      in ANC's #5, #4, #2, ...

........................................................................
.............................. CYCLE   61 ..............................
........................................................................

 iter      E             dE          RMSdq      gap      omega  full diag
   1   -224.4331626 -0.224433E+03  0.222E-02    0.74       0.0  T
   2   -224.4331632 -0.576513E-06  0.131E-02    0.74       1.0  T
   3   -224.4331594  0.379837E-05  0.506E-03    0.74       1.8  T
   4   -224.4331635 -0.415246E-05  0.994E-04    0.74       9.1  T
   5   -224.4331637 -0.112693E-06  0.524E-04    0.74      17.4  T
   6   -224.4331637 -0.187418E-07  0.304E-04    0.74      29.9  T
     SCC iter.                  ...        0 min,  0.198 sec
     gradient                   ...        0 min,  0.032 sec
 * total energy  :  -221.9056409 Eh     change       -0.1118388E-04 Eh
   gradient norm :     0.0006799 Eh/α   predicted    -0.5009146E-05 ( -55.21%)
   displ. norm   :     0.1438429 α      lambda       -0.8131025E-05
   maximum displ.:     0.0644101 α      in ANC's #4, #11, #2, ...

........................................................................
.............................. CYCLE   62 ..............................
........................................................................

 iter      E             dE          RMSdq      gap      omega  full diag
   1   -224.4332099 -0.224433E+03  0.186E-02    0.74       0.0  T
   2   -224.4332103 -0.452203E-06  0.110E-02    0.74       1.0  T
   3   -224.4332062  0.410492E-05  0.502E-03    0.74       1.8  T
   4   -224.4332096 -0.336179E-05  0.234E-03    0.74       3.9  T
   5   -224.4332106 -0.106495E-05  0.734E-04    0.74      12.4  T
   6   -224.4332107 -0.754679E-07  0.323E-04    0.74      28.1  T
   7   -224.4332107 -0.552524E-08  0.144E-04    0.74      63.2  T
     SCC iter.                  ...        0 min,  0.215 sec
     gradient                   ...        0 min,  0.033 sec
 * total energy  :  -221.9056498 Eh     change       -0.8869114E-05 Eh
   gradient norm :     0.0005911 Eh/α   predicted    -0.4104372E-05 ( -53.72%)
   displ. norm   :     0.1137106 α      lambda       -0.5831156E-05
   maximum displ.:     0.0519172 α      in ANC's #4, #6, #2, ...

........................................................................
.............................. CYCLE   63 ..............................
........................................................................

 iter      E             dE          RMSdq      gap      omega  full diag
   1   -224.4329763 -0.224433E+03  0.152E-02    0.74       0.0  T
   2   -224.4329765 -0.259631E-06  0.901E-03    0.74       1.0  T
   3   -224.4329713  0.520761E-05  0.533E-03    0.74       1.7  T
   4   -224.4329757 -0.436264E-05  0.239E-03    0.74       3.8  T
   5   -224.4329768 -0.117222E-05  0.519E-04    0.74      17.5  T
   6   -224.4329769 -0.269156E-07  0.279E-04    0.74      32.6  T
   7   -224.4329769 -0.346449E-08  0.137E-04    0.74      66.2  T
     SCC iter.                  ...        0 min,  0.187 sec
     gradient                   ...        0 min,  0.032 sec
 * total energy  :  -221.9056560 Eh     change       -0.6260293E-05 Eh
   gradient norm :     0.0006303 Eh/α   predicted    -0.2933522E-05 ( -53.14%)
   displ. norm   :     0.0736358 α      lambda       -0.4007495E-05
   maximum displ.:     0.0356822 α      in ANC's #6, #2, #4, ...

........................................................................
.............................. CYCLE   64 ..............................
........................................................................

 iter      E             dE          RMSdq      gap      omega  full diag
   1   -224.4330207 -0.224433E+03  0.103E-02    0.74       0.0  T
   2   -224.4330207 -0.870390E-07  0.614E-03    0.74       1.5  T
   3   -224.4330166  0.416727E-05  0.464E-03    0.74       2.0  T
   4   -224.4330203 -0.376419E-05  0.177E-03    0.74       5.1  T
   5   -224.4330210 -0.634563E-06  0.372E-04    0.74      24.4  T
   6   -224.4330210 -0.133744E-07  0.211E-04    0.74      43.0  T
     SCC iter.                  ...        0 min,  0.146 sec
     gradient                   ...        0 min,  0.029 sec
 * total energy  :  -221.9056606 Eh     change       -0.4586920E-05 Eh
   gradient norm :     0.0005127 Eh/α   predicted    -0.2009171E-05 ( -56.20%)
   displ. norm   :     0.0728842 α      lambda       -0.4170332E-05
   maximum displ.:     0.0353464 α      in ANC's #6, #2, #9, ...

   *** GEOMETRY OPTIMIZATION CONVERGED AFTER 64 ITERATIONS ***

------------------------------------------------------------------------
 total energy gain   :        -0.0188022 Eh      -11.7985 kcal/mol
 total RMSD          :         1.1828298 a0        0.6259 Å
 total power (kW/mol):        -0.7713293 (step)   -3.1277 (real)
------------------------------------------------------------------------

 ANCopt (total)                0 d,  0 h,  0 min, 15.783 sec
 optimizer setup                ...        0 min,  0.000 sec (  0.000%)
 model hessian                  ...        0 min,  0.200 sec (  1.267%)
 ANC generation                 ...        0 min,  0.052 sec (  0.329%)
 coordinate transformation      ...        0 min,  0.004 sec (  0.025%)
 single point calculation       ...        0 min, 15.373 sec ( 97.402%)
 optimization log               ...        0 min,  0.102 sec (  0.646%)
 hessian update                 ...        0 min,  0.016 sec (  0.101%)
 rational function              ...        0 min,  0.016 sec (  0.101%)

================
 final structure:
================
121
 xtb: 6.7.1pre (5071a88)
N            7.13837981418836       -1.76059643678192        6.24554969467892
C            6.02990082181787       -1.08067060025350        5.84851359932833
O            5.70981112184955       -1.00453407146321        4.68147076516889
C            5.26100645812447       -0.43821376440466        6.95312815086497
C            5.88392683698987        0.10211047560200        8.07374940462724
C            5.11870051717864        0.71604387518863        9.04879093306973
C            3.74234897385048        0.78308806878901        8.92095397141854
C            3.10129362139743        0.24337923383272        7.81030190042117
C            3.87909736478360       -0.35509777655684        6.82804435865919
C            1.61036681623167        0.32130769048372        7.63710057803687
C            1.11777782415879        1.77667108960040        7.46706347139241
C            0.38321842521697        2.26713232750747        8.70870825385308
C           -0.82019631872275        1.36848810758196        8.99952950069024
N           -0.54561901807690       -0.01177270669418        8.64481316663072
C           -1.49770975889067       -0.93069027428305        9.21731051879004
C           -2.85224352311529       -0.75479544622951        8.58141983349463
C           -2.91973495508346       -0.55742449546040        7.18598139018584
C           -4.11843677927439       -0.40528275192467        6.55154121621084
C           -5.32311238859628       -0.45397178304108        7.28666235616148
N           -6.49440679475942       -0.30773420102450        6.63673108408450
C           -7.60151215547873       -0.35753210208386        7.32151958452742
C           -7.65814472302275       -0.55561993069408        8.71262435519260
C           -6.48296492521085       -0.70417525689221        9.39824167991813
C           -5.26280192031179       -0.65692380509551        8.69435037171740
C           -4.00643256407007       -0.79830849889401        9.31635273259895
C            0.84763923115846       -0.35782471791622        8.78860623037030
H            7.66811105785904       -2.25559599009913        5.54762146664241
H            7.33678820118477       -1.93284406154373        7.21406982375294
H            6.95976533132000        0.07853892212513        8.17133439974656
H            5.59961563258638        1.14953205440204        9.91401681544329
H            3.16702565478059        1.27359581365669        9.69132096919265
H            3.42079555879626       -0.76615560040993        5.94215169334487
H            1.34626831048085       -0.22142557810898        6.73065383040162
H            0.43155131889779        1.81716207860273        6.62227356761695
H            1.96281524274270        2.43149348949871        7.24871923630216
H            1.06140766482002        2.27380162503775        9.56421873065183
H            0.03985810201149        3.29188917859451        8.55998002605059
H           -1.09615315196187        1.45813365705277       10.06853848543945
H           -1.68157182942303        1.69495886579473        8.40795230057055
H           -1.15297698950682       -1.94962032427371        9.00992453523868
H           -1.58621494995114       -0.82233793520413       10.31693908464688
H           -1.99263373331010       -0.51543214948323        6.63795609151824
H           -4.17107866050159       -0.24690450436189        5.48622869358165
H           -8.51460824562459       -0.23484215968188        6.75161511022426
H           -8.61248429579786       -0.58824682856826        9.21620789789921
H           -6.47287833441819       -0.85882992642422       10.46924621470115
H           -3.97369808783245       -0.94547393644062       10.38823986097856
H            1.25897233310603       -0.06777348088921        9.77086005808873
H            0.95916338237477       -1.44082539359061        8.69712816583205
B            3.40420670395451       -1.50911125458992        2.20133873678841
N            3.44845864030396        1.08454587047895        1.55872549414562
B            2.69295495802127        2.37914792903447       -0.65807389548167
N            2.49068436054759       -0.59631356949421       -2.20107368117126
B            0.54943358817608       -3.60505402487513        3.07173195275313
N           -3.00857885338066       -2.63524776138561        1.89149602390053
B           -1.04415640739365        4.07599685949605        2.26136905288992
N           -0.34057523294603        0.12093145212520       -3.56308610819891
B           -0.16898737395985        1.54963294794591       -3.67235100769489
N            1.31977654138386       -3.74650561674252       -1.33648374006081
B           -3.73267336627499        2.28309882429049       -0.25913209666534
N           -2.61566076858426        2.83884003451402       -0.90303574586289
B            1.74443055778727        0.91680335493705       -4.37482861063137
N           -0.30992514797068        3.32673082393801        3.29586135902966
B            1.08009610273586       -2.81496791948531       -2.40806528412877
N           -0.33928440138482        3.81100406173161       -0.55027722777281
B           -0.91934588420417        2.14374296647469        3.68411461328546
N            1.49075474109824       -1.34826432004805        3.97145163475420
B           -0.02045767759632        3.53717285490977       -1.90941013299017
N            1.14222466618707       -0.00503371232722        4.29310615440268
B           -1.37139217876784       -0.46167601303774       -2.77370660687903
N           -3.80035884512819        1.82254164564241        1.05500370220848
B            0.37067901147062        4.48487021835847        1.70300211801226
N           -0.16300813926114       -0.08774349839711        4.85468353677314
B           -2.71962683660624        2.24407944324159        1.89711606768677
N            3.86146128830078       -0.14294587952895       -0.14784332971186
B           -2.29312177055421       -3.61327873609593        1.21129914573436
N            1.01780311385304        3.69321147015912        2.77859335988210
B           -1.96536499573288       -0.80224347408877        3.49886493112560
N           -2.39252200873135       -3.54487266249245       -0.25483424159549
B            3.14123509300972       -1.06082315474411       -0.94168994570812
N           -3.09209105089631       -1.18912804768531       -0.18124304411990
B            2.02445249393709        2.88269590000757        2.14296181999235
N           -0.34580508043302       -2.82753391599463       -2.10943177209065
B           -1.49781445051051       -2.02494487421209       -2.21772642783771
N            0.69189053152215        3.97838046716958        0.41380305262069
B            1.35711789380509        3.02699491301610       -2.64357921629655
N           -0.01401990557598       -4.37614114664015        2.04043340241785
B           -1.66665454238220        3.49892838804777       -0.03007652897231
N           -1.97838208500397        3.43777579520948        1.39335810974321
B            1.38690145452745       -4.23855971832443        1.90091959848590
N           -0.97867381083193        1.00714792909229        4.57573655486498
B           -2.56730365496111       -2.32811335116436       -0.96618392103828
N           -1.12409070629999       -4.47209849375948        1.24372802619160
B           -2.31987900959973        0.58095393954902       -1.82931701959913
N            2.33629125659509       -3.90518947151819        0.91516706376130
B            3.91649506030993       -0.24319964430882        1.34992272891276
N            2.14394481659768        2.00144186913144       -1.90087463554178
B            1.34169073864507        2.35178409186055       -4.10071249005878
N           -4.09698838232455        0.90427463650464       -0.16027478580740
B           -1.07754515267390        2.54882102457215       -2.72604971531263
N           -2.14907073676403        2.02413303393416       -1.98811592469559
B            3.06456886462206       -2.67578913543806        1.12946310057265
N            2.40156790675253       -3.66271972234886       -0.50290995304752
B            2.11403031307045        0.47797783970026        3.34318233975126
N           -2.17368455758812        0.58172821021679        3.89899241050800
B           -1.06625464231112       -4.14233078749658       -0.18096996609048
N           -3.10416319752245        0.11704708288174       -0.73114584113298
B            3.54617790751831        1.24942355788509        0.11506043884504
N            2.53120618463190        1.57950631780300        2.51619488835381
B            1.70668229233985       -1.48375054470742       -3.04984593819716
N           -2.18674741792612        1.74196344685955        3.08010628499108
B            2.28301732749905        0.77001704145049       -2.66554069721489
N           -2.81492698761924       -1.33819167486783        2.54155395192963
B            0.96079240850989       -0.43915963791015       -4.04482181472514
N           -0.07826161651453       -3.71184107146905       -1.03344066756718
B            0.31673340367334       -2.16219437244553        3.81659379600692
N           -0.76901754652880       -1.25787658908153        4.16534987160156
B           -3.24349321176638       -1.41558573435895        1.19240964395727
N            2.55694491085392       -0.92026278601112        3.15045134336384
B            1.97071516449861        3.33681497758863        0.47775811330512
N            2.94649582280017       -2.33130296731086       -0.26702056957475
 
 Bond Distances (Angstroems)
 ---------------------------
N1-C2=1.3597         N1-H27=1.0064        N1-H28=1.0035        C2-N1=1.3597         C2-O3=1.2125         C2-C4=1.4913         
O3-C2=1.2125         C4-C2=1.4913         C4-C5=1.3913         C4-C9=1.3900         C5-C4=1.3913         C5-C6=1.3832         
C5-H29=1.0805        C6-C5=1.3832         C6-C7=1.3839         C6-H30=1.0807        C7-C6=1.3839         C7-C8=1.3913         
C7-H31=1.0794        C8-C7=1.3913         C8-C9=1.3885         C8-C10=1.5030        C9-C4=1.3900         C9-C8=1.3885         
C9-H32=1.0788        C10-C8=1.5030        C10-C11=1.5458       C10-C26=1.5391       C10-H33=1.0890       C11-C10=1.5458       
C11-C12=1.5237       C11-H34=1.0891       C11-H35=1.0911       C12-C11=1.5237       C12-C13=1.5298       C12-H36=1.0917       
C12-H37=1.0909       C13-C12=1.5298       C13-N14=1.4513       C13-H38=1.1077       C13-H39=1.0948       N14-C13=1.4513       
N14-C15=1.4417       N14-C26=1.4428       C15-N14=1.4417       C15-C16=1.5067       C15-H40=1.0955       C15-H41=1.1085       
C16-C15=1.5067       C16-C17=1.4109       C16-C25=1.3690       C17-C16=1.4109       C17-C18=1.3648       C17-H42=1.0778       
C18-C17=1.3648       C18-C19=1.4121       C18-H43=1.0783       C19-C18=1.4121       C19-N20=1.3475       C19-C24=1.4235       
N20-C19=1.3475       N20-C21=1.3027       C21-N20=1.3027       C21-C22=1.4063       C21-H44=1.0833       C22-C21=1.4063       
C22-C23=1.3686       C22-H45=1.0795       C23-C22=1.3686       C23-C24=1.4094       C23-H46=1.0822       C24-C19=1.4235       
C24-C23=1.4094       C24-C25=1.4090       C25-C16=1.3690       C25-C24=1.4090       C25-H47=1.0824       C26-C10=1.5391       
C26-N14=1.4428       C26-H48=1.1037       C26-H49=1.0926       H27-N1=1.0064        H28-N1=1.0035        H29-C5=1.0805        
H30-C6=1.0807        H31-C7=1.0794        H32-C9=1.0788        H33-C10=1.0890       H34-C11=1.0891       H35-C11=1.0911       
H36-C12=1.0917       H37-C12=1.0909       H38-C13=1.1077       H39-C13=1.0948       H40-C15=1.0955       H41-C15=1.1085       
H42-C17=1.0778       H43-C18=1.0783       H44-C21=1.0833       H45-C22=1.0795       H46-C23=1.0822       H47-C25=1.0824       
H48-C26=1.1037       H49-C26=1.0926       B50-B96=1.6093       B50-B102=1.6203      B50-N119=1.4019      N51-B96=1.4232       
N51-B108=1.4563      N51-N109=1.4153      B52-N97=1.4102       B52-B108=1.6131      B52-B120=1.6519      N53-B80=1.4917       
N53-B110=1.4569      N53-B112=1.4580      B54-N87=1.4056       B54-B90=1.5727       B54-B116=1.6404      N55-B76=1.3896       
N55-N113=1.4637      N55-B118=1.4253      B56-N63=1.4733       B56-B72=1.5750       B56-N89=1.4260       N57-B58=1.4431       
N57-B70=1.4231       N57-B114=1.4964      B58-N57=1.4431       B58-B62=2.1343       B58-B98=1.7633       B58-B100=1.6490      
N59-B64=1.4400       N59-N103=1.3683      N59-N115=1.4309      B60-N61=1.4040       B60-N71=1.3941       B60-N99=1.4296       
N61-B60=1.4040       N61-B88=1.4486       N61-N101=1.4349      B62-B58=2.1343       B62-B98=1.5154       B62-B112=1.7981      
B62-B114=1.6005      N63-B56=1.4733       N63-B66=1.3862       N63-N77=1.4713       B64-N59=1.4400       B64-N83=1.4569       
B64-B110=1.6052      B64-N115=2.0089      N65-B68=1.4226       N65-N85=1.4215       N65-B88=1.4594       B66-N63=1.3862       
B66-N91=1.4458       B66-N105=2.0148      B66-N111=1.4603      N67-N69=1.4245       N67-B116=1.4369      N67-N119=1.4121      
B68-N65=1.4226       B68-B86=1.6423       B68-B100=1.6617      N69-N67=1.4245       N69-N73=1.4233       N69-B104=1.4422      
B70-N57=1.4231       B70-B84=1.6640       B70-B94=1.6966       N71-B60=1.3941       N71-B74=1.4335       N71-N99=1.5518       
B72-B56=1.5750       B72-N77=1.4840       B72-N85=1.4219       N73-N69=1.4233       N73-N91=1.3935       N73-N117=1.4872      
B74-N71=1.4335       B74-N89=1.4927       B74-N111=1.3912      N75-B80=1.4112       N75-B96=1.5021       N75-B108=1.4516      
B76-N55=1.3896       B76-N79=1.4711       B76-N93=1.4510       B76-B106=1.9296      N77-N63=1.4713       N77-B72=1.4840       
N77-B82=1.4402       B78-N105=1.4556      B78-N113=1.3876      B78-N117=1.4433      N79-B76=1.4711       N79-B92=1.4202       
N79-B106=1.4565      B80-N53=1.4917       B80-N75=1.4112       B80-N121=1.4516      N81-B92=1.4795       N81-N107=1.4173      
N81-B118=1.4004      B82-N77=1.4402       B82-N109=1.4472      B82-B120=1.7269      N83-B64=1.4569       N83-B84=1.4082       
N83-N115=1.4182      B84-B70=1.6640       B84-N83=1.4082       B84-B92=1.6739       N85-N65=1.4215       N85-B72=1.4219       
N85-B120=1.4322      B86-B68=1.6423       B86-N97=1.4908       B86-B98=1.6060       N87-B54=1.4056       N87-B90=1.4146       
N87-N93=1.3697       B88-N61=1.4486       B88-N65=1.4594       B88-N89=1.4585       N89-B56=1.4260       N89-B74=1.4927       
N89-B88=1.4585       B90-B54=1.5727       B90-N87=1.4146       B90-N95=1.4086       N91-B66=1.4458       N91-N73=1.3935       
N91-N105=1.4377      B92-N79=1.4202       B92-N81=1.4795       B92-B84=1.6739       N93-B76=1.4510       N93-N87=1.3697       
N93-B106=1.4635      B94-B70=1.6966       B94-N101=1.4619      B94-N107=1.4270      N95-B90=1.4086       N95-B102=1.4449      
N95-N103=1.4401      B96-B50=1.6093       B96-N51=1.4232       B96-N75=1.5021       B96-B108=1.9723      N97-B52=1.4102       
N97-B86=1.4908       N97-B112=1.4562      B98-B58=1.7633       B98-B62=1.5154       B98-B86=1.6060       N99-B60=1.4296       
N99-N71=1.5518       N99-N107=1.3897      B100-B58=1.6490      B100-B68=1.6617      B100-N101=1.4029     N101-N61=1.4349      
N101-B94=1.4619      N101-B100=1.4029     B102-B50=1.6203      B102-N95=1.4449      B102-N121=1.4432     N103-N59=1.3683      
N103-N95=1.4401      N103-N121=1.4578     B104-N69=1.4422      B104-N109=1.4392     B104-N119=1.4793     N105-B66=2.0148      
N105-B78=1.4556      N105-N91=1.4377      N105-N111=1.4202     B106-B76=1.9296      B106-N79=1.4565      B106-N93=1.4635      
B106-N115=1.3741     N107-N81=1.4173      N107-B94=1.4270      N107-N99=1.3897      B108-N51=1.4563      B108-B52=1.6131      
B108-N75=1.4516      B108-B96=1.9723      N109-N51=1.4153      N109-B82=1.4472      N109-B104=1.4392     B110-N53=1.4569      
B110-B64=1.6052      B110-B114=1.6240     N111-B66=1.4603      N111-B74=1.3912      N111-N105=1.4202     B112-N53=1.4580      
B112-B62=1.7981      B112-N97=1.4562      N113-N55=1.4637      N113-B78=1.3876      N113-B118=1.4177     B114-N57=1.4964      
B114-B62=1.6005      B114-B110=1.6240     N115-N59=1.4309      N115-B64=2.0089      N115-N83=1.4182      N115-B106=1.3741     
B116-B54=1.6404      B116-N67=1.4369      B116-N117=1.4554     N117-N73=1.4872      N117-B78=1.4433      N117-B116=1.4554     
B118-N55=1.4253      B118-N81=1.4004      B118-N113=1.4177     N119-B50=1.4019      N119-N67=1.4121      N119-B104=1.4793     
B120-B52=1.6519      B120-B82=1.7269      B120-N85=1.4322      N121-B80=1.4516      N121-B102=1.4432     N121-N103=1.4578     
 B  B  Rav=1.6894 sigma=0.1390  Rmin=1.5154  Rmax=2.1343    24
 C  H  Rav=1.0885 sigma=0.0093  Rmin=1.0778  Rmax=1.1085    21
 C  C  Rav=1.4337 sigma=0.0615  Rmin=1.3648  Rmax=1.5458    22
 N  H  Rav=1.0049 sigma=0.0014  Rmin=1.0035  Rmax=1.0064     2
 N  B  Rav=1.4559 sigma=0.1011  Rmin=1.3741  Rmax=2.0148    68
 N  C  Rav=1.3910 sigma=0.0571  Rmin=1.3027  Rmax=1.4513     6
 N  N  Rav=1.4309 sigma=0.0399  Rmin=1.3683  Rmax=1.5518    21
 O  C  Rav=1.2125 sigma=0.0000  Rmin=1.2125  Rmax=1.2125     1
 
 selected bond angles (degree)
 --------------------
H27-N1-C2=118.20               H28-N1-C2=121.93               H28-N1-H27=118.74              O3-C2-N1=121.85                
C4-C2-N1=114.80                C4-C2-O3=123.35                C5-C4-C2=122.21                C9-C4-C2=118.14                
C9-C4-C5=119.63                C6-C5-C4=119.50                H29-C5-C4=120.67               H29-C5-C6=119.79               
C7-C6-C5=120.44                H30-C6-C5=119.75               H30-C6-C7=119.81               C8-C7-C6=120.88                
H31-C7-C6=119.09               H31-C7-C8=120.03               C9-C8-C7=118.28                C10-C8-C7=121.93               
C10-C8-C9=119.77               C8-C9-C4=121.27                H32-C9-C4=118.26               H32-C9-C8=120.48               
C11-C10-C8=112.18              C26-C10-C8=112.49              C26-C10-C11=109.86             H33-C10-C8=108.10              
H33-C10-C11=107.48             H33-C10-C26=106.42             
 
 selected dihedral angles (degree)
 ---------------------------------
O3-C2-N1-H27=356.30           O3-C2-N1-H28=188.61           C4-C2-N1-H27=176.77           C4-C2-N1-H28=  9.07           
C5-C4-C2-N1= 34.94            C5-C4-C2-O3=215.42            C9-C4-C2-N1=213.33            C9-C4-C2-O3= 33.80            
C6-C5-C4-C2=178.32            C6-C5-C4-C9=359.96            H29-C5-C4-C2=  0.57           H29-C5-C4-C9=182.21           
C7-C6-C5-C4=  0.63            C7-C6-C5-H29=178.39           H30-C6-C5-C4=180.87           H30-C6-C5-H29=358.64          
C8-C7-C6-C5=359.65            C8-C7-C6-H30=179.40           H31-C7-C6-C5=180.44           H31-C7-C6-H30=  0.20          
C9-C8-C7-C6=359.50            C9-C8-C7-H31=178.69           C10-C8-C7-C6=180.95           C10-C8-C7-H31=  0.14          
C8-C9-C4-C2=180.74            C8-C9-C4-C5=359.16            H32-C9-C4-C2=  0.53           H32-C9-C4-C5=178.95           
C4-C9-C8-C7=  1.10            C4-C9-C8-C10=179.68           H32-C9-C8-C7=181.31           H32-C9-C8-C10=359.89          
C11-C10-C8-C7= 65.15          C11-C10-C8-C9=246.62          C26-C10-C8-C7=300.68          C26-C10-C8-C9=122.15          
H33-C10-C8-C7=183.47          H33-C10-C8-C9=  4.95          
 
 CMA Distance (Angstroems)
 ---------------------------
R(CMA):  7.3314
           -------------------------------------------------
          |                Final Singlepoint                |
           -------------------------------------------------

          ...................................................
          :                      SETUP                      :
          :.................................................:
          :  # basis functions                 415          :
          :  # atomic orbitals                 415          :
          :  # shells                          219          :
          :  # electrons                       420          :
          :  max. iterations                    50          :
          :  Hamiltonian                  GFN2-xTB          :
          :  restarted?                      false          :
          :  GBSA solvation                  false          :
          :  PC potential                    false          :
          :  electronic temp.          300.0000000     K    :
          :  accuracy                    1.0000000          :
          :  -> integral cutoff          0.2500000E+02      :
          :  -> integral neglect         0.1000000E-07      :
          :  -> SCF convergence          0.1000000E-05 Eh   :
          :  -> wf. convergence          0.1000000E-03 e    :
          :  Broyden damping             0.4000000          :
          :  net charge                          0          :
          :  unpaired electrons                  0          :
          ...................................................

 iter      E             dE          RMSdq      gap      omega  full diag
   1   -224.4330210 -0.224433E+03  0.102E-04    0.74       0.0  T
   2   -224.4330210  0.102153E-08  0.117E-04    0.74      77.6  T
   3   -224.4330210 -0.255690E-08  0.297E-05    0.74     305.8  T

   *** convergence criteria satisfied after 3 iterations ***

         #    Occupation            Energy/Eh            Energy/eV
      -------------------------------------------------------------
         1        2.0000           -0.6855429             -18.6546
       ...           ...                  ...                  ...
       204        2.0000           -0.3227195              -8.7816
       205        2.0000           -0.3199871              -8.7073
       206        2.0000           -0.3185640              -8.6686
       207        2.0000           -0.3154666              -8.5843
       208        2.0000           -0.3098750              -8.4321
       209        2.0000           -0.3083042              -8.3894
       210        2.0000           -0.3058147              -8.3216 (HOMO)
       211        0.0000           -0.2787024              -7.5839 (LUMO)
       212                         -0.2700250              -7.3478
       213                         -0.2596905              -7.0665
       214                         -0.2563849              -6.9766
       215                         -0.2450019              -6.6668
       ...                                ...                  ...
       415                          0.9893229              26.9208
      -------------------------------------------------------------
                  HL-Gap            0.0271123 Eh            0.7378 eV
             Fermi-level           -0.2922191 Eh           -7.9517 eV

 SCC (total)                   0 d,  0 h,  0 min,  0.122 sec
 SCC setup                      ...        0 min,  0.001 sec (  0.820%)
 Dispersion                     ...        0 min,  0.002 sec (  1.639%)
 classical contributions        ...        0 min,  0.000 sec (  0.000%)
 integral evaluation            ...        0 min,  0.009 sec (  7.377%)
 iterations                     ...        0 min,  0.078 sec ( 63.934%)
 molecular gradient             ...        0 min,  0.029 sec ( 23.770%)
 printout                       ...        0 min,  0.003 sec (  2.459%)

         :::::::::::::::::::::::::::::::::::::::::::::::::::::
         ::                     SUMMARY                     ::
         :::::::::::::::::::::::::::::::::::::::::::::::::::::
         :: total energy            -221.905660620308 Eh    ::
         :: gradient norm              0.000522296926 Eh/a0 ::
         :: HOMO-LUMO gap              0.737762346994 eV    ::
         ::.................................................::
         :: SCC energy              -224.416840355559 Eh    ::
         :: -> isotropic ES            0.683623081214 Eh    ::
         :: -> anisotropic ES         -0.021827972549 Eh    ::
         :: -> anisotropic XC          0.106941675293 Eh    ::
         :: -> dispersion             -0.213981213413 Eh    ::
         :: repulsion energy           2.511179735251 Eh    ::
         :: add. restraining           0.000000000000 Eh    ::
         :: total charge               0.000000000063 e     ::
         :::::::::::::::::::::::::::::::::::::::::::::::::::::

           -------------------------------------------------
          |                Property Printout                |
           -------------------------------------------------

    * Orbital Energies and Occupations

         #    Occupation            Energy/Eh            Energy/eV
      -------------------------------------------------------------
         1        2.0000           -0.6855429             -18.6546
       ...           ...                  ...                  ...
       198        2.0000           -0.3333464              -9.0708
       199        2.0000           -0.3300429              -8.9809
       200        2.0000           -0.3278886              -8.9223
       201        2.0000           -0.3271957              -8.9034
       202        2.0000           -0.3251391              -8.8475
       203        2.0000           -0.3239337              -8.8147
       204        2.0000           -0.3227195              -8.7816
       205        2.0000           -0.3199871              -8.7073
       206        2.0000           -0.3185640              -8.6686
       207        2.0000           -0.3154666              -8.5843
       208        2.0000           -0.3098750              -8.4321
       209        2.0000           -0.3083042              -8.3894
       210        2.0000           -0.3058147              -8.3216 (HOMO)
       211        0.0000           -0.2787024              -7.5839 (LUMO)
       212                         -0.2700250              -7.3478
       213                         -0.2596905              -7.0665
       214                         -0.2563849              -6.9766
       215                         -0.2450019              -6.6668
       216                         -0.2430294              -6.6132
       217                         -0.2402882              -6.5386
       218                         -0.2302891              -6.2665
       219                         -0.2262340              -6.1561
       220                         -0.2246027              -6.1118
       221                         -0.2194883              -5.9726
       ...                                ...                  ...
       415                          0.9893229              26.9208
      -------------------------------------------------------------
                  HL-Gap            0.0271123 Eh            0.7378 eV
             Fermi-level           -0.2922191 Eh           -7.9517 eV

     #   Z          covCN         q      C6AA      α(0)
     1   7 N        2.639    -0.276    27.142     7.738
     2   6 C        2.751     0.280    22.262     7.726
     3   8 O        0.859    -0.431    22.315     6.333
     4   6 C        2.974    -0.023    28.562     8.766
     5   6 C        2.921    -0.040    29.000     8.831
     6   6 C        2.917    -0.034    28.847     8.808
     7   6 C        2.925    -0.035    28.865     8.811
     8   6 C        2.968     0.016    27.652     8.626
     9   6 C        2.932    -0.038    28.948     8.824
    10   6 C        3.862    -0.043    21.306     6.564
    11   6 C        3.806    -0.067    21.778     6.643
    12   6 C        3.803    -0.057    21.590     6.615
    13   6 C        3.761     0.009    20.467     6.449
    14   7 N        2.735    -0.164    24.538     7.357
    15   6 C        3.760     0.004    20.551     6.463
    16   6 C        2.968     0.010    27.784     8.646
    17   6 C        2.921    -0.039    28.959     8.825
    18   6 C        2.917    -0.044    29.086     8.844
    19   6 C        2.973     0.088    26.042     8.371
    20   7 N        1.840    -0.231    26.894     7.685
    21   6 C        2.903     0.060    26.651     8.465
    22   6 C        2.910    -0.046    29.140     8.852
    23   6 C        2.924    -0.020    28.517     8.757
    24   6 C        2.984    -0.000    28.028     8.684
    25   6 C        2.919    -0.050    29.237     8.867
    26   6 C        3.756     0.013    20.416     6.442
    27   1 H        0.860     0.190     1.161     1.688
    28   1 H        0.861     0.179     1.218     1.729
    29   1 H        0.926     0.029     2.595     2.519
    30   1 H        0.926     0.032     2.557     2.501
    31   1 H        0.926     0.038     2.475     2.460
    32   1 H        0.926     0.066     2.135     2.285
    33   1 H        0.925     0.070     2.091     2.261
    34   1 H        0.925     0.057     2.235     2.338
    35   1 H        0.924     0.036     2.501     2.473
    36   1 H        0.924     0.032     2.559     2.502
    37   1 H        0.924     0.032     2.553     2.499
    38   1 H        0.922     0.004     2.996     2.707
    39   1 H        0.924     0.035     2.512     2.479
    40   1 H        0.924     0.044     2.395     2.420
    41   1 H        0.922     0.008     2.917     2.671
    42   1 H        0.926     0.075     2.035     2.231
    43   1 H        0.926     0.065     2.142     2.289
    44   1 H        0.925     0.033     2.550     2.497
    45   1 H        0.926     0.028     2.612     2.528
    46   1 H        0.925     0.029     2.607     2.525
    47   1 H        0.925     0.027     2.628     2.535
    48   1 H        0.923     0.011     2.877     2.653
    49   1 H        0.924     0.029     2.608     2.525
    50   5 B        2.781     0.090    19.971     7.472
    51   7 N        2.780    -0.220    25.797     7.544
    52   5 B        2.788     0.093    19.921     7.461
    53   7 N        2.524    -0.314    28.111     7.874
    54   5 B        2.780     0.082    20.102     7.497
    55   7 N        2.655    -0.269    26.973     7.713
    56   5 B        2.851     0.241    17.667     7.018
    57   7 N        2.529    -0.273    27.088     7.729
    58   5 B        3.199     0.150    18.937     7.258
    59   7 N        2.979    -0.111    23.409     7.186
    60   5 B        2.644     0.373    16.327     6.814
    61   7 N        2.669    -0.213    25.643     7.521
    62   5 B        3.183     0.021    21.007     7.644
    63   7 N        2.884    -0.225    25.899     7.558
    64   5 B        3.009     0.209    18.081     7.093
    65   7 N        2.660    -0.164    24.543     7.358
    66   5 B        2.905     0.321    16.595     6.798
    67   7 N        3.152    -0.087    22.931     7.112
    68   5 B        2.779     0.093    19.919     7.463
    69   7 N        3.034    -0.134    23.888     7.259
    70   5 B        2.758     0.089    20.011     7.485
    71   7 N        2.634    -0.308    27.925     7.848
    72   5 B        3.036     0.225    17.845     7.046
    73   7 N        2.981    -0.003    21.306     6.856
    74   5 B        2.582     0.326    17.298     7.085
    75   7 N        2.599    -0.359    29.261     8.034
    76   5 B        3.286     0.340    16.341     6.741
    77   7 N        2.785    -0.254    26.600     7.660
    78   5 B        2.559     0.321    17.587     7.184
    79   7 N        2.579    -0.369    29.537     8.071
    80   5 B        2.529     0.300    18.246     7.382
    81   7 N        2.665    -0.205    25.458     7.494
    82   5 B        2.699     0.196    18.505     7.218
    83   7 N        2.843    -0.168    24.615     7.369
    84   5 B        2.758     0.082    20.140     7.509
    85   7 N        2.672    -0.174    24.776     7.393
    86   5 B        2.877     0.110    19.584     7.387
    87   7 N        2.663    -0.146    24.162     7.300
    88   5 B        2.594     0.312    17.392     7.087
    89   7 N        2.519    -0.355    29.180     8.022
    90   5 B        2.683     0.184    18.726     7.270
    91   7 N        3.005    -0.133    23.877     7.257
    92   5 B        2.677     0.210    18.363     7.202
    93   7 N        2.716    -0.250    26.495     7.645
    94   5 B        2.647     0.164    19.169     7.381
    95   7 N        2.826    -0.206    25.481     7.497
    96   5 B        3.321     0.238    17.668     7.009
    97   7 N        2.531    -0.286    27.405     7.774
    98   5 B        2.951     0.035    20.797     7.609
    99   7 N        2.783    -0.184    24.988     7.424
   100   5 B        2.796     0.084    20.048     7.483
   101   7 N        2.673    -0.156    24.379     7.333
   102   5 B        3.018     0.212    18.028     7.083
   103   7 N        3.270     0.014    20.999     6.806
   104   5 B        2.869     0.310    16.743     6.831
   105   7 N        3.154    -0.115    23.503     7.200
   106   5 B        3.263     0.320    16.588     6.792
   107   7 N        2.833    -0.061    22.422     7.033
   108   5 B        3.302     0.229    17.786     7.033
   109   7 N        2.656    -0.180    24.894     7.410
   110   5 B        2.837     0.112    19.578     7.389
   111   7 N        2.833    -0.224    25.894     7.558
   112   5 B        2.860     0.252    17.508     6.986
   113   7 N        2.654    -0.230    26.028     7.577
   114   5 B        3.009     0.114    19.494     7.365
   115   7 N        3.153    -0.086    22.912     7.109
   116   5 B        2.674     0.203    18.482     7.228
   117   7 N        2.694    -0.234    26.126     7.591
   118   5 B        2.584     0.370    16.716     6.961
   119   7 N        2.880    -0.172    24.723     7.385
   120   5 B        2.824     0.106    19.669     7.408
   121   7 N        2.828    -0.253    26.554     7.653

 Mol. C6AA /au·bohr⁶  :     252265.032088
 Mol. C8AA /au·bohr⁸  :    6972296.065621
 Mol. α(0) /au        :        791.131046


Wiberg/Mayer (AO) data.
largest (>0.10) Wiberg bond orders for each atom

 ---------------------------------------------------------------------------
     #   Z sym  total        # sym  WBO       # sym  WBO       # sym  WBO
 ---------------------------------------------------------------------------
     1   7 N    3.357 --     2 C    1.226    28 H    0.947    27 H    0.944
                             3 O    0.197
     2   6 C    3.945 --     3 O    1.693     1 N    1.226     4 C    0.985
     3   8 O    2.012 --     2 C    1.693     1 N    0.197
     4   6 C    3.988 --     9 C    1.403     5 C    1.394     2 C    0.985
                             7 C    0.103
     5   6 C    3.990 --     6 C    1.444     4 C    1.394    29 H    0.968
                             8 C    0.106
     6   6 C    3.992 --     5 C    1.444     7 C    1.442    30 H    0.971
                             9 C    0.106
     7   6 C    3.992 --     6 C    1.442     8 C    1.403    31 H    0.965
                             4 C    0.103
     8   6 C    3.987 --     9 C    1.415     7 C    1.403    10 C    1.006
                             5 C    0.106
     9   6 C    3.987 --     8 C    1.415     4 C    1.403    32 H    0.962
                             6 C    0.106
    10   6 C    3.990 --     8 C    1.006    26 C    0.975    11 C    0.974
                            33 H    0.961
    11   6 C    3.994 --    12 C    1.011    35 H    0.977    34 H    0.974
                            10 C    0.974
    12   6 C    3.998 --    11 C    1.011    13 C    1.004    37 H    0.977
                            36 H    0.976
    13   6 C    3.988 --    12 C    1.004    14 N    1.002    39 H    0.973
                            38 H    0.964
    14   7 N    3.143 --    26 C    1.008    15 C    1.007    13 C    1.002
    15   6 C    3.987 --    14 N    1.007    16 C    1.001    41 H    0.957
                            40 H    0.954
    16   6 C    3.988 --    25 C    1.534    17 C    1.287    15 C    1.001
    17   6 C    3.987 --    18 C    1.572    16 C    1.287    42 H    0.961
    18   6 C    3.989 --    17 C    1.572    19 C    1.263    43 H    0.963
                            25 C    0.112
    19   6 C    3.982 --    20 N    1.290    18 C    1.263    24 C    1.234
    20   7 N    3.066 --    21 C    1.551    19 C    1.290    23 C    0.105
    21   6 C    3.980 --    20 N    1.551    22 C    1.308    44 H    0.963
    22   6 C    3.992 --    23 C    1.551    21 C    1.308    45 H    0.971
    23   6 C    3.989 --    22 C    1.551    24 C    1.289    46 H    0.968
                            20 N    0.105
    24   6 C    3.990 --    23 C    1.289    25 C    1.277    19 C    1.234
    25   6 C    3.990 --    16 C    1.534    24 C    1.277    47 H    0.966
                            18 C    0.112
    26   6 C    3.988 --    14 N    1.008    10 C    0.975    49 H    0.973
                            48 H    0.962
    27   1 H    0.963 --     1 N    0.944
    28   1 H    0.968 --     1 N    0.947
    29   1 H    0.999 --     5 C    0.968
    30   1 H    0.998 --     6 C    0.971
    31   1 H    0.998 --     7 C    0.965
    32   1 H    0.996 --     9 C    0.962
    33   1 H    0.995 --    10 C    0.961
    34   1 H    0.996 --    11 C    0.974
    35   1 H    0.999 --    11 C    0.977
    36   1 H    0.999 --    12 C    0.976
    37   1 H    0.998 --    12 C    0.977
    38   1 H    1.000 --    13 C    0.964
    39   1 H    0.999 --    13 C    0.973
    40   1 H    0.995 --    15 C    0.954
    41   1 H    0.999 --    15 C    0.957
    42   1 H    0.994 --    17 C    0.961
    43   1 H    0.995 --    18 C    0.963
    44   1 H    0.998 --    21 C    0.963
    45   1 H    0.999 --    22 C    0.971
    46   1 H    0.999 --    23 C    0.968
    47   1 H    0.999 --    25 C    0.966
    48   1 H    1.000 --    26 C    0.962
    49   1 H    0.999 --    26 C    0.973
    50   5 B    3.463 --   119 N    1.278   102 B    0.999    96 B    0.966
    51   7 N    3.407 --    96 B    1.143   109 N    1.009   108 B    1.008
    52   5 B    3.464 --    97 N    1.276   120 B    0.977   108 B    0.958
    53   7 N    3.530 --   112 B    1.154   110 B    1.152    80 B    1.014
    54   5 B    3.463 --    87 N    1.240   116 B    0.996    90 B    0.989
    55   7 N    3.266 --    76 B    1.201   118 B    0.968   113 N    0.888
    56   5 B    3.407 --    89 N    1.178    63 N    1.031    72 B    0.963
    57   7 N    3.568 --    70 B    1.277    58 B    1.157   114 B    0.974
    58   5 B    3.393 --    57 N    1.157   100 B    0.932    98 B    0.641
                            62 B    0.295
    59   7 N    3.323 --    64 B    1.114   103 N    1.043   115 N    0.944
    60   5 B    3.433 --    61 N    1.187    71 N    1.126    99 N    0.962
    61   7 N    3.445 --    60 B    1.187    88 B    1.086   101 N    0.966
    62   5 B    3.457 --    98 B    1.286   114 B    1.003   112 B    0.625
                            58 B    0.295
    63   7 N    3.426 --    66 B    1.236    56 B    1.031    77 N    0.928
    64   5 B    3.390 --    59 N    1.114    83 N    1.038   110 B    1.005
    65   7 N    3.510 --    68 B    1.205    88 B    1.124    85 N    0.998
    66   5 B    3.513 --    63 N    1.236    91 N    1.065   111 N    1.004
    67   7 N    3.344 --   116 B    1.146   119 N    0.986    69 N    0.981
    68   5 B    3.414 --    65 N    1.205    86 B    1.008   100 B    0.927
    69   7 N    3.314 --   104 B    1.124    67 N    0.981    73 N    0.970
    70   5 B    3.464 --    57 N    1.277    84 B    0.978    94 B    0.932
    71   7 N    3.220 --    60 B    1.126    74 B    1.068    99 N    0.794
    72   5 B    3.370 --    85 N    1.151    77 N    0.994    56 B    0.963
    73   7 N    3.099 --    91 N    1.012    69 N    0.970   117 N    0.939
    74   5 B    3.510 --   111 N    1.245    71 N    1.068    89 N    0.989
    75   7 N    3.433 --    80 B    1.209   108 B    1.057    96 B    0.921
    76   5 B    3.481 --    55 N    1.201    93 N    1.042    79 N    0.981
    77   7 N    3.279 --    82 B    1.163    72 B    0.994    63 N    0.928
    78   5 B    3.523 --   113 N    1.213   117 N    1.119   105 N    1.031
    79   7 N    3.430 --    92 B    1.220   106 B    0.992    76 B    0.981
    80   5 B    3.521 --    75 N    1.209   121 N    1.097    53 N    1.014
    81   7 N    3.442 --   118 B    1.262    92 B    0.997   107 N    0.990
    82   5 B    3.447 --    77 N    1.163   109 N    1.130   120 B    0.922
    83   7 N    3.469 --    84 B    1.261    64 B    1.038   115 N    0.984
    84   5 B    3.421 --    83 N    1.261    70 B    0.978    92 B    0.959
    85   7 N    3.511 --   120 B    1.172    72 B    1.151    65 N    0.998
    86   5 B    3.347 --    98 B    1.009    68 B    1.008    97 N    0.963
    87   7 N    3.507 --    54 B    1.240    90 B    1.091    93 N    1.035
    88   5 B    3.515 --    65 N    1.124    89 N    1.103    61 N    1.086
    89   7 N    3.477 --    56 B    1.178    88 B    1.103    74 B    0.989
    90   5 B    3.465 --    95 N    1.182    87 N    1.091    54 B    0.989
    91   7 N    3.255 --    66 B    1.065    73 N    1.012   105 N    0.974
    92   5 B    3.391 --    79 N    1.220    81 N    0.997    84 B    0.959
    93   7 N    3.371 --    76 B    1.042    87 N    1.035   106 B    0.986
    94   5 B    3.454 --   107 N    1.191   101 N    1.079    70 B    0.932
    95   7 N    3.406 --    90 B    1.182   102 B    1.070   103 N    0.959
    96   5 B    3.357 --    51 N    1.143    50 B    0.966    75 N    0.921
                           108 B    0.129
    97   7 N    3.561 --    52 B    1.276   112 B    1.105    86 B    0.963
    98   5 B    3.369 --    62 B    1.286    86 B    1.009    58 B    0.641
                           112 B    0.187
    99   7 N    2.987 --   107 N    1.044    60 B    0.962    71 N    0.794
   100   5 B    3.454 --   101 N    1.266    58 B    0.932    68 B    0.927
   101   7 N    3.480 --   100 B    1.266    94 B    1.079    61 N    0.966
   102   5 B    3.441 --   121 N    1.133    95 N    1.070    50 B    0.999
   103   7 N    3.185 --    59 N    1.043    95 N    0.959   121 N    0.951
   104   5 B    3.520 --   109 N    1.160    69 N    1.124   119 N    1.007
   105   7 N    3.216 --    78 B    1.031   111 N    0.984    91 N    0.974
   106   5 B    3.508 --   115 N    1.265    79 N    0.992    93 N    0.986
   107   7 N    3.439 --    94 B    1.191    99 N    1.044    81 N    0.990
   108   5 B    3.329 --    75 N    1.057    51 N    1.008    52 B    0.958
                            96 B    0.129
   109   7 N    3.495 --   104 B    1.160    82 B    1.130    51 N    1.009
   110   5 B    3.386 --    53 N    1.152    64 B    1.005   114 B    1.002
   111   7 N    3.447 --    74 B    1.245    66 B    1.004   105 N    0.984
   112   5 B    3.444 --    53 N    1.154    97 N    1.105    62 B    0.625
                            98 B    0.187   114 B    0.119
   113   7 N    3.332 --    78 B    1.213   118 B    1.034    55 N    0.888
   114   5 B    3.333 --    62 B    1.003   110 B    1.002    57 N    0.974
                           112 B    0.119
   115   7 N    3.440 --   106 B    1.265    83 N    0.984    59 N    0.944
   116   5 B    3.447 --    67 N    1.146   117 N    1.113    54 B    0.996
   117   7 N    3.390 --    78 B    1.119   116 B    1.113    73 N    0.939
   118   5 B    3.438 --    81 N    1.262   113 N    1.034    55 N    0.968
   119   7 N    3.480 --    50 B    1.278   104 B    1.007    67 N    0.986
   120   5 B    3.359 --    85 N    1.172    52 B    0.977    82 B    0.922
   121   7 N    3.417 --   102 B    1.133    80 B    1.097   103 N    0.951
 ---------------------------------------------------------------------------

Topologies differ in total number of bonds
Writing topology from bond orders to xtbtopo.mol

molecular dipole:
                 x           y           z       tot (Debye)
 q only:        2.961       1.824      -2.720
   full:        1.417       0.798       0.227       4.173
molecular quadrupole (traceless):
                xx          xy          yy          xz          yz          zz
 q only:      -22.696      -9.482      -5.131      36.716     -19.353      27.827
  q+dip:      -19.223     -12.926     -15.473      35.912     -14.091      34.696
   full:      -16.960     -11.294     -11.059      39.701     -15.020      28.018

           -------------------------------------------------
          |                Geometry Summary                 |
           -------------------------------------------------

      molecular mass/u    :     1238.8766670
   center of mass at/Å    :       -0.0218650      -0.0518367       2.5266170
  moments of inertia/u·Å² :        0.1758680E+05   0.2526227E+05   0.3083301E+05
rotational constants/cm⁻¹ :        0.9585389E-03   0.6673049E-03   0.5467398E-03

 * 141 selected distances

     #   Z          #   Z                                           value/Å
     1   7 N        2   6 C                                       1.3596554
     2   6 C        3   8 O                                       1.2125360
     4   6 C        5   6 C                                       1.3913204
     5   6 C        6   6 C                                       1.3831818
     6   6 C        7   6 C                                       1.3839007
     7   6 C        8   6 C                                       1.3913253
     4   6 C        9   6 C                                       1.3900458
     8   6 C        9   6 C                                       1.3885185
    11   6 C       12   6 C                                       1.5237493
    12   6 C       13   6 C                                       1.5298189
    13   6 C       14   7 N                                       1.4513224
    14   7 N       15   6 C                                       1.4417489
    16   6 C       17   6 C                                       1.4109427
    17   6 C       18   6 C                                       1.3647519
    18   6 C       19   6 C                                       1.4120968
    19   6 C       20   7 N                                       1.3474892
    20   7 N       21   6 C                                       1.3027270
    21   6 C       22   6 C                                       1.4062784
    22   6 C       23   6 C                                       1.3686445
    19   6 C       24   6 C                                       1.4235213
    23   6 C       24   6 C                                       1.4094303
    16   6 C       25   6 C                                       1.3690042
    24   6 C       25   6 C                                       1.4090213
    10   6 C       26   6 C                                       1.5391361
    14   7 N       26   6 C                                       1.4427742
     1   7 N       27   1 H                                       1.0063517
     1   7 N       28   1 H                                       1.0035271 (min)
     5   6 C       29   1 H                                       1.0805124
     6   6 C       30   1 H                                       1.0806514
     7   6 C       31   1 H                                       1.0793796
     9   6 C       32   1 H                                       1.0788026
    10   6 C       33   1 H                                       1.0890149
    11   6 C       34   1 H                                       1.0891357
    11   6 C       35   1 H                                       1.0911256
    12   6 C       36   1 H                                       1.0917342
    12   6 C       37   1 H                                       1.0909369
    13   6 C       38   1 H                                       1.1076863
    13   6 C       39   1 H                                       1.0947670
    15   6 C       40   1 H                                       1.0954763
    15   6 C       41   1 H                                       1.1084929
    17   6 C       42   1 H                                       1.0777810
    18   6 C       43   1 H                                       1.0783069
    21   6 C       44   1 H                                       1.0833230
    22   6 C       45   1 H                                       1.0795486
    23   6 C       46   1 H                                       1.0821602
    25   6 C       47   1 H                                       1.0824377
    26   6 C       48   1 H                                       1.1036972
    26   6 C       49   1 H                                       1.0925642
    57   7 N       58   5 B                                       1.4431111
    60   5 B       61   7 N                                       1.4039864
    56   5 B       63   7 N                                       1.4733193
    59   7 N       64   5 B                                       1.4399641
    63   7 N       66   5 B                                       1.3862160
    65   7 N       68   5 B                                       1.4226302
    67   7 N       69   7 N                                       1.4245012
    57   7 N       70   5 B                                       1.4230725
    60   5 B       71   7 N                                       1.3941476
    56   5 B       72   5 B                                       1.5750272
    71   7 N       74   5 B                                       1.4334676
    55   7 N       76   5 B                                       1.3896372
    72   5 B       77   7 N                                       1.4840452
    76   5 B       79   7 N                                       1.4710905
    53   7 N       80   5 B                                       1.4916545
    75   7 N       80   5 B                                       1.4111759
    77   7 N       82   5 B                                       1.4402452
    64   5 B       83   7 N                                       1.4568921
    70   5 B       84   5 B                                       1.6640032
    83   7 N       84   5 B                                       1.4081913
    72   5 B       85   7 N                                       1.4218802
    68   5 B       86   5 B                                       1.6422548
    54   5 B       87   7 N                                       1.4055719
    61   7 N       88   5 B                                       1.4485812
    65   7 N       88   5 B                                       1.4594218
    56   5 B       89   7 N                                       1.4260249
    74   5 B       89   7 N                                       1.4926913
    88   5 B       89   7 N                                       1.4584513
    54   5 B       90   5 B                                       1.5727314
    87   7 N       90   5 B                                       1.4145578
    66   5 B       91   7 N                                       1.4458071
    73   7 N       91   7 N                                       1.3935241
    79   7 N       92   5 B                                       1.4202361
    81   7 N       92   5 B                                       1.4794668
    84   5 B       92   5 B                                       1.6739407 (max)
    76   5 B       93   7 N                                       1.4509504
    87   7 N       93   7 N                                       1.3697463
    90   5 B       95   7 N                                       1.4086111
    50   5 B       96   5 B                                       1.6093108
    51   7 N       96   5 B                                       1.4232235
    75   7 N       96   5 B                                       1.5021262
    52   5 B       97   7 N                                       1.4101872
    86   5 B       97   7 N                                       1.4907938
    62   5 B       98   5 B                                       1.5154238
    86   5 B       98   5 B                                       1.6060465
    60   5 B       99   7 N                                       1.4295645
    58   5 B      100   5 B                                       1.6490424
    68   5 B      100   5 B                                       1.6616781
    94   5 B      101   7 N                                       1.4619025
   100   5 B      101   7 N                                       1.4028582
    50   5 B      102   5 B                                       1.6203114
    95   7 N      102   5 B                                       1.4449002
    59   7 N      103   7 N                                       1.3682610
    69   7 N      104   5 B                                       1.4422420
    78   5 B      105   7 N                                       1.4556363
    91   7 N      105   7 N                                       1.4377119
    79   7 N      106   5 B                                       1.4565019
    93   7 N      106   5 B                                       1.4635083
    94   5 B      107   7 N                                       1.4269869
    99   7 N      107   7 N                                       1.3897205
    51   7 N      108   5 B                                       1.4563320
    52   5 B      108   5 B                                       1.6130728
    75   7 N      108   5 B                                       1.4516250
    82   5 B      109   7 N                                       1.4472062
   104   5 B      109   7 N                                       1.4392044
    53   7 N      110   5 B                                       1.4569209
    64   5 B      110   5 B                                       1.6051893
    66   5 B      111   7 N                                       1.4603287
    74   5 B      111   7 N                                       1.3912394
   105   7 N      111   7 N                                       1.4201730
    53   7 N      112   5 B                                       1.4579832
    97   7 N      112   5 B                                       1.4561809
    78   5 B      113   7 N                                       1.3876025
    57   7 N      114   5 B                                       1.4964389
    62   5 B      114   5 B                                       1.6005091
   110   5 B      114   5 B                                       1.6240380
    59   7 N      115   7 N                                       1.4309255
    83   7 N      115   7 N                                       1.4182157
   106   5 B      115   7 N                                       1.3741027
    54   5 B      116   5 B                                       1.6403698
    67   7 N      116   5 B                                       1.4369376
    78   5 B      117   7 N                                       1.4432780
   116   5 B      117   7 N                                       1.4554302
    55   7 N      118   5 B                                       1.4253008
    81   7 N      118   5 B                                       1.4004027
   113   7 N      118   5 B                                       1.4176916
    50   5 B      119   7 N                                       1.4019309
    67   7 N      119   7 N                                       1.4120866
   104   5 B      119   7 N                                       1.4793228
    52   5 B      120   5 B                                       1.6519296
    85   7 N      120   5 B                                       1.4321625
    80   5 B      121   7 N                                       1.4516272
   102   5 B      121   7 N                                       1.4431836

 * 8 distinct bonds (by element types)

   Z      Z             #   av. dist./Å        max./Å        min./Å
   5 B    5 B          17     1.6191105     1.6739407     1.5154238
   1 H    6 C          21     1.0884540     1.1084929     1.0777810
   6 C    6 C          18     1.4163716     1.5391361     1.3647519
   1 H    7 N           2     1.0049394     1.0063517     1.0035271
   5 B    7 N          66     1.4390600     1.5021262     1.3741027
   6 C    7 N           6     1.3909528     1.4513224     1.3027270
   7 N    7 N          10     1.4064866     1.4377119     1.3682610
   6 C    8 O           1     1.2125360     1.2125360     1.2125360


optimized geometry written to: xtbopt.xyz


           -------------------------------------------------
          | TOTAL ENERGY             -221.905660620308 Eh   |
          | GRADIENT NORM               0.000522296926 Eh/α |
          | HOMO-LUMO GAP               0.737762346994 eV   |
           -------------------------------------------------

------------------------------------------------------------------------
 * finished run on 2026/08/31 at 21:09:17.156     
------------------------------------------------------------------------
 total:
 * wall-time:     0 d,  0 h,  0 min, 16.592 sec
 *  cpu-time:     0 d,  0 h,  3 min,  9.234 sec
 * ratio c/w:    11.405 speedup
 SCF:
 * wall-time:     0 d,  0 h,  0 min,  0.619 sec
 *  cpu-time:     0 d,  0 h,  0 min,  6.578 sec
 * ratio c/w:    10.627 speedup
 ANC optimizer:
 * wall-time:     0 d,  0 h,  0 min, 15.915 sec
 *  cpu-time:     0 d,  0 h,  3 min,  2.062 sec
 * ratio c/w:    11.440 speedup

normal termination of xtb
