      -----------------------------------------------------------      
     |                   =====================                   |     
     |                           x T B                           |     
     |                   =====================                   |     
     |                         S. Grimme                         |     
     |          Mulliken Center for Theoretical Chemistry        |     
     |                    University of Bonn                     |     
      -----------------------------------------------------------      

   * xtb version 6.7.1pre (5071a88) compiled by 'Marcel@Raven' on 2024-07-23

   xtb is free software: you can redistribute it and/or modify it under
   the terms of the GNU Lesser General Public License as published by
   the Free Software Foundation, either version 3 of the License, or
   (at your option) any later version.
   
   xtb is distributed in the hope that it will be useful,
   but WITHOUT ANY WARRANTY; without even the implied warranty of
   MERCHANTABILITY or FITNESS FOR A PARTICULAR PURPOSE.  See the
   GNU Lesser General Public License for more details.
   
   Cite this work as:
   * C. Bannwarth, E. Caldeweyher, S. Ehlert, A. Hansen, P. Pracht,
     J. Seibert, S. Spicher, S. Grimme, WIREs Comput. Mol. Sci., 2020, 11,
     e01493. DOI: 10.1002/wcms.1493
   
   for GFN2-xTB:
   * C. Bannwarth, S. Ehlert and S. Grimme., J. Chem. Theory Comput., 2019,
     15, 1652-1671. DOI: 10.1021/acs.jctc.8b01176
   for GFN1-xTB:
   * S. Grimme, C. Bannwarth, P. Shushkov, J. Chem. Theory Comput., 2017,
     13, 1989-2009. DOI: 10.1021/acs.jctc.7b00118
   for GFN0-xTB:
   * P. Pracht, E. Caldeweyher, S. Ehlert, S. Grimme, ChemRxiv, 2019, preprint.
     DOI: 10.26434/chemrxiv.8326202.v1
   for GFN-FF:
   * S. Spicher and S. Grimme, Angew. Chem. Int. Ed., 2020, 59, 15665-15673.
     DOI: 10.1002/anie.202004239
   
   for ALPB and GBSA implicit solvation:
   * S. Ehlert, M. Stahn, S. Spicher, S. Grimme, J. Chem. Theory Comput.,
     2021, 17, 4250-4261. DOI: 10.1021/acs.jctc.1c00471
   
   for ddCOSMO and CPCM-X implicit solvation:
   * M. Stahn, S. Ehlert, S. Grimme, J. Phys. Chem. A,
     2023, XX, XXXX-XXXX. DOI: 10.1021/acs.jpca.3c04382
   
   for DFT-D4:
   * E. Caldeweyher, C. Bannwarth and S. Grimme, J. Chem. Phys., 2017,
     147, 034112. DOI: 10.1063/1.4993215
   * E. Caldeweyher, S. Ehlert, A. Hansen, H. Neugebauer, S. Spicher,
     C. Bannwarth and S. Grimme, J. Chem. Phys., 2019, 150, 154122.
     DOI: 10.1063/1.5090222
   * E. Caldeweyher, J.-M. Mewes, S. Ehlert and S. Grimme, Phys. Chem. Chem. Phys.
     2020, 22, 8499-8512. DOI: 10.1039/D0CP00502A
   
   for sTDA-xTB:
   * S. Grimme and C. Bannwarth, J. Chem. Phys., 2016, 145, 054103.
     DOI: 10.1063/1.4959605
   
   in the mass-spec context:
   * V. Asgeirsson, C. Bauer and S. Grimme, Chem. Sci., 2017, 8, 4879.
     DOI: 10.1039/c7sc00601b
   * J. Koopman and S. Grimme, ACS Omega 2019, 4, 12, 15120-15133.
     DOI: 10.1021/acsomega.9b02011
   
   for metadynamics refer to:
   * S. Grimme, J. Chem. Theory Comput., 2019, 155, 2847-2862
     DOI: 10.1021/acs.jctc.9b00143
   
   for SPH calculations refer to:
   * S. Spicher and S. Grimme, J. Chem. Theory Comput., 2021, 17, 1701-1714
     DOI: 10.1021/acs.jctc.0c01306
   
   for ONIOM refer to:
   * C. Plett, A. Katbashev, S. Ehlert, S. Grimme, M. Bursch,
     Phys. Chem. Chem. Phys., 2023, 25, 17860-17868. DOI: 10.1039/D3CP02178E
   
   for DIPRO refer to:
   * J. Kohn, N. Gildemeister, S. Grimme, D. Fazzi, A. Hansen,
     J. Chem. Phys., 2023, just accepted.
   
   for PTB refer to:
   * S. Grimme, M. Mueller, A. Hansen, J. Chem. Phys., 2023, 158, 124111.
     DOI: 10.1063/5.0137838
   
   with help from (in alphabetical order)
   P. Atkinson, C. Bannwarth, F. Bohle, G. Brandenburg, E. Caldeweyher
   M. Checinski, S. Dohm, S. Ehlert, S. Ehrlich, I. Gerasimov, C. Hölzer
   A. Katbashev, J. Kohn, J. Koopman, C. Lavigne, S. Lehtola, F. März, M. Müller,
   F. Musil, H. Neugebauer, J. Pisarek, C. Plett, P. Pracht, F. Pultar,
   J. Seibert, P. Shushkov, S. Spicher, M. Stahn, M. Steiner, T. Strunk,
   J. Stückrath, T. Rose, and J. Unsleber
   
 * started run on 2026/08/31 at 22:23:59.432     
   ID    Z sym.   atoms
    1    7 N      1, 14, 20, 51, 53, 55, 57, 59, 61, 63, 65, 67, 69, 71, 73,
                  75, 77, 79, 81, 83, 85, 87, 89, 91, 93, 95, 97, 99, 101,
                  103, 105, 107, 109, 111, 113, 115, 117, 119, 121
    2    6 C      2, 4-13, 15-19, 21-26
    3    8 O      3
    4    1 H      27-49
    5    5 B      50, 52, 54, 56, 58, 60, 62, 64, 66, 68, 70, 72, 74, 76, 78,
                  80, 82, 84, 86, 88, 90, 92, 94, 96, 98, 100, 102, 104, 106,
                  108, 110, 112, 114, 116, 118, 120

           -------------------------------------------------
          |                Calculation Setup                |
           -------------------------------------------------

          program call               : "c:\Users\Andre\Proyectos doctorado\kras-pancreatic-gC3N4-ai\tools\xtb\xtb-6.7.1\bin\xtb.exe" "c:\Users\Andre\Proyectos doctorado\nano-qsar-ai-therapeutics\calculations\tnbc\Niraparib\Niraparib_opt_180deg.xyz" --opt vloose --gfn 2 --chrg 0 --uhf 0 --etemp 300 --iterations 500 --cycles 15 --norestart
          coordinate file            : c:\Users\Andre\Proyectos doctorado\nano-qsar-ai-therapeutics\calculations\tnbc\Niraparib\Niraparib_opt_180deg.xyz
          omp threads                :                    16


molecular fragmentation (1/2 indicates fragments):
111111111111111111111111111111111111111111111111122222222222222222222222
2222222222222222222222222222222222222222222222222
# atoms in fragment 1/2:    49    72
 fragment masses (1/2) :      345.44      893.44
CMA distance (Bohr)    :  19.216
constraining FC (au)   :  0.0500

           -------------------------------------------------
          |                 G F N 2 - x T B                 |
           -------------------------------------------------

        Reference                      10.1021/acs.jctc.8b01176
      * Hamiltonian:
        H0-scaling (s, p, d)           1.850000    2.230000    2.230000
        zeta-weighting                 0.500000
      * Dispersion:
        s8                             2.700000
        a1                             0.520000
        a2                             5.000000
        s9                             5.000000
      * Repulsion:
        kExp                           1.500000    1.000000
        rExp                           1.000000
      * Coulomb:
        alpha                          2.000000
        third order                    shell-resolved
        anisotropic                    true
        a3                             3.000000
        a5                             4.000000
        cn-shift                       1.200000
        cn-exp                         4.000000
        max-rad                        5.000000


          ...................................................
          :                      SETUP                      :
          :.................................................:
          :  # basis functions                 415          :
          :  # atomic orbitals                 415          :
          :  # shells                          219          :
          :  # electrons                       420          :
          :  max. iterations                   500          :
          :  Hamiltonian                  GFN2-xTB          :
          :  restarted?                      false          :
          :  GBSA solvation                  false          :
          :  PC potential                    false          :
          :  electronic temp.          300.0000000     K    :
          :  accuracy                    1.0000000          :
          :  -> integral cutoff          0.2500000E+02      :
          :  -> integral neglect         0.1000000E-07      :
          :  -> SCF convergence          0.1000000E-05 Eh   :
          :  -> wf. convergence          0.1000000E-03 e    :
          :  Broyden damping             0.4000000          :
          :  net charge                          0          :
          :  unpaired electrons                  0          :
          ...................................................

 iter      E             dE          RMSdq      gap      omega  full diag
   1   -223.4239226 -0.223424E+03  0.111E+01    0.64       0.0  T
   2   -223.8755604 -0.451638E+00  0.671E+00    0.22       1.0  T
   3   -220.8776525  0.299791E+01  0.432E+00    0.15       1.0  T
   4   -222.6968105 -0.181916E+01  0.249E+00    0.32       1.0  T
   5   -222.6845716  0.122390E-01  0.234E+00    0.52       1.0  T
   6   -224.3067417 -0.162217E+01  0.913E-01    0.79       1.0  T
   7   -224.3462969 -0.395552E-01  0.592E-01    0.77       1.0  T
   8   -224.3422582  0.403869E-02  0.479E-01    0.81       1.0  T
   9   -224.3391211  0.313714E-02  0.301E-01    0.65       1.0  T
  10   -224.3461502 -0.702914E-02  0.146E-01    0.72       1.0  T
  11   -224.3494422 -0.329193E-02  0.491E-02    0.67       1.0  T
  12   -224.3495936 -0.151409E-03  0.375E-02    0.67       1.0  T
  13   -224.3496470 -0.534833E-04  0.326E-02    0.68       1.0  T
  14   -224.3497039 -0.568619E-04  0.232E-02    0.68       1.0  T
  15   -224.3497260 -0.220607E-04  0.153E-02    0.68       1.0  T
  16   -224.3497406 -0.146263E-04  0.782E-03    0.68       1.2  T
  17   -224.3497451 -0.445580E-05  0.371E-03    0.68       2.5  T
  18   -224.3497463 -0.121379E-05  0.191E-03    0.68       4.8  T
  19   -224.3497467 -0.403022E-06  0.965E-04    0.68       9.4  T
  20   -224.3497468 -0.884429E-07  0.609E-04    0.69      14.9  T

   *** convergence criteria satisfied after 20 iterations ***

         #    Occupation            Energy/Eh            Energy/eV
      -------------------------------------------------------------
         1        2.0000           -0.6836590             -18.6033
       ...           ...                  ...                  ...
       204        2.0000           -0.3237000              -8.8083
       205        2.0000           -0.3209569              -8.7337
       206        2.0000           -0.3194589              -8.6929
       207        2.0000           -0.3170367              -8.6270
       208        2.0000           -0.3117888              -8.4842
       209        2.0000           -0.3099411              -8.4339
       210        2.0000           -0.3048440              -8.2952 (HOMO)
       211        0.0000           -0.2796687              -7.6102 (LUMO)
       212                         -0.2747998              -7.4777
       213                         -0.2714796              -7.3873
       214                         -0.2608444              -7.0979
       215                         -0.2532611              -6.8916
       ...                                ...                  ...
       415                          0.9871139              26.8607
      -------------------------------------------------------------
                  HL-Gap            0.0251753 Eh            0.6851 eV
             Fermi-level           -0.2922567 Eh           -7.9527 eV

 SCC (total)                   0 d,  0 h,  0 min,  0.687 sec
 SCC setup                      ...        0 min,  0.001 sec (  0.146%)
 Dispersion                     ...        0 min,  0.004 sec (  0.582%)
 classical contributions        ...        0 min,  0.000 sec (  0.000%)
 integral evaluation            ...        0 min,  0.013 sec (  1.892%)
 iterations                     ...        0 min,  0.626 sec ( 91.121%)
 molecular gradient             ...        0 min,  0.041 sec (  5.968%)
 printout                       ...        0 min,  0.002 sec (  0.291%)

         :::::::::::::::::::::::::::::::::::::::::::::::::::::
         ::                     SUMMARY                     ::
         :::::::::::::::::::::::::::::::::::::::::::::::::::::
         :: total energy            -221.879493229013 Eh    ::
         :: gradient norm              0.099431944369 Eh/a0 ::
         :: HOMO-LUMO gap              0.685054711916 eV    ::
         ::.................................................::
         :: SCC energy              -224.335587249016 Eh    ::
         :: -> isotropic ES            0.687357805609 Eh    ::
         :: -> anisotropic ES         -0.020103206331 Eh    ::
         :: -> anisotropic XC          0.108355902279 Eh    ::
         :: -> dispersion             -0.198156926477 Eh    ::
         :: repulsion energy           2.456094020003 Eh    ::
         :: add. restraining           0.000000000000 Eh    ::
         :: total charge              -0.000000000135 e     ::
         :::::::::::::::::::::::::::::::::::::::::::::::::::::

      ----------------------------------------------------------- 
     |                   =====================                   |
     |                        A N C O P T                        |
     |                   =====================                   |
     |               Approximate Normal Coordinate               |
     |                Rational Function Optimizer                |
      ----------------------------------------------------------- 
      ----------------------------------------------------------- 
     |                   =====================                   |
     |                        A N C O P T                        |
     |                   =====================                   |
     |               Approximate Normal Coordinate               |
     |                Rational Function Optimizer                |
      ----------------------------------------------------------- 

          ...................................................
          :                      SETUP                      :
          :.................................................:
          :   optimization level            normal          :
          :   max. optcycles                    15          :
          :   ANC micro-cycles                  15          :
          :   degrees of freedom               357          :
          :.................................................:
          :   RF solver                   davidson          :
          :   write xtbopt.log                true          :
          :   linear?                        false          :
          :   energy convergence         0.5000000E-05 Eh   :
          :   grad. convergence          0.1000000E-02 Eh/α :
          :   maxmium RF displ.          1.0000000          :
          :   Hlow (freq-cutoff)         0.1000000E-01      :
          :   Hmax (freq-cutoff)         5.0000000          :
          :   S6 in model hess.         20.0000000          :
          ...................................................

generating ANC from exact Hessian ...
Using Lindh-Hessian (1995)
 Shifting diagonal of input Hessian by   1.008584081250404E-002
 Lowest  eigenvalues of input Hessian
    0.010000    0.010005    0.010017    0.000000    0.000000    0.000000
    0.000000    0.000000    0.000000    0.010099    0.010117    0.010209
    0.010277    0.010391    0.010584    0.010774    0.011366    0.011952
 Highest eigenvalues
    2.087490    2.154603    2.164363    2.260727    2.301300    2.314980
 

........................................................................
.............................. CYCLE    1 ..............................
........................................................................

 iter      E             dE          RMSdq      gap      omega  full diag
   1   -224.3497468 -0.224350E+03  0.379E-04    0.69       0.0  T
   2   -224.3497468  0.126334E-09  0.381E-04    0.69      23.9  T
   3   -224.3497468 -0.121752E-07  0.199E-04    0.69      45.7  T
     SCC iter.                  ...        0 min,  0.128 sec
     gradient                   ...        0 min,  0.041 sec
 * total energy  :  -221.8794933 Eh     change       -0.4370185E-07 Eh
   gradient norm :     0.0994284 Eh/α   predicted     0.0000000E+00 (-100.00%)
   displ. norm   :     0.2914208 α      lambda       -0.1204027E-01
   maximum displ.:     0.0895332 α      in ANC's #19, #50, #79, ...

........................................................................
.............................. CYCLE    2 ..............................
........................................................................

 iter      E             dE          RMSdq      gap      omega  full diag
   1   -224.3901498 -0.224390E+03  0.102E-01    0.69       0.0  T
   2   -224.3902326 -0.827653E-04  0.633E-02    0.69       1.0  T
   3   -224.3901893  0.432498E-04  0.271E-02    0.69       1.0  T
   4   -224.3902525 -0.631443E-04  0.735E-03    0.69       1.2  T
   5   -224.3902582 -0.571614E-05  0.297E-03    0.69       3.1  T
   6   -224.3902587 -0.462719E-06  0.190E-03    0.69       4.8  T
   7   -224.3902590 -0.336795E-06  0.112E-03    0.69       8.1  T
   8   -224.3902591 -0.139920E-06  0.549E-04    0.69      16.6  T
   9   -224.3902592 -0.473580E-07  0.251E-04    0.69      36.3  T
     SCC iter.                  ...        0 min,  0.307 sec
     gradient                   ...        0 min,  0.033 sec
 * total energy  :  -221.8875619 Eh     change       -0.8068591E-02 Eh
   gradient norm :     0.0410363 Eh/α   predicted    -0.6536843E-02 ( -18.98%)
   displ. norm   :     0.2712441 α      lambda       -0.3316019E-02
   maximum displ.:     0.1170197 α      in ANC's #19, #14, #17, ...

........................................................................
.............................. CYCLE    3 ..............................
........................................................................

 iter      E             dE          RMSdq      gap      omega  full diag
   1   -224.4112253 -0.224411E+03  0.565E-02    0.69       0.0  T
   2   -224.4112663 -0.410420E-04  0.364E-02    0.69       1.0  T
   3   -224.4112584  0.790765E-05  0.173E-02    0.69       1.0  T
   4   -224.4112757 -0.172559E-04  0.534E-03    0.69       1.7  T
   5   -224.4112784 -0.275898E-05  0.250E-03    0.69       3.6  T
   6   -224.4112792 -0.789071E-06  0.134E-03    0.69       6.8  T
   7   -224.4112794 -0.246814E-06  0.569E-04    0.69      16.0  T
   8   -224.4112795 -0.850781E-08  0.395E-04    0.69      23.0  T
     SCC iter.                  ...        0 min,  0.286 sec
     gradient                   ...        0 min,  0.034 sec
 * total energy  :  -221.8894441 Eh     change       -0.1882278E-02 Eh
   gradient norm :     0.0091698 Eh/α   predicted    -0.1781778E-02 (  -5.34%)
   displ. norm   :     0.1933221 α      lambda       -0.6147972E-03
   maximum displ.:     0.0940924 α      in ANC's #14, #19, #12, ...

........................................................................
.............................. CYCLE    4 ..............................
........................................................................

 iter      E             dE          RMSdq      gap      omega  full diag
   1   -224.4126826 -0.224413E+03  0.292E-02    0.69       0.0  T
   2   -224.4126846 -0.201700E-05  0.175E-02    0.69       1.0  T
   3   -224.4126804  0.419959E-05  0.631E-03    0.69       1.4  T
   4   -224.4126846 -0.421750E-05  0.211E-03    0.69       4.3  T
   5   -224.4126849 -0.296750E-06  0.156E-03    0.69       5.8  T
   6   -224.4126854 -0.470979E-06  0.424E-04    0.69      21.4  T
   7   -224.4126854 -0.102543E-07  0.213E-04    0.69      42.6  T
     SCC iter.                  ...        0 min,  0.305 sec
     gradient                   ...        0 min,  0.036 sec
 * total energy  :  -221.8898997 Eh     change       -0.4555740E-03 Eh
   gradient norm :     0.0075367 Eh/α   predicted    -0.3189327E-03 ( -29.99%)
   displ. norm   :     0.2883372 α      lambda       -0.5675243E-03
   maximum displ.:     0.1364886 α      in ANC's #14, #19, #11, ...

........................................................................
.............................. CYCLE    5 ..............................
........................................................................

 iter      E             dE          RMSdq      gap      omega  full diag
   1   -224.4128549 -0.224413E+03  0.390E-02    0.69       0.0  T
   2   -224.4128577 -0.277146E-05  0.232E-02    0.69       1.0  T
   3   -224.4128509  0.681190E-05  0.777E-03    0.69       1.2  T
   4   -224.4128576 -0.666108E-05  0.277E-03    0.69       3.3  T
   5   -224.4128585 -0.940070E-06  0.167E-03    0.69       5.4  T
   6   -224.4128589 -0.439122E-06  0.614E-04    0.69      14.8  T
   7   -224.4128589  0.183118E-08  0.464E-04    0.69      19.6  T
     SCC iter.                  ...        0 min,  0.234 sec
     gradient                   ...        0 min,  0.028 sec
 * total energy  :  -221.8902627 Eh     change       -0.3629730E-03 Eh
   gradient norm :     0.0058005 Eh/α   predicted    -0.3073675E-03 ( -15.32%)
   displ. norm   :     0.1827751 α      lambda       -0.1850480E-03
   maximum displ.:     0.0799800 α      in ANC's #11, #9, #14, ...

........................................................................
.............................. CYCLE    6 ..............................
........................................................................

 iter      E             dE          RMSdq      gap      omega  full diag
   1   -224.4133303 -0.224413E+03  0.250E-02    0.69       0.0  T
   2   -224.4133313 -0.101640E-05  0.147E-02    0.69       1.0  T
   3   -224.4133300  0.132938E-05  0.339E-03    0.69       2.7  T
   4   -224.4133308 -0.810498E-06  0.201E-03    0.69       4.5  T
   5   -224.4133315 -0.717814E-06  0.802E-04    0.69      11.3  T
   6   -224.4133316 -0.727608E-07  0.411E-04    0.69      22.1  T
     SCC iter.                  ...        0 min,  0.195 sec
     gradient                   ...        0 min,  0.033 sec
 * total energy  :  -221.8903993 Eh     change       -0.1366074E-03 Eh
   gradient norm :     0.0043594 Eh/α   predicted    -0.9562186E-04 ( -30.00%)
   displ. norm   :     0.2107438 α      lambda       -0.1649023E-03
   maximum displ.:     0.1020147 α      in ANC's #11, #9, #10, ...

........................................................................
.............................. CYCLE    7 ..............................
........................................................................

 iter      E             dE          RMSdq      gap      omega  full diag
   1   -224.4142143 -0.224414E+03  0.296E-02    0.69       0.0  T
   2   -224.4142153 -0.104814E-05  0.174E-02    0.69       1.0  T
   3   -224.4142119  0.336016E-05  0.441E-03    0.69       2.1  T
   4   -224.4142135 -0.152154E-05  0.319E-03    0.69       2.8  T
   5   -224.4142156 -0.216934E-05  0.779E-04    0.69      11.7  T
   6   -224.4142157 -0.451567E-07  0.423E-04    0.69      21.5  T
   7   -224.4142157 -0.995985E-08  0.261E-04    0.69      34.9  T
     SCC iter.                  ...        0 min,  0.230 sec
     gradient                   ...        0 min,  0.034 sec
 * total energy  :  -221.8905188 Eh     change       -0.1194581E-03 Eh
   gradient norm :     0.0029462 Eh/α   predicted    -0.8611463E-04 ( -27.91%)
   displ. norm   :     0.1929407 α      lambda       -0.1143235E-03
   maximum displ.:     0.0996986 α      in ANC's #9, #11, #10, ...

........................................................................
.............................. CYCLE    8 ..............................
........................................................................

 iter      E             dE          RMSdq      gap      omega  full diag
   1   -224.4148110 -0.224415E+03  0.283E-02    0.69       0.0  T
   2   -224.4148119 -0.863594E-06  0.166E-02    0.69       1.0  T
   3   -224.4148112  0.690114E-06  0.261E-03    0.69       3.5  T
   4   -224.4148119 -0.687672E-06  0.135E-03    0.69       6.7  T
   5   -224.4148120 -0.135100E-06  0.964E-04    0.69       9.4  T
   6   -224.4148122 -0.144576E-06  0.366E-04    0.69      24.8  T
     SCC iter.                  ...        0 min,  0.219 sec
     gradient                   ...        0 min,  0.041 sec
 * total energy  :  -221.8906061 Eh     change       -0.8739373E-04 Eh
   gradient norm :     0.0028642 Eh/α   predicted    -0.5929122E-04 ( -32.16%)
   displ. norm   :     0.2187617 α      lambda       -0.1090334E-03
   maximum displ.:     0.1151097 α      in ANC's #9, #11, #10, ...

........................................................................
.............................. CYCLE    9 ..............................
........................................................................

 iter      E             dE          RMSdq      gap      omega  full diag
   1   -224.4150972 -0.224415E+03  0.329E-02    0.69       0.0  T
   2   -224.4150982 -0.941610E-06  0.193E-02    0.69       1.0  T
   3   -224.4150973  0.893701E-06  0.303E-03    0.69       3.0  T
   4   -224.4150984 -0.113855E-05  0.114E-03    0.69       8.0  T
   5   -224.4150983  0.103953E-06  0.114E-03    0.69       8.0  T
   6   -224.4150986 -0.236191E-06  0.345E-04    0.69      26.4  T
   7   -224.4150986 -0.170292E-07  0.104E-04    0.69      87.4  T
     SCC iter.                  ...        0 min,  0.224 sec
     gradient                   ...        0 min,  0.031 sec
 * total energy  :  -221.8906922 Eh     change       -0.8600775E-04 Eh
   gradient norm :     0.0030088 Eh/α   predicted    -0.5712876E-04 ( -33.58%)
   displ. norm   :     0.2667740 α      lambda       -0.1166911E-03
   maximum displ.:     0.1393023 α      in ANC's #9, #11, #10, ...

........................................................................
.............................. CYCLE   10 ..............................
........................................................................

 iter      E             dE          RMSdq      gap      omega  full diag
   1   -224.4149386 -0.224415E+03  0.416E-02    0.69       0.0  T
   2   -224.4149399 -0.131061E-05  0.243E-02    0.69       1.0  T
   3   -224.4149385  0.142427E-05  0.373E-03    0.69       2.4  T
   4   -224.4149404 -0.183280E-05  0.126E-03    0.69       7.2  T
   5   -224.4149403  0.557342E-07  0.106E-03    0.69       8.6  T
   6   -224.4149405 -0.185123E-06  0.468E-04    0.69      19.4  T
   7   -224.4149405 -0.364767E-07  0.204E-04    0.69      44.6  T
     SCC iter.                  ...        0 min,  0.222 sec
     gradient                   ...        0 min,  0.033 sec
 * total energy  :  -221.8907852 Eh     change       -0.9303663E-04 Eh
   gradient norm :     0.0030559 Eh/α   predicted    -0.6250148E-04 ( -32.82%)
   displ. norm   :     0.3179023 α      lambda       -0.1247351E-03
   maximum displ.:     0.1633526 α      in ANC's #9, #10, #11, ...

........................................................................
.............................. CYCLE   11 ..............................
........................................................................

 iter      E             dE          RMSdq      gap      omega  full diag
   1   -224.4144565 -0.224414E+03  0.515E-02    0.69       0.0  T
   2   -224.4144583 -0.182402E-05  0.301E-02    0.69       1.0  T
   3   -224.4144564  0.189948E-05  0.431E-03    0.69       2.1  T
   4   -224.4144586 -0.221916E-05  0.174E-03    0.69       5.2  T
   5   -224.4144587 -0.674765E-07  0.140E-03    0.69       6.5  T
   6   -224.4144590 -0.333956E-06  0.568E-04    0.69      16.0  T
   7   -224.4144590 -0.422512E-07  0.291E-04    0.69      31.2  T
     SCC iter.                  ...        0 min,  0.222 sec
     gradient                   ...        0 min,  0.039 sec
 * total energy  :  -221.8908836 Eh     change       -0.9843705E-04 Eh
   gradient norm :     0.0031955 Eh/α   predicted    -0.6867353E-04 ( -30.24%)
   displ. norm   :     0.3339579 α      lambda       -0.1201116E-03
   maximum displ.:     0.1679014 α      in ANC's #9, #10, #11, ...

........................................................................
.............................. CYCLE   12 ..............................
........................................................................

 iter      E             dE          RMSdq      gap      omega  full diag
   1   -224.4141104 -0.224414E+03  0.560E-02    0.69       0.0  T
   2   -224.4141123 -0.193586E-05  0.327E-02    0.69       1.0  T
   3   -224.4141106  0.168360E-05  0.419E-03    0.69       2.2  T
   4   -224.4141124 -0.180041E-05  0.198E-03    0.69       4.6  T
   5   -224.4141127 -0.230551E-06  0.153E-03    0.69       6.0  T
   6   -224.4141130 -0.387951E-06  0.583E-04    0.69      15.6  T
   7   -224.4141131 -0.463863E-07  0.275E-04    0.69      33.0  T
     SCC iter.                  ...        0 min,  0.224 sec
     gradient                   ...        0 min,  0.037 sec
 * total energy  :  -221.8909764 Eh     change       -0.9272298E-04 Eh
   gradient norm :     0.0033439 Eh/α   predicted    -0.6676008E-04 ( -28.00%)
   displ. norm   :     0.3063281 α      lambda       -0.1041255E-03
   maximum displ.:     0.1491030 α      in ANC's #9, #10, #4, ...

........................................................................
.............................. CYCLE   13 ..............................
........................................................................

 iter      E             dE          RMSdq      gap      omega  full diag
   1   -224.4144328 -0.224414E+03  0.520E-02    0.69       0.0  T
   2   -224.4144343 -0.152689E-05  0.304E-02    0.69       1.0  T
   3   -224.4144332  0.110412E-05  0.354E-03    0.69       2.6  T
   4   -224.4144343 -0.109048E-05  0.186E-03    0.69       4.9  T
   5   -224.4144346 -0.298424E-06  0.134E-03    0.69       6.8  T
   6   -224.4144349 -0.288966E-06  0.474E-04    0.69      19.2  T
   7   -224.4144349 -0.346791E-07  0.202E-04    0.69      44.9  T
     SCC iter.                  ...        0 min,  0.255 sec
     gradient                   ...        0 min,  0.031 sec
 * total energy  :  -221.8910558 Eh     change       -0.7942254E-04 Eh
   gradient norm :     0.0030531 Eh/α   predicted    -0.5695005E-04 ( -28.29%)
   displ. norm   :     0.2711040 α      lambda       -0.8469373E-04
   maximum displ.:     0.1358532 α      in ANC's #10, #4, #9, ...

........................................................................
.............................. CYCLE   14 ..............................
........................................................................

 iter      E             dE          RMSdq      gap      omega  full diag
   1   -224.4151152 -0.224415E+03  0.447E-02    0.69       0.0  T
   2   -224.4151163 -0.111572E-05  0.261E-02    0.69       1.0  T
   3   -224.4151157  0.596438E-06  0.277E-03    0.69       3.3  T
   4   -224.4151163 -0.600466E-06  0.156E-03    0.69       5.8  T
   5   -224.4151165 -0.180812E-06  0.116E-03    0.69       7.8  T
   6   -224.4151167 -0.232671E-06  0.328E-04    0.69      27.7  T
   7   -224.4151167 -0.147171E-07  0.165E-04    0.69      55.2  T
     SCC iter.                  ...        0 min,  0.227 sec
     gradient                   ...        0 min,  0.033 sec
 * total energy  :  -221.8911209 Eh     change       -0.6511468E-04 Eh
   gradient norm :     0.0024604 Eh/α   predicted    -0.4546042E-04 ( -30.18%)
   displ. norm   :     0.2615518 α      lambda       -0.7122889E-04
   maximum displ.:     0.1360970 α      in ANC's #10, #4, #9, ...

........................................................................
.............................. CYCLE   15 ..............................
........................................................................

 iter      E             dE          RMSdq      gap      omega  full diag
   1   -224.4156183 -0.224416E+03  0.407E-02    0.69       0.0  T
   2   -224.4156193 -0.969331E-06  0.237E-02    0.69       1.0  T
   3   -224.4156190  0.274147E-06  0.223E-03    0.69       4.1  T
   4   -224.4156194 -0.327568E-06  0.138E-03    0.69       6.6  T
   5   -224.4156194 -0.538078E-07  0.114E-03    0.69       8.0  T
   6   -224.4156197 -0.249158E-06  0.214E-04    0.69      42.4  T
   7   -224.4156197 -0.404199E-08  0.129E-04    0.69      70.3  T
     SCC iter.                  ...        0 min,  0.241 sec
     gradient                   ...        0 min,  0.033 sec
 * total energy  :  -221.8911780 Eh     change       -0.5712805E-04 Eh
   gradient norm :     0.0022310 Eh/α   predicted    -0.3805371E-04 ( -33.39%)
   displ. norm   :     0.2746448 α      lambda       -0.7331310E-04
   maximum displ.:     0.1465929 α      in ANC's #4, #10, #9, ...

   *** FAILED TO CONVERGE GEOMETRY OPTIMIZATION IN 15 ITERATIONS ***


 ANCopt (total)                0 d,  0 h,  0 min,  4.417 sec
 optimizer setup                ...        0 min,  0.001 sec (  0.023%)
 model hessian                  ...        0 min,  0.063 sec (  1.426%)
 ANC generation                 ...        0 min,  0.016 sec (  0.362%)
 coordinate transformation      ...        0 min,  0.003 sec (  0.068%)
 single point calculation       ...        0 min,  4.298 sec ( 97.306%)
 optimization log               ...        0 min,  0.028 sec (  0.634%)
 hessian update                 ...        0 min,  0.004 sec (  0.091%)
 rational function              ...        0 min,  0.002 sec (  0.045%)

================
 final structure:
================
121
 xtb: 6.7.1pre (5071a88)
N           -7.37624315772369        1.83877103110643        9.46392133085987
C           -6.36111399195060        1.21461055736570        8.81333068716454
O           -6.20946403726185        1.32000326847755        7.61555142655204
C           -5.45327686511655        0.41098626054660        9.68337420732349
C           -5.90548910723660       -0.26187274652391       10.81322487334066
C           -5.01375255330728       -1.00133998529570       11.56907740840611
C           -3.67894943346285       -1.06613523226056       11.21160951420636
C           -3.20997301165028       -0.40877449669937       10.07847905563124
C           -4.11385656287984        0.32056587564328        9.31991182266784
C           -1.75630703895708       -0.45987873941510        9.68946189485330
C           -1.20098906913512       -1.89706629523816        9.60459375688416
C           -0.30445522928742       -2.21939447589237       10.79368286456890
C            0.86819317974306       -1.24102269998974       10.85932701788898
N            0.47985705915937        0.10927537837311       10.46837221337043
C            1.35088225831151        1.10852249193856       11.05205356822265
C            2.76924821530316        0.90612785495487       10.59550096416748
C            3.02649415994703        0.80491326263538        9.21178140095995
C            4.29254613238604        0.60185959612898        8.74481042803504
C            5.37341513372634        0.48620466892970        9.64590562000559
N            6.60970741144917        0.26456128712236        9.15636022941758
C            7.59931550384524        0.14492237716408        9.99556301856909
C            7.46639220446322        0.24299475027853       11.39247046210944
C            6.22321649952616        0.47374311909820       11.91402729227547
C            5.12349100563819        0.59795064862146       11.04034549431245
C            3.80368738725933        0.80679631137951       11.48673301135873
C           -0.92517336416613        0.37188434068689       10.68370066166099
H           -8.00622103767872        2.41202716732894        8.92792777476495
H           -7.46647872592074        1.82182727545310       10.46286458230755
H           -6.95029713216994       -0.24100092514749       11.08812740811252
H           -5.36081272129553       -1.53248618184367       12.44374377587488
H           -3.00192586672039       -1.64823538132786       11.81769022678721
H           -3.79151942796872        0.83178002051909        8.42504380063052
H           -1.64855712096292        0.00433252085094        8.70621669745689
H           -0.61125889834459       -1.99659751688420        8.69266135026138
H           -2.02487490125073       -2.61144861203080        9.55068273990935
H           -0.87918125107788       -2.16994287232517       11.72017605180813
H            0.08312500203488       -3.23584726278825       10.70748866348971
H            1.28862599415433       -1.25151751990804       11.88059930418624
H            1.65980595952137       -1.56499122142537       10.17472138451424
H            1.00684961589511        2.09197317394877       10.71301538095219
H            1.31243988200406        1.09850417708364       12.15898995311863
H            2.18940028889114        0.87837473103490        8.53562895830681
H            4.50388726089862        0.51914454168945        7.69030322765688
H            8.57133774837160       -0.04207366240869        9.55699751436082
H            8.33449212393566        0.13657387297673       12.02502147794953
H            6.06478189565798        0.55925425588946       12.98066275824761
H            3.62214204996048        0.88303841360652       12.55083046346488
H           -1.23986712098479        0.16176522287652       11.72186376247036
H           -1.11416031263024        1.43279510602349       10.49882373477399
B            3.45940382185302       -1.45197099382520        1.67007459538983
N            3.44900379390266        1.13179180592284        0.98526581112123
B            2.53527059315893        2.36914889294422       -1.21312801312195
N            2.29057634333862       -0.63315904769823       -2.68852559890959
B            0.69620663486084       -3.56192472989180        2.74258066940557
N           -2.93147423476448       -2.66117815365171        1.75360735693242
B           -1.04421334099771        4.07970599731108        1.88586275336930
N           -0.62411246428668        0.02253133760450       -3.89815043388061
B           -0.47886894144924        1.45068473945112       -4.04319121802969
N            1.21269712649152       -3.78204603640178       -1.70177055636991
B           -3.84756207085536        2.20433089398439       -0.44141162404074
N           -2.77786706306083        2.76183299664218       -1.16021316685103
B            1.39957657671397        0.82845654223671       -4.84392476882428
N           -0.23937558346562        3.36066884733739        2.88777044026085
B            0.89910071926924       -2.87317311672286       -2.77401261692277
N           -0.49832421045189        3.76755691196750       -0.95774890716550
B           -0.80596126903654        2.17571321017615        3.33394133252374
N            1.66278018679434       -1.27840944991868        3.55333239729105
B           -0.25530035163835        3.47365059616135       -2.32810251860860
N            1.31488765296176        0.06401409488999        3.87145644601272
B           -1.60002871006668       -0.55776174835554       -3.03988682276013
N           -3.83107005524410        1.76676572440621        0.88163431553550
B            0.33009357626703        4.49399478997656        1.23737774610744
N            0.04810251181757       -0.02043203776658        4.50980198930844
B           -2.71005941381912        2.21692790283931        1.65417004265469
N            3.76991112427163       -0.12564738463673       -0.72285109910404
B           -2.24824272693752       -3.64477911126008        1.04929444193909
N            1.05069309432634        3.73202746312989        2.28770997408631
B           -1.82078414126731       -0.78634523023314        3.27198500817835
N           -2.43306904896305       -3.60590778777791       -0.40986871929576
B            3.01705990200466       -1.06626323067370       -1.46142449993438
N           -3.15465713614081       -1.25666374767387       -0.33796173290065
B            2.02916133266491        2.92221824573212        1.61203478595275
N           -0.50651141695921       -2.89758736888757       -2.39274736205021
B           -1.67383214894603       -2.11181062788330       -2.44909069643824
N            0.58373521825509        3.96595848067197       -0.05802591664650
B            1.08368157019288        2.96727014335187       -3.13304007279297
N            0.08374315538945       -4.35999468480143        1.76038297898554
B           -1.78937757733557        3.44924372088046       -0.35478558544753
N           -2.01708652996118        3.41150908098960        1.08488708014034
B            1.47163352487407       -4.21006838656221        1.53746362249741
N           -0.79459788163529        1.05668106947907        4.24592582587040
B           -2.66426161828880       -2.40428539841191       -1.13144419607208
N           -1.06766153563701       -4.48789919105235        1.03004930046461
B           -2.50587182637584        0.49085864968138       -2.06114998646663
N            2.35692272485366       -3.88377868240076        0.49052117639434
B            3.90921423260747       -0.19818722934826        0.76889986167589
N            1.92432042854330        1.96496749504472       -2.41795830750019
B            0.99423508007450        2.26365858762336       -4.57399962780404
N           -4.18620667189112        0.82297014007602       -0.29629975921817
B           -1.34423623933873        2.45659287144012       -3.06393629612851
N           -2.36417995513869        1.93313170429993       -2.25570717987528
B            3.07508294990908       -2.64092241032973        0.64003389656999
N            2.33871953745267       -3.66854729022695       -0.93335234160621
B            2.21744380902387        0.54373593006270        2.85696895404803
N           -2.01977506434914        0.60194213075105        3.65001460695148
B           -1.09675119686106       -4.18469120665667       -0.40159401855806
N           -3.21730546324541        0.03799229266677       -0.91059921377132
B            3.44381484770458        1.26482408303010       -0.46815635695231
N            2.57697326372244        1.63225994825209        1.98445057927903
B            1.47025465470315       -1.54629011667236       -3.47418931170192
N           -2.09944225686590        1.74322751083085        2.81074730231543
B            2.03654299176100        0.72124516534361       -3.16673742592898
N           -2.70723601186419       -1.34917533262157        2.36384125590621
B            0.65474179799820       -0.53054281365352       -4.44432866652282
N           -0.16555866817121       -3.75846123634137       -1.31831457284153
B            0.49153070192418       -2.10971943892768        3.48064622032734
N           -0.58074110375154       -1.21272500484774        3.87774678343733
B           -3.21824263832854       -1.45605650055889        1.04736832699898
N            2.67269406866118       -0.85618618653718        2.66617080631975
B            1.87261047892484        3.34197396276534       -0.05564531667310
N            2.87828850714887       -2.32594677908422       -0.75441539268577
 
 Bond Distances (Angstroems)
 ---------------------------
N1-C2=1.3577         N1-H27=1.0064        N1-H28=1.0032        C2-N1=1.3577         C2-O3=1.2119         C2-C4=1.4923         
O3-C2=1.2119         C4-C2=1.4923         C4-C5=1.3906         C4-C9=1.3908         C5-C4=1.3906         C5-C6=1.3832         
C5-H29=1.0806        C6-C5=1.3832         C6-C7=1.3834         C6-H30=1.0806        C7-C6=1.3834         C7-C8=1.3914         
C7-H31=1.0791        C8-C7=1.3914         C8-C9=1.3872         C8-C10=1.5057        C9-C4=1.3908         C9-C8=1.3872         
C9-H32=1.0798        C10-C8=1.5057        C10-C11=1.5431       C10-C26=1.5398       C10-H33=1.0926       C11-C10=1.5431       
C11-C12=1.5237       C11-H34=1.0906       C11-H35=1.0918       C12-C11=1.5237       C12-C13=1.5286       C12-H36=1.0914       
C12-H37=1.0912       C13-C12=1.5286       C13-N14=1.4584       C13-H38=1.1045       C13-H39=1.0956       N14-C13=1.4584       
N14-C15=1.4484       N14-C26=1.4455       C15-N14=1.4484       C15-C16=1.5037       C15-H40=1.0957       C15-H41=1.1076       
C16-C15=1.5037       C16-C17=1.4111       C16-C25=1.3690       C17-C16=1.4111       C17-C18=1.3646       C17-H42=1.0786       
C18-C17=1.3646       C18-C19=1.4120       C18-H43=1.0787       C19-C18=1.4120       C19-N20=1.3480       C19-C24=1.4211       
N20-C19=1.3480       N20-C21=1.3030       C21-N20=1.3030       C21-C22=1.4066       C21-H44=1.0827       C22-C21=1.4066       
C22-C23=1.3678       C22-H45=1.0794       C23-C22=1.3678       C23-C24=1.4100       C23-H46=1.0817       C24-C19=1.4211       
C24-C23=1.4100       C24-C25=1.4088       C25-C16=1.3690       C25-C24=1.4088       C25-H47=1.0822       C26-C10=1.5398       
C26-N14=1.4455       C26-H48=1.1050       C26-H49=1.0934       H27-N1=1.0064        H28-N1=1.0032        H29-C5=1.0806        
H30-C6=1.0806        H31-C7=1.0791        H32-C9=1.0798        H33-C10=1.0926       H34-C11=1.0906       H35-C11=1.0918       
H36-C12=1.0914       H37-C12=1.0912       H38-C13=1.1045       H39-C13=1.0956       H40-C15=1.0957       H41-C15=1.1076       
H42-C17=1.0786       H43-C18=1.0787       H44-C21=1.0827       H45-C22=1.0794       H46-C23=1.0817       H47-C25=1.0822       
H48-C26=1.1050       H49-C26=1.0934       B50-B96=1.6082       B50-B102=1.6193      B50-N119=1.4022      N51-B96=1.4239       
N51-B108=1.4595      N51-N109=1.4175      B52-N97=1.4100       B52-B108=1.6124      B52-B120=1.6508      N53-B80=1.4903       
N53-B110=1.4574      N53-B112=1.4586      B54-N87=1.4060       B54-B90=1.5728       B54-B116=1.6418      N55-B76=1.3894       
N55-N113=1.4642      N55-B118=1.4259      B56-N63=1.4726       B56-B72=1.5751       B56-N89=1.4264       N57-B58=1.4428       
N57-B70=1.4233       N57-B114=1.4966      B58-N57=1.4428       B58-B62=2.1347       B58-B98=1.7643       B58-B100=1.6491      
N59-B64=1.4402       N59-N103=1.3679      N59-N115=1.4308      B60-N61=1.4042       B60-N71=1.3936       B60-N99=1.4296       
N61-B60=1.4042       N61-B88=1.4486       N61-N101=1.4346      B62-B58=2.1347       B62-B98=1.5156       B62-B112=1.7973      
B62-B114=1.6004      N63-B56=1.4726       N63-B66=1.3872       N63-N77=1.4705       B64-N59=1.4402       B64-N83=1.4566       
B64-B110=1.6053      B64-N115=2.0091      N65-B68=1.4224       N65-N85=1.4212       N65-B88=1.4600       B66-N63=1.3872       
B66-N91=1.4436       B66-N105=2.0125      B66-N111=1.4608      N67-N69=1.4228       N67-B116=1.4381      N67-N119=1.4090      
B68-N65=1.4224       B68-B86=1.6423       B68-B100=1.6618      N69-N67=1.4228       N69-N73=1.4210       N69-B104=1.4401      
B70-N57=1.4233       B70-B84=1.6642       B70-B94=1.6965       N71-B60=1.3936       N71-B74=1.4339       N71-N99=1.5506       
B72-B56=1.5751       B72-N77=1.4843       B72-N85=1.4217       N73-N69=1.4210       N73-N91=1.3928       N73-N117=1.4888      
B74-N71=1.4339       B74-N89=1.4938       B74-N111=1.3910      N75-B80=1.4132       N75-B96=1.5000       N75-B108=1.4507      
B76-N55=1.3894       B76-N79=1.4713       B76-N93=1.4509       B76-B106=1.9294      N77-N63=1.4705       N77-B72=1.4843       
N77-B82=1.4387       B78-N105=1.4525      B78-N113=1.3883      B78-N117=1.4445      N79-B76=1.4713       N79-B92=1.4206       
N79-B106=1.4563      B80-N53=1.4903       B80-N75=1.4132       B80-N121=1.4512      N81-B92=1.4789       N81-N107=1.4170      
N81-B118=1.4010      B82-N77=1.4387       B82-N109=1.4501      B82-B120=1.7268      N83-B64=1.4566       N83-B84=1.4083       
N83-N115=1.4184      B84-B70=1.6642       B84-N83=1.4083       B84-B92=1.6741       N85-N65=1.4212       N85-B72=1.4217       
N85-B120=1.4320      B86-B68=1.6423       B86-N97=1.4908       B86-B98=1.6061       N87-B54=1.4060       N87-B90=1.4137       
N87-N93=1.3695       B88-N61=1.4486       B88-N65=1.4600       B88-N89=1.4581       N89-B56=1.4264       N89-B74=1.4938       
N89-B88=1.4581       B90-B54=1.5728       B90-N87=1.4137       B90-N95=1.4094       N91-B66=1.4436       N91-N73=1.3928       
N91-N105=1.4363      B92-N79=1.4206       B92-N81=1.4789       B92-B84=1.6741       N93-B76=1.4509       N93-N87=1.3695       
N93-B106=1.4637      B94-B70=1.6965       B94-N101=1.4622      B94-N107=1.4265      N95-B90=1.4094       N95-B102=1.4432      
N95-N103=1.4402      B96-B50=1.6082       B96-N51=1.4239       B96-N75=1.5000       B96-B108=1.9716      N97-B52=1.4100       
N97-B86=1.4908       N97-B112=1.4561      B98-B58=1.7643       B98-B62=1.5156       B98-B86=1.6061       N99-B60=1.4296       
N99-N71=1.5506       N99-N107=1.3901      B100-B58=1.6491      B100-B68=1.6618      B100-N101=1.4027     N101-N61=1.4346      
N101-B94=1.4622      N101-B100=1.4027     B102-B50=1.6193      B102-N95=1.4432      B102-N121=1.4431     N103-N59=1.3679      
N103-N95=1.4402      N103-N121=1.4580     B104-N69=1.4401      B104-N109=1.4406     B104-N119=1.4844     N105-B66=2.0125      
N105-B78=1.4525      N105-N91=1.4363      N105-N111=1.4189     B106-B76=1.9294      B106-N79=1.4563      B106-N93=1.4637      
B106-N115=1.3745     N107-N81=1.4170      N107-B94=1.4265      N107-N99=1.3901      B108-N51=1.4595      B108-B52=1.6124      
B108-N75=1.4507      B108-B96=1.9716      N109-N51=1.4175      N109-B82=1.4501      N109-B104=1.4406     B110-N53=1.4574      
B110-B64=1.6053      B110-B114=1.6242     N111-B66=1.4608      N111-B74=1.3910      N111-N105=1.4189     B112-N53=1.4586      
B112-B62=1.7973      B112-N97=1.4561      N113-N55=1.4642      N113-B78=1.3883      N113-B118=1.4162     B114-N57=1.4966      
B114-B62=1.6004      B114-B110=1.6242     N115-N59=1.4308      N115-B64=2.0091      N115-N83=1.4184      N115-B106=1.3745     
B116-B54=1.6418      B116-N67=1.4381      B116-N117=1.4533     N117-N73=1.4888      N117-B78=1.4445      N117-B116=1.4533     
B118-N55=1.4259      B118-N81=1.4010      B118-N113=1.4162     N119-B50=1.4022      N119-N67=1.4090      N119-B104=1.4844     
B120-B52=1.6508      B120-B82=1.7268      B120-N85=1.4320      N121-B80=1.4512      N121-B102=1.4431     N121-N103=1.4580     
 B  B  Rav=1.6893 sigma=0.1390  Rmin=1.5156  Rmax=2.1347    24
 C  H  Rav=1.0887 sigma=0.0091  Rmin=1.0786  Rmax=1.1076    21
 C  C  Rav=1.4334 sigma=0.0614  Rmin=1.3646  Rmax=1.5431    22
 N  H  Rav=1.0048 sigma=0.0016  Rmin=1.0032  Rmax=1.0064     2
 N  B  Rav=1.4559 sigma=0.1009  Rmin=1.3745  Rmax=2.0125    68
 N  C  Rav=1.3935 sigma=0.0598  Rmin=1.3030  Rmax=1.4584     6
 N  N  Rav=1.4305 sigma=0.0399  Rmin=1.3679  Rmax=1.5506    21
 O  C  Rav=1.2119 sigma=0.0000  Rmin=1.2119  Rmax=1.2119     1
 
 selected bond angles (degree)
 --------------------
H27-N1-C2=118.34               H28-N1-C2=122.46               H28-N1-H27=118.93              O3-C2-N1=121.81                
C4-C2-N1=115.03                C4-C2-O3=123.16                C5-C4-C2=122.44                C9-C4-C2=117.94                
C9-C4-C5=119.61                C6-C5-C4=119.54                H29-C5-C4=120.78               H29-C5-C6=119.65               
C7-C6-C5=120.39                H30-C6-C5=119.87               H30-C6-C7=119.74               C8-C7-C6=120.90                
H31-C7-C6=119.04               H31-C7-C8=120.05               C9-C8-C7=118.30                C10-C8-C7=121.32               
C10-C8-C9=120.37               C8-C9-C4=121.25                H32-C9-C4=118.25               H32-C9-C8=120.50               
C11-C10-C8=113.16              C26-C10-C8=109.63              C26-C10-C11=110.14             H33-C10-C8=108.26              
H33-C10-C11=108.10             H33-C10-C26=107.36             
 
 selected dihedral angles (degree)
 ---------------------------------
O3-C2-N1-H27=359.16           O3-C2-N1-H28=185.28           C4-C2-N1-H27=178.60           C4-C2-N1-H28=  4.71           
C5-C4-C2-N1= 33.60            C5-C4-C2-O3=213.03            C9-C4-C2-N1=212.25            C9-C4-C2-O3= 31.68            
C6-C5-C4-C2=179.31            C6-C5-C4-C9=  0.67            H29-C5-C4-C2=  1.39           H29-C5-C4-C9=182.76           
C7-C6-C5-C4=  0.43            C7-C6-C5-H29=178.37           H30-C6-C5-C4=180.47           H30-C6-C5-H29=358.41          
C8-C7-C6-C5=359.03            C8-C7-C6-H30=178.99           H31-C7-C6-C5=179.91           H31-C7-C6-H30=359.87          
C9-C8-C7-C6=  0.38            C9-C8-C7-H31=179.50           C10-C8-C7-C6=179.29           C10-C8-C7-H31=358.40          
C8-C9-C4-C2=180.03            C8-C9-C4-C5=358.73            H32-C9-C4-C2=359.81           H32-C9-C4-C5=178.51           
C4-C9-C8-C7=  0.74            C4-C9-C8-C10=181.82           H32-C9-C8-C7=180.97           H32-C9-C8-C10=  2.05          
C11-C10-C8-C7= 52.48          C11-C10-C8-C9=231.37          C26-C10-C8-C7=289.10          C26-C10-C8-C9=107.98          
H33-C10-C8-C7=172.28          H33-C10-C8-C9=351.17          
 
 CMA Distance (Angstroems)
 ---------------------------
R(CMA): 10.0529
           -------------------------------------------------
          |                Final Singlepoint                |
           -------------------------------------------------

          ...................................................
          :                      SETUP                      :
          :.................................................:
          :  # basis functions                 415          :
          :  # atomic orbitals                 415          :
          :  # shells                          219          :
          :  # electrons                       420          :
          :  max. iterations                   500          :
          :  Hamiltonian                  GFN2-xTB          :
          :  restarted?                      false          :
          :  GBSA solvation                  false          :
          :  PC potential                    false          :
          :  electronic temp.          300.0000000     K    :
          :  accuracy                    1.0000000          :
          :  -> integral cutoff          0.2500000E+02      :
          :  -> integral neglect         0.1000000E-07      :
          :  -> SCF convergence          0.1000000E-05 Eh   :
          :  -> wf. convergence          0.1000000E-03 e    :
          :  Broyden damping             0.4000000          :
          :  net charge                          0          :
          :  unpaired electrons                  0          :
          ...................................................

 iter      E             dE          RMSdq      gap      omega  full diag
   1   -224.4161327 -0.224416E+03  0.401E-02    0.70       0.0  T
   2   -224.4161337 -0.988552E-06  0.234E-02    0.69       1.0  T
   3   -224.4161336  0.122449E-06  0.201E-03    0.70       4.5  T
   4   -224.4161338 -0.204492E-06  0.134E-03    0.69       6.8  T
   5   -224.4161338 -0.172882E-07  0.114E-03    0.69       7.9  T
   6   -224.4161340 -0.253912E-06  0.215E-04    0.69      42.2  T
   7   -224.4161340 -0.550168E-08  0.958E-05    0.69      94.9  T

   *** convergence criteria satisfied after 7 iterations ***

         #    Occupation            Energy/Eh            Energy/eV
      -------------------------------------------------------------
         1        2.0000           -0.6857549             -18.6603
       ...           ...                  ...                  ...
       204        2.0000           -0.3236495              -8.8070
       205        2.0000           -0.3209279              -8.7329
       206        2.0000           -0.3194600              -8.6930
       207        2.0000           -0.3169624              -8.6250
       208        2.0000           -0.3117264              -8.4825
       209        2.0000           -0.3098602              -8.4317
       210        2.0000           -0.3050947              -8.3021 (HOMO)
       211        0.0000           -0.2795641              -7.6073 (LUMO)
       212                         -0.2714552              -7.3867
       213                         -0.2658401              -7.2339
       214                         -0.2607717              -7.0960
       215                         -0.2477442              -6.7415
       ...                                ...                  ...
       415                          0.9874905              26.8710
      -------------------------------------------------------------
                  HL-Gap            0.0255306 Eh            0.6947 eV
             Fermi-level           -0.2923259 Eh           -7.9546 eV

 SCC (total)                   0 d,  0 h,  0 min,  0.273 sec
 SCC setup                      ...        0 min,  0.001 sec (  0.366%)
 Dispersion                     ...        0 min,  0.002 sec (  0.733%)
 classical contributions        ...        0 min,  0.000 sec (  0.000%)
 integral evaluation            ...        0 min,  0.011 sec (  4.029%)
 iterations                     ...        0 min,  0.225 sec ( 82.418%)
 molecular gradient             ...        0 min,  0.031 sec ( 11.355%)
 printout                       ...        0 min,  0.003 sec (  1.099%)

         :::::::::::::::::::::::::::::::::::::::::::::::::::::
         ::                     SUMMARY                     ::
         :::::::::::::::::::::::::::::::::::::::::::::::::::::
         :: total energy            -221.891239081217 Eh    ::
         :: gradient norm              0.002456940374 Eh/a0 ::
         :: HOMO-LUMO gap              0.694723911902 eV    ::
         ::.................................................::
         :: SCC energy              -224.401917752209 Eh    ::
         :: -> isotropic ES            0.686193077089 Eh    ::
         :: -> anisotropic ES         -0.021191401396 Eh    ::
         :: -> anisotropic XC          0.106904563579 Eh    ::
         :: -> dispersion             -0.199462934503 Eh    ::
         :: repulsion energy           2.510678670992 Eh    ::
         :: add. restraining           0.000000000000 Eh    ::
         :: total charge              -0.000000000000 e     ::
         :::::::::::::::::::::::::::::::::::::::::::::::::::::

           -------------------------------------------------
          |                Property Printout                |
           -------------------------------------------------

    * Orbital Energies and Occupations

         #    Occupation            Energy/Eh            Energy/eV
      -------------------------------------------------------------
         1        2.0000           -0.6857549             -18.6603
       ...           ...                  ...                  ...
       198        2.0000           -0.3360184              -9.1435
       199        2.0000           -0.3347953              -9.1102
       200        2.0000           -0.3310602              -9.0086
       201        2.0000           -0.3287461              -8.9456
       202        2.0000           -0.3263922              -8.8816
       203        2.0000           -0.3251714              -8.8484
       204        2.0000           -0.3236495              -8.8070
       205        2.0000           -0.3209279              -8.7329
       206        2.0000           -0.3194600              -8.6930
       207        2.0000           -0.3169624              -8.6250
       208        2.0000           -0.3117264              -8.4825
       209        2.0000           -0.3098602              -8.4317
       210        2.0000           -0.3050947              -8.3021 (HOMO)
       211        0.0000           -0.2795641              -7.6073 (LUMO)
       212                         -0.2714552              -7.3867
       213                         -0.2658401              -7.2339
       214                         -0.2607717              -7.0960
       215                         -0.2477442              -6.7415
       216                         -0.2456053              -6.6833
       217                         -0.2417379              -6.5780
       218                         -0.2308000              -6.2804
       219                         -0.2289557              -6.2302
       220                         -0.2268893              -6.1740
       221                         -0.2252638              -6.1297
       ...                                ...                  ...
       415                          0.9874905              26.8710
      -------------------------------------------------------------
                  HL-Gap            0.0255306 Eh            0.6947 eV
             Fermi-level           -0.2923259 Eh           -7.9546 eV

     #   Z          covCN         q      C6AA      α(0)
     1   7 N        2.639    -0.274    27.097     7.731
     2   6 C        2.751     0.282    22.233     7.721
     3   8 O        0.859    -0.427    22.220     6.320
     4   6 C        2.974    -0.020    28.509     8.758
     5   6 C        2.921    -0.038    28.946     8.823
     6   6 C        2.917    -0.033    28.818     8.803
     7   6 C        2.925    -0.034    28.859     8.810
     8   6 C        2.970     0.014    27.704     8.634
     9   6 C        2.931    -0.032    28.788     8.799
    10   6 C        3.859    -0.032    21.096     6.532
    11   6 C        3.805    -0.060    21.649     6.624
    12   6 C        3.803    -0.055    21.564     6.611
    13   6 C        3.760     0.012    20.425     6.443
    14   7 N        2.731    -0.173    24.744     7.388
    15   6 C        3.765     0.008    20.483     6.451
    16   6 C        2.968     0.011    27.769     8.644
    17   6 C        2.920    -0.034    28.835     8.806
    18   6 C        2.918    -0.041    29.020     8.834
    19   6 C        2.975     0.088    26.044     8.371
    20   7 N        1.840    -0.231    26.898     7.686
    21   6 C        2.905     0.062    26.612     8.459
    22   6 C        2.911    -0.044    29.096     8.845
    23   6 C        2.924    -0.019    28.481     8.752
    24   6 C        2.985     0.001    28.005     8.681
    25   6 C        2.920    -0.047    29.166     8.856
    26   6 C        3.761     0.017    20.326     6.427
    27   1 H        0.860     0.189     1.162     1.688
    28   1 H        0.861     0.178     1.227     1.735
    29   1 H        0.926     0.029     2.598     2.521
    30   1 H        0.926     0.032     2.554     2.499
    31   1 H        0.926     0.038     2.472     2.459
    32   1 H        0.926     0.060     2.199     2.319
    33   1 H        0.924     0.053     2.280     2.362
    34   1 H        0.924     0.049     2.338     2.391
    35   1 H        0.924     0.037     2.492     2.469
    36   1 H        0.924     0.031     2.570     2.507
    37   1 H        0.924     0.032     2.558     2.501
    38   1 H        0.923     0.007     2.936     2.679
    39   1 H        0.924     0.033     2.549     2.497
    40   1 H        0.924     0.043     2.411     2.428
    41   1 H        0.922     0.007     2.942     2.683
    42   1 H        0.926     0.060     2.197     2.318
    43   1 H        0.926     0.059     2.208     2.324
    44   1 H        0.925     0.035     2.523     2.484
    45   1 H        0.926     0.031     2.575     2.509
    46   1 H        0.925     0.031     2.575     2.509
    47   1 H        0.925     0.029     2.599     2.521
    48   1 H        0.922     0.008     2.923     2.674
    49   1 H        0.924     0.029     2.599     2.521
    50   5 B        2.781     0.076    20.195     7.514
    51   7 N        2.774    -0.227    25.959     7.567
    52   5 B        2.788     0.092    19.935     7.464
    53   7 N        2.524    -0.315    28.136     7.877
    54   5 B        2.779     0.083    20.086     7.494
    55   7 N        2.655    -0.270    26.985     7.715
    56   5 B        2.849     0.241    17.668     7.018
    57   7 N        2.529    -0.273    27.092     7.730
    58   5 B        3.197     0.150    18.931     7.257
    59   7 N        2.979    -0.111    23.408     7.186
    60   5 B        2.644     0.372    16.331     6.815
    61   7 N        2.669    -0.213    25.633     7.519
    62   5 B        3.183     0.021    21.010     7.645
    63   7 N        2.887    -0.222    25.845     7.551
    64   5 B        3.009     0.209    18.078     7.092
    65   7 N        2.660    -0.163    24.535     7.357
    66   5 B        2.909     0.319    16.611     6.801
    67   7 N        3.155    -0.083    22.840     7.098
    68   5 B        2.778     0.093    19.918     7.462
    69   7 N        3.036    -0.127    23.741     7.237
    70   5 B        2.758     0.090    20.006     7.484
    71   7 N        2.635    -0.306    27.874     7.841
    72   5 B        3.040     0.226    17.836     7.044
    73   7 N        2.980    -0.002    21.301     6.855
    74   5 B        2.581     0.326    17.312     7.090
    75   7 N        2.596    -0.360    29.301     8.039
    76   5 B        3.287     0.340    16.339     6.741
    77   7 N        2.784    -0.254    26.581     7.657
    78   5 B        2.559     0.320    17.602     7.187
    79   7 N        2.578    -0.369    29.537     8.072
    80   5 B        2.530     0.301    18.226     7.377
    81   7 N        2.665    -0.205    25.456     7.493
    82   5 B        2.698     0.196    18.507     7.219
    83   7 N        2.843    -0.168    24.616     7.369
    84   5 B        2.758     0.082    20.133     7.508
    85   7 N        2.672    -0.174    24.776     7.393
    86   5 B        2.877     0.110    19.579     7.386
    87   7 N        2.663    -0.145    24.139     7.297
    88   5 B        2.594     0.312    17.392     7.086
    89   7 N        2.519    -0.354    29.159     8.019
    90   5 B        2.684     0.183    18.726     7.269
    91   7 N        3.008    -0.128    23.772     7.242
    92   5 B        2.677     0.210    18.362     7.202
    93   7 N        2.715    -0.250    26.489     7.644
    94   5 B        2.647     0.163    19.172     7.381
    95   7 N        2.825    -0.207    25.490     7.499
    96   5 B        3.322     0.230    17.781     7.032
    97   7 N        2.531    -0.286    27.412     7.776
    98   5 B        2.950     0.035    20.787     7.607
    99   7 N        2.784    -0.184    24.987     7.424
   100   5 B        2.796     0.084    20.049     7.483
   101   7 N        2.673    -0.156    24.373     7.332
   102   5 B        3.021     0.211    18.050     7.087
   103   7 N        3.272     0.015    20.994     6.805
   104   5 B        2.868     0.306    16.801     6.843
   105   7 N        3.158    -0.110    23.394     7.184
   106   5 B        3.264     0.320    16.585     6.792
   107   7 N        2.833    -0.061    22.420     7.032
   108   5 B        3.304     0.231    17.768     7.029
   109   7 N        2.656    -0.183    24.959     7.420
   110   5 B        2.838     0.112    19.572     7.388
   111   7 N        2.834    -0.222    25.833     7.549
   112   5 B        2.862     0.252    17.506     6.985
   113   7 N        2.654    -0.228    25.988     7.571
   114   5 B        3.010     0.114    19.492     7.365
   115   7 N        3.153    -0.086    22.916     7.110
   116   5 B        2.673     0.202    18.494     7.231
   117   7 N        2.696    -0.230    26.041     7.579
   118   5 B        2.584     0.370    16.719     6.962
   119   7 N        2.880    -0.180    24.879     7.408
   120   5 B        2.824     0.106    19.676     7.409
   121   7 N        2.827    -0.253    26.563     7.655

 Mol. C6AA /au·bohr⁶  :     252337.081432
 Mol. C8AA /au·bohr⁸  :    6972851.205906
 Mol. α(0) /au        :        791.255658


Wiberg/Mayer (AO) data.
largest (>0.10) Wiberg bond orders for each atom

 ---------------------------------------------------------------------------
     #   Z sym  total        # sym  WBO       # sym  WBO       # sym  WBO
 ---------------------------------------------------------------------------
     1   7 N    3.361 --     2 C    1.228    28 H    0.947    27 H    0.944
                             3 O    0.198
     2   6 C    3.946 --     3 O    1.694     1 N    1.228     4 C    0.984
     3   8 O    2.014 --     2 C    1.694     1 N    0.198
     4   6 C    3.988 --     9 C    1.401     5 C    1.397     2 C    0.984
                             7 C    0.104
     5   6 C    3.990 --     6 C    1.443     4 C    1.397    29 H    0.967
                             8 C    0.106
     6   6 C    3.992 --     5 C    1.443     7 C    1.443    30 H    0.971
                             9 C    0.106
     7   6 C    3.992 --     6 C    1.443     8 C    1.402    31 H    0.964
                             4 C    0.104
     8   6 C    3.987 --     9 C    1.420     7 C    1.402    10 C    1.004
                             5 C    0.106
     9   6 C    3.988 --     8 C    1.420     4 C    1.401    32 H    0.964
                             6 C    0.106
    10   6 C    3.992 --     8 C    1.004    11 C    0.981    26 C    0.972
                            33 H    0.968
    11   6 C    3.996 --    12 C    1.011    10 C    0.981    34 H    0.978
                            35 H    0.977
    12   6 C    3.998 --    11 C    1.011    13 C    1.004    37 H    0.977
                            36 H    0.974
    13   6 C    3.987 --    12 C    1.004    14 N    0.998    39 H    0.973
                            38 H    0.967
    14   7 N    3.125 --    26 C    1.007    15 C    1.000    13 C    0.998
    15   6 C    3.987 --    16 C    1.004    14 N    1.000    41 H    0.959
                            40 H    0.957
    16   6 C    3.988 --    25 C    1.535    17 C    1.286    15 C    1.004
    17   6 C    3.989 --    18 C    1.574    16 C    1.286    42 H    0.966
    18   6 C    3.990 --    17 C    1.574    19 C    1.262    43 H    0.966
                            25 C    0.112
    19   6 C    3.982 --    20 N    1.289    18 C    1.262    24 C    1.238
    20   7 N    3.065 --    21 C    1.552    19 C    1.289    23 C    0.106
    21   6 C    3.979 --    20 N    1.552    22 C    1.307    44 H    0.963
    22   6 C    3.992 --    23 C    1.554    21 C    1.307    45 H    0.971
    23   6 C    3.989 --    22 C    1.554    24 C    1.286    46 H    0.968
                            20 N    0.106
    24   6 C    3.990 --    23 C    1.286    25 C    1.276    19 C    1.238
    25   6 C    3.990 --    16 C    1.535    24 C    1.276    47 H    0.965
                            18 C    0.112
    26   6 C    3.987 --    14 N    1.007    49 H    0.973    10 C    0.972
                            48 H    0.962
    27   1 H    0.963 --     1 N    0.944
    28   1 H    0.968 --     1 N    0.947
    29   1 H    0.999 --     5 C    0.967
    30   1 H    0.998 --     6 C    0.971
    31   1 H    0.998 --     7 C    0.964
    32   1 H    0.996 --     9 C    0.964
    33   1 H    0.997 --    10 C    0.968
    34   1 H    0.997 --    11 C    0.978
    35   1 H    0.999 --    11 C    0.977
    36   1 H    0.999 --    12 C    0.974
    37   1 H    0.998 --    12 C    0.977
    38   1 H    1.000 --    13 C    0.967
    39   1 H    0.999 --    13 C    0.973
    40   1 H    0.995 --    15 C    0.957
    41   1 H    0.999 --    15 C    0.959
    42   1 H    0.996 --    17 C    0.966
    43   1 H    0.996 --    18 C    0.966
    44   1 H    0.998 --    21 C    0.963
    45   1 H    0.999 --    22 C    0.971
    46   1 H    0.999 --    23 C    0.968
    47   1 H    0.999 --    25 C    0.965
    48   1 H    1.000 --    26 C    0.962
    49   1 H    0.999 --    26 C    0.973
    50   5 B    3.478 --   119 N    1.282   102 B    1.000    96 B    0.970
    51   7 N    3.399 --    96 B    1.143   109 N    1.007   108 B    1.001
    52   5 B    3.464 --    97 N    1.276   120 B    0.978   108 B    0.959
    53   7 N    3.530 --   112 B    1.152   110 B    1.151    80 B    1.017
    54   5 B    3.463 --    87 N    1.240   116 B    0.995    90 B    0.990
    55   7 N    3.264 --    76 B    1.202   118 B    0.966   113 N    0.888
    56   5 B    3.408 --    89 N    1.177    63 N    1.034    72 B    0.963
    57   7 N    3.568 --    70 B    1.276    58 B    1.158   114 B    0.973
    58   5 B    3.393 --    57 N    1.158   100 B    0.932    98 B    0.640
                            62 B    0.294
    59   7 N    3.322 --    64 B    1.113   103 N    1.043   115 N    0.945
    60   5 B    3.433 --    61 N    1.186    71 N    1.128    99 N    0.961
    61   7 N    3.445 --    60 B    1.186    88 B    1.086   101 N    0.967
    62   5 B    3.457 --    98 B    1.285   114 B    1.004   112 B    0.627
                            58 B    0.294
    63   7 N    3.427 --    66 B    1.232    56 B    1.034    77 N    0.929
    64   5 B    3.390 --    59 N    1.113    83 N    1.039   110 B    1.005
    65   7 N    3.510 --    68 B    1.206    88 B    1.123    85 N    0.999
    66   5 B    3.514 --    63 N    1.232    91 N    1.072   111 N    1.002
    67   7 N    3.348 --   116 B    1.139   119 N    0.990    69 N    0.982
    68   5 B    3.414 --    65 N    1.206    86 B    1.008   100 B    0.927
    69   7 N    3.326 --   104 B    1.135    67 N    0.982    73 N    0.973
    70   5 B    3.464 --    57 N    1.276    84 B    0.978    94 B    0.932
    71   7 N    3.222 --    60 B    1.128    74 B    1.067    99 N    0.796
    72   5 B    3.368 --    85 N    1.151    77 N    0.992    56 B    0.963
    73   7 N    3.096 --    91 N    1.013    69 N    0.973   117 N    0.938
    74   5 B    3.511 --   111 N    1.247    71 N    1.067    89 N    0.987
    75   7 N    3.433 --    80 B    1.202   108 B    1.061    96 B    0.924
    76   5 B    3.481 --    55 N    1.202    93 N    1.041    79 N    0.980
    77   7 N    3.283 --    82 B    1.169    72 B    0.992    63 N    0.929
    78   5 B    3.524 --   113 N    1.210   117 N    1.117   105 N    1.038
    79   7 N    3.430 --    92 B    1.219   106 B    0.993    76 B    0.980
    80   5 B    3.520 --    75 N    1.202   121 N    1.099    53 N    1.017
    81   7 N    3.442 --   118 B    1.259    92 B    0.999   107 N    0.990
    82   5 B    3.445 --    77 N    1.169   109 N    1.123   120 B    0.923
    83   7 N    3.469 --    84 B    1.260    64 B    1.039   115 N    0.984
    84   5 B    3.420 --    83 N    1.260    70 B    0.978    92 B    0.959
    85   7 N    3.511 --   120 B    1.172    72 B    1.151    65 N    0.999
    86   5 B    3.347 --    98 B    1.009    68 B    1.008    97 N    0.963
    87   7 N    3.509 --    54 B    1.240    90 B    1.093    93 N    1.035
    88   5 B    3.515 --    65 N    1.123    89 N    1.105    61 N    1.086
    89   7 N    3.477 --    56 B    1.177    88 B    1.105    74 B    0.987
    90   5 B    3.464 --    95 N    1.179    87 N    1.093    54 B    0.990
    91   7 N    3.263 --    66 B    1.072    73 N    1.013   105 N    0.976
    92   5 B    3.391 --    79 N    1.219    81 N    0.999    84 B    0.959
    93   7 N    3.371 --    76 B    1.041    87 N    1.035   106 B    0.986
    94   5 B    3.455 --   107 N    1.193   101 N    1.078    70 B    0.932
    95   7 N    3.406 --    90 B    1.179   102 B    1.072   103 N    0.959
    96   5 B    3.365 --    51 N    1.143    50 B    0.970    75 N    0.924
                           108 B    0.127
    97   7 N    3.561 --    52 B    1.276   112 B    1.105    86 B    0.963
    98   5 B    3.368 --    62 B    1.285    86 B    1.009    58 B    0.640
                           112 B    0.187
    99   7 N    2.987 --   107 N    1.043    60 B    0.961    71 N    0.796
   100   5 B    3.456 --   101 N    1.267    58 B    0.932    68 B    0.927
   101   7 N    3.480 --   100 B    1.267    94 B    1.078    61 N    0.967
   102   5 B    3.442 --   121 N    1.131    95 N    1.072    50 B    1.000
   103   7 N    3.186 --    59 N    1.043    95 N    0.959   121 N    0.951
   104   5 B    3.523 --   109 N    1.163    69 N    1.135   119 N    0.995
   105   7 N    3.225 --    78 B    1.038   111 N    0.985    91 N    0.976
   106   5 B    3.507 --   115 N    1.264    79 N    0.993    93 N    0.986
   107   7 N    3.440 --    94 B    1.193    99 N    1.043    81 N    0.990
   108   5 B    3.327 --    75 N    1.061    51 N    1.001    52 B    0.959
                            96 B    0.127
   109   7 N    3.491 --   104 B    1.163    82 B    1.123    51 N    1.007
   110   5 B    3.386 --    53 N    1.151    64 B    1.005   114 B    1.002
   111   7 N    3.449 --    74 B    1.247    66 B    1.002   105 N    0.985
   112   5 B    3.443 --    53 N    1.152    97 N    1.105    62 B    0.627
                            98 B    0.187   114 B    0.119
   113   7 N    3.335 --    78 B    1.210   118 B    1.039    55 N    0.888
   114   5 B    3.333 --    62 B    1.004   110 B    1.002    57 N    0.973
                           112 B    0.119
   115   7 N    3.439 --   106 B    1.264    83 N    0.984    59 N    0.945
   116   5 B    3.447 --    67 N    1.139   117 N    1.121    54 B    0.995
   117   7 N    3.394 --   116 B    1.121    78 B    1.117    73 N    0.938
   118   5 B    3.438 --    81 N    1.259   113 N    1.039    55 N    0.966
   119   7 N    3.476 --    50 B    1.282   104 B    0.995    67 N    0.990
   120   5 B    3.360 --    85 N    1.172    52 B    0.978    82 B    0.923
   121   7 N    3.417 --   102 B    1.131    80 B    1.099   103 N    0.951
 ---------------------------------------------------------------------------

Topologies differ in total number of bonds
Writing topology from bond orders to xtbtopo.mol

molecular dipole:
                 x           y           z       tot (Debye)
 q only:        1.244       2.092      -2.590
   full:       -0.641       1.323       0.583       4.021
molecular quadrupole (traceless):
                xx          xy          yy          xz          yz          zz
 q only:      -37.211      -7.326     -18.199     -24.313      -9.058      55.411
  q+dip:      -41.050     -11.255     -31.843     -28.632      -0.126      72.893
   full:      -37.900      -8.418     -27.838     -23.936       1.782      65.738

           -------------------------------------------------
          |                Geometry Summary                 |
           -------------------------------------------------

      molecular mass/u    :     1238.8766670
   center of mass at/Å    :       -0.0103631       0.0169429       2.9270811
  moments of inertia/u·Å² :        0.1795998E+05   0.3677411E+05   0.4266511E+05
rotational constants/cm⁻¹ :        0.9386220E-03   0.4584103E-03   0.3951152E-03

 * 142 selected distances

     #   Z          #   Z                                           value/Å
     1   7 N        2   6 C                                       1.3576937
     2   6 C        3   8 O                                       1.2119327
     4   6 C        5   6 C                                       1.3906107
     5   6 C        6   6 C                                       1.3832279
     6   6 C        7   6 C                                       1.3833588
     7   6 C        8   6 C                                       1.3914191
     4   6 C        9   6 C                                       1.3908012
     8   6 C        9   6 C                                       1.3872157
    11   6 C       12   6 C                                       1.5236803
    12   6 C       13   6 C                                       1.5286024
    13   6 C       14   7 N                                       1.4584087
    14   7 N       15   6 C                                       1.4484005
    16   6 C       17   6 C                                       1.4110635
    17   6 C       18   6 C                                       1.3646174
    18   6 C       19   6 C                                       1.4119585
    19   6 C       20   7 N                                       1.3480354
    20   7 N       21   6 C                                       1.3030346
    21   6 C       22   6 C                                       1.4066405
    22   6 C       23   6 C                                       1.3677546
    19   6 C       24   6 C                                       1.4210602
    23   6 C       24   6 C                                       1.4100156
    16   6 C       25   6 C                                       1.3690238
    24   6 C       25   6 C                                       1.4088152
    10   6 C       26   6 C                                       1.5398455
    14   7 N       26   6 C                                       1.4454898
     1   7 N       27   1 H                                       1.0063717
     1   7 N       28   1 H                                       1.0031537 (min)
     5   6 C       29   1 H                                       1.0805698
     6   6 C       30   1 H                                       1.0805594
     7   6 C       31   1 H                                       1.0791365
     9   6 C       32   1 H                                       1.0798287
    10   6 C       33   1 H                                       1.0926452
    11   6 C       34   1 H                                       1.0905545
    11   6 C       35   1 H                                       1.0918043
    12   6 C       36   1 H                                       1.0913960
    12   6 C       37   1 H                                       1.0912490
    13   6 C       38   1 H                                       1.1044778
    13   6 C       39   1 H                                       1.0955782
    15   6 C       40   1 H                                       1.0956646
    15   6 C       41   1 H                                       1.1076491
    17   6 C       42   1 H                                       1.0785662
    18   6 C       43   1 H                                       1.0786531
    21   6 C       44   1 H                                       1.0826517
    22   6 C       45   1 H                                       1.0793720
    23   6 C       46   1 H                                       1.0817232
    25   6 C       47   1 H                                       1.0821623
    26   6 C       48   1 H                                       1.1049729
    26   6 C       49   1 H                                       1.0933560
    57   7 N       58   5 B                                       1.4428288
    60   5 B       61   7 N                                       1.4041838
    56   5 B       63   7 N                                       1.4726159
    59   7 N       64   5 B                                       1.4401723
    63   7 N       66   5 B                                       1.3871583
    65   7 N       68   5 B                                       1.4224313
    67   7 N       69   7 N                                       1.4227907
    57   7 N       70   5 B                                       1.4232953
    60   5 B       71   7 N                                       1.3936234
    56   5 B       72   5 B                                       1.5750835
    69   7 N       73   7 N                                       1.4210423
    71   7 N       74   5 B                                       1.4339186
    55   7 N       76   5 B                                       1.3893643
    72   5 B       77   7 N                                       1.4842695
    76   5 B       79   7 N                                       1.4713359
    53   7 N       80   5 B                                       1.4903473
    75   7 N       80   5 B                                       1.4131646
    77   7 N       82   5 B                                       1.4386551
    64   5 B       83   7 N                                       1.4566074
    70   5 B       84   5 B                                       1.6641981
    83   7 N       84   5 B                                       1.4082818
    72   5 B       85   7 N                                       1.4216988
    68   5 B       86   5 B                                       1.6423211
    54   5 B       87   7 N                                       1.4059658
    61   7 N       88   5 B                                       1.4485713
    65   7 N       88   5 B                                       1.4600367
    56   5 B       89   7 N                                       1.4263701
    74   5 B       89   7 N                                       1.4937601
    88   5 B       89   7 N                                       1.4580580
    54   5 B       90   5 B                                       1.5727952
    87   7 N       90   5 B                                       1.4136516
    66   5 B       91   7 N                                       1.4436337
    73   7 N       91   7 N                                       1.3928200
    79   7 N       92   5 B                                       1.4205696
    81   7 N       92   5 B                                       1.4788976
    84   5 B       92   5 B                                       1.6741221 (max)
    76   5 B       93   7 N                                       1.4508598
    87   7 N       93   7 N                                       1.3694816
    90   5 B       95   7 N                                       1.4093583
    50   5 B       96   5 B                                       1.6082349
    51   7 N       96   5 B                                       1.4238864
    75   7 N       96   5 B                                       1.4999962
    52   5 B       97   7 N                                       1.4100493
    86   5 B       97   7 N                                       1.4908476
    62   5 B       98   5 B                                       1.5155747
    86   5 B       98   5 B                                       1.6060619
    60   5 B       99   7 N                                       1.4296487
    58   5 B      100   5 B                                       1.6491369
    68   5 B      100   5 B                                       1.6618182
    94   5 B      101   7 N                                       1.4622179
   100   5 B      101   7 N                                       1.4026872
    50   5 B      102   5 B                                       1.6193494
    95   7 N      102   5 B                                       1.4431910
    59   7 N      103   7 N                                       1.3679457
    69   7 N      104   5 B                                       1.4401132
    78   5 B      105   7 N                                       1.4525309
    91   7 N      105   7 N                                       1.4362998
    79   7 N      106   5 B                                       1.4562982
    93   7 N      106   5 B                                       1.4636886
    94   5 B      107   7 N                                       1.4265319
    99   7 N      107   7 N                                       1.3900806
    51   7 N      108   5 B                                       1.4595071
    52   5 B      108   5 B                                       1.6124420
    75   7 N      108   5 B                                       1.4507307
    82   5 B      109   7 N                                       1.4500980
   104   5 B      109   7 N                                       1.4406369
    53   7 N      110   5 B                                       1.4573963
    64   5 B      110   5 B                                       1.6053296
    66   5 B      111   7 N                                       1.4607770
    74   5 B      111   7 N                                       1.3910128
   105   7 N      111   7 N                                       1.4188901
    53   7 N      112   5 B                                       1.4586400
    97   7 N      112   5 B                                       1.4560596
    78   5 B      113   7 N                                       1.3882723
    57   7 N      114   5 B                                       1.4965528
    62   5 B      114   5 B                                       1.6004173
   110   5 B      114   5 B                                       1.6241843
    59   7 N      115   7 N                                       1.4307984
    83   7 N      115   7 N                                       1.4183648
   106   5 B      115   7 N                                       1.3744702
    54   5 B      116   5 B                                       1.6418081
    67   7 N      116   5 B                                       1.4381187
    78   5 B      117   7 N                                       1.4444564
   116   5 B      117   7 N                                       1.4532911
    55   7 N      118   5 B                                       1.4259482
    81   7 N      118   5 B                                       1.4010497
   113   7 N      118   5 B                                       1.4162107
    50   5 B      119   7 N                                       1.4021697
    67   7 N      119   7 N                                       1.4089906
   104   5 B      119   7 N                                       1.4843986
    52   5 B      120   5 B                                       1.6508403
    85   7 N      120   5 B                                       1.4319784
    80   5 B      121   7 N                                       1.4511797
   102   5 B      121   7 N                                       1.4430616

 * 8 distinct bonds (by element types)

   Z      Z             #   av. dist./Å        max./Å        min./Å
   5 B    5 B          17     1.6190422     1.6741221     1.5155747
   1 H    6 C          21     1.0886938     1.1076491     1.0785662
   6 C    6 C          18     1.4160950     1.5398455     1.3646174
   1 H    7 N           2     1.0047627     1.0063717     1.0031537
   5 B    7 N          66     1.4391119     1.4999962     1.3744702
   6 C    7 N           6     1.3935104     1.4584087     1.3030346
   7 N    7 N          11     1.4070459     1.4362998     1.3679457
   6 C    8 O           1     1.2119327     1.2119327     1.2119327


optimized geometry written to: xtbopt.xyz


           -------------------------------------------------
          | TOTAL ENERGY             -221.891239081217 Eh   |
          | GRADIENT NORM               0.002456940374 Eh/α |
          | HOMO-LUMO GAP               0.694723911902 eV   |
           -------------------------------------------------

------------------------------------------------------------------------
 * finished run on 2026/08/31 at 22:24:04.889     
------------------------------------------------------------------------
 total:
 * wall-time:     0 d,  0 h,  0 min,  5.456 sec
 *  cpu-time:     0 d,  0 h,  0 min, 50.281 sec
 * ratio c/w:     9.216 speedup
 SCF:
 * wall-time:     0 d,  0 h,  0 min,  0.690 sec
 *  cpu-time:     0 d,  0 h,  0 min,  6.469 sec
 * ratio c/w:     9.375 speedup
 ANC optimizer:
 * wall-time:     0 d,  0 h,  0 min,  4.700 sec
 *  cpu-time:     0 d,  0 h,  0 min, 43.312 sec
 * ratio c/w:     9.215 speedup

normal termination of xtb
