      -----------------------------------------------------------      
     |                   =====================                   |     
     |                           x T B                           |     
     |                   =====================                   |     
     |                         S. Grimme                         |     
     |          Mulliken Center for Theoretical Chemistry        |     
     |                    University of Bonn                     |     
      -----------------------------------------------------------      

   * xtb version 6.7.1pre (5071a88) compiled by 'Marcel@Raven' on 2024-07-23

   xtb is free software: you can redistribute it and/or modify it under
   the terms of the GNU Lesser General Public License as published by
   the Free Software Foundation, either version 3 of the License, or
   (at your option) any later version.
   
   xtb is distributed in the hope that it will be useful,
   but WITHOUT ANY WARRANTY; without even the implied warranty of
   MERCHANTABILITY or FITNESS FOR A PARTICULAR PURPOSE.  See the
   GNU Lesser General Public License for more details.
   
   Cite this work as:
   * C. Bannwarth, E. Caldeweyher, S. Ehlert, A. Hansen, P. Pracht,
     J. Seibert, S. Spicher, S. Grimme, WIREs Comput. Mol. Sci., 2020, 11,
     e01493. DOI: 10.1002/wcms.1493
   
   for GFN2-xTB:
   * C. Bannwarth, S. Ehlert and S. Grimme., J. Chem. Theory Comput., 2019,
     15, 1652-1671. DOI: 10.1021/acs.jctc.8b01176
   for GFN1-xTB:
   * S. Grimme, C. Bannwarth, P. Shushkov, J. Chem. Theory Comput., 2017,
     13, 1989-2009. DOI: 10.1021/acs.jctc.7b00118
   for GFN0-xTB:
   * P. Pracht, E. Caldeweyher, S. Ehlert, S. Grimme, ChemRxiv, 2019, preprint.
     DOI: 10.26434/chemrxiv.8326202.v1
   for GFN-FF:
   * S. Spicher and S. Grimme, Angew. Chem. Int. Ed., 2020, 59, 15665-15673.
     DOI: 10.1002/anie.202004239
   
   for ALPB and GBSA implicit solvation:
   * S. Ehlert, M. Stahn, S. Spicher, S. Grimme, J. Chem. Theory Comput.,
     2021, 17, 4250-4261. DOI: 10.1021/acs.jctc.1c00471
   
   for ddCOSMO and CPCM-X implicit solvation:
   * M. Stahn, S. Ehlert, S. Grimme, J. Phys. Chem. A,
     2023, XX, XXXX-XXXX. DOI: 10.1021/acs.jpca.3c04382
   
   for DFT-D4:
   * E. Caldeweyher, C. Bannwarth and S. Grimme, J. Chem. Phys., 2017,
     147, 034112. DOI: 10.1063/1.4993215
   * E. Caldeweyher, S. Ehlert, A. Hansen, H. Neugebauer, S. Spicher,
     C. Bannwarth and S. Grimme, J. Chem. Phys., 2019, 150, 154122.
     DOI: 10.1063/1.5090222
   * E. Caldeweyher, J.-M. Mewes, S. Ehlert and S. Grimme, Phys. Chem. Chem. Phys.
     2020, 22, 8499-8512. DOI: 10.1039/D0CP00502A
   
   for sTDA-xTB:
   * S. Grimme and C. Bannwarth, J. Chem. Phys., 2016, 145, 054103.
     DOI: 10.1063/1.4959605
   
   in the mass-spec context:
   * V. Asgeirsson, C. Bauer and S. Grimme, Chem. Sci., 2017, 8, 4879.
     DOI: 10.1039/c7sc00601b
   * J. Koopman and S. Grimme, ACS Omega 2019, 4, 12, 15120-15133.
     DOI: 10.1021/acsomega.9b02011
   
   for metadynamics refer to:
   * S. Grimme, J. Chem. Theory Comput., 2019, 155, 2847-2862
     DOI: 10.1021/acs.jctc.9b00143
   
   for SPH calculations refer to:
   * S. Spicher and S. Grimme, J. Chem. Theory Comput., 2021, 17, 1701-1714
     DOI: 10.1021/acs.jctc.0c01306
   
   for ONIOM refer to:
   * C. Plett, A. Katbashev, S. Ehlert, S. Grimme, M. Bursch,
     Phys. Chem. Chem. Phys., 2023, 25, 17860-17868. DOI: 10.1039/D3CP02178E
   
   for DIPRO refer to:
   * J. Kohn, N. Gildemeister, S. Grimme, D. Fazzi, A. Hansen,
     J. Chem. Phys., 2023, just accepted.
   
   for PTB refer to:
   * S. Grimme, M. Mueller, A. Hansen, J. Chem. Phys., 2023, 158, 124111.
     DOI: 10.1063/5.0137838
   
   with help from (in alphabetical order)
   P. Atkinson, C. Bannwarth, F. Bohle, G. Brandenburg, E. Caldeweyher
   M. Checinski, S. Dohm, S. Ehlert, S. Ehrlich, I. Gerasimov, C. Hölzer
   A. Katbashev, J. Kohn, J. Koopman, C. Lavigne, S. Lehtola, F. März, M. Müller,
   F. Musil, H. Neugebauer, J. Pisarek, C. Plett, P. Pracht, F. Pultar,
   J. Seibert, P. Shushkov, S. Spicher, M. Stahn, M. Steiner, T. Strunk,
   J. Stückrath, T. Rose, and J. Unsleber
   
 * started run on 2026/08/31 at 22:21:29.743     
   ID    Z sym.   atoms
    1    7 N      1, 14, 20, 51, 53, 55, 57, 59, 61, 63, 65, 67, 69, 71, 73,
                  75, 77, 79, 81, 83, 85, 87, 89, 91, 93, 95, 97, 99, 101,
                  103, 105, 107, 109, 111, 113, 115, 117, 119, 121
    2    6 C      2, 4-13, 15-19, 21-26
    3    8 O      3
    4    1 H      27-49
    5    5 B      50, 52, 54, 56, 58, 60, 62, 64, 66, 68, 70, 72, 74, 76, 78,
                  80, 82, 84, 86, 88, 90, 92, 94, 96, 98, 100, 102, 104, 106,
                  108, 110, 112, 114, 116, 118, 120

           -------------------------------------------------
          |                Calculation Setup                |
           -------------------------------------------------

          program call               : "c:\Users\Andre\Proyectos doctorado\kras-pancreatic-gC3N4-ai\tools\xtb\xtb-6.7.1\bin\xtb.exe" "c:\Users\Andre\Proyectos doctorado\nano-qsar-ai-therapeutics\calculations\tnbc\Niraparib\Niraparib_B36N36_clean_complex.xyz" --gfn 2 --sp --chrg 0 --uhf 0 --etemp 300 --iterations 500 --norestart
          coordinate file            : c:\Users\Andre\Proyectos doctorado\nano-qsar-ai-therapeutics\calculations\tnbc\Niraparib\Niraparib_B36N36_clean_complex.xyz
          omp threads                :                    16


molecular fragmentation (1/2 indicates fragments):
111111111111111111111111111111111111111111111111122222222222222222222222
2222222222222222222222222222222222222222222222222
# atoms in fragment 1/2:    49    72
 fragment masses (1/2) :      345.44      893.44
CMA distance (Bohr)    :  19.214
constraining FC (au)   :  0.0500

           -------------------------------------------------
          |                 G F N 2 - x T B                 |
           -------------------------------------------------

        Reference                      10.1021/acs.jctc.8b01176
      * Hamiltonian:
        H0-scaling (s, p, d)           1.850000    2.230000    2.230000
        zeta-weighting                 0.500000
      * Dispersion:
        s8                             2.700000
        a1                             0.520000
        a2                             5.000000
        s9                             5.000000
      * Repulsion:
        kExp                           1.500000    1.000000
        rExp                           1.000000
      * Coulomb:
        alpha                          2.000000
        third order                    shell-resolved
        anisotropic                    true
        a3                             3.000000
        a5                             4.000000
        cn-shift                       1.200000
        cn-exp                         4.000000
        max-rad                        5.000000


          ...................................................
          :                      SETUP                      :
          :.................................................:
          :  # basis functions                 415          :
          :  # atomic orbitals                 415          :
          :  # shells                          219          :
          :  # electrons                       420          :
          :  max. iterations                   500          :
          :  Hamiltonian                  GFN2-xTB          :
          :  restarted?                      false          :
          :  GBSA solvation                  false          :
          :  PC potential                    false          :
          :  electronic temp.          300.0000000     K    :
          :  accuracy                    1.0000000          :
          :  -> integral cutoff          0.2500000E+02      :
          :  -> integral neglect         0.1000000E-07      :
          :  -> SCF convergence          0.1000000E-05 Eh   :
          :  -> wf. convergence          0.1000000E-03 e    :
          :  Broyden damping             0.4000000          :
          :  net charge                          0          :
          :  unpaired electrons                  0          :
          ...................................................

 iter      E             dE          RMSdq      gap      omega  full diag
   1   -223.4199485 -0.223420E+03  0.111E+01    0.64       0.0  T
   2   -223.8692772 -0.449329E+00  0.672E+00    0.24       1.0  T
   3   -220.8168733  0.305240E+01  0.436E+00    0.15       1.0  T
   4   -222.6440263 -0.182715E+01  0.249E+00    0.38       1.0  T
   5   -222.6265478  0.174785E-01  0.235E+00    0.45       1.0  T
   6   -224.3066870 -0.168014E+01  0.920E-01    0.78       1.0  T
   7   -224.3466278 -0.399408E-01  0.595E-01    0.76       1.0  T
   8   -224.3425409  0.408691E-02  0.483E-01    0.80       1.0  T
   9   -224.3392743  0.326660E-02  0.304E-01    0.64       1.0  T
  10   -224.3466707 -0.739642E-02  0.145E-01    0.71       1.0  T
  11   -224.3498809 -0.321017E-02  0.495E-02    0.67       1.0  T
  12   -224.3500421 -0.161230E-03  0.374E-02    0.67       1.0  T
  13   -224.3501002 -0.580660E-04  0.323E-02    0.67       1.0  T
  14   -224.3501548 -0.545750E-04  0.229E-02    0.67       1.0  T
  15   -224.3501766 -0.218331E-04  0.150E-02    0.67       1.0  T
  16   -224.3501899 -0.133062E-04  0.769E-03    0.67       1.2  T
  17   -224.3501941 -0.420953E-05  0.368E-03    0.68       2.5  T
  18   -224.3501952 -0.109816E-05  0.188E-03    0.68       4.8  T
  19   -224.3501956 -0.395179E-06  0.924E-04    0.68       9.8  T
  20   -224.3501957 -0.912066E-07  0.552E-04    0.68      16.5  T

   *** convergence criteria satisfied after 20 iterations ***

         #    Occupation            Energy/Eh            Energy/eV
      -------------------------------------------------------------
         1        2.0000           -0.6854822             -18.6529
       ...           ...                  ...                  ...
       204        2.0000           -0.3237387              -8.8094
       205        2.0000           -0.3209698              -8.7340
       206        2.0000           -0.3194816              -8.6935
       207        2.0000           -0.3166963              -8.6177
       208        2.0000           -0.3114125              -8.4740
       209        2.0000           -0.3098042              -8.4302
       210        2.0000           -0.3046956              -8.2912 (HOMO)
       211        0.0000           -0.2798201              -7.6143 (LUMO)
       212                         -0.2733254              -7.4376
       213                         -0.2713509              -7.3838
       214                         -0.2608664              -7.0985
       215                         -0.2547995              -6.9334
       ...                                ...                  ...
       415                          0.9871045              26.8605
      -------------------------------------------------------------
                  HL-Gap            0.0248755 Eh            0.6769 eV
             Fermi-level           -0.2922559 Eh           -7.9527 eV

 SCC (total)                   0 d,  0 h,  0 min,  0.708 sec
 SCC setup                      ...        0 min,  0.001 sec (  0.141%)
 Dispersion                     ...        0 min,  0.004 sec (  0.565%)
 classical contributions        ...        0 min,  0.001 sec (  0.141%)
 integral evaluation            ...        0 min,  0.011 sec (  1.554%)
 iterations                     ...        0 min,  0.650 sec ( 91.808%)
 molecular gradient             ...        0 min,  0.037 sec (  5.226%)
 printout                       ...        0 min,  0.004 sec (  0.565%)

         :::::::::::::::::::::::::::::::::::::::::::::::::::::
         ::                     SUMMARY                     ::
         :::::::::::::::::::::::::::::::::::::::::::::::::::::
         :: total energy            -221.879942534083 Eh    ::
         :: gradient norm              0.099402014305 Eh/a0 ::
         :: HOMO-LUMO gap              0.676897253720 eV    ::
         ::.................................................::
         :: SCC energy              -224.336036554085 Eh    ::
         :: -> isotropic ES            0.686973901391 Eh    ::
         :: -> anisotropic ES         -0.019790434716 Eh    ::
         :: -> anisotropic XC          0.108428469308 Eh    ::
         :: -> dispersion             -0.198162293280 Eh    ::
         :: repulsion energy           2.456094020003 Eh    ::
         :: add. restraining           0.000000000000 Eh    ::
         :: total charge              -0.000000000001 e     ::
         :::::::::::::::::::::::::::::::::::::::::::::::::::::

           -------------------------------------------------
          |                Property Printout                |
           -------------------------------------------------

    * Orbital Energies and Occupations

         #    Occupation            Energy/Eh            Energy/eV
      -------------------------------------------------------------
         1        2.0000           -0.6854822             -18.6529
       ...           ...                  ...                  ...
       198        2.0000           -0.3362697              -9.1504
       199        2.0000           -0.3347001              -9.1077
       200        2.0000           -0.3310205              -9.0075
       201        2.0000           -0.3288680              -8.9490
       202        2.0000           -0.3261033              -8.8737
       203        2.0000           -0.3248947              -8.8408
       204        2.0000           -0.3237387              -8.8094
       205        2.0000           -0.3209698              -8.7340
       206        2.0000           -0.3194816              -8.6935
       207        2.0000           -0.3166963              -8.6177
       208        2.0000           -0.3114125              -8.4740
       209        2.0000           -0.3098042              -8.4302
       210        2.0000           -0.3046956              -8.2912 (HOMO)
       211        0.0000           -0.2798201              -7.6143 (LUMO)
       212                         -0.2733254              -7.4376
       213                         -0.2713509              -7.3838
       214                         -0.2608664              -7.0985
       215                         -0.2547995              -6.9334
       216                         -0.2470502              -6.7226
       217                         -0.2417422              -6.5781
       218                         -0.2311741              -6.2906
       219                         -0.2283950              -6.2149
       220                         -0.2267663              -6.1706
       221                         -0.2254378              -6.1345
       ...                                ...                  ...
       415                          0.9871045              26.8605
      -------------------------------------------------------------
                  HL-Gap            0.0248755 Eh            0.6769 eV
             Fermi-level           -0.2922559 Eh           -7.9527 eV

     #   Z          covCN         q      C6AA      α(0)
     1   7 N        2.636    -0.277    27.149     7.739
     2   6 C        2.751     0.278    22.300     7.733
     3   8 O        0.859    -0.432    22.332     6.336
     4   6 C        2.964    -0.018    28.456     8.750
     5   6 C        2.913    -0.038    28.935     8.821
     6   6 C        2.909    -0.033    28.832     8.805
     7   6 C        2.913    -0.032    28.800     8.800
     8   6 C        2.959     0.012    27.743     8.639
     9   6 C        2.919    -0.030    28.756     8.794
    10   6 C        3.852    -0.030    21.075     6.529
    11   6 C        3.800    -0.057    21.603     6.618
    12   6 C        3.800    -0.053    21.536     6.607
    13   6 C        3.749     0.011    20.450     6.450
    14   7 N        2.723    -0.177    24.839     7.402
    15   6 C        3.754     0.007    20.520     6.459
    16   6 C        2.958     0.011    27.775     8.644
    17   6 C        2.913    -0.032    28.804     8.801
    18   6 C        2.924    -0.041    29.020     8.834
    19   6 C        2.953     0.096    25.868     8.342
    20   7 N        1.841    -0.239    27.093     7.714
    21   6 C        2.887     0.057    26.725     8.475
    22   6 C        2.905    -0.041    29.022     8.833
    23   6 C        2.931    -0.019    28.478     8.752
    24   6 C        2.985     0.004    27.921     8.668
    25   6 C        2.919    -0.048    29.192     8.860
    26   6 C        3.752     0.017    20.350     6.433
    27   1 H        0.860     0.191     1.156     1.684
    28   1 H        0.860     0.176     1.237     1.742
    29   1 H        0.925     0.032     2.558     2.501
    30   1 H        0.925     0.033     2.542     2.493
    31   1 H        0.925     0.038     2.475     2.460
    32   1 H        0.925     0.064     2.150     2.293
    33   1 H        0.923     0.054     2.274     2.358
    34   1 H        0.923     0.045     2.381     2.413
    35   1 H        0.924     0.034     2.527     2.486
    36   1 H        0.924     0.028     2.614     2.529
    37   1 H        0.924     0.031     2.570     2.507
    38   1 H        0.924     0.011     2.878     2.653
    39   1 H        0.924     0.033     2.540     2.492
    40   1 H        0.923     0.042     2.422     2.434
    41   1 H        0.923     0.010     2.886     2.657
    42   1 H        0.925     0.057     2.234     2.337
    43   1 H        0.925     0.058     2.219     2.330
    44   1 H        0.925     0.037     2.495     2.470
    45   1 H        0.925     0.032     2.564     2.504
    46   1 H        0.925     0.030     2.581     2.512
    47   1 H        0.925     0.029     2.599     2.521
    48   1 H        0.923     0.010     2.894     2.661
    49   1 H        0.923     0.030     2.583     2.513
    50   5 B        2.781     0.078    20.166     7.508
    51   7 N        2.774    -0.227    25.955     7.567
    52   5 B        2.788     0.092    19.932     7.463
    53   7 N        2.524    -0.314    28.128     7.876
    54   5 B        2.779     0.084    20.071     7.491
    55   7 N        2.655    -0.270    26.991     7.716
    56   5 B        2.849     0.241    17.673     7.019
    57   7 N        2.529    -0.273    27.091     7.730
    58   5 B        3.195     0.150    18.933     7.257
    59   7 N        2.979    -0.110    23.403     7.185
    60   5 B        2.644     0.373    16.326     6.814
    61   7 N        2.669    -0.213    25.641     7.521
    62   5 B        3.181     0.022    21.005     7.644
    63   7 N        2.888    -0.223    25.852     7.552
    64   5 B        3.009     0.209    18.079     7.093
    65   7 N        2.660    -0.163    24.539     7.357
    66   5 B        2.906     0.319    16.612     6.802
    67   7 N        3.156    -0.079    22.775     7.088
    68   5 B        2.779     0.093    19.917     7.462
    69   7 N        3.037    -0.125    23.705     7.231
    70   5 B        2.758     0.090    20.008     7.484
    71   7 N        2.634    -0.309    27.959     7.853
    72   5 B        3.040     0.226    17.838     7.045
    73   7 N        2.981    -0.001    21.284     6.852
    74   5 B        2.582     0.326    17.307     7.087
    75   7 N        2.596    -0.360    29.286     8.037
    76   5 B        3.287     0.340    16.338     6.741
    77   7 N        2.784    -0.254    26.587     7.658
    78   5 B        2.559     0.320    17.599     7.185
    79   7 N        2.579    -0.369    29.532     8.071
    80   5 B        2.530     0.301    18.228     7.378
    81   7 N        2.665    -0.205    25.463     7.494
    82   5 B        2.698     0.196    18.509     7.220
    83   7 N        2.844    -0.167    24.615     7.369
    84   5 B        2.758     0.082    20.136     7.508
    85   7 N        2.672    -0.174    24.775     7.393
    86   5 B        2.877     0.110    19.580     7.386
    87   7 N        2.663    -0.145    24.141     7.297
    88   5 B        2.594     0.312    17.390     7.086
    89   7 N        2.519    -0.355    29.177     8.022
    90   5 B        2.684     0.184    18.719     7.268
    91   7 N        3.008    -0.128    23.779     7.243
    92   5 B        2.677     0.210    18.362     7.202
    93   7 N        2.716    -0.249    26.482     7.643
    94   5 B        2.647     0.164    19.167     7.380
    95   7 N        2.825    -0.206    25.478     7.497
    96   5 B        3.321     0.231    17.766     7.029
    97   7 N        2.531    -0.286    27.413     7.776
    98   5 B        2.950     0.035    20.789     7.607
    99   7 N        2.783    -0.185    25.006     7.427
   100   5 B        2.796     0.084    20.045     7.483
   101   7 N        2.673    -0.156    24.376     7.333
   102   5 B        3.021     0.211    18.041     7.085
   103   7 N        3.272     0.015    20.991     6.805
   104   5 B        2.869     0.306    16.795     6.841
   105   7 N        3.154    -0.115    23.494     7.199
   106   5 B        3.263     0.320    16.587     6.792
   107   7 N        2.833    -0.061    22.414     7.032
   108   5 B        3.303     0.231    17.768     7.029
   109   7 N        2.656    -0.182    24.944     7.418
   110   5 B        2.838     0.112    19.572     7.388
   111   7 N        2.834    -0.224    25.884     7.556
   112   5 B        2.863     0.252    17.504     6.985
   113   7 N        2.654    -0.230    26.032     7.578
   114   5 B        3.011     0.114    19.493     7.365
   115   7 N        3.153    -0.086    22.913     7.109
   116   5 B        2.674     0.202    18.492     7.230
   117   7 N        2.696    -0.231    26.049     7.580
   118   5 B        2.585     0.369    16.722     6.962
   119   7 N        2.881    -0.177    24.831     7.401
   120   5 B        2.825     0.106    19.675     7.409
   121   7 N        2.827    -0.253    26.563     7.655

 Mol. C6AA /au·bohr⁶  :     252328.803983
 Mol. C8AA /au·bohr⁸  :    6972651.177264
 Mol. α(0) /au        :        791.235321


Wiberg/Mayer (AO) data.
largest (>0.10) Wiberg bond orders for each atom

 ---------------------------------------------------------------------------
     #   Z sym  total        # sym  WBO       # sym  WBO       # sym  WBO
 ---------------------------------------------------------------------------
     1   7 N    3.342 --     2 C    1.217    28 H    0.947    27 H    0.944
                             3 O    0.189
     2   6 C    3.946 --     3 O    1.686     1 N    1.217     4 C    1.000
     3   8 O    2.002 --     2 C    1.686     1 N    0.189
     4   6 C    3.987 --     9 C    1.397     5 C    1.392     2 C    1.000
                             7 C    0.101
     5   6 C    3.990 --     6 C    1.446     4 C    1.392    29 H    0.967
                             8 C    0.106
     6   6 C    3.991 --     5 C    1.446     7 C    1.438    30 H    0.971
                             9 C    0.107
     7   6 C    3.991 --     6 C    1.438     8 C    1.407    31 H    0.967
                             4 C    0.101
     8   6 C    3.985 --     9 C    1.416     7 C    1.407    10 C    0.999
                             5 C    0.106
     9   6 C    3.986 --     8 C    1.416     4 C    1.397    32 H    0.963
                             6 C    0.107
    10   6 C    3.991 --     8 C    0.999    11 C    0.981    26 C    0.976
                            33 H    0.968
    11   6 C    3.995 --    12 C    1.011    10 C    0.981    34 H    0.978
                            35 H    0.976
    12   6 C    3.998 --    11 C    1.011    13 C    1.003    36 H    0.977
                            37 H    0.977
    13   6 C    3.987 --    12 C    1.003    14 N    0.997    39 H    0.975
                            38 H    0.969
    14   7 N    3.104 --    26 C    1.001    13 C    0.997    15 C    0.994
    15   6 C    3.985 --    16 C    1.003    14 N    0.994    41 H    0.963
                            40 H    0.959
    16   6 C    3.987 --    25 C    1.496    17 C    1.330    15 C    1.003
    17   6 C    3.988 --    18 C    1.525    16 C    1.330    42 H    0.968
    18   6 C    3.989 --    17 C    1.525    19 C    1.291    43 H    0.967
                            25 C    0.126
    19   6 C    3.984 --    20 N    1.309    18 C    1.291    24 C    1.210
    20   7 N    3.049 --    21 C    1.492    19 C    1.309    23 C    0.123
    21   6 C    3.979 --    20 N    1.492    22 C    1.366    44 H    0.965
    22   6 C    3.992 --    23 C    1.506    21 C    1.366    45 H    0.969
    23   6 C    3.988 --    22 C    1.506    24 C    1.309    46 H    0.969
                            20 N    0.123
    24   6 C    3.991 --    23 C    1.309    25 C    1.291    19 C    1.210
    25   6 C    3.989 --    16 C    1.496    24 C    1.291    47 H    0.967
                            18 C    0.126
    26   6 C    3.987 --    14 N    1.001    10 C    0.976    49 H    0.974
                            48 H    0.966
    27   1 H    0.963 --     1 N    0.944
    28   1 H    0.969 --     1 N    0.947
    29   1 H    0.998 --     5 C    0.967
    30   1 H    0.998 --     6 C    0.971
    31   1 H    0.998 --     7 C    0.967
    32   1 H    0.996 --     9 C    0.963
    33   1 H    0.997 --    10 C    0.968
    34   1 H    0.997 --    11 C    0.978
    35   1 H    0.999 --    11 C    0.976
    36   1 H    0.999 --    12 C    0.977
    37   1 H    0.998 --    12 C    0.977
    38   1 H    1.000 --    13 C    0.969
    39   1 H    0.999 --    13 C    0.975
    40   1 H    0.996 --    15 C    0.959
    41   1 H    1.000 --    15 C    0.963
    42   1 H    0.996 --    17 C    0.968
    43   1 H    0.996 --    18 C    0.967
    44   1 H    0.998 --    21 C    0.965
    45   1 H    0.999 --    22 C    0.969
    46   1 H    0.998 --    23 C    0.969
    47   1 H    0.999 --    25 C    0.967
    48   1 H    1.000 --    26 C    0.966
    49   1 H    0.999 --    26 C    0.974
    50   5 B    3.476 --   119 N    1.283   102 B    1.000    96 B    0.969
    51   7 N    3.399 --    96 B    1.142   109 N    1.007   108 B    1.002
    52   5 B    3.464 --    97 N    1.276   120 B    0.978   108 B    0.958
    53   7 N    3.530 --   112 B    1.152   110 B    1.150    80 B    1.017
    54   5 B    3.463 --    87 N    1.240   116 B    0.996    90 B    0.989
    55   7 N    3.264 --    76 B    1.201   118 B    0.968   113 N    0.888
    56   5 B    3.408 --    89 N    1.176    63 N    1.034    72 B    0.963
    57   7 N    3.568 --    70 B    1.277    58 B    1.158   114 B    0.973
    58   5 B    3.393 --    57 N    1.158   100 B    0.932    98 B    0.641
                            62 B    0.294
    59   7 N    3.323 --    64 B    1.113   103 N    1.043   115 N    0.945
    60   5 B    3.433 --    61 N    1.186    71 N    1.127    99 N    0.961
    61   7 N    3.445 --    60 B    1.186    88 B    1.086   101 N    0.967
    62   5 B    3.456 --    98 B    1.285   114 B    1.004   112 B    0.627
                            58 B    0.294
    63   7 N    3.428 --    66 B    1.232    56 B    1.034    77 N    0.929
    64   5 B    3.390 --    59 N    1.113    83 N    1.038   110 B    1.005
    65   7 N    3.510 --    68 B    1.206    88 B    1.123    85 N    0.999
    66   5 B    3.514 --    63 N    1.232    91 N    1.073   111 N    1.001
    67   7 N    3.353 --   116 B    1.144   119 N    0.991    69 N    0.983
    68   5 B    3.414 --    65 N    1.206    86 B    1.008   100 B    0.927
    69   7 N    3.328 --   104 B    1.136    67 N    0.983    73 N    0.974
    70   5 B    3.464 --    57 N    1.277    84 B    0.978    94 B    0.932
    71   7 N    3.218 --    60 B    1.127    74 B    1.066    99 N    0.792
    72   5 B    3.368 --    85 N    1.152    77 N    0.992    56 B    0.963
    73   7 N    3.096 --    91 N    1.013    69 N    0.974   117 N    0.938
    74   5 B    3.511 --   111 N    1.247    71 N    1.066    89 N    0.989
    75   7 N    3.433 --    80 B    1.202   108 B    1.062    96 B    0.925
    76   5 B    3.481 --    55 N    1.201    93 N    1.042    79 N    0.980
    77   7 N    3.281 --    82 B    1.167    72 B    0.992    63 N    0.929
    78   5 B    3.524 --   113 N    1.210   117 N    1.121   105 N    1.033
    79   7 N    3.430 --    92 B    1.220   106 B    0.993    76 B    0.980
    80   5 B    3.520 --    75 N    1.202   121 N    1.099    53 N    1.017
    81   7 N    3.441 --   118 B    1.261    92 B    0.998   107 N    0.990
    82   5 B    3.446 --    77 N    1.167   109 N    1.125   120 B    0.923
    83   7 N    3.469 --    84 B    1.260    64 B    1.038   115 N    0.984
    84   5 B    3.421 --    83 N    1.260    70 B    0.978    92 B    0.959
    85   7 N    3.511 --   120 B    1.171    72 B    1.152    65 N    0.999
    86   5 B    3.347 --    98 B    1.009    68 B    1.008    97 N    0.963
    87   7 N    3.508 --    54 B    1.240    90 B    1.093    93 N    1.035
    88   5 B    3.515 --    65 N    1.123    89 N    1.104    61 N    1.086
    89   7 N    3.477 --    56 B    1.176    88 B    1.104    74 B    0.989
    90   5 B    3.464 --    95 N    1.179    87 N    1.093    54 B    0.989
    91   7 N    3.263 --    66 B    1.073    73 N    1.013   105 N    0.975
    92   5 B    3.391 --    79 N    1.220    81 N    0.998    84 B    0.959
    93   7 N    3.371 --    76 B    1.042    87 N    1.035   106 B    0.986
    94   5 B    3.454 --   107 N    1.191   101 N    1.079    70 B    0.932
    95   7 N    3.406 --    90 B    1.179   102 B    1.072   103 N    0.959
    96   5 B    3.364 --    51 N    1.142    50 B    0.969    75 N    0.925
                           108 B    0.127
    97   7 N    3.561 --    52 B    1.276   112 B    1.105    86 B    0.963
    98   5 B    3.367 --    62 B    1.285    86 B    1.009    58 B    0.641
                           112 B    0.186
    99   7 N    2.986 --   107 N    1.045    60 B    0.961    71 N    0.792
   100   5 B    3.455 --   101 N    1.266    58 B    0.932    68 B    0.927
   101   7 N    3.480 --   100 B    1.266    94 B    1.079    61 N    0.967
   102   5 B    3.442 --   121 N    1.130    95 N    1.072    50 B    1.000
   103   7 N    3.186 --    59 N    1.043    95 N    0.959   121 N    0.950
   104   5 B    3.523 --   109 N    1.162    69 N    1.136   119 N    0.994
   105   7 N    3.217 --    78 B    1.033   111 N    0.984    91 N    0.975
   106   5 B    3.507 --   115 N    1.264    79 N    0.993    93 N    0.986
   107   7 N    3.440 --    94 B    1.191    99 N    1.045    81 N    0.990
   108   5 B    3.327 --    75 N    1.062    51 N    1.002    52 B    0.958
                            96 B    0.127
   109   7 N    3.492 --   104 B    1.162    82 B    1.125    51 N    1.007
   110   5 B    3.386 --    53 N    1.150    64 B    1.005   114 B    1.002
   111   7 N    3.447 --    74 B    1.247    66 B    1.001   105 N    0.984
   112   5 B    3.443 --    53 N    1.152    97 N    1.105    62 B    0.627
                            98 B    0.186   114 B    0.120
   113   7 N    3.332 --    78 B    1.210   118 B    1.037    55 N    0.888
   114   5 B    3.334 --    62 B    1.004   110 B    1.002    57 N    0.973
                           112 B    0.120
   115   7 N    3.439 --   106 B    1.264    83 N    0.984    59 N    0.945
   116   5 B    3.447 --    67 N    1.144   117 N    1.116    54 B    0.996
   117   7 N    3.393 --    78 B    1.121   116 B    1.116    73 N    0.938
   118   5 B    3.439 --    81 N    1.261   113 N    1.037    55 N    0.968
   119   7 N    3.477 --    50 B    1.283   104 B    0.994    67 N    0.991
   120   5 B    3.360 --    85 N    1.171    52 B    0.978    82 B    0.923
   121   7 N    3.417 --   102 B    1.130    80 B    1.099   103 N    0.950
 ---------------------------------------------------------------------------

Topologies differ in total number of bonds
Writing topology from bond orders to xtbtopo.mol

molecular dipole:
                 x           y           z       tot (Debye)
 q only:        2.429       2.024      -2.575
   full:        1.000       1.107       0.604       4.090
molecular quadrupole (traceless):
                xx          xy          yy          xz          yz          zz
 q only:      -37.566      -8.038     -19.853      38.754     -16.836      57.419
  q+dip:      -43.479     -14.260     -32.719      40.500      -9.296      76.198
   full:      -40.529     -11.493     -28.338      43.417     -11.787      68.868


           -------------------------------------------------
          | TOTAL ENERGY             -221.879942534083 Eh   |
          | GRADIENT NORM               0.099402014305 Eh/α |
          | HOMO-LUMO GAP               0.676897253720 eV   |
           -------------------------------------------------

------------------------------------------------------------------------
 * finished run on 2026/08/31 at 22:21:30.514     
------------------------------------------------------------------------
 total:
 * wall-time:     0 d,  0 h,  0 min,  0.770 sec
 *  cpu-time:     0 d,  0 h,  0 min,  7.375 sec
 * ratio c/w:     9.578 speedup
 SCF:
 * wall-time:     0 d,  0 h,  0 min,  0.709 sec
 *  cpu-time:     0 d,  0 h,  0 min,  7.031 sec
 * ratio c/w:     9.917 speedup

normal termination of xtb
