      -----------------------------------------------------------      
     |                   =====================                   |     
     |                           x T B                           |     
     |                   =====================                   |     
     |                         S. Grimme                         |     
     |          Mulliken Center for Theoretical Chemistry        |     
     |                    University of Bonn                     |     
      -----------------------------------------------------------      

   * xtb version 6.7.1pre (5071a88) compiled by 'Marcel@Raven' on 2024-07-23

   xtb is free software: you can redistribute it and/or modify it under
   the terms of the GNU Lesser General Public License as published by
   the Free Software Foundation, either version 3 of the License, or
   (at your option) any later version.
   
   xtb is distributed in the hope that it will be useful,
   but WITHOUT ANY WARRANTY; without even the implied warranty of
   MERCHANTABILITY or FITNESS FOR A PARTICULAR PURPOSE.  See the
   GNU Lesser General Public License for more details.
   
   Cite this work as:
   * C. Bannwarth, E. Caldeweyher, S. Ehlert, A. Hansen, P. Pracht,
     J. Seibert, S. Spicher, S. Grimme, WIREs Comput. Mol. Sci., 2020, 11,
     e01493. DOI: 10.1002/wcms.1493
   
   for GFN2-xTB:
   * C. Bannwarth, S. Ehlert and S. Grimme., J. Chem. Theory Comput., 2019,
     15, 1652-1671. DOI: 10.1021/acs.jctc.8b01176
   for GFN1-xTB:
   * S. Grimme, C. Bannwarth, P. Shushkov, J. Chem. Theory Comput., 2017,
     13, 1989-2009. DOI: 10.1021/acs.jctc.7b00118
   for GFN0-xTB:
   * P. Pracht, E. Caldeweyher, S. Ehlert, S. Grimme, ChemRxiv, 2019, preprint.
     DOI: 10.26434/chemrxiv.8326202.v1
   for GFN-FF:
   * S. Spicher and S. Grimme, Angew. Chem. Int. Ed., 2020, 59, 15665-15673.
     DOI: 10.1002/anie.202004239
   
   for ALPB and GBSA implicit solvation:
   * S. Ehlert, M. Stahn, S. Spicher, S. Grimme, J. Chem. Theory Comput.,
     2021, 17, 4250-4261. DOI: 10.1021/acs.jctc.1c00471
   
   for ddCOSMO and CPCM-X implicit solvation:
   * M. Stahn, S. Ehlert, S. Grimme, J. Phys. Chem. A,
     2023, XX, XXXX-XXXX. DOI: 10.1021/acs.jpca.3c04382
   
   for DFT-D4:
   * E. Caldeweyher, C. Bannwarth and S. Grimme, J. Chem. Phys., 2017,
     147, 034112. DOI: 10.1063/1.4993215
   * E. Caldeweyher, S. Ehlert, A. Hansen, H. Neugebauer, S. Spicher,
     C. Bannwarth and S. Grimme, J. Chem. Phys., 2019, 150, 154122.
     DOI: 10.1063/1.5090222
   * E. Caldeweyher, J.-M. Mewes, S. Ehlert and S. Grimme, Phys. Chem. Chem. Phys.
     2020, 22, 8499-8512. DOI: 10.1039/D0CP00502A
   
   for sTDA-xTB:
   * S. Grimme and C. Bannwarth, J. Chem. Phys., 2016, 145, 054103.
     DOI: 10.1063/1.4959605
   
   in the mass-spec context:
   * V. Asgeirsson, C. Bauer and S. Grimme, Chem. Sci., 2017, 8, 4879.
     DOI: 10.1039/c7sc00601b
   * J. Koopman and S. Grimme, ACS Omega 2019, 4, 12, 15120-15133.
     DOI: 10.1021/acsomega.9b02011
   
   for metadynamics refer to:
   * S. Grimme, J. Chem. Theory Comput., 2019, 155, 2847-2862
     DOI: 10.1021/acs.jctc.9b00143
   
   for SPH calculations refer to:
   * S. Spicher and S. Grimme, J. Chem. Theory Comput., 2021, 17, 1701-1714
     DOI: 10.1021/acs.jctc.0c01306
   
   for ONIOM refer to:
   * C. Plett, A. Katbashev, S. Ehlert, S. Grimme, M. Bursch,
     Phys. Chem. Chem. Phys., 2023, 25, 17860-17868. DOI: 10.1039/D3CP02178E
   
   for DIPRO refer to:
   * J. Kohn, N. Gildemeister, S. Grimme, D. Fazzi, A. Hansen,
     J. Chem. Phys., 2023, just accepted.
   
   for PTB refer to:
   * S. Grimme, M. Mueller, A. Hansen, J. Chem. Phys., 2023, 158, 124111.
     DOI: 10.1063/5.0137838
   
   with help from (in alphabetical order)
   P. Atkinson, C. Bannwarth, F. Bohle, G. Brandenburg, E. Caldeweyher
   M. Checinski, S. Dohm, S. Ehlert, S. Ehrlich, I. Gerasimov, C. Hölzer
   A. Katbashev, J. Kohn, J. Koopman, C. Lavigne, S. Lehtola, F. März, M. Müller,
   F. Musil, H. Neugebauer, J. Pisarek, C. Plett, P. Pracht, F. Pultar,
   J. Seibert, P. Shushkov, S. Spicher, M. Stahn, M. Steiner, T. Strunk,
   J. Stückrath, T. Rose, and J. Unsleber
   
 * started run on 2026/08/31 at 22:23:53.844     
   ID    Z sym.   atoms
    1    7 N      1, 14, 20, 51, 53, 55, 57, 59, 61, 63, 65, 67, 69, 71, 73,
                  75, 77, 79, 81, 83, 85, 87, 89, 91, 93, 95, 97, 99, 101,
                  103, 105, 107, 109, 111, 113, 115, 117, 119, 121
    2    6 C      2, 4-13, 15-19, 21-26
    3    8 O      3
    4    1 H      27-49
    5    5 B      50, 52, 54, 56, 58, 60, 62, 64, 66, 68, 70, 72, 74, 76, 78,
                  80, 82, 84, 86, 88, 90, 92, 94, 96, 98, 100, 102, 104, 106,
                  108, 110, 112, 114, 116, 118, 120

           -------------------------------------------------
          |                Calculation Setup                |
           -------------------------------------------------

          program call               : "c:\Users\Andre\Proyectos doctorado\kras-pancreatic-gC3N4-ai\tools\xtb\xtb-6.7.1\bin\xtb.exe" "c:\Users\Andre\Proyectos doctorado\nano-qsar-ai-therapeutics\calculations\tnbc\Niraparib\Niraparib_opt_90deg.xyz" --opt vloose --gfn 2 --chrg 0 --uhf 0 --etemp 300 --iterations 500 --cycles 15 --norestart
          coordinate file            : c:\Users\Andre\Proyectos doctorado\nano-qsar-ai-therapeutics\calculations\tnbc\Niraparib\Niraparib_opt_90deg.xyz
          omp threads                :                    16


molecular fragmentation (1/2 indicates fragments):
111111111111111111111111111111111111111111111111122222222222222222222222
2222222222222222222222222222222222222222222222222
# atoms in fragment 1/2:    49    72
 fragment masses (1/2) :      345.44      893.44
CMA distance (Bohr)    :  19.216
constraining FC (au)   :  0.0500

           -------------------------------------------------
          |                 G F N 2 - x T B                 |
           -------------------------------------------------

        Reference                      10.1021/acs.jctc.8b01176
      * Hamiltonian:
        H0-scaling (s, p, d)           1.850000    2.230000    2.230000
        zeta-weighting                 0.500000
      * Dispersion:
        s8                             2.700000
        a1                             0.520000
        a2                             5.000000
        s9                             5.000000
      * Repulsion:
        kExp                           1.500000    1.000000
        rExp                           1.000000
      * Coulomb:
        alpha                          2.000000
        third order                    shell-resolved
        anisotropic                    true
        a3                             3.000000
        a5                             4.000000
        cn-shift                       1.200000
        cn-exp                         4.000000
        max-rad                        5.000000


          ...................................................
          :                      SETUP                      :
          :.................................................:
          :  # basis functions                 415          :
          :  # atomic orbitals                 415          :
          :  # shells                          219          :
          :  # electrons                       420          :
          :  max. iterations                   500          :
          :  Hamiltonian                  GFN2-xTB          :
          :  restarted?                      false          :
          :  GBSA solvation                  false          :
          :  PC potential                    false          :
          :  electronic temp.          300.0000000     K    :
          :  accuracy                    1.0000000          :
          :  -> integral cutoff          0.2500000E+02      :
          :  -> integral neglect         0.1000000E-07      :
          :  -> SCF convergence          0.1000000E-05 Eh   :
          :  -> wf. convergence          0.1000000E-03 e    :
          :  Broyden damping             0.4000000          :
          :  net charge                          0          :
          :  unpaired electrons                  0          :
          ...................................................

 iter      E             dE          RMSdq      gap      omega  full diag
   1   -223.4235374 -0.223424E+03  0.111E+01    0.64       0.0  T
   2   -223.8757759 -0.452238E+00  0.671E+00    0.24       1.0  T
   3   -220.7626586  0.311312E+01  0.436E+00    0.15       1.0  T
   4   -222.5331027 -0.177044E+01  0.255E+00    0.52       1.0  T
   5   -222.6428444 -0.109742E+00  0.234E+00    0.55       1.0  T
   6   -224.3042051 -0.166136E+01  0.938E-01    0.79       1.0  T
   7   -224.3463516 -0.421466E-01  0.610E-01    0.78       1.0  T
   8   -224.3427517  0.359999E-02  0.494E-01    0.81       1.0  T
   9   -224.3412364  0.151524E-02  0.294E-01    0.66       1.0  T
  10   -224.3460245 -0.478809E-02  0.155E-01    0.72       1.0  T
  11   -224.3499522 -0.392774E-02  0.540E-02    0.67       1.0  T
  12   -224.3501062 -0.153961E-03  0.429E-02    0.67       1.0  T
  13   -224.3501640 -0.577597E-04  0.374E-02    0.67       1.0  T
  14   -224.3502384 -0.744124E-04  0.269E-02    0.67       1.0  T
  15   -224.3502686 -0.302403E-04  0.178E-02    0.67       1.0  T
  16   -224.3502886 -0.200206E-04  0.924E-03    0.67       1.0  T
  17   -224.3502947 -0.611112E-05  0.428E-03    0.68       2.1  T
  18   -224.3502964 -0.165220E-05  0.219E-03    0.68       4.2  T
  19   -224.3502969 -0.527631E-06  0.105E-03    0.68       8.7  T
  20   -224.3502970 -0.112971E-06  0.642E-04    0.68      14.2  T
  21   -224.3502971 -0.403087E-07  0.402E-04    0.68      22.6  T

   *** convergence criteria satisfied after 21 iterations ***

         #    Occupation            Energy/Eh            Energy/eV
      -------------------------------------------------------------
         1        2.0000           -0.6853841             -18.6503
       ...           ...                  ...                  ...
       204        2.0000           -0.3234705              -8.8021
       205        2.0000           -0.3206545              -8.7255
       206        2.0000           -0.3192349              -8.6868
       207        2.0000           -0.3167536              -8.6193
       208        2.0000           -0.3114789              -8.4758
       209        2.0000           -0.3097350              -8.4283
       210        2.0000           -0.3044404              -8.2842 (HOMO)
       211        0.0000           -0.2795010              -7.6056 (LUMO)
       212                         -0.2743489              -7.4654
       213                         -0.2708795              -7.3710
       214                         -0.2607341              -7.0949
       215                         -0.2545895              -6.9277
       ...                                ...                  ...
       415                          0.9873298              26.8666
      -------------------------------------------------------------
                  HL-Gap            0.0249395 Eh            0.6786 eV
             Fermi-level           -0.2919708 Eh           -7.9449 eV

 SCC (total)                   0 d,  0 h,  0 min,  0.850 sec
 SCC setup                      ...        0 min,  0.002 sec (  0.235%)
 Dispersion                     ...        0 min,  0.004 sec (  0.471%)
 classical contributions        ...        0 min,  0.002 sec (  0.235%)
 integral evaluation            ...        0 min,  0.015 sec (  1.765%)
 iterations                     ...        0 min,  0.792 sec ( 93.176%)
 molecular gradient             ...        0 min,  0.032 sec (  3.765%)
 printout                       ...        0 min,  0.003 sec (  0.353%)

         :::::::::::::::::::::::::::::::::::::::::::::::::::::
         ::                     SUMMARY                     ::
         :::::::::::::::::::::::::::::::::::::::::::::::::::::
         :: total energy            -221.880118788963 Eh    ::
         :: gradient norm              0.099359741388 Eh/a0 ::
         :: HOMO-LUMO gap              0.678637909370 eV    ::
         ::.................................................::
         :: SCC energy              -224.336212808966 Eh    ::
         :: -> isotropic ES            0.687159837899 Eh    ::
         :: -> anisotropic ES         -0.020076206501 Eh    ::
         :: -> anisotropic XC          0.108468946345 Eh    ::
         :: -> dispersion             -0.198353249845 Eh    ::
         :: repulsion energy           2.456094020003 Eh    ::
         :: add. restraining           0.000000000000 Eh    ::
         :: total charge               0.000000000266 e     ::
         :::::::::::::::::::::::::::::::::::::::::::::::::::::

      ----------------------------------------------------------- 
     |                   =====================                   |
     |                        A N C O P T                        |
     |                   =====================                   |
     |               Approximate Normal Coordinate               |
     |                Rational Function Optimizer                |
      ----------------------------------------------------------- 
      ----------------------------------------------------------- 
     |                   =====================                   |
     |                        A N C O P T                        |
     |                   =====================                   |
     |               Approximate Normal Coordinate               |
     |                Rational Function Optimizer                |
      ----------------------------------------------------------- 

          ...................................................
          :                      SETUP                      :
          :.................................................:
          :   optimization level            normal          :
          :   max. optcycles                    15          :
          :   ANC micro-cycles                  15          :
          :   degrees of freedom               357          :
          :.................................................:
          :   RF solver                   davidson          :
          :   write xtbopt.log                true          :
          :   linear?                        false          :
          :   energy convergence         0.5000000E-05 Eh   :
          :   grad. convergence          0.1000000E-02 Eh/α :
          :   maxmium RF displ.          1.0000000          :
          :   Hlow (freq-cutoff)         0.1000000E-01      :
          :   Hmax (freq-cutoff)         5.0000000          :
          :   S6 in model hess.         20.0000000          :
          ...................................................

generating ANC from exact Hessian ...
Using Lindh-Hessian (1995)
 Shifting diagonal of input Hessian by   1.008608824146190E-002
 Lowest  eigenvalues of input Hessian
    0.010000    0.010005    0.010017    0.000000    0.000000    0.000000
    0.000000    0.000000    0.000000    0.010101    0.010119    0.010210
    0.010277    0.010391    0.010584    0.010774    0.011366    0.011953
 Highest eigenvalues
    2.087491    2.154604    2.164363    2.260728    2.301302    2.314980
 

........................................................................
.............................. CYCLE    1 ..............................
........................................................................

 iter      E             dE          RMSdq      gap      omega  full diag
   1   -224.3502971 -0.224350E+03  0.247E-04    0.68       0.0  T
   2   -224.3502971 -0.797911E-09  0.251E-04    0.68      36.2  T
   3   -224.3502971 -0.512642E-08  0.133E-04    0.68      68.2  T
     SCC iter.                  ...        0 min,  0.117 sec
     gradient                   ...        0 min,  0.033 sec
 * total energy  :  -221.8801188 Eh     change       -0.1509002E-07 Eh
   gradient norm :     0.0993591 Eh/α   predicted     0.0000000E+00 (-100.00%)
   displ. norm   :     0.2913200 α      lambda       -0.1204870E-01
   maximum displ.:     0.0906055 α      in ANC's #19, #50, #79, ...

........................................................................
.............................. CYCLE    2 ..............................
........................................................................

 iter      E             dE          RMSdq      gap      omega  full diag
   1   -224.3905489 -0.224391E+03  0.102E-01    0.68       0.0  T
   2   -224.3906316 -0.827286E-04  0.634E-02    0.68       1.0  T
   3   -224.3905877  0.438677E-04  0.272E-02    0.68       1.0  T
   4   -224.3906505 -0.628162E-04  0.769E-03    0.68       1.2  T
   5   -224.3906560 -0.544943E-05  0.391E-03    0.68       2.3  T
   6   -224.3906576 -0.165313E-05  0.226E-03    0.68       4.0  T
   7   -224.3906583 -0.674976E-06  0.956E-04    0.68       9.5  T
   8   -224.3906584 -0.675729E-07  0.504E-04    0.68      18.0  T
     SCC iter.                  ...        0 min,  0.345 sec
     gradient                   ...        0 min,  0.033 sec
 * total energy  :  -221.8881915 Eh     change       -0.8072731E-02 Eh
   gradient norm :     0.0410289 Eh/α   predicted    -0.6541034E-02 ( -18.97%)
   displ. norm   :     0.2712706 α      lambda       -0.3321311E-02
   maximum displ.:     0.1187822 α      in ANC's #19, #14, #17, ...

........................................................................
.............................. CYCLE    3 ..............................
........................................................................

 iter      E             dE          RMSdq      gap      omega  full diag
   1   -224.4115540 -0.224412E+03  0.567E-02    0.68       0.0  T
   2   -224.4115955 -0.414391E-04  0.365E-02    0.68       1.0  T
   3   -224.4115877  0.773043E-05  0.174E-02    0.68       1.0  T
   4   -224.4116050 -0.173180E-04  0.532E-03    0.68       1.7  T
   5   -224.4116077 -0.266969E-05  0.254E-03    0.68       3.6  T
   6   -224.4116085 -0.796013E-06  0.143E-03    0.68       6.3  T
   7   -224.4116088 -0.328156E-06  0.523E-04    0.68      17.4  T
   8   -224.4116089 -0.188159E-07  0.248E-04    0.68      36.6  T
     SCC iter.                  ...        0 min,  0.259 sec
     gradient                   ...        0 min,  0.030 sec
 * total energy  :  -221.8900749 Eh     change       -0.1883386E-02 Eh
   gradient norm :     0.0091691 Eh/α   predicted    -0.1784665E-02 (  -5.24%)
   displ. norm   :     0.1928461 α      lambda       -0.6153295E-03
   maximum displ.:     0.0926518 α      in ANC's #14, #19, #11, ...

........................................................................
.............................. CYCLE    4 ..............................
........................................................................

 iter      E             dE          RMSdq      gap      omega  full diag
   1   -224.4129598 -0.224413E+03  0.293E-02    0.68       0.0  T
   2   -224.4129620 -0.220271E-05  0.176E-02    0.68       1.0  T
   3   -224.4129580  0.395769E-05  0.628E-03    0.68       1.4  T
   4   -224.4129623 -0.429287E-05  0.179E-03    0.68       5.1  T
   5   -224.4129625 -0.140659E-06  0.137E-03    0.68       6.7  T
   6   -224.4129628 -0.330959E-06  0.481E-04    0.68      18.9  T
   7   -224.4129628 -0.170131E-07  0.254E-04    0.68      35.8  T
     SCC iter.                  ...        0 min,  0.242 sec
     gradient                   ...        0 min,  0.033 sec
 * total energy  :  -221.8905304 Eh     change       -0.4555157E-03 Eh
   gradient norm :     0.0075288 Eh/α   predicted    -0.3191496E-03 ( -29.94%)
   displ. norm   :     0.2876656 α      lambda       -0.5673925E-03
   maximum displ.:     0.1336549 α      in ANC's #14, #19, #11, ...

........................................................................
.............................. CYCLE    5 ..............................
........................................................................

 iter      E             dE          RMSdq      gap      omega  full diag
   1   -224.4131078 -0.224413E+03  0.389E-02    0.68       0.0  T
   2   -224.4131107 -0.285682E-05  0.231E-02    0.68       1.0  T
   3   -224.4131042  0.651937E-05  0.771E-03    0.68       1.2  T
   4   -224.4131111 -0.693076E-05  0.225E-03    0.68       4.0  T
   5   -224.4131116 -0.534364E-06  0.146E-03    0.68       6.2  T
   6   -224.4131120 -0.321680E-06  0.600E-04    0.68      15.2  T
   7   -224.4131120  0.526671E-08  0.464E-04    0.68      19.6  T
     SCC iter.                  ...        0 min,  0.242 sec
     gradient                   ...        0 min,  0.032 sec
 * total energy  :  -221.8908934 Eh     change       -0.3629421E-03 Eh
   gradient norm :     0.0057826 Eh/α   predicted    -0.3071823E-03 ( -15.36%)
   displ. norm   :     0.1824691 α      lambda       -0.1852805E-03
   maximum displ.:     0.0826304 α      in ANC's #11, #9, #14, ...

........................................................................
.............................. CYCLE    6 ..............................
........................................................................

 iter      E             dE          RMSdq      gap      omega  full diag
   1   -224.4135870 -0.224414E+03  0.248E-02    0.68       0.0  T
   2   -224.4135880 -0.980596E-06  0.146E-02    0.68       1.0  T
   3   -224.4135869  0.104131E-05  0.316E-03    0.68       2.9  T
   4   -224.4135878 -0.882737E-06  0.148E-03    0.68       6.2  T
   5   -224.4135882 -0.360833E-06  0.720E-04    0.68      12.6  T
   6   -224.4135882 -0.778134E-07  0.300E-04    0.68      30.3  T
     SCC iter.                  ...        0 min,  0.276 sec
     gradient                   ...        0 min,  0.033 sec
 * total energy  :  -221.8910302 Eh     change       -0.1368546E-03 Eh
   gradient norm :     0.0043791 Eh/α   predicted    -0.9573090E-04 ( -30.05%)
   displ. norm   :     0.2104502 α      lambda       -0.1654459E-03
   maximum displ.:     0.1046591 α      in ANC's #11, #9, #12, ...

........................................................................
.............................. CYCLE    7 ..............................
........................................................................

 iter      E             dE          RMSdq      gap      omega  full diag
   1   -224.4144949 -0.224414E+03  0.292E-02    0.68       0.0  T
   2   -224.4144959 -0.100595E-05  0.171E-02    0.68       1.0  T
   3   -224.4144954  0.499357E-06  0.257E-03    0.68       3.5  T
   4   -224.4144961 -0.644253E-06  0.109E-03    0.68       8.3  T
   5   -224.4144961 -0.653428E-07  0.752E-04    0.68      12.1  T
   6   -224.4144962 -0.736251E-07  0.386E-04    0.68      23.6  T
     SCC iter.                  ...        0 min,  0.212 sec
     gradient                   ...        0 min,  0.030 sec
 * total energy  :  -221.8911501 Eh     change       -0.1198986E-03 Eh
   gradient norm :     0.0029749 Eh/α   predicted    -0.8638691E-04 ( -27.95%)
   displ. norm   :     0.1929604 α      lambda       -0.1148419E-03
   maximum displ.:     0.0971717 α      in ANC's #11, #9, #4, ...

........................................................................
.............................. CYCLE    8 ..............................
........................................................................

 iter      E             dE          RMSdq      gap      omega  full diag
   1   -224.4151154 -0.224415E+03  0.278E-02    0.68       0.0  T
   2   -224.4151162 -0.809925E-06  0.163E-02    0.68       1.0  T
   3   -224.4151156  0.602265E-06  0.253E-03    0.68       3.6  T
   4   -224.4151163 -0.734000E-06  0.107E-03    0.68       8.5  T
   5   -224.4151163  0.185595E-07  0.960E-04    0.68       9.5  T
   6   -224.4151164 -0.161602E-06  0.349E-04    0.68      26.1  T
     SCC iter.                  ...        0 min,  0.198 sec
     gradient                   ...        0 min,  0.032 sec
 * total energy  :  -221.8912380 Eh     change       -0.8786028E-04 Eh
   gradient norm :     0.0029184 Eh/α   predicted    -0.5955992E-04 ( -32.21%)
   displ. norm   :     0.2220978 α      lambda       -0.1107344E-03
   maximum displ.:     0.1129153 α      in ANC's #9, #11, #4, ...

........................................................................
.............................. CYCLE    9 ..............................
........................................................................

 iter      E             dE          RMSdq      gap      omega  full diag
   1   -224.4154246 -0.224415E+03  0.325E-02    0.68       0.0  T
   2   -224.4154256 -0.918167E-06  0.191E-02    0.68       1.0  T
   3   -224.4154245  0.104786E-05  0.317E-03    0.68       2.9  T
   4   -224.4154257 -0.122657E-05  0.126E-03    0.68       7.2  T
   5   -224.4154257  0.373557E-07  0.117E-03    0.68       7.8  T
   6   -224.4154259 -0.250359E-06  0.325E-04    0.68      27.9  T
   7   -224.4154260 -0.104689E-07  0.148E-04    0.68      61.4  T
     SCC iter.                  ...        0 min,  0.222 sec
     gradient                   ...        0 min,  0.030 sec
 * total energy  :  -221.8913249 Eh     change       -0.8688011E-04 Eh
   gradient norm :     0.0030907 Eh/α   predicted    -0.5810101E-04 ( -33.13%)
   displ. norm   :     0.2747542 α      lambda       -0.1187862E-03
   maximum displ.:     0.1382540 α      in ANC's #9, #11, #4, ...

........................................................................
.............................. CYCLE   10 ..............................
........................................................................

 iter      E             dE          RMSdq      gap      omega  full diag
   1   -224.4152712 -0.224415E+03  0.415E-02    0.69       0.0  T
   2   -224.4152725 -0.133761E-05  0.243E-02    0.68       1.0  T
   3   -224.4152712  0.135354E-05  0.381E-03    0.68       2.4  T
   4   -224.4152730 -0.178484E-05  0.130E-03    0.68       7.0  T
   5   -224.4152727  0.211089E-06  0.139E-03    0.68       6.5  T
   6   -224.4152731 -0.352124E-06  0.429E-04    0.68      21.2  T
   7   -224.4152731 -0.282442E-07  0.125E-04    0.68      72.6  T
     SCC iter.                  ...        0 min,  0.271 sec
     gradient                   ...        0 min,  0.032 sec
 * total energy  :  -221.8914185 Eh     change       -0.9367065E-04 Eh
   gradient norm :     0.0031905 Eh/α   predicted    -0.6387939E-04 ( -31.80%)
   displ. norm   :     0.3175336 α      lambda       -0.1234796E-03
   maximum displ.:     0.1568065 α      in ANC's #9, #11, #4, ...

........................................................................
.............................. CYCLE   11 ..............................
........................................................................

 iter      E             dE          RMSdq      gap      omega  full diag
   1   -224.4148781 -0.224415E+03  0.499E-02    0.69       0.0  T
   2   -224.4148799 -0.179802E-05  0.292E-02    0.69       1.0  T
   3   -224.4148785  0.132818E-05  0.413E-03    0.69       2.2  T
   4   -224.4148805 -0.196464E-05  0.133E-03    0.69       6.8  T
   5   -224.4148803  0.164371E-06  0.125E-03    0.69       7.3  T
   6   -224.4148806 -0.217052E-06  0.595E-04    0.68      15.3  T
   7   -224.4148806 -0.647611E-07  0.159E-04    0.69      57.3  T
     SCC iter.                  ...        0 min,  0.214 sec
     gradient                   ...        0 min,  0.031 sec
 * total energy  :  -221.8915153 Eh     change       -0.9671995E-04 Eh
   gradient norm :     0.0032658 Eh/α   predicted    -0.6796715E-04 ( -29.73%)
   displ. norm   :     0.3280633 α      lambda       -0.1184443E-03
   maximum displ.:     0.1573925 α      in ANC's #9, #4, #11, ...

........................................................................
.............................. CYCLE   12 ..............................
........................................................................

 iter      E             dE          RMSdq      gap      omega  full diag
   1   -224.4146524 -0.224415E+03  0.534E-02    0.69       0.0  T
   2   -224.4146543 -0.188935E-05  0.312E-02    0.69       1.0  T
   3   -224.4146533  0.100912E-05  0.398E-03    0.69       2.3  T
   4   -224.4146550 -0.169133E-05  0.126E-03    0.69       7.2  T
   5   -224.4146550  0.318205E-07  0.832E-04    0.69      10.9  T
   6   -224.4146550 -0.766241E-07  0.422E-04    0.69      21.6  T
     SCC iter.                  ...        0 min,  0.184 sec
     gradient                   ...        0 min,  0.031 sec
 * total energy  :  -221.8916059 Eh     change       -0.9060923E-04 Eh
   gradient norm :     0.0032603 Eh/α   predicted    -0.6560233E-04 ( -27.60%)
   displ. norm   :     0.2902461 α      lambda       -0.9900289E-04
   maximum displ.:     0.1426201 α      in ANC's #4, #9, #10, ...

........................................................................
.............................. CYCLE   13 ..............................
........................................................................

 iter      E             dE          RMSdq      gap      omega  full diag
   1   -224.4150621 -0.224415E+03  0.478E-02    0.69       0.0  T
   2   -224.4150635 -0.143154E-05  0.279E-02    0.69       1.0  T
   3   -224.4150623  0.124910E-05  0.371E-03    0.69       2.4  T
   4   -224.4150635 -0.120385E-05  0.188E-03    0.69       4.8  T
   5   -224.4150638 -0.336454E-06  0.130E-03    0.69       7.0  T
   6   -224.4150641 -0.279323E-06  0.318E-04    0.69      28.6  T
   7   -224.4150641 -0.931709E-08  0.165E-04    0.69      55.2  T
     SCC iter.                  ...        0 min,  0.206 sec
     gradient                   ...        0 min,  0.030 sec
 * total energy  :  -221.8916808 Eh     change       -0.7497519E-04 Eh
   gradient norm :     0.0028612 Eh/α   predicted    -0.5367295E-04 ( -28.41%)
   displ. norm   :     0.2494728 α      lambda       -0.7610617E-04
   maximum displ.:     0.1325029 α      in ANC's #4, #10, #9, ...

........................................................................
.............................. CYCLE   14 ..............................
........................................................................

 iter      E             dE          RMSdq      gap      omega  full diag
   1   -224.4156342 -0.224416E+03  0.394E-02    0.69       0.0  T
   2   -224.4156352 -0.100009E-05  0.230E-02    0.69       1.0  T
   3   -224.4156346  0.615820E-06  0.281E-03    0.69       3.2  T
   4   -224.4156354 -0.810993E-06  0.120E-03    0.69       7.5  T
   5   -224.4156353  0.777389E-07  0.118E-03    0.69       7.7  T
   6   -224.4156356 -0.267268E-06  0.299E-04    0.69      30.4  T
   7   -224.4156356 -0.111345E-07  0.139E-04    0.69      65.3  T
     SCC iter.                  ...        0 min,  0.206 sec
     gradient                   ...        0 min,  0.033 sec
 * total energy  :  -221.8917392 Eh     change       -0.5838877E-04 Eh
   gradient norm :     0.0022567 Eh/α   predicted    -0.4042259E-04 ( -30.77%)
   displ. norm   :     0.2270272 α      lambda       -0.6140312E-04
   maximum displ.:     0.1287711 α      in ANC's #4, #10, #9, ...

........................................................................
.............................. CYCLE   15 ..............................
........................................................................

 iter      E             dE          RMSdq      gap      omega  full diag
   1   -224.4162138 -0.224416E+03  0.333E-02    0.69       0.0  T
   2   -224.4162146 -0.790050E-06  0.194E-02    0.69       1.0  T
   3   -224.4162141  0.414624E-06  0.228E-03    0.69       4.0  T
   4   -224.4162147 -0.544026E-06  0.110E-03    0.69       8.3  T
   5   -224.4162146  0.521014E-07  0.105E-03    0.69       8.6  T
   6   -224.4162148 -0.212882E-06  0.257E-04    0.69      35.3  T
   7   -224.4162149 -0.880561E-08  0.106E-04    0.69      86.2  T
     SCC iter.                  ...        0 min,  0.300 sec
     gradient                   ...        0 min,  0.032 sec
 * total energy  :  -221.8917884 Eh     change       -0.4919359E-04 Eh
   gradient norm :     0.0021011 Eh/α   predicted    -0.3228689E-04 ( -34.37%)
   displ. norm   :     0.2345427 α      lambda       -0.6087506E-04
   maximum displ.:     0.1386672 α      in ANC's #4, #10, #9, ...

   *** FAILED TO CONVERGE GEOMETRY OPTIMIZATION IN 15 ITERATIONS ***


 ANCopt (total)                0 d,  0 h,  0 min,  4.356 sec
 optimizer setup                ...        0 min,  0.001 sec (  0.023%)
 model hessian                  ...        0 min,  0.059 sec (  1.354%)
 ANC generation                 ...        0 min,  0.015 sec (  0.344%)
 coordinate transformation      ...        0 min,  0.001 sec (  0.023%)
 single point calculation       ...        0 min,  4.236 sec ( 97.245%)
 optimization log               ...        0 min,  0.030 sec (  0.689%)
 hessian update                 ...        0 min,  0.007 sec (  0.161%)
 rational function              ...        0 min,  0.003 sec (  0.069%)

================
 final structure:
================
121
 xtb: 6.7.1pre (5071a88)
N            1.83044000460318        7.37015903374259        9.43385733554477
C            1.16954162193565        6.37665596012024        8.78610508506259
O            1.22143348994815        6.25245364123318        7.58151020473889
C            0.39212827567223        5.45974085042300        9.67013036609842
C           -0.25494171545124        5.90702073965577       10.81672956579607
C           -0.97607356580766        5.01167065425961       11.58585439316516
C           -1.04512566993402        3.67772691751844       11.22613055866966
C           -0.40999014644765        3.21296283651753       10.07867567897432
C            0.29824627807708        4.12111838262369        9.30526023033945
C           -0.46469856108662        1.75962814593098        9.68916953249541
C           -1.90385277921368        1.20792078646530        9.61233935386096
C           -2.21823763494931        0.30424229110833       10.79798706507628
C           -1.24033123299853       -0.86932551288399       10.84952117653370
N            0.10987787096230       -0.47852100153462       10.45980208772547
C            1.10991197487882       -1.34935388734245       11.04280351180707
C            0.90795722647262       -2.76796459208669       10.58669898175501
C            0.81902621504024       -3.02787085053976        9.20265179307554
C            0.61966602298234       -4.29466063278051        8.73586395216500
C            0.49500414534157       -5.37382931209171        9.63788093612911
N            0.27936523171588       -6.61132078926371        9.14883892982095
C            0.15205236781117       -7.59938293277314        9.98863310265361
C            0.23477226359588       -7.46343521011501       11.38624285664345
C            0.45883852458862       -6.21891411805410       11.90766609992465
C            0.59224516983012       -5.12097546738267       11.03309701249659
C            0.79820956502450       -3.80055007504382       11.47891748703600
C            0.37159562117619        0.92623918674743       10.67766274726554
H            2.39450910254878        8.00310213526564        8.89160843796948
H            1.86226654194924        7.42928443522272       10.43507467286092
H           -0.22828174732252        6.95117307252655       11.09357871118366
H           -1.48904300455500        5.35521178883325       12.47258248436196
H           -1.61274512829511        2.99750998533359       11.84221483896497
H            0.79002831297203        3.80179116519182        8.39858716859880
H           -0.00701210743798        1.65175973927406        8.70294628411775
H           -2.01200245397531        0.62517236302457        8.69711416315962
H           -2.61679088188008        2.03367336938497        9.56999840637432
H           -2.16252674596848        0.87319510013206       11.72774387937269
H           -3.23531654618431       -0.08253155611732       10.71624677310627
H           -1.24900550769100       -1.29996039383148       11.86631766407739
H           -1.56625645501546       -1.65362702483125       10.15762404446407
H            2.09297918379773       -1.00490165094536       10.70309899267906
H            1.10044395516059       -1.31076948438293       12.14974165169930
H            0.89944815506857       -2.19262891097664        8.52495906074880
H            0.54777651382428       -4.50702795640911        7.68067005179694
H           -0.02864207162282       -8.57249531907187        9.54980406549059
H            0.12209944815121       -8.33013600147830       12.01962913781193
H            0.53248694411553       -6.05839143310408       12.97490084044630
H            0.86455318889726       -3.61724576238808       12.54341966343483
H            0.16590241670755        1.23796009031747       11.71752654195918
H            1.43167243015944        1.11640209440728       10.48888243555433
B            3.45688664688315       -1.46310562184115        1.67156064042046
N            3.45724350754207        1.12041914115486        0.98671565490655
B            2.54350989767547        2.36046484659463       -1.21077872694018
N            2.28903650311690       -0.64111079264855       -2.68587507940352
B            0.68817569320509       -3.56668202115386        2.74784546169923
N           -2.93993365938641       -2.65277695196392        1.75903212995343
B           -1.02791255003501        4.08102790086026        1.89142014825314
N           -0.62475203325933        0.02409916842888       -3.89336067755860
B           -0.47553390106501        1.45192339655397       -4.03890819759894
N            1.20148684458589       -3.78569796585836       -1.69822365336934
B           -3.83880307177893        2.21510046249198       -0.43360469238822
N           -2.76811778979452        2.76892453796618       -1.15317656590485
B            1.40071655402800        0.82374036276300       -4.84061307966977
N           -0.22474991753047        3.35447848743793        2.88729723953532
B            0.89029667803504       -2.87658971717107       -2.77062936369985
N           -0.48527554521679        3.76853572404227       -0.95331570991743
B           -0.79855798770796        2.17880153311777        3.34418651662029
N            1.65813112797235       -1.28303746538375        3.55141793268167
B           -0.24445421388199        3.47381143564720       -2.32371928524414
N            1.31466662328720        0.06040645806388        3.86967975543512
B           -1.60209404421732       -0.55339617507953       -3.03502429839125
N           -3.82593813385283        1.77874415500464        0.89043611459532
B            0.34707288053951        4.49168711262645        1.24169976148022
N            0.04950965751937       -0.02176910719850        4.51259619345787
B           -2.70042750729490        2.22559317136912        1.66067115118565
N            3.77206380351349       -0.13844376292950       -0.72166767320139
B           -2.25700223872660       -3.63770868609934        1.05500497630552
N            1.06317478621267        3.72208002500902        2.28804790484860
B           -1.82053972207528       -0.78051097299133        3.27370900063816
N           -2.44259671632411       -3.59827524878447       -0.40409412467343
B            3.01519758893577       -1.07670051668254       -1.45927650296298
N           -3.15793885198303       -1.24750626140395       -0.33267702315667
B            2.04297146785136        2.91622366201047        1.61490438397697
N           -0.51541564328136       -2.89706903528803       -2.38899758158832
B           -1.68005425506407       -2.10736317105321       -2.44449336360414
N            0.59860589486168        3.96455124658984       -0.05523350440801
B            1.09242322124699        2.96343068921077       -3.12965147171395
N            0.07281660539564       -4.36147525691042        1.76508817842191
B           -1.77658547083290        3.45396523525541       -0.34894672721498
N           -2.00444669775874        3.41651322218952        1.09057479514742
B            1.46103406755008       -4.21642000245444        1.54168883992924
N           -0.79233991648075        1.05782834721647        4.25524395709354
B           -2.67044852733662       -2.39672445689830       -1.12629974082461
N           -1.07916931985502       -4.48367369385610        1.03504339690348
B           -2.50423555158853        0.49817616668400       -2.05583396202945
N            2.34592191884119       -3.89133259094506        0.49386346218948
B            3.91181303904892       -0.21132357804652        0.77028493192724
N            1.93009458646264        1.95813951751908       -2.41503077220949
B            0.99962486388987        2.26017573012734       -4.57059111020474
N           -4.18310422766457        0.83500275476157       -0.29010664382592
B           -1.33725797550174        2.46020722637442       -3.05881042787942
N           -2.35824796923382        1.93966235430408       -2.24976361696468
B            3.06848372486776       -2.65120055099115        0.64248106070750
N            2.32824939317071       -3.67669000835286       -0.93017897417953
B            2.22169848106137        0.53761650089251        2.85808595160475
N           -2.02041126365506        0.60771237488082        3.65889583923517
B           -1.10796488035118       -4.18152571581884       -0.39658676906796
N           -3.21726039756071        0.04739886206821       -0.90504916839966
B            3.44941586856662        1.25292315568191       -0.46677871195493
N            2.58696582286539        1.62334758367232        1.98588841586148
B            1.46517683302334       -1.55145351718211       -3.47101674840534
N           -2.09567047633750        1.75178781931956        2.82039465357944
B            2.03837358977665        0.71405050139235       -3.16364449334732
N           -2.71549871172997       -1.34089987582155        2.37146784977159
B            0.65213712674596       -0.53289321699999       -4.44025018428479
N           -0.17648357891616       -3.75872333227444       -1.31452404617943
B            0.48677549953002       -2.11257235239544        3.48296491214742
N           -0.58386676373136       -1.21132218750338        3.87978731767693
B           -3.22114371138683       -1.44725482825073        1.05209767256420
N            2.67212846320469       -0.86458472316533        2.66742778092817
B            1.88589185342393        3.33726760959227       -0.05336307757022
N            2.87284100079437       -2.33595900731520       -0.75212824667087
 
 Bond Distances (Angstroems)
 ---------------------------
N1-C2=1.3577         N1-H27=1.0064        N1-H28=1.0035        C2-N1=1.3577         C2-O3=1.2121         C2-C4=1.4922         
O3-C2=1.2121         C4-C2=1.4922         C4-C5=1.3905         C4-C9=1.3906         C5-C4=1.3905         C5-C6=1.3832         
C5-H29=1.0806        C6-C5=1.3832         C6-C7=1.3833         C6-H30=1.0805        C7-C6=1.3833         C7-C8=1.3914         
C7-H31=1.0791        C8-C7=1.3914         C8-C9=1.3873         C8-C10=1.5056        C9-C4=1.3906         C9-C8=1.3873         
C9-H32=1.0798        C10-C8=1.5056        C10-C11=1.5432       C10-C26=1.5398       C10-H33=1.0926       C11-C10=1.5432       
C11-C12=1.5236       C11-H34=1.0904       C11-H35=1.0918       C12-C11=1.5236       C12-C13=1.5285       C12-H36=1.0914       
C12-H37=1.0912       C13-C12=1.5285       C13-N14=1.4587       C13-H38=1.1043       C13-H39=1.0955       N14-C13=1.4587       
N14-C15=1.4486       N14-C26=1.4454       C15-N14=1.4486       C15-C16=1.5038       C15-H40=1.0957       C15-H41=1.1077       
C16-C15=1.5038       C16-C17=1.4110       C16-C25=1.3691       C17-C16=1.4110       C17-C18=1.3647       C17-H42=1.0786       
C18-C17=1.3647       C18-C19=1.4120       C18-H43=1.0788       C19-C18=1.4120       C19-N20=1.3480       C19-C24=1.4213       
N20-C19=1.3480       N20-C21=1.3030       C21-N20=1.3030       C21-C22=1.4066       C21-H44=1.0827       C22-C21=1.4066       
C22-C23=1.3678       C22-H45=1.0794       C23-C22=1.3678       C23-C24=1.4100       C23-H46=1.0817       C24-C19=1.4213       
C24-C23=1.4100       C24-C25=1.4088       C25-C16=1.3691       C25-C24=1.4088       C25-H47=1.0822       C26-C10=1.5398       
C26-N14=1.4454       C26-H48=1.1049       C26-H49=1.0934       H27-N1=1.0064        H28-N1=1.0035        H29-C5=1.0806        
H30-C6=1.0805        H31-C7=1.0791        H32-C9=1.0798        H33-C10=1.0926       H34-C11=1.0904       H35-C11=1.0918       
H36-C12=1.0914       H37-C12=1.0912       H38-C13=1.1043       H39-C13=1.0955       H40-C15=1.0957       H41-C15=1.1077       
H42-C17=1.0786       H43-C18=1.0788       H44-C21=1.0827       H45-C22=1.0794       H46-C23=1.0817       H47-C25=1.0822       
H48-C26=1.1049       H49-C26=1.0934       B50-B96=1.6082       B50-B102=1.6191      B50-N119=1.4021      N51-B96=1.4237       
N51-B108=1.4595      N51-N109=1.4173      B52-N97=1.4101       B52-B108=1.6127      B52-B120=1.6511      N53-B80=1.4905       
N53-B110=1.4574      N53-B112=1.4586      B54-N87=1.4058       B54-B90=1.5730       B54-B116=1.6418      N55-B76=1.3900       
N55-N113=1.4651      N55-B118=1.4255      B56-N63=1.4713       B56-B72=1.5752       B56-N89=1.4271       N57-B58=1.4430       
N57-B70=1.4232       N57-B114=1.4966      B58-N57=1.4430       B58-B62=2.1349       B58-B98=1.7641       B58-B100=1.6492      
N59-B64=1.4399       N59-N103=1.3680      N59-N115=1.4306      B60-N61=1.4039       B60-N71=1.3942       B60-N99=1.4296       
N61-B60=1.4039       N61-B88=1.4489       N61-N101=1.4346      B62-B58=2.1349       B62-B98=1.5156       B62-B112=1.7975      
B62-B114=1.6003      N63-B56=1.4713       N63-B66=1.3857       N63-N77=1.4673       B64-N59=1.4399       B64-N83=1.4567       
B64-B110=1.6053      B64-N115=2.0091      N65-B68=1.4223       N65-N85=1.4212       N65-B88=1.4600       B66-N63=1.3857       
B66-N91=1.4445       B66-N111=1.4626      N67-N69=1.4227       N67-B116=1.4370      N67-N119=1.4088      B68-N65=1.4223       
B68-B86=1.6423       B68-B100=1.6619      N69-N67=1.4227       N69-N73=1.4215       N69-B104=1.4401      B70-N57=1.4232       
B70-B84=1.6642       B70-B94=1.6966       N71-B60=1.3942       N71-B74=1.4352       N71-N99=1.5530       B72-B56=1.5752       
B72-N77=1.4832       B72-N85=1.4224       N73-N69=1.4215       N73-N91=1.3930       N73-N117=1.4888      B74-N71=1.4352       
B74-N89=1.4925       B74-N111=1.3911      N75-B80=1.4132       N75-B96=1.5003       N75-B108=1.4509      B76-N55=1.3900       
B76-N79=1.4714       B76-N93=1.4503       B76-B106=1.9295      N77-N63=1.4673       N77-B72=1.4832       N77-B82=1.4362       
B78-N105=1.4545      B78-N113=1.3889      B78-N117=1.4430      N79-B76=1.4714       N79-B92=1.4203       N79-B106=1.4565      
B80-N53=1.4905       B80-N75=1.4132       B80-N121=1.4512      N81-B92=1.4793       N81-N107=1.4170      N81-B118=1.4005      
B82-N77=1.4362       B82-N109=1.4509      B82-B120=1.7277      N83-B64=1.4567       N83-B84=1.4082       N83-N115=1.4184      
B84-B70=1.6642       B84-N83=1.4082       B84-B92=1.6740       N85-N65=1.4212       N85-B72=1.4224       N85-B120=1.4320      
B86-B68=1.6423       B86-N97=1.4910       B86-B98=1.6061       N87-B54=1.4058       N87-B90=1.4135       N87-N93=1.3693       
B88-N61=1.4489       B88-N65=1.4600       B88-N89=1.4579       N89-B56=1.4271       N89-B74=1.4925       N89-B88=1.4579       
B90-B54=1.5730       B90-N87=1.4135       B90-N95=1.4095       N91-B66=1.4445       N91-N73=1.3930       N91-N105=1.4375      
B92-N79=1.4203       B92-N81=1.4793       B92-B84=1.6740       N93-B76=1.4503       N93-N87=1.3693       N93-B106=1.4635      
B94-B70=1.6966       B94-N101=1.4618      B94-N107=1.4269      N95-B90=1.4095       N95-B102=1.4430      N95-N103=1.4402      
B96-B50=1.6082       B96-N51=1.4237       B96-N75=1.5003       B96-B108=1.9718      N97-B52=1.4101       N97-B86=1.4910       
N97-B112=1.4560      B98-B58=1.7641       B98-B62=1.5156       B98-B86=1.6061       N99-B60=1.4296       N99-N71=1.5530       
N99-N107=1.3897      B100-B58=1.6492      B100-B68=1.6619      B100-N101=1.4028     N101-N61=1.4346      N101-B94=1.4618      
N101-B100=1.4028     B102-B50=1.6191      B102-N95=1.4430      B102-N121=1.4431     N103-N59=1.3680      N103-N95=1.4402      
N103-N121=1.4580     B104-N69=1.4401      B104-N109=1.4398     B104-N119=1.4851     N105-B78=1.4545      N105-N91=1.4375      
N105-N111=1.4204     B106-B76=1.9295      B106-N79=1.4565      B106-N93=1.4635      B106-N115=1.3744     N107-N81=1.4170      
N107-B94=1.4269      N107-N99=1.3897      B108-N51=1.4595      B108-B52=1.6127      B108-N75=1.4509      B108-B96=1.9718      
N109-N51=1.4173      N109-B82=1.4509      N109-B104=1.4398     B110-N53=1.4574      B110-B64=1.6053      B110-B114=1.6242     
N111-B66=1.4626      N111-B74=1.3911      N111-N105=1.4204     B112-N53=1.4586      B112-B62=1.7975      B112-N97=1.4560      
N113-N55=1.4651      N113-B78=1.3889      N113-B118=1.4169     B114-N57=1.4966      B114-B62=1.6003      B114-B110=1.6242     
N115-N59=1.4306      N115-B64=2.0091      N115-N83=1.4184      N115-B106=1.3744     B116-B54=1.6418      B116-N67=1.4370      
B116-N117=1.4546     N117-N73=1.4888      N117-B78=1.4430      N117-B116=1.4546     B118-N55=1.4255      B118-N81=1.4005      
B118-N113=1.4169     N119-B50=1.4021      N119-N67=1.4088      N119-B104=1.4851     B120-B52=1.6511      B120-B82=1.7277      
B120-N85=1.4320      N121-B80=1.4512      N121-B102=1.4431     N121-N103=1.4580     
 B  B  Rav=1.6894 sigma=0.1391  Rmin=1.5156  Rmax=2.1349    24
 C  H  Rav=1.0887 sigma=0.0091  Rmin=1.0786  Rmax=1.1077    21
 C  C  Rav=1.4334 sigma=0.0614  Rmin=1.3647  Rmax=1.5432    22
 N  H  Rav=1.0049 sigma=0.0015  Rmin=1.0035  Rmax=1.0064     2
 N  B  Rav=1.4476 sigma=0.0751  Rmin=1.3744  Rmax=2.0091    67
 N  C  Rav=1.3936 sigma=0.0599  Rmin=1.3030  Rmax=1.4587     6
 N  N  Rav=1.4306 sigma=0.0402  Rmin=1.3680  Rmax=1.5530    21
 O  C  Rav=1.2121 sigma=0.0000  Rmin=1.2121  Rmax=1.2121     1
 
 selected bond angles (degree)
 --------------------
H27-N1-C2=118.42               H28-N1-C2=122.31               H28-N1-H27=118.87              O3-C2-N1=121.89                
C4-C2-N1=114.87                C4-C2-O3=123.24                C5-C4-C2=122.23                C9-C4-C2=118.11                
C9-C4-C5=119.64                C6-C5-C4=119.53                H29-C5-C4=120.71               H29-C5-C6=119.73               
C7-C6-C5=120.37                H30-C6-C5=119.87               H30-C6-C7=119.76               C8-C7-C6=120.91                
H31-C7-C6=119.06               H31-C7-C8=120.02               C9-C8-C7=118.30                C10-C8-C7=121.28               
C10-C8-C9=120.41               C8-C9-C4=121.22                H32-C9-C4=118.31               H32-C9-C8=120.47               
C11-C10-C8=113.07              C26-C10-C8=109.67              C26-C10-C11=110.18             H33-C10-C8=108.28              
H33-C10-C11=108.08             H33-C10-C26=107.37             
 
 selected dihedral angles (degree)
 ---------------------------------
O3-C2-N1-H27=358.52           O3-C2-N1-H28=185.83           C4-C2-N1-H27=178.18           C4-C2-N1-H28=  5.49           
C5-C4-C2-N1= 35.27            C5-C4-C2-O3=214.93            C9-C4-C2-N1=213.90            C9-C4-C2-O3= 33.55            
C6-C5-C4-C2=179.09            C6-C5-C4-C9=  0.48            H29-C5-C4-C2=  1.21           H29-C5-C4-C9=182.60           
C7-C6-C5-C4=  0.57            C7-C6-C5-H29=178.48           H30-C6-C5-C4=180.60           H30-C6-C5-H29=358.50          
C8-C7-C6-C5=359.09            C8-C7-C6-H30=179.06           H31-C7-C6-C5=179.93           H31-C7-C6-H30=359.90          
C9-C8-C7-C6=  0.17            C9-C8-C7-H31=179.32           C10-C8-C7-C6=179.19           C10-C8-C7-H31=358.34          
C8-C9-C4-C2=180.10            C8-C9-C4-C5=358.76            H32-C9-C4-C2=359.94           H32-C9-C4-C5=178.60           
C4-C9-C8-C7=  0.90            C4-C9-C8-C10=181.88           H32-C9-C8-C7=181.07           H32-C9-C8-C10=  2.05          
C11-C10-C8-C7= 53.41          C11-C10-C8-C9=232.41          C26-C10-C8-C7=290.02          C26-C10-C8-C9=109.01          
H33-C10-C8-C7=173.15          H33-C10-C8-C9=352.14          
 
 CMA Distance (Angstroems)
 ---------------------------
R(CMA): 10.0412
           -------------------------------------------------
          |                Final Singlepoint                |
           -------------------------------------------------

          ...................................................
          :                      SETUP                      :
          :.................................................:
          :  # basis functions                 415          :
          :  # atomic orbitals                 415          :
          :  # shells                          219          :
          :  # electrons                       420          :
          :  max. iterations                   500          :
          :  Hamiltonian                  GFN2-xTB          :
          :  restarted?                      false          :
          :  GBSA solvation                  false          :
          :  PC potential                    false          :
          :  electronic temp.          300.0000000     K    :
          :  accuracy                    1.0000000          :
          :  -> integral cutoff          0.2500000E+02      :
          :  -> integral neglect         0.1000000E-07      :
          :  -> SCF convergence          0.1000000E-05 Eh   :
          :  -> wf. convergence          0.1000000E-03 e    :
          :  Broyden damping             0.4000000          :
          :  net charge                          0          :
          :  unpaired electrons                  0          :
          ...................................................

 iter      E             dE          RMSdq      gap      omega  full diag
   1   -224.4164693 -0.224416E+03  0.318E-02    0.69       0.0  T
   2   -224.4164701 -0.778043E-06  0.185E-02    0.69       1.0  T
   3   -224.4164697  0.366287E-06  0.218E-03    0.69       4.2  T
   4   -224.4164702 -0.516667E-06  0.106E-03    0.69       8.6  T
   5   -224.4164701  0.558668E-07  0.998E-04    0.69       9.1  T
   6   -224.4164703 -0.182565E-06  0.307E-04    0.69      29.6  T

   *** convergence criteria satisfied after 6 iterations ***

         #    Occupation            Energy/Eh            Energy/eV
      -------------------------------------------------------------
         1        2.0000           -0.6876721             -18.7125
       ...           ...                  ...                  ...
       204        2.0000           -0.3234368              -8.8012
       205        2.0000           -0.3206658              -8.7258
       206        2.0000           -0.3192914              -8.6884
       207        2.0000           -0.3167724              -8.6198
       208        2.0000           -0.3114808              -8.4758
       209        2.0000           -0.3096942              -8.4272
       210        2.0000           -0.3046458              -8.2898 (HOMO)
       211        0.0000           -0.2794094              -7.6031 (LUMO)
       212                         -0.2708909              -7.3713
       213                         -0.2654493              -7.2232
       214                         -0.2606492              -7.0926
       215                         -0.2472544              -6.7281
       ...                                ...                  ...
       415                          0.9876045              26.8741
      -------------------------------------------------------------
                  HL-Gap            0.0252364 Eh            0.6867 eV
             Fermi-level           -0.2920250 Eh           -7.9464 eV

 SCC (total)                   0 d,  0 h,  0 min,  0.228 sec
 SCC setup                      ...        0 min,  0.001 sec (  0.439%)
 Dispersion                     ...        0 min,  0.002 sec (  0.877%)
 classical contributions        ...        0 min,  0.000 sec (  0.000%)
 integral evaluation            ...        0 min,  0.010 sec (  4.386%)
 iterations                     ...        0 min,  0.179 sec ( 78.509%)
 molecular gradient             ...        0 min,  0.034 sec ( 14.912%)
 printout                       ...        0 min,  0.002 sec (  0.877%)

         :::::::::::::::::::::::::::::::::::::::::::::::::::::
         ::                     SUMMARY                     ::
         :::::::::::::::::::::::::::::::::::::::::::::::::::::
         :: total energy            -221.891839392164 Eh    ::
         :: gradient norm              0.002270598166 Eh/a0 ::
         :: HOMO-LUMO gap              0.686716579811 eV    ::
         ::.................................................::
         :: SCC energy              -224.402328372060 Eh    ::
         :: -> isotropic ES            0.685939155952 Eh    ::
         :: -> anisotropic ES         -0.021078013139 Eh    ::
         :: -> anisotropic XC          0.107012252512 Eh    ::
         :: -> dispersion             -0.199662689731 Eh    ::
         :: repulsion energy           2.510488979896 Eh    ::
         :: add. restraining           0.000000000000 Eh    ::
         :: total charge              -0.000000000000 e     ::
         :::::::::::::::::::::::::::::::::::::::::::::::::::::

           -------------------------------------------------
          |                Property Printout                |
           -------------------------------------------------

    * Orbital Energies and Occupations

         #    Occupation            Energy/Eh            Energy/eV
      -------------------------------------------------------------
         1        2.0000           -0.6876721             -18.7125
       ...           ...                  ...                  ...
       198        2.0000           -0.3358003              -9.1376
       199        2.0000           -0.3344942              -9.1021
       200        2.0000           -0.3308764              -9.0036
       201        2.0000           -0.3286020              -8.9417
       202        2.0000           -0.3257505              -8.8641
       203        2.0000           -0.3248984              -8.8409
       204        2.0000           -0.3234368              -8.8012
       205        2.0000           -0.3206658              -8.7258
       206        2.0000           -0.3192914              -8.6884
       207        2.0000           -0.3167724              -8.6198
       208        2.0000           -0.3114808              -8.4758
       209        2.0000           -0.3096942              -8.4272
       210        2.0000           -0.3046458              -8.2898 (HOMO)
       211        0.0000           -0.2794094              -7.6031 (LUMO)
       212                         -0.2708909              -7.3713
       213                         -0.2654493              -7.2232
       214                         -0.2606492              -7.0926
       215                         -0.2472544              -6.7281
       216                         -0.2464228              -6.7055
       217                         -0.2415032              -6.5716
       218                         -0.2305489              -6.2736
       219                         -0.2286182              -6.2210
       220                         -0.2266507              -6.1675
       221                         -0.2249819              -6.1221
       ...                                ...                  ...
       415                          0.9876045              26.8741
      -------------------------------------------------------------
                  HL-Gap            0.0252364 Eh            0.6867 eV
             Fermi-level           -0.2920250 Eh           -7.9464 eV

     #   Z          covCN         q      C6AA      α(0)
     1   7 N        2.640    -0.274    27.093     7.730
     2   6 C        2.751     0.282    22.233     7.721
     3   8 O        0.859    -0.427    22.236     6.322
     4   6 C        2.975    -0.021    28.516     8.759
     5   6 C        2.921    -0.038    28.953     8.824
     6   6 C        2.917    -0.033    28.817     8.803
     7   6 C        2.926    -0.034    28.856     8.809
     8   6 C        2.970     0.014    27.699     8.633
     9   6 C        2.931    -0.032    28.798     8.801
    10   6 C        3.859    -0.032    21.098     6.532
    11   6 C        3.805    -0.060    21.650     6.624
    12   6 C        3.803    -0.055    21.560     6.611
    13   6 C        3.760     0.012    20.426     6.443
    14   7 N        2.731    -0.173    24.747     7.388
    15   6 C        3.765     0.008    20.483     6.451
    16   6 C        2.968     0.011    27.769     8.644
    17   6 C        2.920    -0.034    28.839     8.806
    18   6 C        2.918    -0.041    29.024     8.835
    19   6 C        2.975     0.088    26.040     8.370
    20   7 N        1.840    -0.231    26.891     7.685
    21   6 C        2.904     0.062    26.610     8.458
    22   6 C        2.910    -0.044    29.094     8.845
    23   6 C        2.924    -0.019    28.481     8.752
    24   6 C        2.985     0.001    28.004     8.681
    25   6 C        2.920    -0.047    29.165     8.856
    26   6 C        3.761     0.018    20.325     6.427
    27   1 H        0.860     0.189     1.161     1.688
    28   1 H        0.861     0.178     1.225     1.734
    29   1 H        0.926     0.029     2.594     2.519
    30   1 H        0.926     0.033     2.550     2.497
    31   1 H        0.926     0.039     2.467     2.456
    32   1 H        0.926     0.059     2.216     2.328
    33   1 H        0.924     0.053     2.285     2.364
    34   1 H        0.924     0.050     2.323     2.384
    35   1 H        0.924     0.037     2.494     2.470
    36   1 H        0.924     0.031     2.575     2.509
    37   1 H        0.924     0.032     2.552     2.498
    38   1 H        0.923     0.008     2.931     2.677
    39   1 H        0.924     0.033     2.545     2.495
    40   1 H        0.924     0.043     2.414     2.430
    41   1 H        0.922     0.007     2.943     2.683
    42   1 H        0.926     0.060     2.202     2.321
    43   1 H        0.926     0.059     2.210     2.325
    44   1 H        0.925     0.035     2.518     2.482
    45   1 H        0.926     0.031     2.573     2.508
    46   1 H        0.925     0.031     2.575     2.509
    47   1 H        0.925     0.029     2.598     2.521
    48   1 H        0.922     0.008     2.922     2.673
    49   1 H        0.924     0.029     2.603     2.523
    50   5 B        2.781     0.076    20.205     7.515
    51   7 N        2.774    -0.227    25.956     7.567
    52   5 B        2.788     0.092    19.931     7.463
    53   7 N        2.524    -0.315    28.136     7.877
    54   5 B        2.779     0.084    20.071     7.491
    55   7 N        2.655    -0.271    27.006     7.718
    56   5 B        2.852     0.242    17.653     7.015
    57   7 N        2.529    -0.273    27.092     7.730
    58   5 B        3.197     0.150    18.932     7.257
    59   7 N        2.979    -0.110    23.401     7.185
    60   5 B        2.644     0.372    16.328     6.814
    61   7 N        2.669    -0.213    25.637     7.520
    62   5 B        3.183     0.021    21.009     7.645
    63   7 N        2.889    -0.217    25.711     7.531
    64   5 B        3.009     0.209    18.080     7.093
    65   7 N        2.660    -0.163    24.526     7.355
    66   5 B        2.904     0.320    16.600     6.799
    67   7 N        3.155    -0.082    22.825     7.096
    68   5 B        2.778     0.093    19.919     7.463
    69   7 N        3.036    -0.127    23.748     7.238
    70   5 B        2.758     0.090    20.008     7.484
    71   7 N        2.634    -0.309    27.970     7.855
    72   5 B        3.041     0.227    17.815     7.040
    73   7 N        2.980    -0.002    21.304     6.855
    74   5 B        2.581     0.325    17.316     7.090
    75   7 N        2.596    -0.360    29.305     8.040
    76   5 B        3.287     0.340    16.335     6.740
    77   7 N        2.788    -0.247    26.425     7.635
    78   5 B        2.559     0.320    17.602     7.186
    79   7 N        2.579    -0.369    29.539     8.072
    80   5 B        2.530     0.301    18.228     7.377
    81   7 N        2.665    -0.205    25.467     7.495
    82   5 B        2.698     0.195    18.515     7.221
    83   7 N        2.844    -0.168    24.617     7.369
    84   5 B        2.758     0.082    20.135     7.508
    85   7 N        2.672    -0.174    24.773     7.392
    86   5 B        2.876     0.110    19.577     7.386
    87   7 N        2.663    -0.144    24.121     7.294
    88   5 B        2.594     0.312    17.392     7.087
    89   7 N        2.519    -0.354    29.163     8.020
    90   5 B        2.684     0.184    18.721     7.269
    91   7 N        3.005    -0.128    23.778     7.242
    92   5 B        2.677     0.210    18.361     7.202
    93   7 N        2.716    -0.249    26.466     7.641
    94   5 B        2.647     0.164    19.169     7.381
    95   7 N        2.825    -0.207    25.486     7.498
    96   5 B        3.321     0.229    17.790     7.033
    97   7 N        2.531    -0.286    27.413     7.776
    98   5 B        2.950     0.035    20.787     7.607
    99   7 N        2.783    -0.186    25.022     7.429
   100   5 B        2.796     0.084    20.045     7.483
   101   7 N        2.673    -0.156    24.375     7.333
   102   5 B        3.021     0.211    18.053     7.087
   103   7 N        3.272     0.014    20.995     6.805
   104   5 B        2.868     0.306    16.801     6.842
   105   7 N        3.153    -0.116    23.511     7.202
   106   5 B        3.263     0.320    16.586     6.792
   107   7 N        2.833    -0.061    22.418     7.032
   108   5 B        3.303     0.231    17.767     7.029
   109   7 N        2.656    -0.182    24.949     7.418
   110   5 B        2.838     0.112    19.573     7.388
   111   7 N        2.832    -0.224    25.887     7.557
   112   5 B        2.862     0.252    17.506     6.985
   113   7 N        2.654    -0.231    26.051     7.580
   114   5 B        3.010     0.114    19.494     7.365
   115   7 N        3.153    -0.086    22.911     7.109
   116   5 B        2.673     0.202    18.487     7.229
   117   7 N        2.696    -0.231    26.049     7.580
   118   5 B        2.585     0.369    16.722     6.962
   119   7 N        2.880    -0.180    24.894     7.410
   120   5 B        2.824     0.106    19.671     7.409
   121   7 N        2.827    -0.253    26.564     7.655

 Mol. C6AA /au·bohr⁶  :     252335.988219
 Mol. C8AA /au·bohr⁸  :    6972795.996433
 Mol. α(0) /au        :        791.251292


Wiberg/Mayer (AO) data.
largest (>0.10) Wiberg bond orders for each atom

 ---------------------------------------------------------------------------
     #   Z sym  total        # sym  WBO       # sym  WBO       # sym  WBO
 ---------------------------------------------------------------------------
     1   7 N    3.361 --     2 C    1.229    28 H    0.947    27 H    0.943
                             3 O    0.198
     2   6 C    3.946 --     3 O    1.694     1 N    1.229     4 C    0.983
     3   8 O    2.013 --     2 C    1.694     1 N    0.198
     4   6 C    3.988 --     9 C    1.401     5 C    1.397     2 C    0.983
                             7 C    0.104
     5   6 C    3.990 --     6 C    1.443     4 C    1.397    29 H    0.967
                             8 C    0.106
     6   6 C    3.992 --     7 C    1.443     5 C    1.443    30 H    0.971
                             9 C    0.106
     7   6 C    3.992 --     6 C    1.443     8 C    1.402    31 H    0.964
                             4 C    0.104
     8   6 C    3.987 --     9 C    1.420     7 C    1.402    10 C    1.004
                             5 C    0.106
     9   6 C    3.988 --     8 C    1.420     4 C    1.401    32 H    0.964
                             6 C    0.106
    10   6 C    3.992 --     8 C    1.004    11 C    0.980    26 C    0.973
                            33 H    0.968
    11   6 C    3.996 --    12 C    1.011    10 C    0.980    34 H    0.978
                            35 H    0.977
    12   6 C    3.998 --    11 C    1.011    13 C    1.005    37 H    0.977
                            36 H    0.974
    13   6 C    3.987 --    12 C    1.005    14 N    0.997    39 H    0.973
                            38 H    0.967
    14   7 N    3.124 --    26 C    1.007    15 C    1.000    13 C    0.997
    15   6 C    3.987 --    16 C    1.004    14 N    1.000    41 H    0.959
                            40 H    0.957
    16   6 C    3.988 --    25 C    1.535    17 C    1.286    15 C    1.004
    17   6 C    3.989 --    18 C    1.574    16 C    1.286    42 H    0.966
    18   6 C    3.990 --    17 C    1.574    19 C    1.262    43 H    0.966
                            25 C    0.112
    19   6 C    3.982 --    20 N    1.289    18 C    1.262    24 C    1.238
    20   7 N    3.065 --    21 C    1.552    19 C    1.289    23 C    0.106
    21   6 C    3.979 --    20 N    1.552    22 C    1.307    44 H    0.963
    22   6 C    3.992 --    23 C    1.554    21 C    1.307    45 H    0.971
    23   6 C    3.989 --    22 C    1.554    24 C    1.286    46 H    0.968
                            20 N    0.106
    24   6 C    3.990 --    23 C    1.286    25 C    1.276    19 C    1.238
    25   6 C    3.990 --    16 C    1.535    24 C    1.276    47 H    0.965
                            18 C    0.112
    26   6 C    3.987 --    14 N    1.007    49 H    0.973    10 C    0.973
                            48 H    0.962
    27   1 H    0.963 --     1 N    0.943
    28   1 H    0.968 --     1 N    0.947
    29   1 H    0.999 --     5 C    0.967
    30   1 H    0.998 --     6 C    0.971
    31   1 H    0.998 --     7 C    0.964
    32   1 H    0.997 --     9 C    0.964
    33   1 H    0.997 --    10 C    0.968
    34   1 H    0.997 --    11 C    0.978
    35   1 H    0.999 --    11 C    0.977
    36   1 H    0.999 --    12 C    0.974
    37   1 H    0.998 --    12 C    0.977
    38   1 H    1.000 --    13 C    0.967
    39   1 H    0.999 --    13 C    0.973
    40   1 H    0.995 --    15 C    0.957
    41   1 H    0.999 --    15 C    0.959
    42   1 H    0.996 --    17 C    0.966
    43   1 H    0.996 --    18 C    0.966
    44   1 H    0.998 --    21 C    0.963
    45   1 H    0.999 --    22 C    0.971
    46   1 H    0.999 --    23 C    0.968
    47   1 H    0.999 --    25 C    0.965
    48   1 H    1.000 --    26 C    0.962
    49   1 H    0.999 --    26 C    0.973
    50   5 B    3.478 --   119 N    1.283   102 B    1.000    96 B    0.970
    51   7 N    3.400 --    96 B    1.144   109 N    1.007   108 B    1.002
    52   5 B    3.464 --    97 N    1.276   120 B    0.978   108 B    0.958
    53   7 N    3.530 --   112 B    1.152   110 B    1.151    80 B    1.017
    54   5 B    3.463 --    87 N    1.240   116 B    0.995    90 B    0.989
    55   7 N    3.263 --    76 B    1.200   118 B    0.967   113 N    0.888
    56   5 B    3.407 --    89 N    1.175    63 N    1.035    72 B    0.963
    57   7 N    3.568 --    70 B    1.277    58 B    1.158   114 B    0.973
    58   5 B    3.393 --    57 N    1.158   100 B    0.932    98 B    0.640
                            62 B    0.294
    59   7 N    3.323 --    64 B    1.114   103 N    1.043   115 N    0.945
    60   5 B    3.433 --    61 N    1.187    71 N    1.127    99 N    0.961
    61   7 N    3.445 --    60 B    1.187    88 B    1.085   101 N    0.967
    62   5 B    3.457 --    98 B    1.285   114 B    1.004   112 B    0.626
                            58 B    0.294
    63   7 N    3.436 --    66 B    1.237    56 B    1.035    77 N    0.932
    64   5 B    3.390 --    59 N    1.114    83 N    1.038   110 B    1.005
    65   7 N    3.511 --    68 B    1.207    88 B    1.123    85 N    0.999
    66   5 B    3.514 --    63 N    1.237    91 N    1.071   111 N    0.999
    67   7 N    3.350 --   116 B    1.143   119 N    0.990    69 N    0.982
    68   5 B    3.415 --    65 N    1.207    86 B    1.008   100 B    0.926
    69   7 N    3.325 --   104 B    1.135    67 N    0.982    73 N    0.973
    70   5 B    3.464 --    57 N    1.277    84 B    0.978    94 B    0.932
    71   7 N    3.217 --    60 B    1.127    74 B    1.065    99 N    0.793
    72   5 B    3.366 --    85 N    1.150    77 N    0.993    56 B    0.963
    73   7 N    3.095 --    91 N    1.013    69 N    0.973   117 N    0.938
    74   5 B    3.511 --   111 N    1.248    71 N    1.065    89 N    0.989
    75   7 N    3.433 --    80 B    1.202   108 B    1.061    96 B    0.924
    76   5 B    3.481 --    55 N    1.200    93 N    1.043    79 N    0.980
    77   7 N    3.293 --    82 B    1.175    72 B    0.993    63 N    0.932
    78   5 B    3.524 --   113 N    1.209   117 N    1.121   105 N    1.035
    79   7 N    3.430 --    92 B    1.220   106 B    0.993    76 B    0.980
    80   5 B    3.520 --    75 N    1.202   121 N    1.099    53 N    1.017
    81   7 N    3.441 --   118 B    1.260    92 B    0.998   107 N    0.990
    82   5 B    3.447 --    77 N    1.175   109 N    1.119   120 B    0.923
    83   7 N    3.469 --    84 B    1.260    64 B    1.038   115 N    0.984
    84   5 B    3.421 --    83 N    1.260    70 B    0.978    92 B    0.959
    85   7 N    3.510 --   120 B    1.173    72 B    1.150    65 N    0.999
    86   5 B    3.347 --    98 B    1.009    68 B    1.008    97 N    0.963
    87   7 N    3.509 --    54 B    1.240    90 B    1.093    93 N    1.035
    88   5 B    3.515 --    65 N    1.123    89 N    1.106    61 N    1.085
    89   7 N    3.477 --    56 B    1.175    88 B    1.106    74 B    0.989
    90   5 B    3.463 --    95 N    1.178    87 N    1.093    54 B    0.989
    91   7 N    3.260 --    66 B    1.071    73 N    1.013   105 N    0.975
    92   5 B    3.391 --    79 N    1.220    81 N    0.998    84 B    0.959
    93   7 N    3.373 --    76 B    1.043    87 N    1.035   106 B    0.986
    94   5 B    3.454 --   107 N    1.191   101 N    1.079    70 B    0.932
    95   7 N    3.406 --    90 B    1.178   102 B    1.073   103 N    0.959
    96   5 B    3.365 --    51 N    1.144    50 B    0.970    75 N    0.924
                           108 B    0.127
    97   7 N    3.561 --    52 B    1.276   112 B    1.106    86 B    0.963
    98   5 B    3.367 --    62 B    1.285    86 B    1.009    58 B    0.640
                           112 B    0.187
    99   7 N    2.986 --   107 N    1.044    60 B    0.961    71 N    0.793
   100   5 B    3.455 --   101 N    1.266    58 B    0.932    68 B    0.926
   101   7 N    3.480 --   100 B    1.266    94 B    1.079    61 N    0.967
   102   5 B    3.442 --   121 N    1.130    95 N    1.073    50 B    1.000
   103   7 N    3.186 --    59 N    1.043    95 N    0.959   121 N    0.951
   104   5 B    3.523 --   109 N    1.165    69 N    1.135   119 N    0.993
   105   7 N    3.218 --    78 B    1.035   111 N    0.984    91 N    0.975
   106   5 B    3.507 --   115 N    1.264    79 N    0.993    93 N    0.986
   107   7 N    3.439 --    94 B    1.191    99 N    1.044    81 N    0.990
   108   5 B    3.327 --    75 N    1.061    51 N    1.002    52 B    0.958
                            96 B    0.127
   109   7 N    3.491 --   104 B    1.165    82 B    1.119    51 N    1.007
   110   5 B    3.386 --    53 N    1.151    64 B    1.005   114 B    1.002
   111   7 N    3.446 --    74 B    1.248    66 B    0.999   105 N    0.984
   112   5 B    3.444 --    53 N    1.152    97 N    1.106    62 B    0.626
                            98 B    0.187   114 B    0.119
   113   7 N    3.332 --    78 B    1.209   118 B    1.037    55 N    0.888
   114   5 B    3.334 --    62 B    1.004   110 B    1.002    57 N    0.973
                           112 B    0.119
   115   7 N    3.439 --   106 B    1.264    83 N    0.984    59 N    0.945
   116   5 B    3.447 --    67 N    1.143   117 N    1.116    54 B    0.995
   117   7 N    3.393 --    78 B    1.121   116 B    1.116    73 N    0.938
   118   5 B    3.439 --    81 N    1.260   113 N    1.037    55 N    0.967
   119   7 N    3.475 --    50 B    1.283   104 B    0.993    67 N    0.990
   120   5 B    3.359 --    85 N    1.173    52 B    0.978    82 B    0.923
   121   7 N    3.417 --   102 B    1.130    80 B    1.099   103 N    0.951
 ---------------------------------------------------------------------------

Topologies differ in total number of bonds
Writing topology from bond orders to xtbtopo.mol

molecular dipole:
                 x           y           z       tot (Debye)
 q only:        1.908       2.558      -2.564
   full:        0.344       1.937       0.614       5.239
molecular quadrupole (traceless):
                xx          xy          yy          xz          yz          zz
 q only:      -36.761       4.786     -19.253      12.923      16.793      56.014
  q+dip:      -53.506       8.871     -19.969      12.876      27.570      73.475
   full:      -42.209       7.780     -24.019      18.574      26.885      66.227

           -------------------------------------------------
          |                Geometry Summary                 |
           -------------------------------------------------

      molecular mass/u    :     1238.8766670
   center of mass at/Å    :        0.0170494      -0.0316152       2.9279303
  moments of inertia/u·Å² :        0.1795395E+05   0.3526110E+05   0.4408665E+05
rotational constants/cm⁻¹ :        0.9389373E-03   0.4780801E-03   0.3823750E-03

 * 142 selected distances

     #   Z          #   Z                                           value/Å
     1   7 N        2   6 C                                       1.3577254
     2   6 C        3   8 O                                       1.2120924
     4   6 C        5   6 C                                       1.3904852
     5   6 C        6   6 C                                       1.3831978
     6   6 C        7   6 C                                       1.3833205
     7   6 C        8   6 C                                       1.3914222
     4   6 C        9   6 C                                       1.3906310
     8   6 C        9   6 C                                       1.3872697
    11   6 C       12   6 C                                       1.5235595
    12   6 C       13   6 C                                       1.5284693
    13   6 C       14   7 N                                       1.4586549
    14   7 N       15   6 C                                       1.4485542
    16   6 C       17   6 C                                       1.4110446
    17   6 C       18   6 C                                       1.3646949
    18   6 C       19   6 C                                       1.4120130
    19   6 C       20   7 N                                       1.3479791
    20   7 N       21   6 C                                       1.3029697
    21   6 C       22   6 C                                       1.4066406
    22   6 C       23   6 C                                       1.3678161
    19   6 C       24   6 C                                       1.4212738
    23   6 C       24   6 C                                       1.4100135
    16   6 C       25   6 C                                       1.3690623
    24   6 C       25   6 C                                       1.4087941
    10   6 C       26   6 C                                       1.5398196
    14   7 N       26   6 C                                       1.4454449
     1   7 N       27   1 H                                       1.0063921
     1   7 N       28   1 H                                       1.0034665 (min)
     5   6 C       29   1 H                                       1.0805603
     6   6 C       30   1 H                                       1.0804837
     7   6 C       31   1 H                                       1.0790954
     9   6 C       32   1 H                                       1.0797572
    10   6 C       33   1 H                                       1.0925882
    11   6 C       34   1 H                                       1.0903804
    11   6 C       35   1 H                                       1.0917605
    12   6 C       36   1 H                                       1.0914481
    12   6 C       37   1 H                                       1.0912036
    13   6 C       38   1 H                                       1.1042631
    13   6 C       39   1 H                                       1.0954807
    15   6 C       40   1 H                                       1.0956586
    15   6 C       41   1 H                                       1.1076510
    17   6 C       42   1 H                                       1.0785937
    18   6 C       43   1 H                                       1.0787504
    21   6 C       44   1 H                                       1.0826677
    22   6 C       45   1 H                                       1.0793720
    23   6 C       46   1 H                                       1.0817494
    25   6 C       47   1 H                                       1.0822047
    26   6 C       48   1 H                                       1.1048966
    26   6 C       49   1 H                                       1.0934180
    57   7 N       58   5 B                                       1.4429596
    60   5 B       61   7 N                                       1.4038775
    56   5 B       63   7 N                                       1.4712973
    59   7 N       64   5 B                                       1.4399207
    63   7 N       66   5 B                                       1.3857201
    65   7 N       68   5 B                                       1.4222741
    67   7 N       69   7 N                                       1.4227088
    57   7 N       70   5 B                                       1.4231795
    60   5 B       71   7 N                                       1.3941509
    56   5 B       72   5 B                                       1.5752343
    69   7 N       73   7 N                                       1.4215192
    71   7 N       74   5 B                                       1.4351692
    55   7 N       76   5 B                                       1.3900145
    72   5 B       77   7 N                                       1.4832201
    76   5 B       79   7 N                                       1.4713840
    53   7 N       80   5 B                                       1.4905009
    75   7 N       80   5 B                                       1.4132372
    77   7 N       82   5 B                                       1.4361506
    64   5 B       83   7 N                                       1.4567394
    70   5 B       84   5 B                                       1.6642171
    83   7 N       84   5 B                                       1.4082253
    72   5 B       85   7 N                                       1.4223844
    68   5 B       86   5 B                                       1.6423328
    54   5 B       87   7 N                                       1.4057650
    61   7 N       88   5 B                                       1.4488627
    65   7 N       88   5 B                                       1.4600336
    56   5 B       89   7 N                                       1.4270783
    74   5 B       89   7 N                                       1.4925448
    88   5 B       89   7 N                                       1.4579252
    54   5 B       90   5 B                                       1.5729856
    87   7 N       90   5 B                                       1.4135404
    66   5 B       91   7 N                                       1.4445226
    73   7 N       91   7 N                                       1.3930082
    79   7 N       92   5 B                                       1.4202894
    81   7 N       92   5 B                                       1.4792521
    84   5 B       92   5 B                                       1.6739910 (max)
    76   5 B       93   7 N                                       1.4502917
    87   7 N       93   7 N                                       1.3692954
    90   5 B       95   7 N                                       1.4094846
    50   5 B       96   5 B                                       1.6081712
    51   7 N       96   5 B                                       1.4237327
    75   7 N       96   5 B                                       1.5002547
    52   5 B       97   7 N                                       1.4100948
    86   5 B       97   7 N                                       1.4909684
    62   5 B       98   5 B                                       1.5156297
    86   5 B       98   5 B                                       1.6060780
    60   5 B       99   7 N                                       1.4296171
    58   5 B      100   5 B                                       1.6491806
    68   5 B      100   5 B                                       1.6619185
    94   5 B      101   7 N                                       1.4617811
   100   5 B      101   7 N                                       1.4028345
    50   5 B      102   5 B                                       1.6190836
    95   7 N      102   5 B                                       1.4429520
    59   7 N      103   7 N                                       1.3679801
    69   7 N      104   5 B                                       1.4400551
    78   5 B      105   7 N                                       1.4544697
    91   7 N      105   7 N                                       1.4374961
    79   7 N      106   5 B                                       1.4565301
    93   7 N      106   5 B                                       1.4634507
    94   5 B      107   7 N                                       1.4268534
    99   7 N      107   7 N                                       1.3897226
    51   7 N      108   5 B                                       1.4595427
    52   5 B      108   5 B                                       1.6127153
    75   7 N      108   5 B                                       1.4508523
    82   5 B      109   7 N                                       1.4508921
   104   5 B      109   7 N                                       1.4397782
    53   7 N      110   5 B                                       1.4573663
    64   5 B      110   5 B                                       1.6053087
    66   5 B      111   7 N                                       1.4626004
    74   5 B      111   7 N                                       1.3911080
   105   7 N      111   7 N                                       1.4204426
    53   7 N      112   5 B                                       1.4586151
    97   7 N      112   5 B                                       1.4559893
    78   5 B      113   7 N                                       1.3888941
    57   7 N      114   5 B                                       1.4965878
    62   5 B      114   5 B                                       1.6003489
   110   5 B      114   5 B                                       1.6241652
    59   7 N      115   7 N                                       1.4306488
    83   7 N      115   7 N                                       1.4183853
   106   5 B      115   7 N                                       1.3744193
    54   5 B      116   5 B                                       1.6417668
    67   7 N      116   5 B                                       1.4369719
    78   5 B      117   7 N                                       1.4430141
   116   5 B      117   7 N                                       1.4546460
    55   7 N      118   5 B                                       1.4255243
    81   7 N      118   5 B                                       1.4005341
   113   7 N      118   5 B                                       1.4169426
    50   5 B      119   7 N                                       1.4020786
    67   7 N      119   7 N                                       1.4088053
   104   5 B      119   7 N                                       1.4850611
    52   5 B      120   5 B                                       1.6511259
    85   7 N      120   5 B                                       1.4319894
    80   5 B      121   7 N                                       1.4512258
   102   5 B      121   7 N                                       1.4431177

 * 8 distinct bonds (by element types)

   Z      Z             #   av. dist./Å        max./Å        min./Å
   5 B    5 B          17     1.6190737     1.6739910     1.5156297
   1 H    6 C          21     1.0886659     1.1076510     1.0785937
   6 C    6 C          18     1.4160849     1.5398196     1.3646949
   1 H    7 N           2     1.0049293     1.0063921     1.0034665
   5 B    7 N          66     1.4391112     1.5002547     1.3744193
   6 C    7 N           6     1.3935547     1.4586549     1.3029697
   7 N    7 N          11     1.4072738     1.4374961     1.3679801
   6 C    8 O           1     1.2120924     1.2120924     1.2120924


optimized geometry written to: xtbopt.xyz


           -------------------------------------------------
          | TOTAL ENERGY             -221.891839392164 Eh   |
          | GRADIENT NORM               0.002270598166 Eh/α |
          | HOMO-LUMO GAP               0.686716579811 eV   |
           -------------------------------------------------

------------------------------------------------------------------------
 * finished run on 2026/08/31 at 22:23:59.394     
------------------------------------------------------------------------
 total:
 * wall-time:     0 d,  0 h,  0 min,  5.549 sec
 *  cpu-time:     0 d,  0 h,  0 min, 50.859 sec
 * ratio c/w:     9.166 speedup
 SCF:
 * wall-time:     0 d,  0 h,  0 min,  0.852 sec
 *  cpu-time:     0 d,  0 h,  0 min,  7.359 sec
 * ratio c/w:     8.638 speedup
 ANC optimizer:
 * wall-time:     0 d,  0 h,  0 min,  4.595 sec
 *  cpu-time:     0 d,  0 h,  0 min, 42.922 sec
 * ratio c/w:     9.341 speedup

normal termination of xtb
