111
Docetaxel GFN2 opt
C       1.29716875     -0.49294352     -1.90929173
C       0.60825141     -1.45251636     -0.99139377
C      -0.15849630     -2.48628411     -1.35927026
C      -0.53344850     -2.72216168     -2.79563764
C      -2.03982626     -2.68748083     -3.04494522
O      -2.49654810     -3.51097499     -3.80845419
C      -2.90299953     -1.50706483     -2.57300906
C      -2.51193159     -0.40709813     -3.62439142
C      -3.49405835      0.76517124     -3.62380749
C      -3.83413211      1.24219394     -2.22132967
C      -3.36788952      0.43173533     -0.98447966
C      -2.59158303     -0.89261826     -1.18163251
C      -2.78310352     -1.81885239      0.05596568
C      -1.49998643     -2.47529527      0.68465455
C      -0.76782027     -3.40353409     -0.31747992
C       0.31788903     -4.23931059      0.38625536
C      -1.74773423     -4.44641723     -0.86328961
C      -0.56039784     -1.37923524      1.23809572
C       0.76715973     -1.18700106      0.48373651
O       1.20246215      0.15771224      0.74410014
C       2.22036792      0.30702652      1.57685633
O       2.82990339     -0.58895110      2.10558173
C       2.47997600      1.78615124      1.88905767
C       3.92729210      1.95804628      2.41877862
C       4.11325914      3.38381328      2.88051208
C       3.90395379      3.71544426      4.21247950
C       4.03686320      5.02556436      4.63606270
C       4.37839569      6.01581726      3.73047555
C       4.58412367      5.69086654      2.40068642
C       4.45173198      4.38070565      1.97615065
N       4.95658230      1.59562132      1.46026339
C       4.83598910      1.08817275      0.21871460
O       3.78631731      0.95944629     -0.38349695
O       6.04769250      0.78865531     -0.25626595
C       6.21310017      0.24440429     -1.59351930
C       7.72804150      0.10145874     -1.74192281
C       5.53364901     -1.11991458     -1.69238882
C       5.66669094      1.21602981     -2.63914798
O       2.13261376      2.63683151      0.84636758
O      -1.94196863     -3.29953063      1.74250702
O      -3.35013679     -1.06547653      1.13824887
C      -4.52828329     -1.45961228      1.65014272
O      -5.16101018     -2.40108556      1.23831602
C      -4.95483900     -0.59152045      2.77225601
C      -6.08272421     -0.95811732      3.50256789
C      -6.52261936     -0.15942067      4.54088414
C      -5.84273269      1.00770514      4.85181973
C      -4.72159466      1.37718542      4.12438909
C      -4.27361818      0.58250981      3.08619190
C      -4.86515957      0.40727019     -0.63574236
O      -5.20791997      1.03740689     -1.86468333
O      -2.66846102      1.25348082     -0.04697075
C      -1.56743686      1.89998618     -0.47240480
O      -1.10230833      1.75776586     -1.57403621
C      -1.03958000      2.82049084      0.58231837
O      -2.35158178     -0.91878603     -4.91949324
C      -4.37001392     -1.93162807     -2.72965652
O      -0.00991238     -3.92991764     -3.28056872
H       1.54522344     -0.95480891     -2.86018134
H       0.66952556      0.38155603     -2.08697358
H       2.21110494     -0.13648338     -1.44314413
H      -0.15140572     -1.89437704     -3.41673072
H      -1.52380069     -0.02246583     -3.35201851
H      -3.04291437      1.57361091     -4.19876801
H      -4.42309605      0.48096385     -4.12180639
H      -3.58085378      2.30176326     -2.10053686
H      -1.54411862     -0.59013137     -1.20019049
H      -3.49322000     -2.62231002     -0.16533321
H       1.04962707     -3.64759277      0.91829980
H       0.83525721     -4.82915845     -0.36547863
H      -0.15675871     -4.90559987      1.10023024
H      -2.17329972     -4.98852129     -0.02238153
H      -2.56603648     -4.01225302     -1.42450266
H      -1.21959332     -5.14772049     -1.50231019
H      -0.33641441     -1.62046751      2.27973278
H      -1.07924549     -0.41890734      1.22411788
H       1.54931621     -1.83458044      0.89747596
H       1.81801456      2.04666507      2.72864526
H       4.01338769      1.27606918      3.27675423
H       3.63736092      2.94248769      4.91950930
H       3.87515185      5.27347490      5.67467998
H       4.48282377      7.03837168      4.06125872
H       4.84623579      6.46098170      1.69058275
H       4.60619403      4.12805621      0.93838147
H       5.89781618      1.61856100      1.82361318
H       8.11795392     -0.55427729     -0.96824069
H       7.96614485     -0.31696582     -2.71495600
H       8.20671987      1.07248577     -1.64586128
H       5.92121729     -1.78633669     -0.92508387
H       4.46022322     -1.02327153     -1.55969974
H       5.72654366     -1.55450030     -2.66885686
H       5.91169104      0.85314681     -3.63312548
H       4.58730907      1.30338515     -2.55479541
H       6.11218750      2.19967497     -2.50431139
H       2.54078797      2.26419221      0.04138846
H      -2.41953221     -2.76299305      2.38496912
H      -6.59704050     -1.86942719      3.23803327
H      -7.39684965     -0.44302227      5.10704617
H      -6.18877676      1.63385020      5.66082099
H      -4.19863547      2.29023550      4.36767910
H      -3.41164150      0.86585774      2.50307011
H      -5.10448864      1.03737315      0.22607358
H      -5.34529988     -0.56441360     -0.53381656
H       0.04086338      2.70617269      0.65888047
H      -1.52323405      2.62875778      1.53449538
H      -1.23786720      3.84567867      0.27484111
H      -3.17553683     -1.33514647     -5.20223055
H      -4.49933101     -2.45703591     -3.67417917
H      -5.04742651     -1.08724177     -2.70827277
H      -4.65424989     -2.62329293     -1.93941951
H      -0.70563165     -4.32198940     -3.83797031
