111
drug @complex
C       0.75185897      0.91396696      9.32022125
C       1.61690650      0.41155126     10.43034745
C       2.72425663     -0.32472450     10.28752050
C       3.15605189     -0.83964469      8.94929466
C       3.21771392     -2.34198728      8.82013460
O       4.04656326     -2.79778120      8.03537105
C       2.08623989     -3.28256011      9.26764238
C       1.13342045     -3.18846621      8.02765674
C       0.00975319     -4.22094424      8.03226212
C      -0.64840249     -4.37594032      9.39280241
C      -0.04030877     -3.68452312     10.64061207
C       1.25836195     -2.85125611     10.50828024
C       2.01598796     -2.83628864     11.87275629
C       2.50561768     -1.45295964     12.43764931
C       3.52633910     -0.77446685     11.48994372
C       4.22256452      0.41036628     12.18567181
C       4.66145273     -1.74316325     11.14949736
C       1.29121015     -0.53970903     12.72947335
C       1.16613179      0.70797595     11.83637498
O      -0.20239337      1.13349083     11.85896101
C      -0.50180335      2.15290663     12.64789592
O       0.27920584      2.72932295     13.36357333
C      -1.99018548      2.51074812     12.57442503
C      -2.13052783      4.05745091     12.67687044
C      -3.58707202      4.44432547     12.54931819
C      -4.34912203      4.64308578     13.69335465
C      -5.68706879      4.97967880     13.59423016
C      -6.27638989      5.11946437     12.34902895
C      -5.52297691      4.91765514     11.20584761
C      -4.18422016      4.58092522     11.30359299
N      -1.28534975      4.79260869     11.74949736
C      -0.98298027      4.51906140     10.46000126
O      -1.21247565      3.46387254      9.89846407
O      -0.37502727      5.57670915      9.92206115
C      -0.00829551      5.60671871      8.51025961
C       0.61775926      6.98984992      8.33335809
C       1.00738507      4.51480434      8.18742370
C      -1.25969363      5.46639926      7.64657017
O      -2.65059519      1.91965054     11.50868950
O       3.20023136     -1.72733700     13.63460375
O       1.16694372     -3.34118481     12.91212009
C       1.59019229     -4.40637366     13.61808917
O       2.60872708     -5.00726169     13.37747632
C       0.65328394     -4.74795619     14.71076813
C       1.02398907     -5.74226518     15.61339485
C       0.17051818     -6.09447046     16.64128203
C      -1.05508632     -5.45995041     16.77042344
C      -1.42907281     -4.47342329     15.87045758
C      -0.58048904     -4.11336431     14.84080418
C       0.01585217     -5.11384130     11.20736130
O      -0.43057381     -5.66768851      9.97540843
O      -1.01624656     -2.91634172     11.34366121
C      -1.61667783     -1.91277949     10.66566450
O      -1.30394273     -1.61211360      9.54249194
C      -2.69230439     -1.27310368     11.47894314
O       1.83801513     -3.38437418      6.79254637
C       2.65686372     -4.70317622      9.38654578
O       4.37391197     -0.26680656      8.54933994
H       1.32773289      1.13800471      8.42797294
H      -0.01318589      0.18076382      9.06122122
H       0.22675487      1.80992139      9.63705725
H       2.38178202     -0.59910941      8.18373049
H       0.68514559     -2.18891107      8.01632823
H      -0.71431688     -3.90794776      7.28097088
H       0.40273807     -5.19455221      7.73582451
H      -1.72360961     -4.17822176      9.33009559
H       0.91368506     -1.83619402     10.31042990
H       2.88599389     -3.50002084     11.84010399
H       3.53888947      1.07831594     12.69107001
H       4.77540517      0.97285290     11.43896556
H       4.91326558      0.02544066     12.92969186
H       5.07112914     -2.14302056     12.07359383
H       4.33437556     -2.57661056     10.53504973
H       5.44161374     -1.21021344     10.61413083
H       1.34885304     -0.21547053     13.77107934
H       0.37149105     -1.11494326     12.61129239
H       1.74581831      1.53958560     12.25420469
H      -2.45799150      2.10142484     13.48167555
H      -1.76811866      4.32041453     13.67696221
H      -3.89050648      4.53538167     14.66614867
H      -6.26950641      5.13561364     14.49011617
H      -7.32013201      5.38462702     12.27124225
H      -5.97794050      5.02027941     10.23222641
H      -3.60743785      4.42258837     10.40631283
H      -1.03467289      5.72334755     12.04619835
H       1.50130888      7.08383216      8.95909928
H       0.89919555      7.12919541      7.29477249
H      -0.09114691      7.76312218      8.61806965
H       1.82337655      4.53571969      8.90738129
H       0.53400993      3.53934855      8.20419557
H       1.40175161      4.67276841      7.18874038
H      -0.98339411      5.52918342      6.59916055
H      -1.72398589      4.49760863      7.80773083
H      -1.97199392      6.25409356      7.88640199
H      -2.24836351      2.27451592     10.68574736
H       2.59652476     -2.12240634     14.27340161
H       1.98275725     -6.22208746     15.48970639
H       0.45749327     -6.86419497     17.34134563
H      -1.72274178     -5.73656313     17.57272276
H      -2.38700708     -3.98602753     15.97352405
H      -0.86474881     -3.35619938     14.12733145
H      -0.70481534     -5.27477335     12.01423049
H       0.99033317     -5.50744525     11.49066548
H      -2.55078910     -0.19180027     11.48794687
H      -2.70048402     -1.67404607     12.48724435
H      -3.64937134     -1.46295693     10.99781379
H       2.81376871     -3.33259023      6.94474167
H       3.30827650     -4.91562601      8.54206395
H       1.86827818     -5.44564924      9.40314620
H       3.25089039     -4.81183089     10.29092755
H       4.78048292     -0.87975540      7.91685877
