72
carrier @complex
B      -0.47803808     -3.17680288     -0.04799670
N       0.43380762     -3.86228754      0.85334095
B      -0.78943803     -3.88140686      1.64172438
N      -1.73587351     -3.53942980      0.58732899
N      -4.26897873     -0.93060070      3.93590374
B      -3.27271507     -1.32394542      4.92462542
N      -3.22856396     -0.08967703      5.69430693
B      -3.91585390      0.36432461      4.49692176
B      -2.55642682     -2.41989668      0.90515236
N      -2.99945358     -2.25669145      2.28082102
B      -3.83214961     -1.10622363      2.59141731
N      -3.86714832      0.04450087      1.69792471
B      -3.41454935     -0.15591737      0.32905265
N      -2.57102845     -1.29020769     -0.01521322
N      -2.03764896      2.64245369     -0.80972568
B      -2.15685080      1.23917222     -1.17895228
N      -3.44399445      0.95744663     -0.56069792
B      -3.10895456      2.21983577      0.08013627
B      -0.90636160     -1.77762337      5.30692672
N      -2.15802089     -2.14620947      4.65419166
B      -2.09512227     -2.72107128      3.32593992
N      -0.89187032     -3.44707752      2.98059349
B       0.35646751     -3.07729325      3.64025237
N       0.27252435     -2.52942391      4.96933882
N       2.74750824     -1.98111931      4.78950467
B       2.64303470     -0.62521459      5.26822082
N       1.62043257     -0.81939666      6.27860395
B       1.53271120     -2.20788786      5.65631707
N      -3.12719722      2.44202070      1.47696388
B      -3.64052830      1.35301131      2.29079477
N      -3.53951300      1.49491563      3.73155106
B      -2.46417322      2.30193393      4.27898158
N      -1.96142843      3.38609634      3.45028601
B      -2.05035521      3.25791795      2.00731517
B       1.10857754     -1.37719201     -0.44390116
N      -0.21955007     -1.92535613     -0.65803354
B      -1.34362982     -1.01280920     -0.74587024
N      -1.07576145      0.32946626     -1.23429693
B       0.24658155      0.89318389     -1.02796685
N       1.35904462     -0.03301074     -0.93780837
N      -1.67759436      1.81413731      5.39851215
B      -1.91199187      0.43996197      5.83135406
N      -0.80647988     -0.48718545      5.97991591
B       0.53011539      0.06964563      6.08883974
N       0.80450313      1.44581849      5.68640858
B      -0.32924665      2.33912100      5.54311785
B       0.99987963      3.80082354      4.16174344
N       0.28563327      4.53277374      3.12477179
B      -0.82498842      4.06736028      3.94199747
N      -0.07994777      3.68452019      5.13088443
N       0.38979037      2.25699665     -0.53893853
B      -0.82310876      2.94871056     -0.13074004
N      -0.90555924      3.59141997      1.17309986
B       0.34685733      3.90023864      1.84836015
N       1.57908602      3.22606485      1.47120194
B       1.62205753      2.58613391      0.16413778
B       2.59277024     -2.05035810      3.38473791
N       1.56810788     -2.93321476      2.84372080
B       1.43840615     -3.00985645      1.40178967
N       1.99248752     -1.96736752      0.54538078
B       3.02149592     -1.11032224      1.11727288
N       3.17320312     -0.99636030      2.55547999
N       1.97870897      2.81201339      3.92413794
B       1.94205292      1.65266011      4.80393197
N       2.83036210      0.55396114      4.49958916
B       3.21599853      0.33984414      3.12082633
N       3.24726982      1.50355481      2.24573684
B       2.35874800      2.61074901      2.53770607
N       3.58115443     -0.08788625      0.29324750
B       2.61261517      0.52886086     -0.59869683
N       2.81943131      1.92050702     -0.22369191
B       3.48778205      1.24102258      0.87813990
