132
Trametinib/B36N36 GFN2 opt
C       0.47786909      1.74749222     10.90034336
C       0.32120270      0.50329778     10.07755292
C      -0.73698423      0.20215143      9.25599596
C      -0.85529034     -1.11099679      8.70777134
C       0.23890614     -1.98001671      8.78507351
N       1.37267443     -1.58207211      9.39887078
C       1.43667563     -0.39769967     10.16689689
O       2.44067860     -0.19345314     10.82928205
C       2.64059316     -2.24169931      9.16528056
N       0.17288343     -3.19427212      8.17678973
C       0.72670740     -4.39440691      8.57637106
C       0.91142464     -5.40570840      7.62607274
C       1.42242065     -6.64279023      7.95624861
C       1.75654538     -6.89274129      9.27689687
C       1.56241023     -5.93024769     10.25062883
C       1.04606332     -4.69567857      9.90206291
I       2.54951176     -8.77226257      9.80432548
F       0.57154455     -5.16546117      6.34477989
C      -2.06266341     -1.51239171      8.02632176
O      -2.22771661     -2.59116345      7.46195171
N      -3.10120204     -0.60608415      8.09437202
C      -2.93201403      0.74353032      8.34648862
O      -3.79238900      1.54624517      8.07093123
N      -1.74953839      1.10886480      8.96466603
C      -1.51466456      2.51665290      8.98442235
C      -2.42050736      3.35407733      9.62136503
C      -2.23951511      4.72377817      9.54841796
C      -1.17642134      5.25377601      8.84354711
C      -0.26285923      4.41102844      8.21145179
C      -0.42781988      3.03345674      8.29379858
N       0.77968561      5.00682772      7.49390205
C       1.84014829      4.43014289      6.86260124
O       2.11971829      3.24978435      6.93163254
C       2.66351578      5.43171402      6.08391995
C      -4.36706507     -0.98424958      7.51603000
C      -5.59471243     -0.81501012      8.35831143
C      -5.06143651     -2.18529191      8.07924863
H      -0.47897490      2.11893105     11.25453356
H       0.97356132      2.53621114     10.33589844
H       1.11281795      1.50321112     11.75022283
H       2.69052605     -2.58474227      8.13361427
H       3.41626882     -1.49782163      9.34717918
H       2.80478958     -3.07469663      9.85089948
H      -0.60016195     -3.25168309      7.49761010
H       1.55055717     -7.38508102      7.18499135
H       1.80059387     -6.14037863     11.28146048
H       0.85162023     -3.96297679     10.66995230
H      -3.26073943      2.93984891     10.15308702
H      -2.93923645      5.38268177     10.03856581
H      -1.05421093      6.32528416      8.77702316
H       0.26888076      2.37555434      7.80492683
H       0.67711955      6.00589874      7.37817011
H       2.07389549      5.80585487      5.24903799
H       3.54238492      4.93189033      5.68973783
H       2.96514326      6.26401836      6.71735207
H      -4.42526700     -0.78820612      6.45335259
H      -6.49668583     -0.48901477      7.86665503
H      -5.47130809     -0.41301816      9.35186340
H      -5.58662579     -2.82605348      7.38975042
H      -4.57635049     -2.71616573      8.88324224
B       1.06423637     -3.53366523      0.30642132
N       1.67826886     -4.02238828      1.53120745
B       0.27204829     -4.06161135      1.90447478
N      -0.31067959     -3.92384763      0.57765522
N      -3.88368994     -1.16174315      2.59209606
B      -3.23624654     -1.34748398      3.88127311
N      -3.49086418     -0.02803378      4.44538248
B      -3.78980185      0.21855548      3.04258418
B      -1.23968489     -2.85012571      0.47148015
N      -2.09364616     -2.55966088      1.61391732
B      -3.03748287     -1.45951468      1.48566487
N      -2.84238173     -0.43224629      0.47230321
B      -1.97739234     -0.75523176     -0.65315675
N      -1.01662923     -1.84456316     -0.55824350
N      -0.44213287      1.99507928     -1.69979042
B      -0.37585353      0.55342960     -1.88868971
N      -1.77668566      0.23668885     -1.65530099
B      -1.71898637      1.59225660     -1.12976697
B      -1.10812855     -1.54283836      5.03535506
N      -2.05366163     -2.09233655      4.08614181
B      -1.54866489     -2.82277804      2.93822502
N      -0.26097614     -3.47631005      3.07590080
B       0.70177093     -2.93397218      4.01420281
N       0.18096501     -2.20043518      5.15338545
N       2.56737388     -1.48471987      5.68312613
B       2.27374704     -0.07664649      5.94185438
N       0.96945292     -0.24523263      6.56760042
B       1.14298270     -1.55607810      5.96165661
N      -2.18260603      1.97694691      0.15022981
B      -2.87783617      0.95418929      0.91151672
N      -3.24185491      1.27626466      2.27928268
B      -2.43498385      2.23847335      3.00804570
N      -1.74024833      3.25143779      2.23160071
B      -1.36685213      2.94352756      0.86282286
B       2.61314464     -1.66351731      0.16199994
N       1.44367442     -2.34572502     -0.36228375
B       0.36255670     -1.55139249     -0.91682235
N       0.70838720     -0.25934466     -1.48275891
B       1.87256715      0.43821813     -0.96702054
N       2.94242243     -0.37100921     -0.41245642
N      -2.01470205      1.95434673      4.36997685
B      -2.31382085      0.63400702      4.90110521
N      -1.26777638     -0.17291560      5.51406869
B      -0.06187516      0.51762449      5.94556933
N       0.26564577      1.82795645      5.42893917
B      -0.80261657      2.60776491      4.84020065
B       0.82547584      3.99373970      3.74609606
N       0.44219642      4.53460946      2.45067186
B      -0.84996231      4.08467335      2.94851750
N      -0.49721874      3.91483573      4.35214412
N       1.79225365      1.85658437     -0.65123914
B       0.48248929      2.48574752     -0.73441967
N      -0.03330458      3.26917651      0.37939667
B       0.92755136      3.76187299      1.35474194
N       2.24483392      3.15584250      1.47008678
B       2.72487637      2.37325805      0.34006775
B       2.87221688     -1.75192940      4.31493928
N       2.09436402     -2.76779322      3.62129816
B       2.42647545     -3.03209391      2.22885451
N       3.16981932     -2.05300736      1.44817101
B       3.93132848     -1.04929549      2.17775023
N       3.62354104     -0.75476469      3.56899507
N       1.87708043      3.07758647      3.95959417
B       1.64272270      2.06397962      4.98308858
N       2.61546456      0.98611291      5.08093680
B       3.42011851      0.64310233      3.92873572
N       3.66123133      1.68618759      2.94675143
B       2.67540030      2.74055568      2.79897582
N       4.66716053     -0.08573524      1.43014008
B       4.00042543      0.33462144      0.20745014
N       4.01253999      1.77247155      0.43288263
B       4.33345928      1.28959290      1.76799939
