60
Trametinib GFN2 opt
C      -1.73644727      1.64686973      1.97428931
C      -0.58429530      1.20636027      1.12194331
C      -0.32958099     -0.07848508      0.70916775
C       0.91004140     -0.38800743      0.06952129
C       1.77949919      0.65032128     -0.27736290
N       1.41474085      1.93183846     -0.05730064
C       0.29123577      2.27742717      0.72700591
O       0.12001093      3.45298940      0.99961524
C       2.10649776      3.04131043     -0.67872470
N       2.95963139      0.37757214     -0.90407946
C       4.19277164      0.95143002     -0.62898489
C       5.22741822      0.80286913     -1.55876252
C       6.48886325      1.31658369     -1.34977923
C       6.73695631      2.00369231     -0.17318843
C       5.74614143      2.15492164      0.77971668
C       4.48819936      1.62636283      0.55525659
I       8.65621312      2.81370906      0.16900830
F       4.97531950      0.13289502     -2.69980973
C       1.29153862     -1.76490493     -0.15637099
O       2.29450252     -2.12142877     -0.76659525
N       0.45170791     -2.70934353      0.39876244
C      -0.84774657     -2.46190748      0.81687387
O      -1.61340958     -3.36479863      1.05355253
N      -1.20838363     -1.13325850      0.93133359
C      -2.61395187     -0.90300832      1.02401276
C      -3.34976464     -1.43176372      2.07356321
C      -4.71930507     -1.23362958      2.09857061
C      -5.34512573     -0.51583098      1.09836259
C      -4.60371948      0.01193496      0.04191054
C      -3.22982814     -0.19523022      0.00286237
N      -5.28063017      0.73034245     -0.94534706
C      -4.77456489      1.37316904     -2.04234011
O      -3.60307381      1.40673459     -2.33584378
C      -5.85911203      2.04780049     -2.85597475
C       0.83650848     -4.09405912      0.28934104
C       0.82590972     -4.93921024      1.52525395
C       2.12701517     -4.52637070      0.91411982
H      -1.99624720      0.89759564      2.71644077
H      -2.61857936      1.86226493      1.37213328
H      -1.44535342      2.56955777      2.47282714
H       2.50996405      2.73317024     -1.64087373
H       1.37390221      3.83745074     -0.81313472
H       2.91042596      3.42768770     -0.05012826
H       2.99498909     -0.59445839     -1.24947184
H       7.24970926      1.17572817     -2.10055380
H       5.95078289      2.67387108      1.70285352
H       3.73177871      1.70931713      1.32080157
H      -2.85986232     -1.99335633      2.85142244
H      -5.30354560     -1.64170920      2.90873656
H      -6.41484706     -0.36463514      1.12953719
H      -2.64867391      0.19712462     -0.81495999
H      -6.28098355      0.78373843     -0.81018018
H      -6.58303695      1.31264853     -3.20148939
H      -5.40866718      2.53646764     -3.71470879
H      -6.37391597      2.79190220     -2.25140769
H       0.53748660     -4.54461271     -0.64976164
H       0.49660658     -5.96094277      1.42783929
H       0.52349536     -4.47154745      2.44883418
H       2.71865472     -5.25621435      0.38533311
H       2.71413369     -3.77694538      1.42158284
