60
drug @complex
C       0.47786909      1.74749222     10.90034336
C       0.32120270      0.50329778     10.07755292
C      -0.73698423      0.20215143      9.25599596
C      -0.85529034     -1.11099679      8.70777134
C       0.23890614     -1.98001671      8.78507351
N       1.37267443     -1.58207211      9.39887078
C       1.43667563     -0.39769967     10.16689689
O       2.44067860     -0.19345314     10.82928205
C       2.64059316     -2.24169931      9.16528056
N       0.17288343     -3.19427212      8.17678973
C       0.72670740     -4.39440691      8.57637106
C       0.91142464     -5.40570840      7.62607274
C       1.42242065     -6.64279023      7.95624861
C       1.75654538     -6.89274129      9.27689687
C       1.56241023     -5.93024769     10.25062883
C       1.04606332     -4.69567857      9.90206291
I       2.54951176     -8.77226257      9.80432548
F       0.57154455     -5.16546117      6.34477989
C      -2.06266341     -1.51239171      8.02632176
O      -2.22771661     -2.59116345      7.46195171
N      -3.10120204     -0.60608415      8.09437202
C      -2.93201403      0.74353032      8.34648862
O      -3.79238900      1.54624517      8.07093123
N      -1.74953839      1.10886480      8.96466603
C      -1.51466456      2.51665290      8.98442235
C      -2.42050736      3.35407733      9.62136503
C      -2.23951511      4.72377817      9.54841796
C      -1.17642134      5.25377601      8.84354711
C      -0.26285923      4.41102844      8.21145179
C      -0.42781988      3.03345674      8.29379858
N       0.77968561      5.00682772      7.49390205
C       1.84014829      4.43014289      6.86260124
O       2.11971829      3.24978435      6.93163254
C       2.66351578      5.43171402      6.08391995
C      -4.36706507     -0.98424958      7.51603000
C      -5.59471243     -0.81501012      8.35831143
C      -5.06143651     -2.18529191      8.07924863
H      -0.47897490      2.11893105     11.25453356
H       0.97356132      2.53621114     10.33589844
H       1.11281795      1.50321112     11.75022283
H       2.69052605     -2.58474227      8.13361427
H       3.41626882     -1.49782163      9.34717918
H       2.80478958     -3.07469663      9.85089948
H      -0.60016195     -3.25168309      7.49761010
H       1.55055717     -7.38508102      7.18499135
H       1.80059387     -6.14037863     11.28146048
H       0.85162023     -3.96297679     10.66995230
H      -3.26073943      2.93984891     10.15308702
H      -2.93923645      5.38268177     10.03856581
H      -1.05421093      6.32528416      8.77702316
H       0.26888076      2.37555434      7.80492683
H       0.67711955      6.00589874      7.37817011
H       2.07389549      5.80585487      5.24903799
H       3.54238492      4.93189033      5.68973783
H       2.96514326      6.26401836      6.71735207
H      -4.42526700     -0.78820612      6.45335259
H      -6.49668583     -0.48901477      7.86665503
H      -5.47130809     -0.41301816      9.35186340
H      -5.58662579     -2.82605348      7.38975042
H      -4.57635049     -2.71616573      8.88324224
