114
Talazoparib/B36N36 GFN2 opt
C      -3.09644834      0.93872620     10.09143386
N      -2.80108927      1.17017222      8.70692651
C      -1.74375427      0.77575561      7.98628302
N      -1.91180277      1.23416012      6.74703222
C      -3.09310353      1.89563456      6.76725363
N      -3.64394407      1.86991645      7.94479141
C      -0.62469329     -0.04299784      8.51218100
C       0.72147402      0.70439637      8.35674801
N       1.80785051     -0.19811304      8.70792157
C       1.86912063     -1.41282751      8.07089362
C       3.06271547     -2.10088074      7.89882557
C       3.04833121     -3.35264954      7.30115813
C       1.89265895     -3.97347097      6.87353628
C       0.69107261     -3.29679551      7.04809178
C       0.67226841     -2.02289089      7.63693258
C      -0.58341175     -1.36621624      7.78917158
N      -1.70147975     -1.87473979      7.39379044
N      -1.67648758     -3.08493654      6.83285058
C      -0.57838552     -3.88887443      6.60571145
O      -0.72145993     -4.99191953      6.12331502
F       4.22769954     -3.98043532      7.14210306
C       0.69206738      1.91959312      9.24608914
C       0.30428443      3.14290474      8.70866022
C       0.19263346      4.25856121      9.51849640
C       0.48074159      4.13565205     10.86691202
C       0.87913342      2.93333568     11.42349358
C       0.97772008      1.82350181     10.60310838
F       0.36708322      5.21606091     11.66266402
H      -4.05221464      1.41545506     10.29787738
H      -3.17426583     -0.12970497     10.29232485
H      -2.32775740      1.37879551     10.72779345
H      -3.49565987      2.37719197      5.90172168
H      -0.79130081     -0.23900357      9.57951905
H       0.80174003      1.01907768      7.30182251
H       2.69784219      0.27214121      8.80358231
H       4.00267960     -1.67165498      8.20934756
H       1.90462005     -4.94109364      6.40271302
H      -2.56500487     -3.39805124      6.45852856
H       0.09769026      3.21540048      7.65110980
H      -0.10694474      5.21422494      9.11995333
H       1.10267153      2.87785470     12.47690109
H       1.28412808      0.87422106     11.01562294
B       1.01670719     -3.93617395      2.52525614
N       0.99363653     -3.44753241      3.89490447
B      -0.43171371     -3.48500263      3.59898058
N      -0.38472364     -4.29736662      2.39275377
N      -4.04730355     -1.52698654      0.57074909
B      -4.01700078     -0.76198417      1.81031263
N      -4.30293304      0.55619115      1.26260369
B      -3.95438422     -0.17109317      0.05150525
B      -1.02623971     -3.69755001      1.27357840
N      -2.22989506     -2.91446294      1.50640099
B      -2.87094638     -2.30102349      0.35470618
N      -2.13343072     -2.10688024     -0.88655816
B      -0.93232969     -2.90526668     -1.08420469
N      -0.25855708     -3.52454164      0.04697658
N       1.26565607     -1.18534584     -2.88240460
B       1.20190507     -2.39705456     -2.07833077
N      -0.19823153     -2.73086855     -2.29348909
B      -0.17535758     -1.35401400     -2.76389531
B      -2.58941275      0.15363188      3.56906511
N      -3.14414926     -1.01590992      2.89011261
B      -2.31740408     -2.19932378      2.77222979
N      -1.31835511     -2.40193291      3.80174572
B      -0.77408703     -1.22100249      4.46737789
N      -1.62425635     -0.07393392      4.61076598
N       0.41394499      1.20657502      5.44425881
B       0.22297065      2.35666668      4.58430082
N      -1.20987162      2.43621113      4.61777369
B      -1.11850228      1.10674383      5.37376985
N      -1.06998054     -0.34443498     -2.33855736
B      -2.15201824     -0.77386321     -1.46890679
N      -2.99983687      0.25853038     -0.90182548
B      -2.43677291      1.57982066     -0.68573306
N      -1.35498447      1.99331546     -1.56398330
B      -0.49538416      0.97369713     -2.13529677
B       2.72702801     -2.33074783      1.88496082
N       1.80236557     -3.37651916      1.48818851
B       1.17032226     -3.28959694      0.18481944
N       1.89670733     -2.59026128     -0.86160622
B       2.82568681     -1.54097605     -0.48176673
N       3.44477742     -1.64058743      0.82717740
N      -2.66353781      2.27394336      0.56989675
B      -3.33057742      1.53313955      1.63406233
N      -2.76785222      1.47255915      2.96938377
B      -1.75713340      2.46473277      3.31807871
N      -1.07404304      3.23242519      2.27924717
B      -1.67898216      3.27246848      0.96287595
B       0.43025311      3.93924985      0.01102942
N       0.69577300      3.47939917     -1.34532761
B      -0.73453204      3.22548106     -1.24922527
N      -1.02164804      4.01631076     -0.06301019
N       2.82309359     -0.27122220     -1.19285653
B       1.76550441     -0.05727973     -2.16982222
N       0.94975919      1.14696505     -2.12559979
B       1.47966614      2.29131217     -1.39701513
N       2.53548785      2.11596637     -0.41037193
B       3.32374353      0.89458421     -0.47800722
B       1.19587407      0.22345286      4.78543421
N       0.66963860     -1.12840375      4.68006893
B       1.50549009     -2.12683908      4.03706462
N       2.63894357     -1.73858975      3.21057730
B       3.15610689     -0.38873267      3.37314587
N       2.34464199      0.64493137      3.99022296
N       1.15921921      3.53513847      1.15220357
B       0.37441900      3.29510797      2.35533498
N       1.06246500      2.74550546      3.50358291
B       2.21262099      1.90369385      3.27128370
N       2.99400066      2.14479755      2.06774835
B       2.31619787      2.69541719      0.90824521
N       4.27201365      0.00810622      2.57727709
B       4.23581835     -0.53864283      1.22872288
N       4.35970572      0.70430800      0.48164767
B       4.02520567      1.21609060      1.80292908
