42
Talazoparib GFN2 opt
C       0.60038079      3.35028678      1.23232569
N       0.77033020      2.89294638     -0.11441515
C       0.54254030      1.67458690     -0.64114000
N       0.80854587      1.69585264     -1.93316336
C       1.20258777      2.96429332     -2.15414655
N       1.19135577      3.71537625     -1.08014858
C       0.04278067      0.50128902      0.12769795
C       0.48558639     -0.79881253     -0.57335190
N      -0.17305452     -1.93834826      0.03820913
C      -1.52165843     -1.92407456      0.23081191
C      -2.26096922     -3.09052425      0.39532297
C      -3.62697662     -3.00773597      0.61319438
C      -4.30886163     -1.80868434      0.66948969
C      -3.57572053     -0.63569628      0.52495954
C      -2.18740334     -0.68033487      0.31792429
C      -1.46179185      0.54937307      0.24558253
N      -2.03739566      1.70095648      0.34063245
N      -3.36736345      1.73675307      0.48888047
C      -4.23751236      0.67449357      0.59725084
O      -5.42636220      0.86421466      0.74733803
F      -4.31033347     -4.15715129      0.76225900
C       1.98176826     -0.94903693     -0.46040506
C       2.80738824     -0.61015775     -1.52449830
C       4.18165733     -0.71286310     -1.40753043
C       4.71676689     -1.16758840     -0.21603295
C       3.91735254     -1.51644418      0.85754777
C       2.54568256     -1.39933425      0.72786991
F       6.05476244     -1.27631078     -0.09572361
H       0.78560371      4.42203301      1.23879739
H      -0.41770698      3.14525916      1.56368280
H       1.31119383      2.85703275      1.89851292
H       1.49829868      3.32489972     -3.11707223
H       0.46388719      0.52445329      1.14166916
H       0.20729684     -0.70467920     -1.63456351
H       0.23997571     -2.83354830     -0.17923247
H      -1.78587809     -4.05819478      0.34890398
H      -5.37363791     -1.76685277      0.82522848
H      -3.76137812      2.67046004      0.53256865
H       2.36849749     -0.24601568     -2.44003623
H       4.83534167     -0.44881791     -2.22315293
H       4.36864549     -1.86839934      1.77159105
H       1.90577776     -1.66495436      1.55636232
