72
carrier @complex
B       3.34578652     -2.48472582      2.59050778
N       3.62153606      0.16549121      2.46880687
B       3.05086694      1.93905972      0.54947350
N       2.61710533     -0.64851674     -1.55019103
B       0.30824392     -4.44700668      3.02313568
N      -3.12617971     -2.93988898      2.04150006
B      -0.58543398      3.36575073      3.73133038
N      -0.10709763      0.57721559     -2.75095101
B       0.19176007      1.97830115     -2.57888705
N       1.15410004     -3.78555503     -1.32621832
B      -3.36898960      2.35320009      0.89576426
N      -2.19264809      2.91885574      0.37981366
B       2.05621186      1.32311208     -3.38508186
N       0.06370135      2.35836839      4.59018858
B       1.02087500     -2.64623547     -2.19605243
N       0.15352943      3.59015132      0.92680392
B      -0.64252485      1.17458469      4.71669182
N       1.42730323     -2.50825158      4.36141503
B       0.47713891      3.56066205     -0.45857977
N       1.19345247     -1.23286900      4.95034995
B      -1.20283343     -0.05206100     -2.09692951
N      -3.50610312      1.65347060      2.09620007
B       0.87263249      3.74751227      3.27191269
N      -0.12466850     -1.29723672      5.47307831
B      -2.40039385      1.79663330      2.99583328
N       3.97518780     -0.73233857      0.55792600
B      -2.48675914     -3.82906648      1.18463306
N       1.43088890      2.70726350      4.17669511
B      -1.94807721     -1.57311033      3.98178825
N      -2.54627010     -3.46228254     -0.23809519
B       3.19633303     -1.40794748     -0.40570876
N      -3.03419302     -1.11198151      0.29822627
B       2.36580904      1.94269403      3.38982190
N      -0.40640648     -2.58608893     -1.90884224
B      -1.47950215     -1.67593105     -1.86027009
N       1.17206052      3.46883511      1.91062272
B       1.81986914      3.07921978     -1.27291552
N      -0.30182853     -4.94079968      1.85742514
B      -1.20786381      3.30958294      1.36785190
N      -1.55321409      2.99684478      2.75061751
B       1.10819915     -4.91124896      1.75118663
N      -0.82863825     -0.09286312      5.39460779
B      -2.59765962     -2.11961305     -0.69593168
N      -1.39725286     -4.77594894      1.05325015
B      -2.07546278      0.86848280     -0.97007783
N       2.10169070     -4.47381166      0.85348161
B       3.98465929     -1.12852086      2.00570061
N       2.49578619      1.86045500     -0.74433798
B       1.77731590      2.70730573     -2.83449068
N      -3.85341076      1.01964416      0.72123485
B      -0.64586932      2.85241976     -1.45847591
N      -1.77513207      2.29265979     -0.84195576
B       2.92992610     -3.38242300      1.30808263
N       2.21958571     -3.96633064     -0.48831062
B       2.20647144     -0.65446943      4.09781672
N      -2.04835485     -0.27221601      4.64419660
B      -1.28044029     -4.18260528     -0.27983140
N      -2.92105137      0.27214316      0.01378196
B       3.77894856      0.60492570      1.08789412
N       2.73209467      0.54555332      3.50111755
B       1.77699396     -1.27785454     -2.56106805
N      -1.92219203      1.01121012      4.04076474
B       2.54284835      0.79557464     -1.73688926
N      -2.82611490     -1.82553012      2.93976107
B       1.14824999      0.00583215     -3.33179122
N      -0.24069201     -3.68390113     -1.02663244
B       0.19318034     -3.16844825      4.04505421
N      -0.81875683     -2.25557467      4.56264527
B      -3.23200617     -1.59119903      1.59804278
N       2.53709596     -2.02111306      3.63960443
B       2.39003521      2.71673410      1.84856567
N       2.87577775     -2.76282299      0.00612251
