42
drug @complex
C      -3.09644834      0.93872620     10.09143386
N      -2.80108927      1.17017222      8.70692651
C      -1.74375427      0.77575561      7.98628302
N      -1.91180277      1.23416012      6.74703222
C      -3.09310353      1.89563456      6.76725363
N      -3.64394407      1.86991645      7.94479141
C      -0.62469329     -0.04299784      8.51218100
C       0.72147402      0.70439637      8.35674801
N       1.80785051     -0.19811304      8.70792157
C       1.86912063     -1.41282751      8.07089362
C       3.06271547     -2.10088074      7.89882557
C       3.04833121     -3.35264954      7.30115813
C       1.89265895     -3.97347097      6.87353628
C       0.69107261     -3.29679551      7.04809178
C       0.67226841     -2.02289089      7.63693258
C      -0.58341175     -1.36621624      7.78917158
N      -1.70147975     -1.87473979      7.39379044
N      -1.67648758     -3.08493654      6.83285058
C      -0.57838552     -3.88887443      6.60571145
O      -0.72145993     -4.99191953      6.12331502
F       4.22769954     -3.98043532      7.14210306
C       0.69206738      1.91959312      9.24608914
C       0.30428443      3.14290474      8.70866022
C       0.19263346      4.25856121      9.51849640
C       0.48074159      4.13565205     10.86691202
C       0.87913342      2.93333568     11.42349358
C       0.97772008      1.82350181     10.60310838
F       0.36708322      5.21606091     11.66266402
H      -4.05221464      1.41545506     10.29787738
H      -3.17426583     -0.12970497     10.29232485
H      -2.32775740      1.37879551     10.72779345
H      -3.49565987      2.37719197      5.90172168
H      -0.79130081     -0.23900357      9.57951905
H       0.80174003      1.01907768      7.30182251
H       2.69784219      0.27214121      8.80358231
H       4.00267960     -1.67165498      8.20934756
H       1.90462005     -4.94109364      6.40271302
H      -2.56500487     -3.39805124      6.45852856
H       0.09769026      3.21540048      7.65110980
H      -0.10694474      5.21422494      9.11995333
H       1.10267153      2.87785470     12.47690109
H       1.28412808      0.87422106     11.01562294
