112
Drug@B36N36 non-overlapping complex
N     -2.024468      1.001146      8.721116
C     -0.882309      1.148942      9.457907
O     -0.337972      2.238100      9.579967
C     -0.376049     -0.050738     10.167356
C      0.993483     -0.382930     10.121558
Cl      2.083699      0.470467      9.064691
C      1.479553     -1.495073     10.845679
N      2.852965     -1.846604     10.917274
C      3.887054     -1.155711     11.603383
C      3.755823      0.146005     12.098663
C      4.838712      0.793162     12.708671
C      6.069978      0.146609     12.817648
I      7.669711      1.113529     13.723084
C      6.231313     -1.141188     12.319527
C      5.146926     -1.770923     11.714864
F      5.310745     -3.017251     11.241673
C      0.561047     -2.264798     11.578322
F      0.997281     -3.334193     12.262470
C     -0.792221     -1.962135     11.613692
C     -1.254525     -0.842045     10.929948
O     -2.606247     -0.616864     10.968590
C     -2.946911      0.382657     11.948499
C     -4.430612      0.721381     11.787130
O     -4.651196      1.342583     10.508764
C     -4.908722      1.681991     12.876590
O     -6.289781      1.968669     12.645865
H     -2.673225      0.255580      8.954605
H     -2.467358      1.867330      8.439469
H      2.973513     -2.851408     11.068328
H      2.816345      0.685038     12.023414
H      4.703396      1.805110     13.084151
H      7.177664     -1.667578     12.384215
H     -1.471262     -2.595836     12.175098
H     -2.759120     -0.022103     12.950293
H     -2.343286      1.286330     11.802204
H     -5.035053     -0.192894     11.787734
H     -5.568380      1.682603     10.556108
H     -4.362523      2.629756     12.830453
H     -4.800738      1.241416     13.872133
H     -6.567250      2.601868     13.332200
B      3.459180     -1.454569      1.628037
N      3.456400      1.129904      0.940040
B      2.539920      2.362499     -1.261047
N      2.293067     -0.641637     -2.730603
B      0.690534     -3.561069      2.702709
N     -2.939724     -2.654773      1.709476
B     -1.038202      4.085096      1.831238
N     -0.619347      0.017651     -3.941904
B     -0.473710      1.445324     -4.091730
N      1.209559     -3.786796     -1.739405
B     -3.844500      2.209440     -0.493722
N     -2.772864      2.763562     -1.211833
B      1.405725      0.818091     -4.889311
N     -0.235789      3.364215      2.833544
B      0.898320     -2.879798     -2.813849
N     -0.491833      3.766578     -1.010119
B     -0.805996      2.182269      3.281874
N      1.656110     -1.274433      3.503622
B     -0.248484      3.469937     -2.379863
N      1.308703      0.068898      3.816981
B     -1.597441     -0.559934     -3.084689
N     -3.832496      1.776842      0.831624
B      0.337602      4.495994      1.183894
N      0.043256     -0.013955      4.456653
B     -2.708837      2.226751      1.601242
N      3.772728     -0.132624     -0.765541
B     -2.253381     -3.639412      1.008482
N      1.055818      3.733398      2.235734
B     -1.825620     -0.777460      3.219840
N     -2.436768     -3.601880     -0.450773
B      3.018658     -1.073670     -1.502768
N     -3.157960     -1.252592     -0.384321
B      2.034656      2.922326      1.561722
N     -0.507447     -2.900148     -2.432795
B     -1.673548     -2.112882     -2.491621
N      0.590135      3.964583     -0.110225
B      1.090314      2.959649     -3.182489
N      0.077350     -4.359230      1.721289
B     -1.784034      3.452384     -0.408220
N     -2.013520      3.418515      1.031553
B      1.465878     -4.212148      1.499138
N     -0.797987      1.064153      4.194581
B     -2.666242     -2.402096     -1.175256
N     -1.074388     -4.484335      0.991235
B     -2.503710      0.491370     -2.109143
N      2.352728     -3.887335      0.453103
B      3.912327     -0.202357      0.725926
N      1.928548      1.957009     -2.465077
B      1.001184      2.254351     -4.622507
N     -4.186016      0.829005     -0.347538
B     -1.338881      2.453658     -3.114870
N     -2.359649      1.932605     -2.305841
B      3.073063     -2.645483      0.601111
N      2.335213     -3.673670     -0.970876
B      2.217863      0.545803      2.808407
N     -2.026423      0.611912      3.601492
B     -1.101749     -4.183787     -0.441007
N     -3.218144      0.041654     -0.958566
B      3.447752      1.258593     -0.514065
N      2.582085      1.632977      1.936454
B      1.472054     -1.555001     -3.515610
N     -2.102601      1.754194      2.760799
B      2.040765      0.711921     -3.211483
N     -2.720915     -1.341699      2.320567
B      0.658648     -0.538875     -4.486937
N     -0.168664     -3.759421     -1.356472
B      0.485560     -2.105634      3.433764
N     -0.587253     -1.205033      3.824488
B     -3.224373     -1.451411      1.000320
N      2.671324     -0.855529      2.621135
B      1.878557      3.339348     -0.106427
N      2.876911     -2.331783     -0.793563
