      -----------------------------------------------------------      
     |                   =====================                   |     
     |                           x T B                           |     
     |                   =====================                   |     
     |                         S. Grimme                         |     
     |          Mulliken Center for Theoretical Chemistry        |     
     |                    University of Bonn                     |     
      -----------------------------------------------------------      

   * xtb version 6.7.1pre (5071a88) compiled by 'Marcel@Raven' on 2024-07-23

   xtb is free software: you can redistribute it and/or modify it under
   the terms of the GNU Lesser General Public License as published by
   the Free Software Foundation, either version 3 of the License, or
   (at your option) any later version.
   
   xtb is distributed in the hope that it will be useful,
   but WITHOUT ANY WARRANTY; without even the implied warranty of
   MERCHANTABILITY or FITNESS FOR A PARTICULAR PURPOSE.  See the
   GNU Lesser General Public License for more details.
   
   Cite this work as:
   * C. Bannwarth, E. Caldeweyher, S. Ehlert, A. Hansen, P. Pracht,
     J. Seibert, S. Spicher, S. Grimme, WIREs Comput. Mol. Sci., 2020, 11,
     e01493. DOI: 10.1002/wcms.1493
   
   for GFN2-xTB:
   * C. Bannwarth, S. Ehlert and S. Grimme., J. Chem. Theory Comput., 2019,
     15, 1652-1671. DOI: 10.1021/acs.jctc.8b01176
   for GFN1-xTB:
   * S. Grimme, C. Bannwarth, P. Shushkov, J. Chem. Theory Comput., 2017,
     13, 1989-2009. DOI: 10.1021/acs.jctc.7b00118
   for GFN0-xTB:
   * P. Pracht, E. Caldeweyher, S. Ehlert, S. Grimme, ChemRxiv, 2019, preprint.
     DOI: 10.26434/chemrxiv.8326202.v1
   for GFN-FF:
   * S. Spicher and S. Grimme, Angew. Chem. Int. Ed., 2020, 59, 15665-15673.
     DOI: 10.1002/anie.202004239
   
   for ALPB and GBSA implicit solvation:
   * S. Ehlert, M. Stahn, S. Spicher, S. Grimme, J. Chem. Theory Comput.,
     2021, 17, 4250-4261. DOI: 10.1021/acs.jctc.1c00471
   
   for ddCOSMO and CPCM-X implicit solvation:
   * M. Stahn, S. Ehlert, S. Grimme, J. Phys. Chem. A,
     2023, XX, XXXX-XXXX. DOI: 10.1021/acs.jpca.3c04382
   
   for DFT-D4:
   * E. Caldeweyher, C. Bannwarth and S. Grimme, J. Chem. Phys., 2017,
     147, 034112. DOI: 10.1063/1.4993215
   * E. Caldeweyher, S. Ehlert, A. Hansen, H. Neugebauer, S. Spicher,
     C. Bannwarth and S. Grimme, J. Chem. Phys., 2019, 150, 154122.
     DOI: 10.1063/1.5090222
   * E. Caldeweyher, J.-M. Mewes, S. Ehlert and S. Grimme, Phys. Chem. Chem. Phys.
     2020, 22, 8499-8512. DOI: 10.1039/D0CP00502A
   
   for sTDA-xTB:
   * S. Grimme and C. Bannwarth, J. Chem. Phys., 2016, 145, 054103.
     DOI: 10.1063/1.4959605
   
   in the mass-spec context:
   * V. Asgeirsson, C. Bauer and S. Grimme, Chem. Sci., 2017, 8, 4879.
     DOI: 10.1039/c7sc00601b
   * J. Koopman and S. Grimme, ACS Omega 2019, 4, 12, 15120-15133.
     DOI: 10.1021/acsomega.9b02011
   
   for metadynamics refer to:
   * S. Grimme, J. Chem. Theory Comput., 2019, 155, 2847-2862
     DOI: 10.1021/acs.jctc.9b00143
   
   for SPH calculations refer to:
   * S. Spicher and S. Grimme, J. Chem. Theory Comput., 2021, 17, 1701-1714
     DOI: 10.1021/acs.jctc.0c01306
   
   for ONIOM refer to:
   * C. Plett, A. Katbashev, S. Ehlert, S. Grimme, M. Bursch,
     Phys. Chem. Chem. Phys., 2023, 25, 17860-17868. DOI: 10.1039/D3CP02178E
   
   for DIPRO refer to:
   * J. Kohn, N. Gildemeister, S. Grimme, D. Fazzi, A. Hansen,
     J. Chem. Phys., 2023, just accepted.
   
   for PTB refer to:
   * S. Grimme, M. Mueller, A. Hansen, J. Chem. Phys., 2023, 158, 124111.
     DOI: 10.1063/5.0137838
   
   with help from (in alphabetical order)
   P. Atkinson, C. Bannwarth, F. Bohle, G. Brandenburg, E. Caldeweyher
   M. Checinski, S. Dohm, S. Ehlert, S. Ehrlich, I. Gerasimov, C. Hölzer
   A. Katbashev, J. Kohn, J. Koopman, C. Lavigne, S. Lehtola, F. März, M. Müller,
   F. Musil, H. Neugebauer, J. Pisarek, C. Plett, P. Pracht, F. Pultar,
   J. Seibert, P. Shushkov, S. Spicher, M. Stahn, M. Steiner, T. Strunk,
   J. Stückrath, T. Rose, and J. Unsleber
   
 * started run on 2026/08/31 at 18:36:09.318     
   ID    Z sym.   atoms
    1    7 N      1, 8, 77-112
    2    6 C      2, 4, 5, 7, 9-12, 14, 15, 17, 19, 20, 22, 23, 25
    3    8 O      3, 21, 24, 26
    4   17 Cl     6
    5   53 I      13
    6    9 F      16, 18
    7    1 H      27-40
    8    5 B      41-76

           -------------------------------------------------
          |                Calculation Setup                |
           -------------------------------------------------

          program call               : "c:\Users\Andre\Proyectos doctorado\kras-pancreatic-gC3N4-ai\tools\xtb\xtb-6.7.1\bin\xtb.exe" "c:\Users\Andre\Proyectos doctorado\nano-qsar-ai-therapeutics\calculations\tnbc\Selumetinib\Selumetinib_B36N36_complex.xyz" --gfn 2 --sp --chrg 0 --uhf 0 --iterations 500 --norestart
          coordinate file            : c:\Users\Andre\Proyectos doctorado\nano-qsar-ai-therapeutics\calculations\tnbc\Selumetinib\Selumetinib_B36N36_complex.xyz
          omp threads                :                    16


molecular fragmentation (1/2 indicates fragments):
111111111111111111111111111111111111111111111111111111121112111111111111
1111111111111111111211121111111111111111
# atoms in fragment 1/2:   108     4
 fragment masses (1/2) :     1342.45       49.64
CMA distance (Bohr)    :   8.703
constraining FC (au)   :  0.0500

           -------------------------------------------------
          |                 G F N 2 - x T B                 |
           -------------------------------------------------

        Reference                      10.1021/acs.jctc.8b01176
      * Hamiltonian:
        H0-scaling (s, p, d)           1.850000    2.230000    2.230000
        zeta-weighting                 0.500000
      * Dispersion:
        s8                             2.700000
        a1                             0.520000
        a2                             5.000000
        s9                             5.000000
      * Repulsion:
        kExp                           1.500000    1.000000
        rExp                           1.000000
      * Coulomb:
        alpha                          2.000000
        third order                    shell-resolved
        anisotropic                    true
        a3                             3.000000
        a5                             4.000000
        cn-shift                       1.200000
        cn-exp                         4.000000
        max-rad                        5.000000


          ...................................................
          :                      SETUP                      :
          :.................................................:
          :  # basis functions                 418          :
          :  # atomic orbitals                 416          :
          :  # shells                          212          :
          :  # electrons                       428          :
          :  max. iterations                   500          :
          :  Hamiltonian                  GFN2-xTB          :
          :  restarted?                      false          :
          :  GBSA solvation                  false          :
          :  PC potential                    false          :
          :  electronic temp.          300.0000000     K    :
          :  accuracy                    1.0000000          :
          :  -> integral cutoff          0.2500000E+02      :
          :  -> integral neglect         0.1000000E-07      :
          :  -> SCF convergence          0.1000000E-05 Eh   :
          :  -> wf. convergence          0.1000000E-03 e    :
          :  Broyden damping             0.4000000          :
          :  net charge                          0          :
          :  unpaired electrons                  0          :
          ...................................................

 iter      E             dE          RMSdq      gap      omega  full diag
   1   -216.7750683 -0.216775E+03  0.146E+01    0.31       0.0  T
   2   -129.8324690  0.869426E+02  0.144E+01    0.13       1.0  T
   3    211.8124943  0.341645E+03  0.216E+01    0.15       1.0  T
   4   -191.1427722 -0.402955E+03  0.907E+00    0.11       1.0  T
   5   -197.3138820 -0.617111E+01  0.955E+00    0.09       1.0  T
   6   -226.1084989 -0.287946E+02  0.500E+00    0.09       1.0  T
   7   -217.1594009  0.894910E+01  0.454E+00    0.09       1.0  T
   8   -223.5586225 -0.639922E+01  0.404E+00    0.20       1.0  T
   9   -229.3520282 -0.579341E+01  0.280E+00    0.35       1.0  T
  10   -228.1847059  0.116732E+01  0.265E+00    0.05       1.0  T
  11   -228.8896483 -0.704942E+00  0.207E+00    0.27       1.0  T
  12   -229.3658232 -0.476175E+00  0.168E+00    0.06       1.0  T
  13   -229.3657493  0.739580E-04  0.149E+00    0.17       1.0  T
  14   -229.5433007 -0.177551E+00  0.111E+00    0.11       1.0  T
  15   -229.7202897 -0.176989E+00  0.108E+00    0.24       1.0  T
  16   -229.9345551 -0.214265E+00  0.938E-01    0.05       1.0  T
  17   -229.8886485  0.459066E-01  0.895E-01    0.01       1.0  T
  18   -229.9300631 -0.414146E-01  0.104E+00    0.20       1.0  T
  19   -230.0025475 -0.724845E-01  0.837E-01    0.16       1.0  T
  20   -230.0426348 -0.400873E-01  0.658E-01    0.15       1.0  T
  21   -229.9273396  0.115295E+00  0.832E-01    0.01       1.0  T
  22   -230.0813451 -0.154005E+00  0.472E-01    0.11       1.0  T
  23   -230.1048755 -0.235304E-01  0.308E-01    0.08       1.0  T
  24   -230.1122967 -0.742119E-02  0.214E-01    0.08       1.0  T
  25   -230.1126709 -0.374219E-03  0.172E-01    0.08       1.0  T
  26   -230.1137085 -0.103759E-02  0.138E-01    0.08       1.0  T
  27   -230.1144173 -0.708812E-03  0.120E-01    0.08       1.0  T
  28   -230.1137572  0.660144E-03  0.114E-01    0.09       1.0  T
  29   -230.1150043 -0.124712E-02  0.927E-02    0.08       1.0  T
  30   -230.1154805 -0.476216E-03  0.787E-02    0.08       1.0  T
  31   -230.1159861 -0.505554E-03  0.579E-02    0.08       1.0  T
  32   -230.1163634 -0.377287E-03  0.389E-02    0.08       1.0  T
  33   -230.1164504 -0.870445E-04  0.290E-02    0.08       1.0  T
  34   -230.1166010 -0.150580E-03  0.143E-02    0.08       1.0  T
  35   -230.1166375 -0.365344E-04  0.994E-03    0.08       1.0  T
  36   -230.1166364  0.111662E-05  0.105E-02    0.08       1.0  T
  37   -230.1166621 -0.257356E-04  0.526E-03    0.08       1.8  T
  38   -230.1166691 -0.693563E-05  0.227E-03    0.08       4.2  T
  39   -230.1166708 -0.175065E-05  0.123E-03    0.08       7.7  T
  40   -230.1166713 -0.443926E-06  0.561E-04    0.08      16.9  T
  41   -230.1166712  0.191900E-07  0.660E-04    0.08      14.3  T

   *** convergence criteria satisfied after 41 iterations ***

         #    Occupation            Energy/Eh            Energy/eV
      -------------------------------------------------------------
         1        2.0000           -1.0561218             -28.7385
       ...           ...                  ...                  ...
       208        2.0000           -0.2171554              -5.9091
       209        2.0000           -0.2148036              -5.8451
       210        2.0000           -0.2023751              -5.5069
       211        2.0000           -0.1828210              -4.9748
       212        1.9999           -0.1799791              -4.8975
       213        1.9249           -0.1737994              -4.7293
       214        1.6807           -0.1722962              -4.6884 (HOMO)
       215        0.3835           -0.1693515              -4.6083 (LUMO)
       216        0.0110           -0.1657770              -4.5110
       217        0.0000           -0.1588964              -4.3238
       218        0.0000           -0.1575912              -4.2883
       219                         -0.1435745              -3.9069
       ...                                ...                  ...
       416                         23.4115059             637.0595
      -------------------------------------------------------------
                  HL-Gap            0.0029447 Eh            0.0801 eV
             Fermi-level           -0.1707181 Eh           -4.6455 eV

 SCC (total)                   0 d,  0 h,  0 min,  0.918 sec
 SCC setup                      ...        0 min,  0.000 sec (  0.000%)
 Dispersion                     ...        0 min,  0.003 sec (  0.327%)
 classical contributions        ...        0 min,  0.000 sec (  0.000%)
 integral evaluation            ...        0 min,  0.016 sec (  1.743%)
 iterations                     ...        0 min,  0.866 sec ( 94.336%)
 molecular gradient             ...        0 min,  0.030 sec (  3.268%)
 printout                       ...        0 min,  0.003 sec (  0.327%)

         :::::::::::::::::::::::::::::::::::::::::::::::::::::
         ::                     SUMMARY                     ::
         :::::::::::::::::::::::::::::::::::::::::::::::::::::
         :: total energy             -21.588244004984 Eh    ::
         :: gradient norm            153.867792056011 Eh/a0 ::
         :: HOMO-LUMO gap              0.080128581288 eV    ::
         ::.................................................::
         :: SCC energy              -230.083641353517 Eh    ::
         :: -> isotropic ES            1.171759862490 Eh    ::
         :: -> anisotropic ES          0.107301037484 Eh    ::
         :: -> anisotropic XC          0.128632050729 Eh    ::
         :: -> dispersion             -0.317244362460 Eh    ::
         :: repulsion energy         208.495397348532 Eh    ::
         :: add. restraining           0.000000000000 Eh    ::
         :: total charge              -0.000000000005 e     ::
         :::::::::::::::::::::::::::::::::::::::::::::::::::::

           -------------------------------------------------
          |                Property Printout                |
           -------------------------------------------------

    * Orbital Energies and Occupations

         #    Occupation            Energy/Eh            Energy/eV
      -------------------------------------------------------------
         1        2.0000           -1.0561218             -28.7385
       ...           ...                  ...                  ...
       202        2.0000           -0.2417762              -6.5791
       203        2.0000           -0.2360893              -6.4243
       204        2.0000           -0.2316646              -6.3039
       205        2.0000           -0.2273325              -6.1860
       206        2.0000           -0.2231374              -6.0719
       207        2.0000           -0.2202755              -5.9940
       208        2.0000           -0.2171554              -5.9091
       209        2.0000           -0.2148036              -5.8451
       210        2.0000           -0.2023751              -5.5069
       211        2.0000           -0.1828210              -4.9748
       212        1.9999           -0.1799791              -4.8975
       213        1.9249           -0.1737994              -4.7293
       214        1.6807           -0.1722962              -4.6884 (HOMO)
       215        0.3835           -0.1693515              -4.6083 (LUMO)
       216        0.0110           -0.1657770              -4.5110
       217        0.0000           -0.1588964              -4.3238
       218        0.0000           -0.1575912              -4.2883
       219                         -0.1435745              -3.9069
       220                         -0.1401019              -3.8124
       221                         -0.1339352              -3.6446
       222                         -0.1321673              -3.5965
       223                         -0.1270931              -3.4584
       224                         -0.1247788              -3.3954
       225                         -0.1183544              -3.2206
       ...                                ...                  ...
       416                         23.4115059             637.0595
      -------------------------------------------------------------
                  HL-Gap            0.0029447 Eh            0.0801 eV
             Fermi-level           -0.1707181 Eh           -4.6455 eV

     #   Z          covCN         q      C6AA      α(0)
     1   7 N        5.374    -0.118    23.556     7.208
     2   6 C        3.927     0.010    20.339     6.409
     3   8 O        3.124    -0.272    18.469     5.804
     4   6 C        2.986    -0.197    33.180     9.449
     5   6 C        2.986    -0.120    31.040     9.139
     6  17 Cl       5.382     0.224    92.747    14.734
     7   6 C        3.766    -0.276    26.182     7.293
     8   7 N        7.027    -0.020    21.621     6.906
     9   6 C        8.336     0.225    17.026     5.860
    10   6 C        8.370    -0.171    23.723     6.917
    11   6 C        6.864     0.010    20.317     6.401
    12   6 C        3.004    -0.139    31.545     9.213
    13  53 I        1.263    -0.288   393.732    34.254
    14   6 C        3.180    -0.173    32.017     9.237
    15   6 C        6.290     0.071    19.305     6.240
    16   9 F        1.450    -0.357    12.979     4.257
    17   6 C        3.559     0.003    21.447     6.756
    18   9 F        3.393    -0.168    10.901     3.901
    19   6 C        3.593    -0.248    26.264     7.422
    20   6 C        2.894    -0.044    29.103     8.845
    21   8 O        3.648    -0.266    18.373     5.789
    22   6 C        7.496    -0.203    24.405     7.016
    23   6 C        8.502    -0.084    22.000     6.661
    24   8 O        5.050     0.542     9.061     4.065
    25   6 C        6.826     0.011    20.303     6.399
    26   8 O        1.665    -0.607    25.323     6.793
    27   1 H        3.419     0.504     0.324     0.889
    28   1 H        0.860     0.117     1.649     2.012
    29   1 H        3.630     0.547     0.281     0.827
    30   1 H        1.484     0.156     1.344     1.810
    31   1 H        2.727     0.391     0.489     1.092
    32   1 H        0.925     0.004     2.984     2.701
    33   1 H        1.898     0.201     1.086     1.627
    34   1 H        2.460     0.330     0.622     1.231
    35   1 H        1.742     0.195     1.119     1.652
    36   1 H        0.924     0.009     2.901     2.663
    37   1 H        1.034    -0.107     5.793     3.759
    38   1 H        2.568     0.139     1.461     1.887
    39   1 H        2.184     0.287     0.744     1.347
    40   1 H        0.804     0.281     0.780     1.387
    41   5 B        5.102     0.084    21.241     7.426
    42   5 B        5.102     0.049    21.854     7.532
    43   5 B        5.102     0.114    20.736     7.337
    44   5 B        5.102     0.112    20.775     7.344
    45   5 B        5.680     0.168    19.874     7.183
    46   5 B        8.992     0.030    22.187     7.590
    47   5 B        6.659     0.102    20.938     7.373
    48   5 B        5.947     0.256    18.556     6.941
    49   5 B        8.315     0.170    19.834     7.176
    50   5 B        5.699     0.234    18.873     7.000
    51   5 B        7.002     0.130    20.473     7.291
    52   5 B        7.277     0.166    19.896     7.187
    53   5 B        2.775     0.288    17.089     6.913
    54   5 B        3.963     0.199    19.383     7.094
    55   5 B        3.451     0.329    16.518     6.767
    56   5 B        1.850     0.139    39.793    13.286
    57   5 B        1.850     0.029    43.463    13.886
    58   5 B        2.673     0.299    17.151     6.964
    59   5 B        2.493     0.195    20.480     7.932
    60   5 B        1.859     0.141    39.678    13.266
    61   5 B        1.850     0.048    42.790    13.778
    62   5 B        1.850     0.021    43.744    13.930
    63   5 B        5.312     0.343    17.365     6.714
    64   5 B        3.457     0.162    18.823     7.222
    65   5 B        4.397     0.267    18.400     6.911
    66   5 B        4.397     0.245    18.708     6.969
    67   5 B        4.397     0.269    18.368     6.905
    68   5 B        4.397     0.265    18.431     6.917
    69   5 B        7.535     0.066    21.544     7.479
    70   5 B        6.478     0.175    19.764     7.163
    71   5 B        5.156     0.346    17.328     6.707
    72   5 B        6.390     0.316    17.717     6.782
    73   5 B        8.049    -0.142    25.610     8.154
    74   5 B        4.573     0.305    17.875     6.812
    75   5 B        5.838    -0.264    28.477     8.598
    76   5 B        5.142     0.436    16.206     6.486
    77   7 N        4.372    -0.063    22.457     7.038
    78   7 N        4.372    -0.075    22.691     7.075
    79   7 N        4.372    -0.035    21.921     6.954
    80   7 N        4.372    -0.034    21.891     6.949
    81   7 N        5.028    -0.167    24.610     7.368
    82   7 N        8.450     0.458    14.511     5.658
    83   7 N        6.207    -0.055    22.294     7.013
    84   7 N        5.282    -0.274    27.058     7.726
    85   7 N        7.498    -0.280    27.210     7.747
    86   7 N        4.419    -0.182    24.925     7.415
    87   7 N        5.799    -0.266    26.862     7.698
    88   7 N        5.172    -0.271    26.999     7.717
    89   7 N        1.895    -0.347    29.883     8.104
    90   7 N        2.076    -0.180    25.581     7.503
    91   7 N        1.068    -0.534    33.260     8.247
    92   7 N        0.932    -0.160    24.353     7.126
    93   7 N        0.932    -0.095    23.004     6.926
    94   7 N        1.532    -0.488    32.969     8.386
    95   7 N        1.368    -0.287    26.243     7.323
    96   7 N        0.932    -0.158    24.301     7.118
    97   7 N        0.932    -0.045    22.010     6.774
    98   7 N        0.932    -0.142    23.959     7.068
    99   7 N        2.044    -0.390    30.959     8.253
   100   7 N        0.978    -0.260    26.348     7.386
   101   7 N        3.977    -0.313    28.037     7.864
   102   7 N        3.977    -0.327    28.400     7.915
   103   7 N        3.977    -0.319    28.201     7.887
   104   7 N        3.977    -0.325    28.343     7.907
   105   7 N        6.621     0.020    20.892     6.789
   106   7 N        6.390    -0.227    25.949     7.566
   107   7 N        4.060    -0.389    30.035     8.140
   108   7 N        6.245    -0.443    31.565     8.344
   109   7 N        7.844     0.445    14.659     5.686
   110   7 N        3.979    -0.403    30.423     8.192
   111   7 N        5.669     0.619    12.763     5.306
   112   7 N        4.034    -0.500    33.302     8.571

 Mol. C6AA /au·bohr⁶  :     256246.169594
 Mol. C8AA /au·bohr⁸  :    7788870.954105
 Mol. α(0) /au        :        795.609843


Wiberg/Mayer (AO) data.
largest (>0.10) Wiberg bond orders for each atom

 ---------------------------------------------------------------------------
     #   Z sym  total        # sym  WBO       # sym  WBO       # sym  WBO
 ---------------------------------------------------------------------------
     1   7 N    3.524 --     2 C    1.011    28 H    0.900    54 B    0.528
                            27 H    0.343    90 N    0.182    88 N    0.132
                            75 B    0.101
     2   6 C    3.782 --     4 C    1.110     3 O    1.104     1 N    1.011
                            90 N    0.165
     3   8 O    2.416 --     2 C    1.104    58 B    0.612    55 B    0.297
     4   6 C    3.819 --     5 C    1.124    20 C    1.122     2 C    1.110
     5   6 C    3.610 --     7 C    1.212     4 C    1.124     6 Cl   0.836
                            89 N    0.100
     6  17 Cl   3.232 --     5 C    0.836    53 B    0.736    48 B    0.508
                            89 N    0.469    84 N    0.210    71 B    0.152
     7   6 C    3.721 --     5 C    1.212    17 C    1.123     8 N    0.771
     8   7 N    3.570 --    46 B    0.980     7 C    0.771    72 B    0.632
                            82 N    0.280    29 H    0.243     9 C    0.189
     9   6 C    3.731 --    10 C    1.006    82 N    0.797    15 C    0.505
                           106 N    0.296    46 B    0.294     8 N    0.189
                           108 N    0.156    70 B    0.116
    10   6 C    3.688 --     9 C    1.006    11 C    0.860    30 H    0.726
                            83 N    0.213    47 B    0.179    69 B    0.139
    11   6 C    3.891 --    12 C    1.213   105 N    1.047    10 C    0.860
                            83 N    0.213    31 H    0.118
    12   6 C    3.682 --    14 C    1.252    11 C    1.213    13 I    0.889
    13  53 I    1.035 --    12 C    0.889
    14   6 C    3.714 --    12 C    1.252    15 C    1.136    32 H    0.957
    15   6 C    3.635 --    14 C    1.136    16 F    0.720    82 N    0.522
                             9 C    0.505   106 N    0.200
    16   9 F    0.871 --    15 C    0.720
    17   6 C    3.532 --    19 C    1.248     7 C    1.123    18 F    0.757
    18   9 F    1.267 --    17 C    0.757    63 B    0.251
    19   6 C    3.779 --    20 C    1.280    17 C    1.248    33 H    0.746
                           100 N    0.123    64 B    0.103
    20   6 C    3.652 --    19 C    1.280     4 C    1.122    21 O    0.901
    21   8 O    2.504 --    20 C    0.901    22 C    0.658    76 B    0.279
                            52 B    0.143    50 B    0.113
    22   6 C    3.821 --    23 C    0.904    35 H    0.698    21 O    0.658
                            34 H    0.523    73 B    0.307    87 N    0.102
    23   6 C    3.853 --    22 C    0.904    36 H    0.880    24 O    0.440
                            25 C    0.268    85 N    0.226   109 N    0.210
                            38 H    0.163    73 B    0.112
    24   8 O    3.336 --   111 N    1.968    37 H    0.524    23 C    0.440
                            75 B    0.124
    25   6 C    3.936 --   109 N    1.603    26 O    0.717    38 H    0.461
                            39 H    0.310    23 C    0.268    73 B    0.211
    26   8 O    1.864 --    40 H    0.881    25 C    0.717
    27   1 H    0.745 --     1 N    0.343    52 B    0.182    54 B    0.117
    28   1 H    0.985 --     1 N    0.900
    29   1 H    0.698 --     8 N    0.243    46 B    0.150    63 B    0.123
                            99 N    0.109
    30   1 H    0.970 --    10 C    0.726    69 B    0.116
    31   1 H    0.847 --   105 N    0.588    11 C    0.118
    32   1 H    0.989 --    14 C    0.957
    33   1 H    0.958 --    19 C    0.746    64 B    0.165
    34   1 H    0.889 --    22 C    0.523    51 B    0.248
    35   1 H    0.962 --    22 C    0.698    49 B    0.147
    36   1 H    0.995 --    23 C    0.880
    37   1 H    0.983 --    24 O    0.524   111 N    0.187    75 B    0.135
    38   1 H    0.960 --    25 C    0.461    23 C    0.163
    39   1 H    0.910 --    25 C    0.310   109 N    0.188
    40   1 H    0.913 --    26 O    0.881
    41   5 B    3.642 --    77 N    2.914    47 B    0.260    67 B    0.154
                            65 B    0.154
    42   5 B    3.633 --    78 N    2.906    51 B    0.213    68 B    0.173
                            66 B    0.165
    43   5 B    3.591 --    79 N    2.990    57 B    0.172    66 B    0.162
                            65 B    0.154
    44   5 B    3.603 --    80 N    2.998    59 B    0.169    67 B    0.159
                            68 B    0.154
    45   5 B    3.634 --    81 N    3.078    69 B    0.201    61 B    0.143
    46   5 B    3.536 --    82 N    1.738     8 N    0.980     9 C    0.294
                            29 H    0.150
    47   5 B    3.584 --    83 N    2.680    41 B    0.260    10 C    0.179
                            70 B    0.137    69 B    0.106
    48   5 B    3.502 --    84 N    2.783     6 Cl   0.508
    49   5 B    3.542 --    85 N    2.591    62 B    0.219    75 B    0.156
                            35 H    0.147
    50   5 B    3.586 --    86 N    3.104    74 B    0.117    21 O    0.113
                            64 B    0.109
    51   5 B    3.623 --    87 N    2.617    34 H    0.248    42 B    0.213
                            73 B    0.187
    52   5 B    3.629 --    88 N    2.919    27 H    0.182    75 B    0.156
                            21 O    0.143
    53   5 B    3.484 --    89 N    2.683     6 Cl   0.736
    54   5 B    3.534 --    90 N    2.736     1 N    0.528    27 H    0.117
    55   5 B    3.477 --    91 N    3.125     3 O    0.297
    56   5 B    3.645 --    92 N    3.503    60 B    0.117
    57   5 B    3.704 --    93 N    3.485    43 B    0.172
    58   5 B    3.482 --    94 N    2.845     3 O    0.612
    59   5 B    3.611 --    95 N    3.348    44 B    0.169
    60   5 B    3.644 --    96 N    3.495    56 B    0.117
    61   5 B    3.695 --    97 N    3.533    45 B    0.143
    62   5 B    3.708 --    98 N    3.389    49 B    0.219
    63   5 B    3.455 --    99 N    2.880    18 F    0.251    29 H    0.123
    64   5 B    3.627 --   100 N    3.240    33 H    0.165    50 B    0.109
                            19 C    0.103
    65   5 B    3.474 --   101 N    2.836    43 B    0.154    41 B    0.154
    66   5 B    3.486 --   102 N    2.824    42 B    0.165    43 B    0.162
    67   5 B    3.468 --   103 N    2.835    44 B    0.159    41 B    0.154
    68   5 B    3.469 --   104 N    2.817    42 B    0.173    44 B    0.154
    69   5 B    2.779 --   105 N    1.631    45 B    0.201    10 C    0.139
                            30 H    0.116    47 B    0.106
    70   5 B    3.259 --   106 N    2.480    47 B    0.137     9 C    0.116
    71   5 B    3.447 --   107 N    3.031     6 Cl   0.152
    72   5 B    3.440 --   108 N    2.395     8 N    0.632
    73   5 B    2.917 --   109 N    1.391    22 C    0.307    25 C    0.211
                            51 B    0.187    87 N    0.122    23 C    0.112
    74   5 B    3.455 --   110 N    2.944    50 B    0.117
    75   5 B    2.720 --   111 N    1.395    49 B    0.156    52 B    0.156
                            37 H    0.135    24 O    0.124     1 N    0.101
                            85 N    0.100
    76   5 B    3.368 --   112 N    2.844    21 O    0.279
    77   7 N    3.592 --    41 B    2.914   103 N    0.150   101 N    0.144
    78   7 N    3.580 --    42 B    2.906   104 N    0.145   102 N    0.145
    79   7 N    3.611 --    43 B    2.990   102 N    0.149   101 N    0.147
    80   7 N    3.618 --    44 B    2.998   104 N    0.156   103 N    0.138
    81   7 N    3.626 --    45 B    3.078
    82   7 N    3.722 --    46 B    1.738     9 C    0.797    15 C    0.522
                             8 N    0.280
    83   7 N    3.649 --    47 B    2.680    10 C    0.213    11 C    0.213
    84   7 N    3.367 --    48 B    2.783     6 Cl   0.210
    85   7 N    3.520 --    49 B    2.591    23 C    0.226    75 B    0.100
    86   7 N    3.578 --    50 B    3.104
    87   7 N    3.445 --    51 B    2.617    73 B    0.122   110 N    0.110
                            22 C    0.102
    88   7 N    3.488 --    52 B    2.919     1 N    0.132
    89   7 N    3.392 --    53 B    2.683     6 Cl   0.469     5 C    0.100
    90   7 N    3.386 --    54 B    2.736     1 N    0.182     2 C    0.165
    91   7 N    3.217 --    55 B    3.125
    92   7 N    3.625 --    56 B    3.503    96 N    0.109
    93   7 N    3.639 --    57 B    3.485
    94   7 N    3.097 --    58 B    2.845
    95   7 N    3.526 --    59 B    3.348
    96   7 N    3.629 --    60 B    3.495    92 N    0.109
    97   7 N    3.679 --    61 B    3.533
    98   7 N    3.585 --    62 B    3.389
    99   7 N    3.293 --    63 B    2.880    29 H    0.109
   100   7 N    3.502 --    64 B    3.240    19 C    0.123
   101   7 N    3.340 --    65 B    2.836    79 N    0.147    77 N    0.144
   102   7 N    3.330 --    66 B    2.824    79 N    0.149    78 N    0.145
   103   7 N    3.358 --    67 B    2.835    77 N    0.150    80 N    0.138
   104   7 N    3.328 --    68 B    2.817    80 N    0.156    78 N    0.145
   105   7 N    3.551 --    69 B    1.631    11 C    1.047    31 H    0.588
   106   7 N    3.456 --    70 B    2.480     9 C    0.296    15 C    0.200
   107   7 N    3.395 --    71 B    3.031
   108   7 N    3.164 --    72 B    2.395     9 C    0.156
   109   7 N    3.748 --    25 C    1.603    73 B    1.391    23 C    0.210
                            39 H    0.188
   110   7 N    3.388 --    74 B    2.944    87 N    0.110
   111   7 N    3.781 --    24 O    1.968    75 B    1.395    37 H    0.187
   112   7 N    3.228 --    76 B    2.844
 ---------------------------------------------------------------------------

Topologies differ in total number of bonds
Writing topology from bond orders to xtbtopo.mol

molecular dipole:
                 x           y           z       tot (Debye)
 q only:       -7.783       2.318       0.526
   full:       -9.116       1.371      -1.181      23.623
molecular quadrupole (traceless):
                xx          xy          yy          xz          yz          zz
 q only:      -11.842     -39.507       9.214       1.269      28.350       2.629
  q+dip:       59.323     -67.669     -59.122     -10.368      23.518      -0.200
   full:       49.918     -67.299     -48.372     -13.321      25.695      -1.545


           -------------------------------------------------
          | TOTAL ENERGY              -21.588244004984 Eh   |
          | GRADIENT NORM             153.867792056011 Eh/α |
          | HOMO-LUMO GAP               0.080128581288 eV   |
           -------------------------------------------------

------------------------------------------------------------------------
 * finished run on 2026/08/31 at 18:36:10.288     
------------------------------------------------------------------------
 total:
 * wall-time:     0 d,  0 h,  0 min,  0.969 sec
 *  cpu-time:     0 d,  0 h,  0 min, 12.953 sec
 * ratio c/w:    13.368 speedup
 SCF:
 * wall-time:     0 d,  0 h,  0 min,  0.919 sec
 *  cpu-time:     0 d,  0 h,  0 min, 12.500 sec
 * ratio c/w:    13.602 speedup

normal termination of xtb
