      -----------------------------------------------------------      
     |                   =====================                   |     
     |                           x T B                           |     
     |                   =====================                   |     
     |                         S. Grimme                         |     
     |          Mulliken Center for Theoretical Chemistry        |     
     |                    University of Bonn                     |     
      -----------------------------------------------------------      

   * xtb version 6.7.1pre (5071a88) compiled by 'Marcel@Raven' on 2024-07-23

   xtb is free software: you can redistribute it and/or modify it under
   the terms of the GNU Lesser General Public License as published by
   the Free Software Foundation, either version 3 of the License, or
   (at your option) any later version.
   
   xtb is distributed in the hope that it will be useful,
   but WITHOUT ANY WARRANTY; without even the implied warranty of
   MERCHANTABILITY or FITNESS FOR A PARTICULAR PURPOSE.  See the
   GNU Lesser General Public License for more details.
   
   Cite this work as:
   * C. Bannwarth, E. Caldeweyher, S. Ehlert, A. Hansen, P. Pracht,
     J. Seibert, S. Spicher, S. Grimme, WIREs Comput. Mol. Sci., 2020, 11,
     e01493. DOI: 10.1002/wcms.1493
   
   for GFN2-xTB:
   * C. Bannwarth, S. Ehlert and S. Grimme., J. Chem. Theory Comput., 2019,
     15, 1652-1671. DOI: 10.1021/acs.jctc.8b01176
   for GFN1-xTB:
   * S. Grimme, C. Bannwarth, P. Shushkov, J. Chem. Theory Comput., 2017,
     13, 1989-2009. DOI: 10.1021/acs.jctc.7b00118
   for GFN0-xTB:
   * P. Pracht, E. Caldeweyher, S. Ehlert, S. Grimme, ChemRxiv, 2019, preprint.
     DOI: 10.26434/chemrxiv.8326202.v1
   for GFN-FF:
   * S. Spicher and S. Grimme, Angew. Chem. Int. Ed., 2020, 59, 15665-15673.
     DOI: 10.1002/anie.202004239
   
   for ALPB and GBSA implicit solvation:
   * S. Ehlert, M. Stahn, S. Spicher, S. Grimme, J. Chem. Theory Comput.,
     2021, 17, 4250-4261. DOI: 10.1021/acs.jctc.1c00471
   
   for ddCOSMO and CPCM-X implicit solvation:
   * M. Stahn, S. Ehlert, S. Grimme, J. Phys. Chem. A,
     2023, XX, XXXX-XXXX. DOI: 10.1021/acs.jpca.3c04382
   
   for DFT-D4:
   * E. Caldeweyher, C. Bannwarth and S. Grimme, J. Chem. Phys., 2017,
     147, 034112. DOI: 10.1063/1.4993215
   * E. Caldeweyher, S. Ehlert, A. Hansen, H. Neugebauer, S. Spicher,
     C. Bannwarth and S. Grimme, J. Chem. Phys., 2019, 150, 154122.
     DOI: 10.1063/1.5090222
   * E. Caldeweyher, J.-M. Mewes, S. Ehlert and S. Grimme, Phys. Chem. Chem. Phys.
     2020, 22, 8499-8512. DOI: 10.1039/D0CP00502A
   
   for sTDA-xTB:
   * S. Grimme and C. Bannwarth, J. Chem. Phys., 2016, 145, 054103.
     DOI: 10.1063/1.4959605
   
   in the mass-spec context:
   * V. Asgeirsson, C. Bauer and S. Grimme, Chem. Sci., 2017, 8, 4879.
     DOI: 10.1039/c7sc00601b
   * J. Koopman and S. Grimme, ACS Omega 2019, 4, 12, 15120-15133.
     DOI: 10.1021/acsomega.9b02011
   
   for metadynamics refer to:
   * S. Grimme, J. Chem. Theory Comput., 2019, 155, 2847-2862
     DOI: 10.1021/acs.jctc.9b00143
   
   for SPH calculations refer to:
   * S. Spicher and S. Grimme, J. Chem. Theory Comput., 2021, 17, 1701-1714
     DOI: 10.1021/acs.jctc.0c01306
   
   for ONIOM refer to:
   * C. Plett, A. Katbashev, S. Ehlert, S. Grimme, M. Bursch,
     Phys. Chem. Chem. Phys., 2023, 25, 17860-17868. DOI: 10.1039/D3CP02178E
   
   for DIPRO refer to:
   * J. Kohn, N. Gildemeister, S. Grimme, D. Fazzi, A. Hansen,
     J. Chem. Phys., 2023, just accepted.
   
   for PTB refer to:
   * S. Grimme, M. Mueller, A. Hansen, J. Chem. Phys., 2023, 158, 124111.
     DOI: 10.1063/5.0137838
   
   with help from (in alphabetical order)
   P. Atkinson, C. Bannwarth, F. Bohle, G. Brandenburg, E. Caldeweyher
   M. Checinski, S. Dohm, S. Ehlert, S. Ehrlich, I. Gerasimov, C. Hölzer
   A. Katbashev, J. Kohn, J. Koopman, C. Lavigne, S. Lehtola, F. März, M. Müller,
   F. Musil, H. Neugebauer, J. Pisarek, C. Plett, P. Pracht, F. Pultar,
   J. Seibert, P. Shushkov, S. Spicher, M. Stahn, M. Steiner, T. Strunk,
   J. Stückrath, T. Rose, and J. Unsleber
   
 * started run on 2026/08/31 at 21:13:38.712     
   ID    Z sym.   atoms
    1    7 N      1, 8, 42, 44, 46, 48, 50, 52, 54, 56, 58, 60, 62, 64, 66,
                  68, 70, 72, 74, 76, 78, 80, 82, 84, 86, 88, 90, 92, 94, 96,
                  98, 100, 102, 104, 106, 108, 110, 112
    2    6 C      2, 4, 5, 7, 9-12, 14, 15, 17, 19, 20, 22, 23, 25
    3    8 O      3, 21, 24, 26
    4   17 Cl     6
    5   53 I      13
    6    9 F      16, 18
    7    1 H      27-40
    8    5 B      41, 43, 45, 47, 49, 51, 53, 55, 57, 59, 61, 63, 65, 67, 69,
                  71, 73, 75, 77, 79, 81, 83, 85, 87, 89, 91, 93, 95, 97, 99,
                  101, 103, 105, 107, 109, 111

           -------------------------------------------------
          |                Calculation Setup                |
           -------------------------------------------------

          program call               : "c:\Users\Andre\Proyectos doctorado\kras-pancreatic-gC3N4-ai\tools\xtb\xtb-6.7.1\bin\xtb.exe" "c:\Users\Andre\Proyectos doctorado\nano-qsar-ai-therapeutics\calculations\tnbc\Selumetinib\Selumetinib_B36N36_phys_complex.xyz" --gfn 2 --sp --chrg 0 --uhf 0 --etemp 300 --iterations 500 --norestart
          coordinate file            : c:\Users\Andre\Proyectos doctorado\nano-qsar-ai-therapeutics\calculations\tnbc\Selumetinib\Selumetinib_B36N36_phys_complex.xyz
          omp threads                :                    16


molecular fragmentation (1/2 indicates fragments):
111111111111111111111111111111111111111122222222222222222222222222222222
2222222222222222222222222222222222222222
# atoms in fragment 1/2:    40    72
 fragment masses (1/2) :      498.65      893.44
CMA distance (Bohr)    :  22.521
constraining FC (au)   :  0.0500

           -------------------------------------------------
          |                 G F N 2 - x T B                 |
           -------------------------------------------------

        Reference                      10.1021/acs.jctc.8b01176
      * Hamiltonian:
        H0-scaling (s, p, d)           1.850000    2.230000    2.230000
        zeta-weighting                 0.500000
      * Dispersion:
        s8                             2.700000
        a1                             0.520000
        a2                             5.000000
        s9                             5.000000
      * Repulsion:
        kExp                           1.500000    1.000000
        rExp                           1.000000
      * Coulomb:
        alpha                          2.000000
        third order                    shell-resolved
        anisotropic                    true
        a3                             3.000000
        a5                             4.000000
        cn-shift                       1.200000
        cn-exp                         4.000000
        max-rad                        5.000000


          ...................................................
          :                      SETUP                      :
          :.................................................:
          :  # basis functions                 418          :
          :  # atomic orbitals                 416          :
          :  # shells                          212          :
          :  # electrons                       428          :
          :  max. iterations                   500          :
          :  Hamiltonian                  GFN2-xTB          :
          :  restarted?                      false          :
          :  GBSA solvation                  false          :
          :  PC potential                    false          :
          :  electronic temp.          300.0000000     K    :
          :  accuracy                    1.0000000          :
          :  -> integral cutoff          0.2500000E+02      :
          :  -> integral neglect         0.1000000E-07      :
          :  -> SCF convergence          0.1000000E-05 Eh   :
          :  -> wf. convergence          0.1000000E-03 e    :
          :  Broyden damping             0.4000000          :
          :  net charge                          0          :
          :  unpaired electrons                  0          :
          ...................................................

 iter      E             dE          RMSdq      gap      omega  full diag
   1   -232.7633501 -0.232763E+03  0.116E+01    0.53       0.0  T
   2   -233.2135933 -0.450243E+00  0.705E+00    0.42       1.0  T
   3   -229.9132181  0.330038E+01  0.468E+00    0.19       1.0  T
   4   -231.5255821 -0.161236E+01  0.273E+00    0.10       1.0  T
   5   -233.1182520 -0.159267E+01  0.163E+00    0.15       1.0  T
   6   -233.2507887 -0.132537E+00  0.137E+00    0.13       1.0  T
   7   -233.6789937 -0.428205E+00  0.787E-01    0.80       1.0  T
   8   -233.7088075 -0.298138E-01  0.626E-01    0.73       1.0  T
   9   -233.7079004  0.907131E-03  0.547E-01    0.82       1.0  T
  10   -233.7104381 -0.253776E-02  0.356E-01    0.78       1.0  T
  11   -233.7176521 -0.721400E-02  0.147E-01    0.68       1.0  T
  12   -233.7187342 -0.108207E-02  0.125E-01    0.64       1.0  T
  13   -233.7188794 -0.145184E-03  0.949E-02    0.65       1.0  T
  14   -233.7189380 -0.586151E-04  0.509E-02    0.66       1.0  T
  15   -233.7190657 -0.127734E-03  0.255E-02    0.69       1.0  T
  16   -233.7190843 -0.185795E-04  0.198E-02    0.69       1.0  T
  17   -233.7190894 -0.512273E-05  0.127E-02    0.69       1.0  T
  18   -233.7190984 -0.893394E-05  0.818E-03    0.68       1.2  T
  19   -233.7190995 -0.107819E-05  0.539E-03    0.68       1.8  T
  20   -233.7190994  0.423864E-07  0.320E-03    0.68       2.9  T
  21   -233.7191003 -0.876459E-06  0.213E-03    0.68       4.4  T
  22   -233.7191006 -0.269849E-06  0.143E-03    0.68       6.6  T
  23   -233.7191007 -0.997388E-07  0.925E-04    0.68      10.2  T
  24   -233.7191007 -0.170551E-07  0.606E-04    0.68      15.6  T

   *** convergence criteria satisfied after 24 iterations ***

         #    Occupation            Energy/Eh            Energy/eV
      -------------------------------------------------------------
         1        2.0000           -1.0482608             -28.5246
       ...           ...                  ...                  ...
       208        2.0000           -0.3266562              -8.8888
       209        2.0000           -0.3238893              -8.8135
       210        2.0000           -0.3225822              -8.7779
       211        2.0000           -0.3199303              -8.7057
       212        2.0000           -0.3145659              -8.5598
       213        2.0000           -0.3127599              -8.5106
       214        2.0000           -0.3076263              -8.3709 (HOMO)
       215        0.0000           -0.2826379              -7.6910 (LUMO)
       216                         -0.2741671              -7.4605
       217                         -0.2739948              -7.4558
       218                         -0.2654996              -7.2246
       219                         -0.2638012              -7.1784
       ...                                ...                  ...
       416                          0.9843861              26.7865
      -------------------------------------------------------------
                  HL-Gap            0.0249883 Eh            0.6800 eV
             Fermi-level           -0.2951298 Eh           -8.0309 eV

 SCC (total)                   0 d,  0 h,  0 min,  0.707 sec
 SCC setup                      ...        0 min,  0.001 sec (  0.141%)
 Dispersion                     ...        0 min,  0.005 sec (  0.707%)
 classical contributions        ...        0 min,  0.000 sec (  0.000%)
 integral evaluation            ...        0 min,  0.012 sec (  1.697%)
 iterations                     ...        0 min,  0.658 sec ( 93.069%)
 molecular gradient             ...        0 min,  0.028 sec (  3.960%)
 printout                       ...        0 min,  0.003 sec (  0.424%)

         :::::::::::::::::::::::::::::::::::::::::::::::::::::
         ::                     SUMMARY                     ::
         :::::::::::::::::::::::::::::::::::::::::::::::::::::
         :: total energy            -231.536376028082 Eh    ::
         :: gradient norm              0.078397408928 Eh/a0 ::
         :: HOMO-LUMO gap              0.679966920037 eV    ::
         ::.................................................::
         :: SCC energy              -233.704448134186 Eh    ::
         :: -> isotropic ES            0.762941663999 Eh    ::
         :: -> anisotropic ES         -0.029925883352 Eh    ::
         :: -> anisotropic XC          0.063817887257 Eh    ::
         :: -> dispersion             -0.192050144996 Eh    ::
         :: repulsion energy           2.168072106104 Eh    ::
         :: add. restraining           0.000000000000 Eh    ::
         :: total charge               0.000000000002 e     ::
         :::::::::::::::::::::::::::::::::::::::::::::::::::::

           -------------------------------------------------
          |                Property Printout                |
           -------------------------------------------------

    * Orbital Energies and Occupations

         #    Occupation            Energy/Eh            Energy/eV
      -------------------------------------------------------------
         1        2.0000           -1.0482608             -28.5246
       ...           ...                  ...                  ...
       202        2.0000           -0.3392865              -9.2325
       203        2.0000           -0.3377997              -9.1920
       204        2.0000           -0.3340979              -9.0913
       205        2.0000           -0.3318021              -9.0288
       206        2.0000           -0.3291021              -8.9553
       207        2.0000           -0.3281022              -8.9281
       208        2.0000           -0.3266562              -8.8888
       209        2.0000           -0.3238893              -8.8135
       210        2.0000           -0.3225822              -8.7779
       211        2.0000           -0.3199303              -8.7057
       212        2.0000           -0.3145659              -8.5598
       213        2.0000           -0.3127599              -8.5106
       214        2.0000           -0.3076263              -8.3709 (HOMO)
       215        0.0000           -0.2826379              -7.6910 (LUMO)
       216                         -0.2741671              -7.4605
       217                         -0.2739948              -7.4558
       218                         -0.2654996              -7.2246
       219                         -0.2638012              -7.1784
       220                         -0.2504310              -6.8146
       221                         -0.2492802              -6.7833
       222                         -0.2446742              -6.6579
       223                         -0.2410560              -6.5595
       224                         -0.2341071              -6.3704
       225                         -0.2299510              -6.2573
       ...                                ...                  ...
       416                          0.9843861              26.7865
      -------------------------------------------------------------
                  HL-Gap            0.0249883 Eh            0.6800 eV
             Fermi-level           -0.2951298 Eh           -8.0309 eV

     #   Z          covCN         q      C6AA      α(0)
     1   7 N        2.636    -0.267    26.923     7.706
     2   6 C        2.750     0.294    22.004     7.681
     3   8 O        0.859    -0.426    22.200     6.317
     4   6 C        2.985    -0.043    29.067     8.844
     5   6 C        2.878     0.084    26.137     8.381
     6  17 Cl       0.944    -0.095   102.093    15.458
     7   6 C        2.920     0.042    27.055     8.530
     8   7 N        2.688    -0.151    24.258     7.315
     9   6 C        2.891     0.058    26.698     8.471
    10   6 C        2.916    -0.051    29.256     8.870
    11   6 C        3.059    -0.041    28.949     8.823
    12   6 C        2.951     0.049    26.897     8.506
    13  53 I        1.263    -0.113   380.294    33.664
    14   6 C        3.062    -0.055    29.294     8.876
    15   6 C        2.782     0.148    24.779     8.153
    16   9 F        0.787    -0.219    11.438     3.995
    17   6 C        2.779     0.149    24.748     8.148
    18   9 F        0.787    -0.206    11.299     3.971
    19   6 C        2.909    -0.077    29.930     8.971
    20   6 C        2.887     0.135    25.047     8.205
    21   8 O        1.701    -0.288    18.783     5.851
    22   6 C        3.713     0.072    19.502     6.310
    23   6 C        3.721     0.104    18.981     6.222
    24   8 O        1.651    -0.446    21.763     6.298
    25   6 C        3.674     0.064    19.739     6.367
    26   8 O        1.652    -0.445    21.739     6.294
    27   1 H        0.860     0.211     1.052     1.607
    28   1 H        0.860     0.204     1.084     1.631
    29   1 H        0.859     0.195     1.132     1.666
    30   1 H        0.925     0.059     2.206     2.323
    31   1 H        0.925     0.060     2.197     2.318
    32   1 H        0.925     0.072     2.059     2.244
    33   1 H        0.925     0.088     1.897     2.154
    34   1 H        0.924     0.037     2.493     2.469
    35   1 H        0.924     0.053     2.284     2.363
    36   1 H        0.924     0.059     2.214     2.327
    37   1 H        0.803     0.315     0.677     1.292
    38   1 H        0.924     0.042     2.427     2.436
    39   1 H        0.924     0.030     2.588     2.516
    40   1 H        0.804     0.298     0.727     1.340
    41   5 B        2.781     0.076    20.191     7.513
    42   7 N        2.774    -0.227    25.965     7.568
    43   5 B        2.788     0.092    19.930     7.463
    44   7 N        2.524    -0.314    28.125     7.876
    45   5 B        2.779     0.083    20.083     7.493
    46   7 N        2.655    -0.271    27.009     7.719
    47   5 B        2.849     0.241    17.668     7.019
    48   7 N        2.529    -0.272    27.083     7.729
    49   5 B        3.195     0.150    18.931     7.256
    50   7 N        2.979    -0.110    23.398     7.184
    51   5 B        2.644     0.373    16.325     6.814
    52   7 N        2.669    -0.213    25.634     7.520
    53   5 B        3.181     0.022    20.995     7.642
    54   7 N        2.888    -0.221    25.811     7.546
    55   5 B        3.009     0.209    18.075     7.092
    56   7 N        2.660    -0.163    24.531     7.356
    57   5 B        2.906     0.320    16.606     6.800
    58   7 N        3.156    -0.082    22.823     7.095
    59   5 B        2.779     0.094    19.914     7.462
    60   7 N        3.037    -0.125    23.711     7.232
    61   5 B        2.758     0.090    20.009     7.484
    62   7 N        2.634    -0.310    27.977     7.856
    63   5 B        3.040     0.227    17.827     7.043
    64   7 N        2.981    -0.001    21.282     6.852
    65   5 B        2.582     0.325    17.313     7.088
    66   7 N        2.596    -0.360    29.284     8.037
    67   5 B        3.287     0.340    16.340     6.741
    68   7 N        2.784    -0.252    26.554     7.653
    69   5 B        2.559     0.319    17.605     7.187
    70   7 N        2.579    -0.369    29.527     8.070
    71   5 B        2.530     0.301    18.226     7.377
    72   7 N        2.665    -0.205    25.460     7.494
    73   5 B        2.698     0.196    18.503     7.219
    74   7 N        2.844    -0.167    24.610     7.368
    75   5 B        2.758     0.082    20.133     7.508
    76   7 N        2.672    -0.174    24.769     7.392
    77   5 B        2.877     0.110    19.575     7.385
    78   7 N        2.663    -0.145    24.137     7.297
    79   5 B        2.594     0.312    17.391     7.086
    80   7 N        2.519    -0.354    29.170     8.021
    81   5 B        2.684     0.184    18.720     7.268
    82   7 N        3.008    -0.127    23.748     7.238
    83   5 B        2.677     0.210    18.360     7.202
    84   7 N        2.716    -0.249    26.480     7.643
    85   5 B        2.647     0.164    19.166     7.380
    86   7 N        2.825    -0.206    25.479     7.497
    87   5 B        3.321     0.230    17.778     7.031
    88   7 N        2.531    -0.286    27.408     7.775
    89   5 B        2.950     0.036    20.778     7.605
    90   7 N        2.783    -0.186    25.016     7.428
    91   5 B        2.796     0.085    20.041     7.482
    92   7 N        2.673    -0.156    24.371     7.332
    93   5 B        3.021     0.211    18.049     7.087
    94   7 N        3.272     0.015    20.983     6.803
    95   5 B        2.869     0.306    16.795     6.841
    96   7 N        3.154    -0.116    23.516     7.202
    97   5 B        3.263     0.320    16.585     6.792
    98   7 N        2.833    -0.061    22.415     7.032
    99   5 B        3.303     0.231    17.763     7.028
   100   7 N        2.656    -0.182    24.956     7.419
   101   5 B        2.838     0.112    19.568     7.387
   102   7 N        2.834    -0.224    25.889     7.557
   103   5 B        2.863     0.253    17.503     6.984
   104   7 N        2.654    -0.230    26.046     7.580
   105   5 B        3.011     0.114    19.489     7.364
   106   7 N        3.153    -0.086    22.910     7.109
   107   5 B        2.674     0.202    18.493     7.230
   108   7 N        2.696    -0.232    26.068     7.583
   109   5 B        2.585     0.369    16.725     6.963
   110   7 N        2.881    -0.180    24.886     7.409
   111   5 B        2.825     0.106    19.670     7.408
   112   7 N        2.827    -0.253    26.557     7.654

 Mol. C6AA /au·bohr⁶  :     248142.246200
 Mol. C8AA /au·bohr⁸  :    7435557.141584
 Mol. α(0) /au        :        783.763199


Wiberg/Mayer (AO) data.
largest (>0.10) Wiberg bond orders for each atom

 ---------------------------------------------------------------------------
     #   Z sym  total        # sym  WBO       # sym  WBO       # sym  WBO
 ---------------------------------------------------------------------------
     1   7 N    3.366 --     2 C    1.256    28 H    0.937    27 H    0.925
                             3 O    0.203
     2   6 C    3.958 --     3 O    1.680     1 N    1.256     4 C    0.982
     3   8 O    2.006 --     2 C    1.680     1 N    0.203
     4   6 C    3.982 --     5 C    1.367    20 C    1.343     2 C    0.982
     5   6 C    3.933 --     4 C    1.367     7 C    1.334     6 Cl   1.022
     6  17 Cl   1.185 --     5 C    1.022
     7   6 C    3.974 --     5 C    1.334    17 C    1.331     8 N    1.078
     8   7 N    3.356 --     9 C    1.098     7 C    1.078    29 H    0.925
     9   6 C    3.969 --    10 C    1.368    15 C    1.308     8 N    1.098
    10   6 C    3.987 --    11 C    1.440     9 C    1.368    30 H    0.965
    11   6 C    3.988 --    10 C    1.440    12 C    1.415    31 H    0.969
    12   6 C    3.948 --    11 C    1.415    14 C    1.404    13 I    0.984
    13  53 I    1.091 --    12 C    0.984
    14   6 C    3.984 --    15 C    1.415    12 C    1.404    32 H    0.965
    15   6 C    3.878 --    14 C    1.415     9 C    1.308    16 F    0.960
    16   9 F    1.095 --    15 C    0.960
    17   6 C    3.885 --    19 C    1.400     7 C    1.331    18 F    0.971
    18   9 F    1.108 --    17 C    0.971
    19   6 C    3.982 --    17 C    1.400    20 C    1.388    33 H    0.960
    20   6 C    3.946 --    19 C    1.388     4 C    1.343    21 O    1.020
    21   8 O    2.118 --    20 C    1.020    22 C    0.944
    22   6 C    3.946 --    23 C    0.991    34 H    0.970    35 H    0.968
                            21 O    0.944
    23   6 C    3.964 --    24 O    0.991    22 C    0.991    25 C    0.987
                            36 H    0.959
    24   8 O    1.941 --    23 C    0.991    37 H    0.881
    25   6 C    3.958 --    26 O    0.991    23 C    0.987    39 H    0.972
                            38 H    0.972
    26   8 O    1.945 --    25 C    0.991    40 H    0.898
    27   1 H    0.956 --     1 N    0.925
    28   1 H    0.957 --     1 N    0.937
    29   1 H    0.961 --     8 N    0.925
    30   1 H    0.996 --    10 C    0.965
    31   1 H    0.996 --    11 C    0.969
    32   1 H    0.994 --    14 C    0.965
    33   1 H    0.991 --    19 C    0.960
    34   1 H    0.999 --    22 C    0.970
    35   1 H    0.997 --    22 C    0.968
    36   1 H    0.996 --    23 C    0.959
    37   1 H    0.900 --    24 O    0.881
    38   1 H    0.998 --    25 C    0.972
    39   1 H    0.999 --    25 C    0.972
    40   1 H    0.911 --    26 O    0.898
    41   5 B    3.477 --   110 N    1.282    93 B    1.000    87 B    0.970
    42   7 N    3.398 --    87 B    1.143   100 N    1.007    99 B    1.001
    43   5 B    3.464 --    88 N    1.276   111 B    0.978    99 B    0.958
    44   7 N    3.530 --   103 B    1.152   101 B    1.150    71 B    1.018
    45   5 B    3.464 --    78 N    1.241   107 B    0.996    81 B    0.990
    46   7 N    3.263 --    67 B    1.200   109 B    0.967   104 N    0.888
    47   5 B    3.408 --    80 N    1.176    54 N    1.034    63 B    0.963
    48   7 N    3.568 --    61 B    1.277    49 B    1.158   105 B    0.973
    49   5 B    3.393 --    48 N    1.158    91 B    0.932    89 B    0.640
                            53 B    0.294
    50   7 N    3.323 --    55 B    1.113    94 N    1.043   106 N    0.945
    51   5 B    3.433 --    52 N    1.187    62 N    1.127    90 N    0.961
    52   7 N    3.445 --    51 B    1.187    79 B    1.086    92 N    0.967
    53   5 B    3.456 --    89 B    1.284   105 B    1.004   103 B    0.626
                            49 B    0.294
    54   7 N    3.430 --    57 B    1.233    47 B    1.034    68 N    0.929
    55   5 B    3.390 --    50 N    1.113    74 N    1.038   101 B    1.005
    56   7 N    3.510 --    59 B    1.206    79 B    1.123    76 N    0.999
    57   5 B    3.514 --    54 N    1.233    82 N    1.073   102 N    1.000
    58   7 N    3.350 --   107 B    1.142   110 N    0.990    60 N    0.983
    59   5 B    3.414 --    56 N    1.206    77 B    1.008    91 B    0.926
    60   7 N    3.328 --    95 B    1.136    58 N    0.983    64 N    0.974
    61   5 B    3.464 --    48 N    1.277    75 B    0.978    85 B    0.932
    62   7 N    3.217 --    51 B    1.127    65 B    1.066    90 N    0.792
    63   5 B    3.368 --    76 N    1.151    68 N    0.992    47 B    0.963
    64   7 N    3.097 --    82 N    1.013    60 N    0.974   108 N    0.938
    65   5 B    3.511 --   102 N    1.247    62 N    1.066    80 N    0.989
    66   7 N    3.433 --    71 B    1.202    99 B    1.062    87 B    0.925
    67   5 B    3.481 --    46 N    1.200    84 N    1.042    70 N    0.981
    68   7 N    3.283 --    73 B    1.169    63 B    0.992    54 N    0.929
    69   5 B    3.524 --   104 N    1.210   108 N    1.121    96 N    1.034
    70   7 N    3.430 --    83 B    1.220    97 B    0.993    67 B    0.981
    71   5 B    3.520 --    66 N    1.202   112 N    1.099    44 N    1.018
    72   7 N    3.442 --   109 B    1.261    83 B    0.997    98 N    0.990
    73   5 B    3.445 --    68 N    1.169   100 N    1.123   111 B    0.923
    74   7 N    3.469 --    75 B    1.260    55 B    1.038   106 N    0.984
    75   5 B    3.421 --    74 N    1.260    61 B    0.978    83 B    0.959
    76   7 N    3.511 --   111 B    1.171    63 B    1.151    56 N    0.999
    77   5 B    3.347 --    89 B    1.009    59 B    1.008    88 N    0.963
    78   7 N    3.508 --    45 B    1.241    81 B    1.093    84 N    1.035
    79   5 B    3.515 --    56 N    1.123    80 N    1.104    52 N    1.086
    80   7 N    3.477 --    47 B    1.176    79 B    1.104    65 B    0.989
    81   5 B    3.464 --    86 N    1.180    78 N    1.093    45 B    0.990
    82   7 N    3.263 --    57 B    1.073    64 N    1.013    96 N    0.975
    83   5 B    3.391 --    70 N    1.220    72 N    0.997    75 B    0.959
    84   7 N    3.371 --    67 B    1.042    78 N    1.035    97 B    0.985
    85   5 B    3.453 --    98 N    1.190    92 N    1.079    61 B    0.932
    86   7 N    3.406 --    81 B    1.180    93 B    1.072    94 N    0.959
    87   5 B    3.365 --    42 N    1.143    41 B    0.970    66 N    0.925
                            99 B    0.127
    88   7 N    3.561 --    43 B    1.276   103 B    1.105    77 B    0.963
    89   5 B    3.367 --    53 B    1.284    77 B    1.009    49 B    0.640
                           103 B    0.186
    90   7 N    2.986 --    98 N    1.045    51 B    0.961    62 N    0.792
    91   5 B    3.455 --    92 N    1.265    49 B    0.932    59 B    0.926
    92   7 N    3.480 --    91 B    1.265    85 B    1.079    52 N    0.967
    93   5 B    3.442 --   112 N    1.131    86 N    1.072    41 B    1.000
    94   7 N    3.186 --    50 N    1.043    86 N    0.959   112 N    0.950
    95   5 B    3.523 --   100 N    1.163    60 N    1.136   110 N    0.993
    96   7 N    3.217 --    69 B    1.034   102 N    0.984    82 N    0.975
    97   5 B    3.507 --   106 N    1.265    70 N    0.993    84 N    0.985
    98   7 N    3.439 --    85 B    1.190    90 N    1.045    72 N    0.990
    99   5 B    3.327 --    66 N    1.062    42 N    1.001    43 B    0.958
                            87 B    0.127
   100   7 N    3.491 --    95 B    1.163    73 B    1.123    42 N    1.007
   101   5 B    3.386 --    44 N    1.150    55 B    1.005   105 B    1.002
   102   7 N    3.446 --    65 B    1.247    57 B    1.000    96 N    0.984
   103   5 B    3.443 --    44 N    1.152    88 N    1.105    53 B    0.626
                            89 B    0.186   105 B    0.120
   104   7 N    3.332 --    69 B    1.210   109 B    1.036    46 N    0.888
   105   5 B    3.334 --    53 B    1.004   101 B    1.002    48 N    0.973
                           103 B    0.120
   106   7 N    3.440 --    97 B    1.265    74 N    0.984    50 N    0.945
   107   5 B    3.446 --    58 N    1.142   108 N    1.116    45 B    0.996
   108   7 N    3.394 --    69 B    1.121   107 B    1.116    64 N    0.938
   109   5 B    3.439 --    72 N    1.261   104 N    1.036    46 N    0.967
   110   7 N    3.475 --    41 B    1.282    95 B    0.993    58 N    0.990
   111   5 B    3.359 --    76 N    1.171    43 B    0.978    73 B    0.923
   112   7 N    3.417 --    93 B    1.131    71 B    1.099    94 N    0.950
 ---------------------------------------------------------------------------

Topologies differ in total number of bonds
Writing topology from bond orders to xtbtopo.mol

molecular dipole:
                 x           y           z       tot (Debye)
 q only:       -0.608       2.028      -3.198
   full:       -3.056       1.068      -0.988       8.603
molecular quadrupole (traceless):
                xx          xy          yy          xz          yz          zz
 q only:      -35.456     -10.894     -19.366     -81.448      -5.629      54.822
  q+dip:      -39.606     -22.246       1.122    -124.647      -5.048      38.484
   full:      -35.092     -20.510      -2.418    -120.881      -3.612      37.509


           -------------------------------------------------
          | TOTAL ENERGY             -231.536376028082 Eh   |
          | GRADIENT NORM               0.078397408928 Eh/α |
          | HOMO-LUMO GAP               0.679966920037 eV   |
           -------------------------------------------------

------------------------------------------------------------------------
 * finished run on 2026/08/31 at 21:13:39.500     
------------------------------------------------------------------------
 total:
 * wall-time:     0 d,  0 h,  0 min,  0.787 sec
 *  cpu-time:     0 d,  0 h,  0 min,  8.219 sec
 * ratio c/w:    10.443 speedup
 SCF:
 * wall-time:     0 d,  0 h,  0 min,  0.708 sec
 *  cpu-time:     0 d,  0 h,  0 min,  7.875 sec
 * ratio c/w:    11.123 speedup

normal termination of xtb
