44
Niraparib GFN2 opt
C      -5.68163675      0.98419407      0.88837098
C      -4.20903462      0.62704390      1.07832010
C      -3.45744830      0.74534294     -0.25567921
C      -4.17455085     -0.12071456     -1.31645570
N      -5.57456610      0.20698465     -1.46957781
C      -6.28894456      0.10541895     -0.21087030
C      -2.01412736      0.35619950     -0.12092265
C      -1.64566519     -0.92254303      0.28553479
C      -0.31921355     -1.28387662      0.40849860
C       0.68336212     -0.36137937      0.12417214
C       0.32799563      0.92025742     -0.28660731
C      -1.00236772      1.26669905     -0.40627535
N       2.04043386     -0.68647963      0.24336711
C       2.57869070     -1.86746415      0.60682565
C       3.95857126     -1.70694955      0.58614927
C       5.05812665     -2.53877852      0.85818773
C       6.31100198     -2.00863050      0.72629344
C       6.50080040     -0.67146053      0.33009016
C       5.45669591      0.17929732      0.05314651
C       4.14833406     -0.34371383      0.18233590
N       2.96474633      0.24156082     -0.01635033
C       5.75516358      1.57956266     -0.35953368
O       6.89067783      2.00439636     -0.46343824
N       4.66368648      2.33368230     -0.60661239
H      -6.22645860      0.84192591      1.82276321
H      -5.77104901      2.03569512      0.60160958
H      -3.74967214      1.28832527      1.81696690
H      -4.13335867     -0.39594691      1.45192399
H      -3.50936383      1.79048087     -0.58514172
H      -4.11472481     -1.17460320     -1.03078697
H      -3.68220092     -0.00214002     -2.28494135
H      -5.66829191      1.14980412     -1.83733719
H      -7.33247183      0.37610995     -0.38634461
H      -6.25532689     -0.94358998      0.09955982
H      -2.40405437     -1.65608359      0.51283169
H      -0.07719717     -2.28468562      0.72822765
H       1.10690882      1.63194505     -0.50636094
H      -1.25865745      2.26649929     -0.72544746
H       1.99242539     -2.72803345      0.85041403
H       4.90089914     -3.56313820      1.16172430
H       7.17980517     -2.61737759      0.92737734
H       7.50234637     -0.27870923      0.23379491
H       3.74202525      1.93420469     -0.50543151
H       4.78768569      3.29066786     -0.88991252
