72
carrier @complex
B       0.30375558     -4.25088135      0.80660927
N       0.05195270     -4.50336027      2.21680310
B      -1.30644673     -4.29516130      1.73268154
N      -1.04977370     -4.42159555      0.30391339
N      -4.44248914     -0.90805581     -0.44292905
B      -4.63365200     -0.85251301      1.00178126
N      -4.85495585      0.58009257      1.13662976
B      -4.30202121      0.52021119     -0.20641113
B      -1.52023412     -3.31178382     -0.45510976
N      -2.76310558     -2.67700592     -0.04981224
B      -3.22870810     -1.54246053     -0.83110962
N      -2.30697381     -0.80800398     -1.68916978
B      -1.07133640     -1.47377289     -2.07177350
N      -0.57054426     -2.60597392     -1.30625931
N       1.34225406      0.77743957     -2.43518471
B       1.18097577     -0.66669957     -2.35252707
N      -0.15794066     -0.77194962     -2.91178333
B      -0.09504609      0.65517585     -2.63402948
B      -3.53529680     -1.00239880      3.17838857
N      -3.93449732     -1.65061615      1.93233073
B      -3.07341088     -2.67068274      1.37537975
N      -2.23900379     -3.40413286      2.30502931
B      -1.84251586     -2.74584548      3.54526755
N      -2.73692811     -1.76508091      4.10792449
N      -0.87550328     -1.16817782      5.72305921
B      -0.95727815      0.26007843      5.55419658
N      -2.38507552      0.39165747      5.40447894
B      -2.35437955     -1.11991000      5.37365463
N      -1.06997070      1.37560761     -1.90598825
B      -2.26647264      0.63797807     -1.53492164
N      -3.21806964      1.30665872     -0.66807813
B      -2.73042088      2.31741947      0.25353734
N      -1.53242581      3.04573004     -0.13297886
B      -0.56882184      2.38985348     -0.99610531
B       2.05502529     -2.63886726      1.30462119
N       1.23101313     -3.30163936      0.31115884
B       0.81134466     -2.54985167     -0.85744888
N       1.67866217     -1.47097554     -1.30041670
B       2.50911170     -0.79702331     -0.31933266
N       2.91688695     -1.56145874      0.84599806
N      -3.16938540      2.31906629      1.63756282
B      -3.98100772      1.19086989      2.08427452
N      -3.62847806      0.44966055      3.27877858
B      -2.72475280      1.08796392      4.22568728
N      -1.89862588      2.22602542      3.81775466
B      -2.28748151      2.93858512      2.61579574
B      -0.06959691      3.86349868      2.44396478
N       0.41985866      4.11335292      1.09547405
B      -1.00135527      3.92718651      0.83741423
N      -1.49202780      4.05007438      2.20110277
N       2.58860459      0.65593131     -0.30280340
B       1.69391092      1.38126828     -1.19405945
N       0.85223758      2.45278952     -0.68442654
B       1.23032709      3.06064999      0.58316463
N       2.12064604      2.36405156      1.50171246
B       2.93990737      1.29217753      0.95788231
B       0.02824599     -1.75612082      4.81862475
N      -0.44937458     -2.84213488      3.97524956
B       0.50138093     -3.44987032      3.06640341
N       1.74654681     -2.77107901      2.71855385
B       2.19603401     -1.70316152      3.59710797
N       1.27723974     -1.05826799      4.51224924
N       0.47992121      2.91312351      3.33501346
B      -0.48248600      2.15952603      4.12906854
N       0.03273451      1.08284566      4.94805006
B       1.22326723      0.39439736      4.50551282
N       2.18146373      1.15017313      3.70941603
B       1.67965455      2.23495717      2.88357617
N       3.42240134     -1.03363764      3.28330730
B       3.60652698     -0.84375312      1.84968277
N       3.81599161      0.59638740      1.84237204
B       3.26064872      0.41289568      3.17302849
