44
drug @complex
C       6.27898812     -1.19703463      6.56729167
C       5.10087701     -0.81453601      7.46133473
C       4.08701319     -0.01444368      6.62920942
C       4.79859914      1.23370548      6.07952983
N       5.92983680      0.89061058      5.23970106
C       6.89027462      0.06502064      5.94560611
C       2.80725402      0.26198019      7.36713768
C       2.37256416      1.54077911      7.69333896
C       1.10480990      1.75606533      8.20167915
C       0.25446066      0.67993151      8.41944146
C       0.71582647     -0.61495386      8.19912580
C       1.97235779     -0.81163908      7.67313128
N      -1.10957633      0.87630900      8.68377295
C      -1.73265846      2.00514827      9.06067290
C      -3.09722032      1.80463603      8.85093754
C      -4.26467795      2.56511484      9.01152341
C      -5.45485463      2.02213520      8.59684310
C      -5.51535598      0.76008234      7.98614469
C      -4.39334168     -0.02896620      7.81596081
C      -3.16923023      0.48214032      8.30565513
N      -1.95677008     -0.06546449      8.27469089
C      -4.46677774     -1.28101232      7.05857822
O      -5.47813414     -1.83132677      6.70535234
N      -3.18161263     -1.82303480      6.73640302
H       7.03813512     -1.72940688      7.14351342
H       5.92574423     -1.85579644      5.77064677
H       4.63602007     -1.71059039      7.87583776
H       5.45248309     -0.20180382      8.29582895
H       3.80603607     -0.62988395      5.76572153
H       5.18464521      1.84233393      6.90509185
H       4.10454047      1.82761312      5.48230417
H       5.59113963      0.41388201      4.40812757
H       7.68832702     -0.20296047      5.25027434
H       7.32449803      0.68251469      6.73983933
H       3.00237379      2.39432886      7.50556270
H       0.76841159      2.76647799      8.37099819
H       0.06268943     -1.44862218      8.39242012
H       2.29409264     -1.81612677      7.44783080
H      -1.20947138      2.85041456      9.45611381
H      -4.21670688      3.55732146      9.43358084
H      -6.36725421      2.58807122      8.70634185
H      -6.45731912      0.39349243      7.60773455
H      -2.46683550     -1.55376907      7.43338296
H      -3.22486232     -2.81019411      6.49744925
