70
Osimertinib GFN2 opt
C       3.62002902     -0.05506778      3.42182193
N       3.56029511     -1.25840060      2.64475038
C       3.01804461     -1.35078044      1.41240306
C       3.12151719     -2.63559922      0.92475431
C       3.76966554     -3.40044424      1.95296120
C       4.12068325     -4.73886717      2.12524831
C       4.73559969     -5.12508347      3.29662934
C       5.00605940     -4.21121335      4.31587798
C       4.64978836     -2.88563257      4.19032551
C       4.02877348     -2.49173743      3.01255579
C       2.63983774     -3.01671882     -0.38109724
N       1.77382108     -2.16824987     -0.94921257
C       1.30604325     -2.47662093     -2.14683605
N       1.61443907     -3.57196781     -2.85706543
C       2.48700109     -4.39556879     -2.30286228
C       3.04534153     -4.17351673     -1.05869472
N       0.41138469     -1.66503160     -2.77820218
C      -0.17517377     -0.47402416     -2.40420250
C      -1.22213547     -0.00873573     -3.23206844
C      -1.87286339      1.16861239     -2.92054488
C      -1.49765084      1.90848289     -1.80631126
C      -0.43813850      1.46859700     -1.00546578
C       0.21165533      0.27578473     -1.30105544
N      -0.13048292      2.30384656      0.06954577
C       0.93178311      2.32702898      0.91065555
O       1.83689216      1.51131123      0.91994475
C       0.88330233      3.47990579      1.85001886
C       1.91211474      3.78363095      2.62703924
N      -2.15165952      3.12929836     -1.42381652
C      -1.90130945      4.20916817     -2.36141044
C      -3.56943583      2.95472191     -1.14211620
C      -3.76465623      1.92421868     -0.02853751
N      -5.09251454      2.00358017      0.55545303
C      -5.14234745      1.32133638      1.83315202
C      -6.11291143      1.49288109     -0.33700555
O      -1.52038860     -0.80167585     -4.31565244
C      -2.51948327     -0.37013930     -5.20295857
H       4.65738200      0.23570057      3.60708297
H       3.11645988      0.73228322      2.86310521
H       3.11892536     -0.19276597      4.38310114
H       2.59928803     -0.48962427      0.93176685
H       3.90586354     -5.47481573      1.36625556
H       5.01372317     -6.15995280      3.43480116
H       5.49258314     -4.55240777      5.21779593
H       4.84290170     -2.17793196      4.98301851
H       2.74270874     -5.26858699     -2.89178843
H       3.77525555     -4.84593502     -0.64563254
H       0.07914357     -2.04462171     -3.65562942
H      -2.68286828      1.52863108     -3.53542837
H       1.01463246     -0.08699358     -0.68449135
H      -0.79771608      3.07313373      0.09871424
H      -0.02669546      4.06381794      1.86354782
H       2.81377457      3.19430394      2.58763289
H       1.89934263      4.61656720      3.30880577
H      -0.82859878      4.28119423     -2.53510569
H      -2.25346578      5.14426433     -1.92439875
H      -2.40277790      4.06919991     -3.32916773
H      -4.13230226      2.66218320     -2.04190237
H      -3.96254017      3.91491471     -0.79653162
H      -3.04131663      2.14564729      0.75996641
H      -3.54149778      0.91252602     -0.41146802
H      -4.42053732      1.77439071      2.51091087
H      -6.13762329      1.43950869      2.25881356
H      -4.92056713      0.24597975      1.75203095
H      -7.08341733      1.57796546      0.14907423
H      -5.94710119      0.43765066     -0.60772059
H      -6.13506927      2.08828246     -1.24685374
H      -2.56181592     -1.12385704     -5.98784899
H      -2.27233206      0.59979694     -5.64735770
H      -3.49666226     -0.30777864     -4.71209945
