72
carrier @complex
B       0.74093444     -4.34150220      1.10243177
N       0.97074241     -4.52281244      2.52735508
B      -0.48060805     -4.40347740      2.50183828
N      -0.69144524     -4.59609289      1.07384289
N      -4.33478331     -1.26146348      1.32260190
B      -4.05616999     -1.13034606      2.74659129
N      -4.29423546      0.29825528      2.88658607
B      -4.20236643      0.18354826      1.44020760
B      -1.44165085     -3.54831171      0.46631909
N      -2.52072874     -2.93943697      1.22867959
B      -3.27510615     -1.86996610      0.59162789
N      -2.72137913     -1.15196270     -0.54846667
B      -1.64094453     -1.79051972     -1.28442475
N      -0.85885085     -2.85643823     -0.67531786
N       0.39666090      0.52655437     -2.50928158
B       0.35135494     -0.91520978     -2.31697134
N      -1.08879498     -1.10459246     -2.40481807
B      -1.01825005      0.33801447     -2.22401704
B      -2.31210430     -1.10436081      4.44238550
N      -3.05586691     -1.85114586      3.43729158
B      -2.35855987     -2.86858921      2.67502423
N      -1.23073391     -3.52269477      3.31268996
B      -0.48070925     -2.78066522      4.31529411
N      -1.18832727     -1.76906098      5.06836066
N       1.05385491     -1.01745661      6.01367902
B       0.93522086      0.48691410      6.02302336
N      -0.56365208      0.46559507      6.13285483
B      -0.38762669     -0.95166159      5.91067821
N      -1.74447075      1.06157213     -1.24999215
B      -2.71315035      0.30183263     -0.47899084
N      -3.36981483      0.98236285      0.62082121
B      -2.66844613      2.06528422      1.28993535
N      -1.70209952      2.81386640      0.50440717
B      -1.03346396      2.14697855     -0.59667050
B       2.46787325     -2.63543614      0.93870777
N       1.40386683     -3.38640656      0.29562477
B       0.58928796     -2.72049058     -0.70419245
N       1.20516605     -1.63745979     -1.45063002
B       2.26988155     -0.87564038     -0.82171991
N       3.07207556     -1.55466758      0.17967125
N      -2.63841163      2.12999506      2.74022046
B      -3.19862696      1.00135001      3.47131355
N      -2.43210737      0.34123549      4.51143179
B      -1.31489368      1.07475174      5.09995353
N      -0.73420282      2.21630814      4.40209927
B      -1.52593390      2.84072017      3.35839562
B       0.46321122      3.82738803      2.43243881
N       0.47924520      4.02265919      0.98851350
B      -0.93647913      3.77005429      1.21380831
N      -0.96852045      3.95094171      2.65615344
N       2.26889752      0.57731204     -0.89529647
B       1.09638060      1.21538111     -1.47656759
N       0.40546761      2.28244563     -0.76858987
B       1.13777861      2.97646813      0.28193515
N       2.31243811      2.36798541      0.88807440
B       2.97200967      1.29816298      0.15672373
B       1.64204840     -1.63437350      4.88784265
N       0.97374179     -2.77965253      4.27872620
B       1.61516798     -3.40645513      3.13902181
N       2.63831748     -2.69904789      2.38066067
B       3.29094207     -1.56746863      3.02528684
N       2.68703063     -0.91105779      4.17049985
N       1.31450741      2.94248520      3.13063049
B       0.71040521      2.20138684      4.23321475
N       1.52722199      1.21305000      4.89607869
B       2.52336428      0.53673606      4.10426862
N       3.13383280      1.27689760      3.00642399
B       2.34064095      2.29300573      2.34252939
N       4.30000169     -0.86764518      2.29806876
B       4.00822105     -0.75414604      0.87653069
N       4.12098601      0.68995490      0.74040868
B       4.03296470      0.55946279      2.18771197
