70
drug @complex
C      -3.52079698      0.63228103     15.31976069
N      -3.44849430      1.79204120     14.47998893
C      -2.98746220      1.79845411     13.21054214
C      -3.07472189      3.06012090     12.66429636
C      -3.61928577      3.90276992     13.69079821
C      -3.89833938      5.26352200     13.81096255
C      -4.40919838      5.73816689     14.99958150
C      -4.64299171      4.89150337     16.08421688
C      -4.35457644      3.54575366     16.00808578
C      -3.83889738      3.06230615     14.81284296
C      -2.67978626      3.36376866     11.30986465
N      -1.81496136      2.50984907     10.74814723
C      -1.43763213      2.74781986      9.50343289
N      -1.83891409      3.77154146      8.74081786
C      -2.70932737      4.60138337      9.28950910
C      -3.17301341      4.45437327     10.58314409
N      -0.51535438      1.94646547      8.89062771
C       0.08807933      0.78632450      9.31342378
C       1.18918923      0.32551683      8.57480081
C       1.79711431     -0.87848795      8.86860930
C       1.36792767     -1.63230111      9.94654726
C       0.31436332     -1.14519236     10.74334375
C      -0.32003354      0.04549173     10.42438291
N      -0.00639024     -1.94331804     11.83944532
C      -1.08125476     -1.92569660     12.67115042
O      -1.98882800     -1.11742531     12.61781527
C      -1.03895219     -3.02105136     13.67553622
C      -2.07867411     -3.28247007     14.45381344
N       1.91614765     -2.90411058     10.29349922
C       1.21092048     -3.98438578      9.61433563
C       3.35849432     -3.01985396     10.14293867
C       4.07186307     -1.95029522     10.97223963
N       5.45598760     -2.30681371     11.23127536
C       6.01512332     -1.50283789     12.29880813
C       6.27572916     -2.22118581     10.03962887
O       1.60756092      1.11383720      7.48171456
C       3.01647907      1.30637145      7.38898230
H      -4.55636869      0.42066840     15.59804548
H      -3.11469163     -0.21356857     14.76797723
H      -2.93796158      0.78004362     16.23229129
H      -2.64332908      0.89655719     12.74557874
H      -3.70562287      5.94510785     12.99723299
H      -4.63224866      6.79032746     15.10047508
H      -5.04679773      5.30163189     16.99802659
H      -4.51894300      2.89113421     16.85108110
H      -3.03919012      5.41590376      8.65659550
H      -3.90046502      5.12751895     11.00007415
H      -0.32830072      2.21197910      7.93066250
H       2.58674666     -1.23999194      8.23231940
H      -1.13799935      0.41389106     11.01854577
H       0.66807077     -2.69906122     11.93225197
H      -0.12691530     -3.59783991     13.73714324
H      -2.98236497     -2.70187608     14.36309301
H      -2.07369455     -4.07362201     15.18338231
H       0.14011885     -3.86964101      9.77232027
H       1.53447938     -4.93580125     10.03745204
H       1.39920177     -3.99201666      8.53338642
H       3.66897502     -2.97801933      9.08921039
H       3.64766388     -3.99792894     10.53783070
H       3.55895007     -1.88342770     11.93517367
H       3.98669896     -0.96571904     10.47940125
H       5.42333663     -1.64211332     13.20199447
H       7.03205173     -1.83698280     12.49750804
H       6.04030552     -0.42865505     12.05737883
H       7.29531460     -2.50652903     10.29256085
H       6.29200844     -1.20656052      9.60978313
H       5.90500804     -2.91395361      9.28828793
H       3.16921964      2.12957396      6.69345366
H       3.52000451      0.42263440      6.99432722
H       3.40141846      1.56289805      8.37798263
