      -----------------------------------------------------------      
     |                   =====================                   |     
     |                           x T B                           |     
     |                   =====================                   |     
     |                         S. Grimme                         |     
     |          Mulliken Center for Theoretical Chemistry        |     
     |                    University of Bonn                     |     
      -----------------------------------------------------------      

   * xtb version 6.7.1pre (5071a88) compiled by 'Marcel@Raven' on 2024-07-23

   xtb is free software: you can redistribute it and/or modify it under
   the terms of the GNU Lesser General Public License as published by
   the Free Software Foundation, either version 3 of the License, or
   (at your option) any later version.
   
   xtb is distributed in the hope that it will be useful,
   but WITHOUT ANY WARRANTY; without even the implied warranty of
   MERCHANTABILITY or FITNESS FOR A PARTICULAR PURPOSE.  See the
   GNU Lesser General Public License for more details.
   
   Cite this work as:
   * C. Bannwarth, E. Caldeweyher, S. Ehlert, A. Hansen, P. Pracht,
     J. Seibert, S. Spicher, S. Grimme, WIREs Comput. Mol. Sci., 2020, 11,
     e01493. DOI: 10.1002/wcms.1493
   
   for GFN2-xTB:
   * C. Bannwarth, S. Ehlert and S. Grimme., J. Chem. Theory Comput., 2019,
     15, 1652-1671. DOI: 10.1021/acs.jctc.8b01176
   for GFN1-xTB:
   * S. Grimme, C. Bannwarth, P. Shushkov, J. Chem. Theory Comput., 2017,
     13, 1989-2009. DOI: 10.1021/acs.jctc.7b00118
   for GFN0-xTB:
   * P. Pracht, E. Caldeweyher, S. Ehlert, S. Grimme, ChemRxiv, 2019, preprint.
     DOI: 10.26434/chemrxiv.8326202.v1
   for GFN-FF:
   * S. Spicher and S. Grimme, Angew. Chem. Int. Ed., 2020, 59, 15665-15673.
     DOI: 10.1002/anie.202004239
   
   for ALPB and GBSA implicit solvation:
   * S. Ehlert, M. Stahn, S. Spicher, S. Grimme, J. Chem. Theory Comput.,
     2021, 17, 4250-4261. DOI: 10.1021/acs.jctc.1c00471
   
   for ddCOSMO and CPCM-X implicit solvation:
   * M. Stahn, S. Ehlert, S. Grimme, J. Phys. Chem. A,
     2023, XX, XXXX-XXXX. DOI: 10.1021/acs.jpca.3c04382
   
   for DFT-D4:
   * E. Caldeweyher, C. Bannwarth and S. Grimme, J. Chem. Phys., 2017,
     147, 034112. DOI: 10.1063/1.4993215
   * E. Caldeweyher, S. Ehlert, A. Hansen, H. Neugebauer, S. Spicher,
     C. Bannwarth and S. Grimme, J. Chem. Phys., 2019, 150, 154122.
     DOI: 10.1063/1.5090222
   * E. Caldeweyher, J.-M. Mewes, S. Ehlert and S. Grimme, Phys. Chem. Chem. Phys.
     2020, 22, 8499-8512. DOI: 10.1039/D0CP00502A
   
   for sTDA-xTB:
   * S. Grimme and C. Bannwarth, J. Chem. Phys., 2016, 145, 054103.
     DOI: 10.1063/1.4959605
   
   in the mass-spec context:
   * V. Asgeirsson, C. Bauer and S. Grimme, Chem. Sci., 2017, 8, 4879.
     DOI: 10.1039/c7sc00601b
   * J. Koopman and S. Grimme, ACS Omega 2019, 4, 12, 15120-15133.
     DOI: 10.1021/acsomega.9b02011
   
   for metadynamics refer to:
   * S. Grimme, J. Chem. Theory Comput., 2019, 155, 2847-2862
     DOI: 10.1021/acs.jctc.9b00143
   
   for SPH calculations refer to:
   * S. Spicher and S. Grimme, J. Chem. Theory Comput., 2021, 17, 1701-1714
     DOI: 10.1021/acs.jctc.0c01306
   
   for ONIOM refer to:
   * C. Plett, A. Katbashev, S. Ehlert, S. Grimme, M. Bursch,
     Phys. Chem. Chem. Phys., 2023, 25, 17860-17868. DOI: 10.1039/D3CP02178E
   
   for DIPRO refer to:
   * J. Kohn, N. Gildemeister, S. Grimme, D. Fazzi, A. Hansen,
     J. Chem. Phys., 2023, just accepted.
   
   for PTB refer to:
   * S. Grimme, M. Mueller, A. Hansen, J. Chem. Phys., 2023, 158, 124111.
     DOI: 10.1063/5.0137838
   
   with help from (in alphabetical order)
   P. Atkinson, C. Bannwarth, F. Bohle, G. Brandenburg, E. Caldeweyher
   M. Checinski, S. Dohm, S. Ehlert, S. Ehrlich, I. Gerasimov, C. Hölzer
   A. Katbashev, J. Kohn, J. Koopman, C. Lavigne, S. Lehtola, F. März, M. Müller,
   F. Musil, H. Neugebauer, J. Pisarek, C. Plett, P. Pracht, F. Pultar,
   J. Seibert, P. Shushkov, S. Spicher, M. Stahn, M. Steiner, T. Strunk,
   J. Stückrath, T. Rose, and J. Unsleber
   
 * started run on 2026/08/31 at 21:13:44.338     
   ID    Z sym.   atoms
    1    6 C      1, 3-5, 7, 9, 11-14, 16, 18-21, 23-25, 27, 28, 30, 31
    2    8 O      2, 22, 29
    3    7 N      6, 8, 10, 26, 57, 59, 61, 63, 65, 67, 69, 71, 73, 75, 77,
                  79, 81, 83, 85, 87, 89, 91, 93, 95, 97, 99, 101, 103, 105,
                  107, 109, 111, 113, 115, 117, 119, 121, 123, 125, 127
    4    9 F      15
    5   17 Cl     17
    6    1 H      32-55
    7    5 B      56, 58, 60, 62, 64, 66, 68, 70, 72, 74, 76, 78, 80, 82, 84,
                  86, 88, 90, 92, 94, 96, 98, 100, 102, 104, 106, 108, 110,
                  112, 114, 116, 118, 120, 122, 124, 126

           -------------------------------------------------
          |                Calculation Setup                |
           -------------------------------------------------

          program call               : "c:\Users\Andre\Proyectos doctorado\kras-pancreatic-gC3N4-ai\tools\xtb\xtb-6.7.1\bin\xtb.exe" "c:\Users\Andre\Proyectos doctorado\nano-qsar-ai-therapeutics\calculations\tnbc\Gefitinib\Gefitinib_B36N36_phys_complex.xyz" --gfn 2 --sp --chrg 0 --uhf 0 --etemp 300 --iterations 500 --norestart
          coordinate file            : c:\Users\Andre\Proyectos doctorado\nano-qsar-ai-therapeutics\calculations\tnbc\Gefitinib\Gefitinib_B36N36_phys_complex.xyz
          omp threads                :                    16


molecular fragmentation (1/2 indicates fragments):
111111111111111111111111111111111111111111111111111111122222222222222222
2222222222222222222222222222222222222222222222222222222
# atoms in fragment 1/2:    55    72
 fragment masses (1/2) :      446.90      893.44
CMA distance (Bohr)    :  20.745
constraining FC (au)   :  0.0500

           -------------------------------------------------
          |                 G F N 2 - x T B                 |
           -------------------------------------------------

        Reference                      10.1021/acs.jctc.8b01176
      * Hamiltonian:
        H0-scaling (s, p, d)           1.850000    2.230000    2.230000
        zeta-weighting                 0.500000
      * Dispersion:
        s8                             2.700000
        a1                             0.520000
        a2                             5.000000
        s9                             5.000000
      * Repulsion:
        kExp                           1.500000    1.000000
        rExp                           1.000000
      * Coulomb:
        alpha                          2.000000
        third order                    shell-resolved
        anisotropic                    true
        a3                             3.000000
        a5                             4.000000
        cn-shift                       1.200000
        cn-exp                         4.000000
        max-rad                        5.000000


          ...................................................
          :                      SETUP                      :
          :.................................................:
          :  # basis functions                 442          :
          :  # atomic orbitals                 441          :
          :  # shells                          231          :
          :  # electrons                       452          :
          :  max. iterations                   500          :
          :  Hamiltonian                  GFN2-xTB          :
          :  restarted?                      false          :
          :  GBSA solvation                  false          :
          :  PC potential                    false          :
          :  electronic temp.          300.0000000     K    :
          :  accuracy                    1.0000000          :
          :  -> integral cutoff          0.2500000E+02      :
          :  -> integral neglect         0.1000000E-07      :
          :  -> SCF convergence          0.1000000E-05 Eh   :
          :  -> wf. convergence          0.1000000E-03 e    :
          :  Broyden damping             0.4000000          :
          :  net charge                          0          :
          :  unpaired electrons                  0          :
          ...................................................

 iter      E             dE          RMSdq      gap      omega  full diag
   1   -244.2817398 -0.244282E+03  0.108E+01    0.63       0.0  T
   2   -244.7276189 -0.445879E+00  0.658E+00    0.41       1.0  T
   3   -241.6787163  0.304890E+01  0.425E+00    0.14       1.0  T
   4   -243.6305800 -0.195186E+01  0.236E+00    0.35       1.0  T
   5   -243.5925992  0.379807E-01  0.209E+00    0.58       1.0  T
   6   -245.1811813 -0.158858E+01  0.841E-01    0.78       1.0  T
   7   -245.2121851 -0.310038E-01  0.559E-01    0.81       1.0  T
   8   -245.2094183  0.276674E-02  0.431E-01    0.81       1.0  T
   9   -245.2066271  0.279125E-02  0.244E-01    0.73       1.0  T
  10   -245.2124596 -0.583251E-02  0.119E-01    0.78       1.0  T
  11   -245.2149644 -0.250480E-02  0.470E-02    0.74       1.0  T
  12   -245.2151196 -0.155181E-03  0.365E-02    0.74       1.0  T
  13   -245.2151762 -0.566063E-04  0.307E-02    0.75       1.0  T
  14   -245.2152238 -0.476715E-04  0.214E-02    0.75       1.0  T
  15   -245.2152468 -0.229433E-04  0.146E-02    0.75       1.0  T
  16   -245.2152599 -0.130691E-04  0.769E-03    0.75       1.2  T
  17   -245.2152638 -0.391173E-05  0.261E-03    0.75       3.4  T
  18   -245.2152640 -0.239324E-06  0.211E-03    0.75       4.2  T
  19   -245.2152641 -0.424109E-07  0.192E-03    0.75       4.6  T
  20   -245.2152641 -0.855271E-07  0.171E-03    0.75       5.2  T
  21   -245.2152643 -0.151593E-06  0.901E-04    0.75       9.9  T
  22   -245.2152643 -0.605185E-07  0.293E-04    0.75      30.3  T

   *** convergence criteria satisfied after 22 iterations ***

         #    Occupation            Energy/Eh            Energy/eV
      -------------------------------------------------------------
         1        2.0000           -1.0500880             -28.5743
       ...           ...                  ...                  ...
       220        2.0000           -0.3315830              -9.0228
       221        2.0000           -0.3292984              -8.9607
       222        2.0000           -0.3280585              -8.9269
       223        2.0000           -0.3251372              -8.8474
       224        2.0000           -0.3197696              -8.7014
       225        2.0000           -0.3175950              -8.6422
       226        2.0000           -0.3150524              -8.5730 (HOMO)
       227        0.0000           -0.2873844              -7.8201 (LUMO)
       228                         -0.2834250              -7.7124
       229                         -0.2795960              -7.6082
       230                         -0.2684019              -7.3036
       231                         -0.2563488              -6.9756
       ...                                ...                  ...
       441                          0.9797493              26.6603
      -------------------------------------------------------------
                  HL-Gap            0.0276680 Eh            0.7529 eV
             Fermi-level           -0.3011911 Eh           -8.1958 eV

 SCC (total)                   0 d,  0 h,  0 min,  0.844 sec
 SCC setup                      ...        0 min,  0.001 sec (  0.119%)
 Dispersion                     ...        0 min,  0.004 sec (  0.474%)
 classical contributions        ...        0 min,  0.000 sec (  0.000%)
 integral evaluation            ...        0 min,  0.013 sec (  1.540%)
 iterations                     ...        0 min,  0.789 sec ( 93.483%)
 molecular gradient             ...        0 min,  0.034 sec (  4.028%)
 printout                       ...        0 min,  0.003 sec (  0.355%)

         :::::::::::::::::::::::::::::::::::::::::::::::::::::
         ::                     SUMMARY                     ::
         :::::::::::::::::::::::::::::::::::::::::::::::::::::
         :: total energy            -242.752167534938 Eh    ::
         :: gradient norm              0.101141419272 Eh/a0 ::
         :: HOMO-LUMO gap              0.752884404141 eV    ::
         ::.................................................::
         :: SCC energy              -245.200811609528 Eh    ::
         :: -> isotropic ES            0.722930493069 Eh    ::
         :: -> anisotropic ES         -0.020613330672 Eh    ::
         :: -> anisotropic XC          0.096529164590 Eh    ::
         :: -> dispersion             -0.202324497865 Eh    ::
         :: repulsion energy           2.448644074590 Eh    ::
         :: add. restraining           0.000000000000 Eh    ::
         :: total charge               0.000000000014 e     ::
         :::::::::::::::::::::::::::::::::::::::::::::::::::::

           -------------------------------------------------
          |                Property Printout                |
           -------------------------------------------------

    * Orbital Energies and Occupations

         #    Occupation            Energy/Eh            Energy/eV
      -------------------------------------------------------------
         1        2.0000           -1.0500880             -28.5743
       ...           ...                  ...                  ...
       214        2.0000           -0.3445547              -9.3758
       215        2.0000           -0.3433124              -9.3420
       216        2.0000           -0.3389764              -9.2240
       217        2.0000           -0.3368071              -9.1650
       218        2.0000           -0.3352090              -9.1215
       219        2.0000           -0.3331924              -9.0666
       220        2.0000           -0.3315830              -9.0228
       221        2.0000           -0.3292984              -8.9607
       222        2.0000           -0.3280585              -8.9269
       223        2.0000           -0.3251372              -8.8474
       224        2.0000           -0.3197696              -8.7014
       225        2.0000           -0.3175950              -8.6422
       226        2.0000           -0.3150524              -8.5730 (HOMO)
       227        0.0000           -0.2873844              -7.8201 (LUMO)
       228                         -0.2834250              -7.7124
       229                         -0.2795960              -7.6082
       230                         -0.2684019              -7.3036
       231                         -0.2563488              -6.9756
       232                         -0.2495848              -6.7915
       233                         -0.2465149              -6.7080
       234                         -0.2425488              -6.6001
       235                         -0.2390996              -6.5062
       236                         -0.2353039              -6.4029
       237                         -0.2333782              -6.3505
       ...                                ...                  ...
       441                          0.9797493              26.6603
      -------------------------------------------------------------
                  HL-Gap            0.0276680 Eh            0.7529 eV
             Fermi-level           -0.3011911 Eh           -8.1958 eV

     #   Z          covCN         q      C6AA      α(0)
     1   6 C        3.639     0.027    20.478     6.508
     2   8 O        1.703    -0.245    18.059     5.738
     3   6 C        2.856     0.134    25.076     8.208
     4   6 C        2.929    -0.086    30.158     9.006
     5   6 C        2.983     0.103    25.712     8.318
     6   7 N        1.844    -0.266    27.751     7.807
     7   6 C        2.881     0.142    24.916     8.183
     8   7 N        1.831    -0.272    27.914     7.829
     9   6 C        2.892     0.160    24.549     8.123
    10   7 N        2.689    -0.173    24.747     7.388
    11   6 C        2.891     0.078    26.250     8.400
    12   6 C        2.918    -0.061    29.508     8.908
    13   6 C        2.911    -0.051    29.256     8.869
    14   6 C        2.807     0.154    24.645     8.133
    15   9 F        0.787    -0.208    11.315     3.973
    16   6 C        2.877     0.080    26.207     8.392
    17  17 Cl       0.962    -0.141   103.553    15.568
    18   6 C        2.952    -0.056    29.383     8.891
    19   6 C        2.979    -0.033    28.805     8.804
    20   6 C        2.913    -0.083    30.075     8.993
    21   6 C        2.852     0.131    25.134     8.217
    22   8 O        1.703    -0.258    18.273     5.772
    23   6 C        3.690     0.077    19.480     6.316
    24   6 C        3.799    -0.071    21.865     6.658
    25   6 C        3.742    -0.002    20.697     6.491
    26   7 N        2.721    -0.174    24.772     7.392
    27   6 C        3.744    -0.006    20.751     6.498
    28   6 C        3.703     0.074    19.498     6.314
    29   8 O        1.696    -0.324    19.416     5.949
    30   6 C        3.703     0.072    19.519     6.317
    31   6 C        3.744    -0.007    20.778     6.503
    32   1 H        0.924     0.051     2.302     2.373
    33   1 H        0.924     0.051     2.312     2.378
    34   1 H        0.924     0.068     2.105     2.269
    35   1 H        0.925     0.067     2.115     2.274
    36   1 H        0.925     0.047     2.353     2.399
    37   1 H        0.860     0.183     1.198     1.715
    38   1 H        0.925     0.050     2.314     2.379
    39   1 H        0.925     0.071     2.073     2.251
    40   1 H        0.925     0.083     1.945     2.181
    41   1 H        0.925     0.046     2.369     2.407
    42   1 H        0.924     0.034     2.529     2.487
    43   1 H        0.924     0.036     2.503     2.474
    44   1 H        0.924     0.050     2.316     2.380
    45   1 H        0.924     0.053     2.285     2.364
    46   1 H        0.923     0.039     2.459     2.452
    47   1 H        0.923     0.037     2.485     2.465
    48   1 H        0.923     0.048     2.340     2.392
    49   1 H        0.924     0.037     2.487     2.466
    50   1 H        0.924     0.046     2.374     2.409
    51   1 H        0.924     0.024     2.678     2.559
    52   1 H        0.924     0.025     2.658     2.550
    53   1 H        0.924     0.047     2.361     2.403
    54   1 H        0.924     0.040     2.448     2.447
    55   1 H        0.924     0.049     2.333     2.389
    56   5 B        2.781     0.077    20.187     7.512
    57   7 N        2.774    -0.228    25.973     7.569
    58   5 B        2.788     0.092    19.934     7.464
    59   7 N        2.524    -0.314    28.114     7.874
    60   5 B        2.779     0.083    20.091     7.494
    61   7 N        2.655    -0.270    26.983     7.715
    62   5 B        2.849     0.241    17.665     7.018
    63   7 N        2.529    -0.272    27.069     7.727
    64   5 B        3.195     0.151    18.923     7.255
    65   7 N        2.979    -0.109    23.386     7.182
    66   5 B        2.644     0.374    16.315     6.812
    67   7 N        2.669    -0.212    25.621     7.518
    68   5 B        3.181     0.023    20.980     7.639
    69   7 N        2.888    -0.224    25.875     7.555
    70   5 B        3.009     0.209    18.071     7.091
    71   7 N        2.660    -0.163    24.523     7.355
    72   5 B        2.906     0.320    16.611     6.801
    73   7 N        3.156    -0.083    22.848     7.099
    74   5 B        2.779     0.094    19.905     7.460
    75   7 N        3.037    -0.128    23.771     7.241
    76   5 B        2.758     0.090    20.003     7.483
    77   7 N        2.634    -0.309    27.968     7.854
    78   5 B        3.040     0.227    17.824     7.042
    79   7 N        2.981    -0.005    21.360     6.864
    80   5 B        2.582     0.326    17.304     7.087
    81   7 N        2.596    -0.359    29.271     8.035
    82   5 B        3.287     0.340    16.334     6.740
    83   7 N        2.784    -0.254    26.589     7.658
    84   5 B        2.559     0.320    17.594     7.184
    85   7 N        2.579    -0.368    29.501     8.067
    86   5 B        2.530     0.301    18.224     7.377
    87   7 N        2.665    -0.205    25.451     7.493
    88   5 B        2.698     0.196    18.504     7.219
    89   7 N        2.844    -0.167    24.599     7.366
    90   5 B        2.758     0.082    20.126     7.506
    91   7 N        2.672    -0.174    24.761     7.390
    92   5 B        2.877     0.111    19.570     7.384
    93   7 N        2.663    -0.144    24.120     7.294
    94   5 B        2.594     0.312    17.388     7.086
    95   7 N        2.519    -0.354    29.162     8.020
    96   5 B        2.684     0.184    18.717     7.268
    97   7 N        3.008    -0.133    23.864     7.255
    98   5 B        2.677     0.210    18.355     7.201
    99   7 N        2.716    -0.248    26.459     7.640
   100   5 B        2.647     0.164    19.164     7.380
   101   7 N        2.825    -0.206    25.468     7.495
   102   5 B        3.321     0.230    17.777     7.031
   103   7 N        2.531    -0.285    27.393     7.773
   104   5 B        2.950     0.037    20.761     7.602
   105   7 N        2.783    -0.184    24.985     7.424
   106   5 B        2.796     0.085    20.033     7.481
   107   7 N        2.673    -0.155    24.357     7.330
   108   5 B        3.021     0.211    18.053     7.087
   109   7 N        3.272     0.016    20.971     6.801
   110   5 B        2.869     0.305    16.806     6.844
   111   7 N        3.154    -0.118    23.552     7.208
   112   5 B        3.263     0.320    16.582     6.791
   113   7 N        2.833    -0.060    22.407     7.030
   114   5 B        3.303     0.231    17.761     7.028
   115   7 N        2.656    -0.183    24.972     7.422
   116   5 B        2.838     0.113    19.562     7.386
   117   7 N        2.834    -0.225    25.903     7.559
   118   5 B        2.863     0.253    17.503     6.984
   119   7 N        2.654    -0.231    26.060     7.582
   120   5 B        3.011     0.115    19.480     7.362
   121   7 N        3.153    -0.086    22.903     7.108
   122   5 B        2.674     0.203    18.480     7.228
   123   7 N        2.696    -0.232    26.087     7.586
   124   5 B        2.585     0.370    16.718     6.961
   125   7 N        2.881    -0.181    24.900     7.411
   126   5 B        2.825     0.106    19.668     7.408
   127   7 N        2.827    -0.252    26.547     7.652

 Mol. C6AA /au·bohr⁶  :     277548.400138
 Mol. C8AA /au·bohr⁸  :    7655799.626987
 Mol. α(0) /au        :        824.178935


Wiberg/Mayer (AO) data.
largest (>0.10) Wiberg bond orders for each atom

 ---------------------------------------------------------------------------
     #   Z sym  total        # sym  WBO       # sym  WBO       # sym  WBO
 ---------------------------------------------------------------------------
     1   6 C    3.939 --     2 O    0.980    34 H    0.979    32 H    0.976
                            33 H    0.976
     2   8 O    2.248 --     3 C    1.083     1 C    0.980
     3   6 C    3.939 --     4 C    1.452    21 C    1.215     2 O    1.083
     4   6 C    3.980 --     3 C    1.452     5 C    1.283    35 H    0.961
     5   6 C    3.983 --     6 N    1.297     4 C    1.283    19 C    1.227
     6   7 N    3.043 --     7 C    1.483     5 C    1.297
     7   6 C    3.958 --     6 N    1.483     8 N    1.369    36 H    0.958
     8   7 N    3.041 --     9 C    1.408     7 C    1.369
     9   6 C    3.961 --     8 N    1.408    19 C    1.251    10 N    1.086
    10   7 N    3.379 --    11 C    1.104     9 C    1.086    37 H    0.924
    11   6 C    3.970 --    18 C    1.364    12 C    1.356    10 N    1.104
    12   6 C    3.979 --    13 C    1.450    11 C    1.356    38 H    0.967
    13   6 C    3.986 --    12 C    1.450    14 C    1.387    39 H    0.965
                            18 C    0.102
    14   6 C    3.884 --    13 C    1.387    16 C    1.351    15 F    0.970
    15   9 F    1.102 --    14 C    0.970
    16   6 C    3.925 --    18 C    1.409    14 C    1.351    17 Cl   0.995
    17  17 Cl   1.140 --    16 C    0.995
    18   6 C    3.979 --    16 C    1.409    11 C    1.364    40 H    0.961
                            13 C    0.102
    19   6 C    3.987 --    20 C    1.273     9 C    1.251     5 C    1.227
    20   6 C    3.982 --    21 C    1.464    19 C    1.273    41 H    0.962
    21   6 C    3.938 --    20 C    1.464     3 C    1.215    22 O    1.075
    22   8 O    2.236 --    21 C    1.075    23 C    0.963
    23   6 C    3.943 --    24 C    1.000    42 H    0.968    43 H    0.968
                            22 O    0.963
    24   6 C    3.991 --    23 C    1.000    25 C    0.991    44 H    0.971
                            45 H    0.971
    25   6 C    3.986 --    26 N    1.012    24 C    0.991    47 H    0.970
                            46 H    0.970
    26   7 N    3.140 --    25 C    1.012    27 C    1.002    31 C    1.002
    27   6 C    3.986 --    26 N    1.002    28 C    0.989    49 H    0.973
                            48 H    0.970
    28   6 C    3.957 --    27 C    0.989    29 O    0.982    50 H    0.971
                            51 H    0.965
    29   8 O    2.060 --    28 C    0.982    30 C    0.982
    30   6 C    3.956 --    31 C    0.989    29 O    0.982    53 H    0.971
                            52 H    0.966
    31   6 C    3.986 --    26 N    1.002    30 C    0.989    54 H    0.973
                            55 H    0.970
    32   1 H    0.997 --     1 C    0.976
    33   1 H    0.997 --     1 C    0.976
    34   1 H    0.995 --     1 C    0.979
    35   1 H    0.994 --     4 C    0.961
    36   1 H    0.997 --     7 C    0.958
    37   1 H    0.966 --    10 N    0.924
    38   1 H    0.997 --    12 C    0.967
    39   1 H    0.994 --    13 C    0.965
    40   1 H    0.993 --    18 C    0.961
    41   1 H    0.997 --    20 C    0.962
    42   1 H    0.998 --    23 C    0.968
    43   1 H    0.998 --    23 C    0.968
    44   1 H    0.997 --    24 C    0.971
    45   1 H    0.997 --    24 C    0.971
    46   1 H    0.998 --    25 C    0.970
    47   1 H    0.998 --    25 C    0.970
    48   1 H    0.997 --    27 C    0.970
    49   1 H    0.999 --    27 C    0.973
    50   1 H    0.998 --    28 C    0.971
    51   1 H    0.999 --    28 C    0.965
    52   1 H    0.999 --    30 C    0.966
    53   1 H    0.997 --    30 C    0.971
    54   1 H    0.998 --    31 C    0.973
    55   1 H    0.997 --    31 C    0.970
    56   5 B    3.476 --   125 N    1.281   108 B    1.000   102 B    0.969
    57   7 N    3.398 --   102 B    1.143   115 N    1.007   114 B    1.000
    58   5 B    3.465 --   103 N    1.277   126 B    0.978   114 B    0.959
    59   7 N    3.530 --   118 B    1.152   116 B    1.150    86 B    1.018
    60   5 B    3.464 --    93 N    1.241   122 B    0.995    96 B    0.990
    61   7 N    3.263 --    82 B    1.200   124 B    0.968   119 N    0.888
    62   5 B    3.407 --    95 N    1.177    69 N    1.032    78 B    0.963
    63   7 N    3.569 --    76 B    1.277    64 B    1.158   120 B    0.973
    64   5 B    3.393 --    63 N    1.158   106 B    0.932   104 B    0.640
                            68 B    0.294
    65   7 N    3.323 --    70 B    1.113   109 N    1.043   121 N    0.945
    66   5 B    3.432 --    67 N    1.187    77 N    1.126   105 N    0.962
    67   7 N    3.446 --    66 B    1.187    94 B    1.087   107 N    0.967
    68   5 B    3.455 --   104 B    1.284   120 B    1.003   118 B    0.626
                            64 B    0.294
    69   7 N    3.427 --    72 B    1.234    62 B    1.032    83 N    0.929
    70   5 B    3.390 --    65 N    1.113    89 N    1.039   116 B    1.005
    71   7 N    3.510 --    74 B    1.205    94 B    1.124    91 N    0.999
    72   5 B    3.514 --    69 N    1.234    97 N    1.070   117 N    1.002
    73   7 N    3.348 --   122 B    1.142   125 N    0.990    75 N    0.982
    74   5 B    3.413 --    71 N    1.205    92 B    1.008   106 B    0.926
    75   7 N    3.325 --   110 B    1.135    73 N    0.982    79 N    0.973
    76   5 B    3.464 --    63 N    1.277    90 B    0.978   100 B    0.932
    77   7 N    3.218 --    66 B    1.126    80 B    1.068   105 N    0.792
    78   5 B    3.368 --    91 N    1.153    83 N    0.991    62 B    0.963
    79   7 N    3.095 --    97 N    1.013    75 N    0.973   123 N    0.938
    80   5 B    3.510 --   117 N    1.244    77 N    1.068    95 N    0.989
    81   7 N    3.434 --    86 B    1.201   114 B    1.062   102 B    0.926
    82   5 B    3.481 --    61 N    1.200    99 N    1.042    85 N    0.981
    83   7 N    3.281 --    88 B    1.168    78 B    0.991    69 N    0.929
    84   5 B    3.523 --   119 N    1.212   123 N    1.120   111 N    1.032
    85   7 N    3.431 --    98 B    1.220   112 B    0.993    82 B    0.981
    86   5 B    3.519 --    81 N    1.201   127 N    1.099    59 N    1.018
    87   7 N    3.442 --   124 B    1.262    98 B    0.997   113 N    0.990
    88   5 B    3.445 --    83 N    1.168   115 N    1.123   126 B    0.923
    89   7 N    3.470 --    90 B    1.260    70 B    1.039   121 N    0.984
    90   5 B    3.421 --    89 N    1.260    76 B    0.978    98 B    0.959
    91   7 N    3.512 --   126 B    1.171    78 B    1.153    71 N    0.999
    92   5 B    3.347 --   104 B    1.009    74 B    1.008   103 N    0.963
    93   7 N    3.509 --    60 B    1.241    96 B    1.092    99 N    1.036
    94   5 B    3.515 --    71 N    1.124    95 N    1.103    67 N    1.087
    95   7 N    3.477 --    62 B    1.177    94 B    1.103    80 B    0.989
    96   5 B    3.464 --   101 N    1.179    93 N    1.092    60 B    0.990
    97   7 N    3.258 --    72 B    1.070    79 N    1.013   111 N    0.975
    98   5 B    3.390 --    85 N    1.220    87 N    0.997    90 B    0.959
    99   7 N    3.372 --    82 B    1.042    93 N    1.036   112 B    0.985
   100   5 B    3.453 --   113 N    1.191   107 N    1.079    76 B    0.932
   101   7 N    3.407 --    96 B    1.179   108 B    1.073   109 N    0.959
   102   5 B    3.365 --    57 N    1.143    56 B    0.969    81 N    0.926
                           114 B    0.127
   103   7 N    3.562 --    58 B    1.277   118 B    1.105    92 B    0.963
   104   5 B    3.367 --    68 B    1.284    92 B    1.009    64 B    0.640
                           118 B    0.186
   105   7 N    2.987 --   113 N    1.045    66 B    0.962    77 N    0.792
   106   5 B    3.455 --   107 N    1.266    64 B    0.932    74 B    0.926
   107   7 N    3.481 --   106 B    1.266   100 B    1.079    67 N    0.967
   108   5 B    3.443 --   127 N    1.131   101 N    1.073    56 B    1.000
   109   7 N    3.187 --    65 N    1.043   101 N    0.959   127 N    0.951
   110   5 B    3.523 --   115 N    1.163    75 N    1.135   125 N    0.995
   111   7 N    3.214 --    84 B    1.032   117 N    0.984    97 N    0.975
   112   5 B    3.507 --   121 N    1.265    85 N    0.993    99 N    0.985
   113   7 N    3.440 --   100 B    1.191   105 N    1.045    87 N    0.990
   114   5 B    3.326 --    81 N    1.062    57 N    1.000    58 B    0.959
                           102 B    0.127
   115   7 N    3.491 --   110 B    1.163    88 B    1.123    57 N    1.007
   116   5 B    3.385 --    59 N    1.150    70 B    1.005   120 B    1.002
   117   7 N    3.445 --    80 B    1.244    72 B    1.002   111 N    0.984
   118   5 B    3.444 --    59 N    1.152   103 N    1.105    68 B    0.626
                           104 B    0.186   120 B    0.120
   119   7 N    3.332 --    84 B    1.212   124 B    1.035    61 N    0.888
   120   5 B    3.333 --    68 B    1.003   116 B    1.002    63 N    0.973
                           118 B    0.120
   121   7 N    3.440 --   112 B    1.265    89 N    0.984    65 N    0.945
   122   5 B    3.445 --    73 N    1.142   123 N    1.115    60 B    0.995
   123   7 N    3.391 --    84 B    1.120   122 B    1.115    79 N    0.938
   124   5 B    3.439 --    87 N    1.262   119 N    1.035    61 N    0.968
   125   7 N    3.474 --    56 B    1.281   110 B    0.995    73 N    0.990
   126   5 B    3.360 --    91 N    1.171    58 B    0.978    88 B    0.923
   127   7 N    3.418 --   108 B    1.131    86 B    1.099   109 N    0.951
 ---------------------------------------------------------------------------

Topologies differ in total number of bonds
Writing topology from bond orders to xtbtopo.mol

molecular dipole:
                 x           y           z       tot (Debye)
 q only:        3.774       1.746      -5.088
   full:        1.933       0.705      -3.025       9.299
molecular quadrupole (traceless):
                xx          xy          yy          xz          yz          zz
 q only:      -50.840      12.370      47.534      80.575     -29.862       3.307
  q+dip:      -43.998       7.133      57.933      72.576     -28.640     -13.935
   full:      -39.779       8.833      54.319      77.266     -26.193     -14.540


           -------------------------------------------------
          | TOTAL ENERGY             -242.752167534938 Eh   |
          | GRADIENT NORM               0.101141419272 Eh/α |
          | HOMO-LUMO GAP               0.752884404141 eV   |
           -------------------------------------------------

------------------------------------------------------------------------
 * finished run on 2026/08/31 at 21:13:45.241     
------------------------------------------------------------------------
 total:
 * wall-time:     0 d,  0 h,  0 min,  0.902 sec
 *  cpu-time:     0 d,  0 h,  0 min,  9.406 sec
 * ratio c/w:    10.428 speedup
 SCF:
 * wall-time:     0 d,  0 h,  0 min,  0.846 sec
 *  cpu-time:     0 d,  0 h,  0 min,  8.859 sec
 * ratio c/w:    10.472 speedup

normal termination of xtb
