127
Drug@B36N36 complex
C      0.950969     -5.193851      0.834456
O      1.013439     -3.808226      0.525077
C     -0.171847     -3.126118      0.406892
C     -1.436759     -3.698664      0.580111
C     -2.604844     -2.959069      0.447415
N     -3.771805     -3.579132      0.640098
C     -4.877048     -2.838396      0.512678
N     -4.923112     -1.542698      0.195053
C     -3.746190     -0.926445     -0.012790
N     -3.741022      0.442690     -0.401462
C     -4.806808      1.369089     -0.330448
C     -4.811549      2.469418     -1.205207
C     -5.809895      3.444460     -1.130062
C     -6.799454      3.340874     -0.160238
F     -7.746904      4.288279     -0.102762
C     -6.793611      2.280631      0.740085
Cl     -8.001152      2.162862      1.962634
C     -5.794416      1.307164      0.663487
C     -2.514854     -1.601617      0.118156
C     -1.236198     -1.008082     -0.045375
C     -0.069780     -1.760618      0.100274
O      1.199703     -1.265442     -0.046668
C      1.361694      0.147297     -0.154911
C      2.861658      0.442891     -0.163311
C      3.121748      1.942534     -0.284848
N      4.508310      2.400153     -0.303071
C      5.256268      2.233357      0.951380
C      6.090500      0.946223      1.056769
O      6.932937      0.773521     -0.087549
C      6.139141      0.710157     -1.276882
C      5.307168      1.989305     -1.466322
H      0.428679     -5.750676      0.049579
H      0.488976     -5.359108      1.813271
H      1.976708     -5.571875      0.883352
H     -1.547654     -4.749497      0.829648
H     -5.825601     -3.337488      0.679330
H     -3.234097      0.522552     -1.277769
H     -4.037945      2.576027     -1.962059
H     -5.818182      4.285248     -1.816686
H     -5.788533      0.499905      1.390917
H     -1.180721      0.050463     -0.274952
H      0.894422      0.649490      0.700869
H      0.913337      0.502321     -1.090320
H      3.298944      0.040806      0.756121
H      3.317616     -0.103575     -0.995238
H      2.632546      2.310846     -1.196422
H      2.603354      2.458771      0.534062
H      5.953372      3.079673      1.008186
H      4.598550      2.328965      1.823252
H      6.740914      1.004652      1.935719
H      5.463573      0.057539      1.177271
H      5.513734     -0.187083     -1.242099
H      6.825323      0.593494     -2.122189
H      4.686508      1.906160     -2.366201
H      6.009893      2.809845     -1.662026
B      2.101200      0.000000      3.345000
B     -2.101200      0.000000      3.345000
B      0.000000      2.101200      3.345000
B      0.000000     -2.101200      3.345000
B      3.345000      2.101200      0.000000
B      3.345000     -2.101200      0.000000
B      3.345000      0.000000      2.101200
B      3.345000      0.000000     -2.101200
B     -3.345000      2.101200      0.000000
B     -3.345000     -2.101200      0.000000
B     -3.345000      0.000000      2.101200
B     -3.345000      0.000000     -2.101200
B      2.101200      0.000000     -3.345000
B     -2.101200      0.000000     -3.345000
B      0.000000      2.101200     -3.345000
B      0.000000     -2.101200     -3.345000
B      0.000000      3.345000      2.101200
B      0.000000      3.345000     -2.101200
B      0.000000     -3.345000      2.101200
B      0.000000     -3.345000     -2.101200
B      2.101200      3.345000      0.000000
B     -2.101200      3.345000      0.000000
B      2.101200     -3.345000      0.000000
B     -2.101200     -3.345000      0.000000
B      1.480000      1.480000      3.580000
B     -1.480000      1.480000      3.580000
B      1.480000     -1.480000      3.580000
B     -1.480000     -1.480000      3.580000
B      3.580000      1.480000      1.480000
B      3.580000     -1.480000      1.480000
B      3.580000      1.480000     -1.480000
B      3.580000     -1.480000     -1.480000
B     -3.580000      1.480000      1.480000
B     -3.580000     -1.480000      1.480000
B     -3.580000      1.480000     -1.480000
B     -3.580000     -1.480000     -1.480000
N      2.101200      0.000000      3.920000
N     -2.101200      0.000000      3.920000
N      0.000000      2.101200      3.920000
N      0.000000     -2.101200      3.920000
N      3.920000      2.101200      0.000000
N      3.920000     -2.101200      0.000000
N      3.920000      0.000000      2.101200
N      3.920000      0.000000     -2.101200
N     -3.920000      2.101200      0.000000
N     -3.920000     -2.101200      0.000000
N     -3.920000      0.000000      2.101200
N     -3.920000      0.000000     -2.101200
N      2.101200      0.000000     -3.920000
N     -2.101200      0.000000     -3.920000
N      0.000000      2.101200     -3.920000
N      0.000000     -2.101200     -3.920000
N      0.000000      3.920000      2.101200
N      0.000000      3.920000     -2.101200
N      0.000000     -3.920000      2.101200
N      0.000000     -3.920000     -2.101200
N      2.101200      3.920000      0.000000
N     -2.101200      3.920000      0.000000
N      2.101200     -3.920000      0.000000
N     -2.101200     -3.920000      0.000000
N      1.480000      1.480000      4.220000
N     -1.480000      1.480000      4.220000
N      1.480000     -1.480000      4.220000
N     -1.480000     -1.480000      4.220000
N      4.220000      1.480000      1.480000
N      4.220000     -1.480000      1.480000
N      4.220000      1.480000     -1.480000
N      4.220000     -1.480000     -1.480000
N     -4.220000      1.480000      1.480000
N     -4.220000     -1.480000      1.480000
N     -4.220000      1.480000     -1.480000
N     -4.220000     -1.480000     -1.480000
