127
Drug@B36N36 non-overlapping complex
C      0.950969     -5.193851     11.640126
O      1.013439     -3.808226     11.330747
C     -0.171847     -3.126118     11.212562
C     -1.436759     -3.698664     11.385781
C     -2.604844     -2.959069     11.253085
N     -3.771805     -3.579132     11.445768
C     -4.877048     -2.838396     11.318348
N     -4.923112     -1.542698     11.000723
C     -3.746190     -0.926445     10.792880
N     -3.741022      0.442690     10.404208
C     -4.806808      1.369089     10.475222
C     -4.811549      2.469418      9.600463
C     -5.809895      3.444460      9.675608
C     -6.799454      3.340874     10.645432
F     -7.746904      4.288279     10.702908
C     -6.793611      2.280631     11.545755
Cl     -8.001152      2.162862     12.768304
C     -5.794416      1.307164     11.469157
C     -2.514854     -1.601617     10.923826
C     -1.236198     -1.008082     10.760295
C     -0.069780     -1.760618     10.905944
O      1.199703     -1.265442     10.759002
C      1.361694      0.147297     10.650759
C      2.861658      0.442891     10.642359
C      3.121748      1.942534     10.520822
N      4.508310      2.400153     10.502599
C      5.256268      2.233357     11.757050
C      6.090500      0.946223     11.862439
O      6.932937      0.773521     10.718121
C      6.139141      0.710157      9.528788
C      5.307168      1.989305      9.339348
H      0.428679     -5.750676     10.855249
H      0.488976     -5.359108     12.618941
H      1.976708     -5.571875     11.689022
H     -1.547654     -4.749497     11.635318
H     -5.825601     -3.337488     11.485000
H     -3.234097      0.522552      9.527901
H     -4.037945      2.576027      8.843611
H     -5.818182      4.285248      8.988984
H     -5.788533      0.499905     12.196587
H     -1.180721      0.050463     10.530718
H      0.894422      0.649490     11.506539
H      0.913337      0.502321      9.715350
H      3.298944      0.040806     11.561791
H      3.317616     -0.103575      9.810432
H      2.632546      2.310846      9.609248
H      2.603354      2.458771     11.339732
H      5.953372      3.079673     11.813856
H      4.598550      2.328965     12.628922
H      6.740914      1.004652     12.741389
H      5.463573      0.057539     11.982941
H      5.513734     -0.187083      9.563571
H      6.825323      0.593494      8.683481
H      4.686508      1.906160      8.439469
H      6.009893      2.809845      9.143644
B      3.459180     -1.454569      1.628037
N      3.456400      1.129904      0.940040
B      2.539920      2.362499     -1.261047
N      2.293067     -0.641637     -2.730603
B      0.690534     -3.561069      2.702709
N     -2.939724     -2.654773      1.709476
B     -1.038202      4.085096      1.831238
N     -0.619347      0.017651     -3.941904
B     -0.473710      1.445324     -4.091730
N      1.209559     -3.786796     -1.739405
B     -3.844500      2.209440     -0.493722
N     -2.772864      2.763562     -1.211833
B      1.405725      0.818091     -4.889311
N     -0.235789      3.364215      2.833544
B      0.898320     -2.879798     -2.813849
N     -0.491833      3.766578     -1.010119
B     -0.805996      2.182269      3.281874
N      1.656110     -1.274433      3.503622
B     -0.248484      3.469937     -2.379863
N      1.308703      0.068898      3.816981
B     -1.597441     -0.559934     -3.084689
N     -3.832496      1.776842      0.831624
B      0.337602      4.495994      1.183894
N      0.043256     -0.013955      4.456653
B     -2.708837      2.226751      1.601242
N      3.772728     -0.132624     -0.765541
B     -2.253381     -3.639412      1.008482
N      1.055818      3.733398      2.235734
B     -1.825620     -0.777460      3.219840
N     -2.436768     -3.601880     -0.450773
B      3.018658     -1.073670     -1.502768
N     -3.157960     -1.252592     -0.384321
B      2.034656      2.922326      1.561722
N     -0.507447     -2.900148     -2.432795
B     -1.673548     -2.112882     -2.491621
N      0.590135      3.964583     -0.110225
B      1.090314      2.959649     -3.182489
N      0.077350     -4.359230      1.721289
B     -1.784034      3.452384     -0.408220
N     -2.013520      3.418515      1.031553
B      1.465878     -4.212148      1.499138
N     -0.797987      1.064153      4.194581
B     -2.666242     -2.402096     -1.175256
N     -1.074388     -4.484335      0.991235
B     -2.503710      0.491370     -2.109143
N      2.352728     -3.887335      0.453103
B      3.912327     -0.202357      0.725926
N      1.928548      1.957009     -2.465077
B      1.001184      2.254351     -4.622507
N     -4.186016      0.829005     -0.347538
B     -1.338881      2.453658     -3.114870
N     -2.359649      1.932605     -2.305841
B      3.073063     -2.645483      0.601111
N      2.335213     -3.673670     -0.970876
B      2.217863      0.545803      2.808407
N     -2.026423      0.611912      3.601492
B     -1.101749     -4.183787     -0.441007
N     -3.218144      0.041654     -0.958566
B      3.447752      1.258593     -0.514065
N      2.582085      1.632977      1.936454
B      1.472054     -1.555001     -3.515610
N     -2.102601      1.754194      2.760799
B      2.040765      0.711921     -3.211483
N     -2.720915     -1.341699      2.320567
B      0.658648     -0.538875     -4.486937
N     -0.168664     -3.759421     -1.356472
B      0.485560     -2.105634      3.433764
N     -0.587253     -1.205033      3.824488
B     -3.224373     -1.451411      1.000320
N      2.671324     -0.855529      2.621135
B      1.878557      3.339348     -0.106427
N      2.876911     -2.331783     -0.793563
