136
Ipatasertib/B36N36 GFN2 opt
C       4.25367910     -1.75870289      7.09660201
C       4.25598297     -0.25975734      6.77018001
C       5.43038386      0.07186179      5.82705471
C       6.60880928      0.41977255      6.74852080
C       5.90591125      0.91879624      7.98360571
C       4.56092027      0.57751311      7.99105729
C       3.80151931      1.12119562      9.04834648
N       4.44084653      1.86678251      9.97277494
C       5.72908006      2.07618163      9.86718821
N       6.52475517      1.65506814      8.89870875
N       2.46459856      0.99499325      9.25376379
C       1.57028032      0.22908687      8.42286401
C       0.49609068     -0.44021930      9.29496401
N      -0.21354021      0.55806741     10.05478809
C       0.69109693      1.27115031     10.93501507
C       1.78003441      1.95239782     10.10581805
C      -1.42895046      1.09317128      9.76928765
O      -1.85928677      2.04640380     10.38992331
C      -2.22191726      0.40508010      8.66203225
C      -3.40949233      1.28295777      8.23622511
N      -4.10216117      0.63619634      7.13668156
C      -5.18193615      1.38278259      6.50670719
C      -4.74944611      2.70714415      5.85704511
C      -6.31666799      1.61609577      7.50434336
C      -2.71174092     -0.94585759      9.11271820
C      -3.31994069     -1.09052897     10.35470656
C      -3.80040172     -2.31796932     10.77141061
C      -3.67356919     -3.41396191      9.93321480
C      -3.07455777     -3.29116746      8.69018542
C      -2.59581722     -2.05729762      8.28674630
Cl     -4.27005730     -4.95381262     10.44437919
O       7.46083505      1.38122412      6.17931523
H       3.96980921     -2.31945593      6.20951265
H       5.24511935     -2.07295714      7.41511332
H       3.55550193     -2.00179312      7.89491556
H       3.31336634      0.01277571      6.29360625
H       5.20026205      0.95613485      5.23254771
H       5.65085876     -0.74391810      5.14390122
H       7.19709350     -0.47919815      7.00527400
H       6.18331634      2.67352120     10.64724143
H       2.10865486     -0.54527871      7.89021283
H       1.07275402      0.87787976      7.68484982
H       0.98292907     -1.11526659     10.00875963
H      -0.17091281     -1.02524287      8.66836393
H       1.13551946      0.56121616     11.63820628
H       0.11582812      2.01839749     11.48254502
H       2.52298242      2.41843936     10.75158025
H       1.31030151      2.72041926      9.47646651
H      -1.58453982      0.29308123      7.78200518
H      -3.01682132      2.28118436      7.98716758
H      -4.10210015      1.38988284      9.07359727
H      -3.43022428      0.37544812      6.42250279
H      -5.55033392      0.72446506      5.70972783
H      -5.58054592      3.13155037      5.29980416
H      -3.92187475      2.53968921      5.16902326
H      -4.44339615      3.42649971      6.61352640
H      -6.04211160      2.37226520      8.23491850
H      -6.54143724      0.68979431      8.02528493
H      -7.20816819      1.95246657      6.98195001
H      -3.41733840     -0.23184576     11.00154059
H      -4.27183501     -2.42663440     11.73552040
H      -2.98628053     -4.15022038      8.04400488
H      -2.13369770     -1.96085926      7.31225960
H       7.85549249      1.87758693      6.90802532
B       0.58979323     -4.30404047      0.44730985
N       0.67926861     -4.60421738      1.86900345
B      -0.75598530     -4.41083635      1.72795143
N      -0.84536914     -4.47337064      0.27823671
N      -4.34133352     -0.98373299      0.48837005
B      -4.19352188     -0.98079336      1.93474680
N      -4.37942860      0.44302283      2.17197264
B      -4.16362169      0.43943186      0.73216202
B      -1.49017877     -3.34565912     -0.30490848
N      -2.60278165     -2.73975126      0.41356480
B      -3.25093274     -1.58840081     -0.19919354
N      -2.56263400     -0.81109152     -1.21905872
B      -1.45066274     -1.44598363     -1.91268671
N      -0.77505242     -2.59479559     -1.32601686
N       0.79238891      0.85107467     -2.75150561
B       0.66646306     -0.59706686     -2.69109042
N      -0.76745888     -0.70187887     -2.91524873
B      -0.64963409      0.71632950     -2.61251578
B      -2.61119403     -1.17971268      3.76893128
N      -3.28510006     -1.80005529      2.64745860
B      -2.57060121     -2.79443821      1.86544162
N      -1.53091885     -3.55063371      2.54234959
B      -0.84263372     -2.94392413      3.66355157
N      -1.57131882     -1.94858620      4.43238270
N       0.60134428     -1.40926806      5.64221232
B       0.48124070      0.03953932      5.55684173
N      -0.95907427      0.15012697      5.72416207
B      -0.83286826     -1.27346220      5.42765066
N      -1.42794071      1.39564219     -1.64543964
B      -2.49819367      0.63020347     -1.03244509
N      -3.22077327      1.25415545      0.06238997
B      -2.53936227      2.24682091      0.87216649
N      -1.46816085      2.99885051      0.24557291
B      -0.73167483      2.38830739     -0.84747568
B       2.40197826     -2.68484969      0.57745943
N       1.36337144     -3.32048123     -0.21203688
B       0.67494815     -2.53615647     -1.22225876
N       1.40271999     -1.42870594     -1.81435066
B       2.44164567     -0.77802298     -1.03649124
N       3.11589219     -1.57570646     -0.02696258
N      -2.63931629      2.19407588      2.32428047
B      -3.31895757      1.04465373      2.90305372
N      -2.67725887      0.26291559      3.95389235
B      -1.59395227      0.89691769      4.68587191
N      -0.89218699      2.04636566      4.14357411
B      -1.55839882      2.79932314      3.08721770
B       0.55769751      3.74970644      2.43053719
N       0.71198784      4.04766662      1.01640136
B      -0.72871439      3.85908274      1.09054955
N      -0.88337777      3.92314928      2.53661888
N       2.50886896      0.67396749     -0.98118986
B       1.42719909      1.41822630     -1.61083558
N       0.72111503      2.45740700     -0.87463766
B       1.38724117      3.02853822      0.28642578
N       2.46834413      2.30860952      0.94527985
B       3.14852148      1.27129035      0.18187950
B       1.28184781     -1.97803460      4.52263537
N       0.60768893     -3.01623785      3.76194476
B       1.32303601     -3.58729507      2.62699888
N       2.43535331     -2.87095318      2.02150813
B       3.08281783     -1.83473230      2.81109295
N       2.39373094     -1.23741625      3.94830417
N       1.29874575      2.76434075      3.12675234
B       0.56159848      1.98293843      4.09717981
N       1.25854974      0.87191717      4.72359774
B       2.33065659      0.21667063      3.99165301
N       3.05430251      1.01336627      3.02377397
B       2.37184972      2.12528855      2.38310343
N       4.17417135     -1.12558030      2.23796290
B       4.02456480     -0.88541316      0.80944157
N       4.20775362      0.55725065      0.80999024
B       3.99836393      0.31943624      2.22828286
