72
carrier @complex
B       0.58979323     -4.30404047      0.44730985
N       0.67926861     -4.60421738      1.86900345
B      -0.75598530     -4.41083635      1.72795143
N      -0.84536914     -4.47337064      0.27823671
N      -4.34133352     -0.98373299      0.48837005
B      -4.19352188     -0.98079336      1.93474680
N      -4.37942860      0.44302283      2.17197264
B      -4.16362169      0.43943186      0.73216202
B      -1.49017877     -3.34565912     -0.30490848
N      -2.60278165     -2.73975126      0.41356480
B      -3.25093274     -1.58840081     -0.19919354
N      -2.56263400     -0.81109152     -1.21905872
B      -1.45066274     -1.44598363     -1.91268671
N      -0.77505242     -2.59479559     -1.32601686
N       0.79238891      0.85107467     -2.75150561
B       0.66646306     -0.59706686     -2.69109042
N      -0.76745888     -0.70187887     -2.91524873
B      -0.64963409      0.71632950     -2.61251578
B      -2.61119403     -1.17971268      3.76893128
N      -3.28510006     -1.80005529      2.64745860
B      -2.57060121     -2.79443821      1.86544162
N      -1.53091885     -3.55063371      2.54234959
B      -0.84263372     -2.94392413      3.66355157
N      -1.57131882     -1.94858620      4.43238270
N       0.60134428     -1.40926806      5.64221232
B       0.48124070      0.03953932      5.55684173
N      -0.95907427      0.15012697      5.72416207
B      -0.83286826     -1.27346220      5.42765066
N      -1.42794071      1.39564219     -1.64543964
B      -2.49819367      0.63020347     -1.03244509
N      -3.22077327      1.25415545      0.06238997
B      -2.53936227      2.24682091      0.87216649
N      -1.46816085      2.99885051      0.24557291
B      -0.73167483      2.38830739     -0.84747568
B       2.40197826     -2.68484969      0.57745943
N       1.36337144     -3.32048123     -0.21203688
B       0.67494815     -2.53615647     -1.22225876
N       1.40271999     -1.42870594     -1.81435066
B       2.44164567     -0.77802298     -1.03649124
N       3.11589219     -1.57570646     -0.02696258
N      -2.63931629      2.19407588      2.32428047
B      -3.31895757      1.04465373      2.90305372
N      -2.67725887      0.26291559      3.95389235
B      -1.59395227      0.89691769      4.68587191
N      -0.89218699      2.04636566      4.14357411
B      -1.55839882      2.79932314      3.08721770
B       0.55769751      3.74970644      2.43053719
N       0.71198784      4.04766662      1.01640136
B      -0.72871439      3.85908274      1.09054955
N      -0.88337777      3.92314928      2.53661888
N       2.50886896      0.67396749     -0.98118986
B       1.42719909      1.41822630     -1.61083558
N       0.72111503      2.45740700     -0.87463766
B       1.38724117      3.02853822      0.28642578
N       2.46834413      2.30860952      0.94527985
B       3.14852148      1.27129035      0.18187950
B       1.28184781     -1.97803460      4.52263537
N       0.60768893     -3.01623785      3.76194476
B       1.32303601     -3.58729507      2.62699888
N       2.43535331     -2.87095318      2.02150813
B       3.08281783     -1.83473230      2.81109295
N       2.39373094     -1.23741625      3.94830417
N       1.29874575      2.76434075      3.12675234
B       0.56159848      1.98293843      4.09717981
N       1.25854974      0.87191717      4.72359774
B       2.33065659      0.21667063      3.99165301
N       3.05430251      1.01336627      3.02377397
B       2.37184972      2.12528855      2.38310343
N       4.17417135     -1.12558030      2.23796290
B       4.02456480     -0.88541316      0.80944157
N       4.20775362      0.55725065      0.80999024
B       3.99836393      0.31943624      2.22828286
