64
drug @complex
C       4.25367910     -1.75870289      7.09660201
C       4.25598297     -0.25975734      6.77018001
C       5.43038386      0.07186179      5.82705471
C       6.60880928      0.41977255      6.74852080
C       5.90591125      0.91879624      7.98360571
C       4.56092027      0.57751311      7.99105729
C       3.80151931      1.12119562      9.04834648
N       4.44084653      1.86678251      9.97277494
C       5.72908006      2.07618163      9.86718821
N       6.52475517      1.65506814      8.89870875
N       2.46459856      0.99499325      9.25376379
C       1.57028032      0.22908687      8.42286401
C       0.49609068     -0.44021930      9.29496401
N      -0.21354021      0.55806741     10.05478809
C       0.69109693      1.27115031     10.93501507
C       1.78003441      1.95239782     10.10581805
C      -1.42895046      1.09317128      9.76928765
O      -1.85928677      2.04640380     10.38992331
C      -2.22191726      0.40508010      8.66203225
C      -3.40949233      1.28295777      8.23622511
N      -4.10216117      0.63619634      7.13668156
C      -5.18193615      1.38278259      6.50670719
C      -4.74944611      2.70714415      5.85704511
C      -6.31666799      1.61609577      7.50434336
C      -2.71174092     -0.94585759      9.11271820
C      -3.31994069     -1.09052897     10.35470656
C      -3.80040172     -2.31796932     10.77141061
C      -3.67356919     -3.41396191      9.93321480
C      -3.07455777     -3.29116746      8.69018542
C      -2.59581722     -2.05729762      8.28674630
Cl     -4.27005730     -4.95381262     10.44437919
O       7.46083505      1.38122412      6.17931523
H       3.96980921     -2.31945593      6.20951265
H       5.24511935     -2.07295714      7.41511332
H       3.55550193     -2.00179312      7.89491556
H       3.31336634      0.01277571      6.29360625
H       5.20026205      0.95613485      5.23254771
H       5.65085876     -0.74391810      5.14390122
H       7.19709350     -0.47919815      7.00527400
H       6.18331634      2.67352120     10.64724143
H       2.10865486     -0.54527871      7.89021283
H       1.07275402      0.87787976      7.68484982
H       0.98292907     -1.11526659     10.00875963
H      -0.17091281     -1.02524287      8.66836393
H       1.13551946      0.56121616     11.63820628
H       0.11582812      2.01839749     11.48254502
H       2.52298242      2.41843936     10.75158025
H       1.31030151      2.72041926      9.47646651
H      -1.58453982      0.29308123      7.78200518
H      -3.01682132      2.28118436      7.98716758
H      -4.10210015      1.38988284      9.07359727
H      -3.43022428      0.37544812      6.42250279
H      -5.55033392      0.72446506      5.70972783
H      -5.58054592      3.13155037      5.29980416
H      -3.92187475      2.53968921      5.16902326
H      -4.44339615      3.42649971      6.61352640
H      -6.04211160      2.37226520      8.23491850
H      -6.54143724      0.68979431      8.02528493
H      -7.20816819      1.95246657      6.98195001
H      -3.41733840     -0.23184576     11.00154059
H      -4.27183501     -2.42663440     11.73552040
H      -2.98628053     -4.15022038      8.04400488
H      -2.13369770     -1.96085926      7.31225960
H       7.85549249      1.87758693      6.90802532
