      -----------------------------------------------------------      
     |                   =====================                   |     
     |                           x T B                           |     
     |                   =====================                   |     
     |                         S. Grimme                         |     
     |          Mulliken Center for Theoretical Chemistry        |     
     |                    University of Bonn                     |     
      -----------------------------------------------------------      

   * xtb version 6.7.1pre (5071a88) compiled by 'Marcel@Raven' on 2024-07-23

   xtb is free software: you can redistribute it and/or modify it under
   the terms of the GNU Lesser General Public License as published by
   the Free Software Foundation, either version 3 of the License, or
   (at your option) any later version.
   
   xtb is distributed in the hope that it will be useful,
   but WITHOUT ANY WARRANTY; without even the implied warranty of
   MERCHANTABILITY or FITNESS FOR A PARTICULAR PURPOSE.  See the
   GNU Lesser General Public License for more details.
   
   Cite this work as:
   * C. Bannwarth, E. Caldeweyher, S. Ehlert, A. Hansen, P. Pracht,
     J. Seibert, S. Spicher, S. Grimme, WIREs Comput. Mol. Sci., 2020, 11,
     e01493. DOI: 10.1002/wcms.1493
   
   for GFN2-xTB:
   * C. Bannwarth, S. Ehlert and S. Grimme., J. Chem. Theory Comput., 2019,
     15, 1652-1671. DOI: 10.1021/acs.jctc.8b01176
   for GFN1-xTB:
   * S. Grimme, C. Bannwarth, P. Shushkov, J. Chem. Theory Comput., 2017,
     13, 1989-2009. DOI: 10.1021/acs.jctc.7b00118
   for GFN0-xTB:
   * P. Pracht, E. Caldeweyher, S. Ehlert, S. Grimme, ChemRxiv, 2019, preprint.
     DOI: 10.26434/chemrxiv.8326202.v1
   for GFN-FF:
   * S. Spicher and S. Grimme, Angew. Chem. Int. Ed., 2020, 59, 15665-15673.
     DOI: 10.1002/anie.202004239
   
   for ALPB and GBSA implicit solvation:
   * S. Ehlert, M. Stahn, S. Spicher, S. Grimme, J. Chem. Theory Comput.,
     2021, 17, 4250-4261. DOI: 10.1021/acs.jctc.1c00471
   
   for ddCOSMO and CPCM-X implicit solvation:
   * M. Stahn, S. Ehlert, S. Grimme, J. Phys. Chem. A,
     2023, XX, XXXX-XXXX. DOI: 10.1021/acs.jpca.3c04382
   
   for DFT-D4:
   * E. Caldeweyher, C. Bannwarth and S. Grimme, J. Chem. Phys., 2017,
     147, 034112. DOI: 10.1063/1.4993215
   * E. Caldeweyher, S. Ehlert, A. Hansen, H. Neugebauer, S. Spicher,
     C. Bannwarth and S. Grimme, J. Chem. Phys., 2019, 150, 154122.
     DOI: 10.1063/1.5090222
   * E. Caldeweyher, J.-M. Mewes, S. Ehlert and S. Grimme, Phys. Chem. Chem. Phys.
     2020, 22, 8499-8512. DOI: 10.1039/D0CP00502A
   
   for sTDA-xTB:
   * S. Grimme and C. Bannwarth, J. Chem. Phys., 2016, 145, 054103.
     DOI: 10.1063/1.4959605
   
   in the mass-spec context:
   * V. Asgeirsson, C. Bauer and S. Grimme, Chem. Sci., 2017, 8, 4879.
     DOI: 10.1039/c7sc00601b
   * J. Koopman and S. Grimme, ACS Omega 2019, 4, 12, 15120-15133.
     DOI: 10.1021/acsomega.9b02011
   
   for metadynamics refer to:
   * S. Grimme, J. Chem. Theory Comput., 2019, 155, 2847-2862
     DOI: 10.1021/acs.jctc.9b00143
   
   for SPH calculations refer to:
   * S. Spicher and S. Grimme, J. Chem. Theory Comput., 2021, 17, 1701-1714
     DOI: 10.1021/acs.jctc.0c01306
   
   for ONIOM refer to:
   * C. Plett, A. Katbashev, S. Ehlert, S. Grimme, M. Bursch,
     Phys. Chem. Chem. Phys., 2023, 25, 17860-17868. DOI: 10.1039/D3CP02178E
   
   for DIPRO refer to:
   * J. Kohn, N. Gildemeister, S. Grimme, D. Fazzi, A. Hansen,
     J. Chem. Phys., 2023, just accepted.
   
   for PTB refer to:
   * S. Grimme, M. Mueller, A. Hansen, J. Chem. Phys., 2023, 158, 124111.
     DOI: 10.1063/5.0137838
   
   with help from (in alphabetical order)
   P. Atkinson, C. Bannwarth, F. Bohle, G. Brandenburg, E. Caldeweyher
   M. Checinski, S. Dohm, S. Ehlert, S. Ehrlich, I. Gerasimov, C. Hölzer
   A. Katbashev, J. Kohn, J. Koopman, C. Lavigne, S. Lehtola, F. März, M. Müller,
   F. Musil, H. Neugebauer, J. Pisarek, C. Plett, P. Pracht, F. Pultar,
   J. Seibert, P. Shushkov, S. Spicher, M. Stahn, M. Steiner, T. Strunk,
   J. Stückrath, T. Rose, and J. Unsleber
   
 * started run on 2026/08/31 at 22:22:02.159     
   ID    Z sym.   atoms
    1    6 C      1-3, 5, 8-12, 14, 16-20, 22-26
    2    8 O      4, 6, 7, 15
    3    7 N      13, 27, 48, 50, 52, 54, 56, 58, 60, 62, 64, 66, 68, 70, 72,
                  74, 76, 78, 80, 82, 84, 86, 88, 90, 92, 94, 96, 98, 100,
                  102, 104, 106, 108, 110, 112, 114, 116, 118
    4    9 F      21
    5    1 H      28-46
    6    5 B      47, 49, 51, 53, 55, 57, 59, 61, 63, 65, 67, 69, 71, 73, 75,
                  77, 79, 81, 83, 85, 87, 89, 91, 93, 95, 97, 99, 101, 103,
                  105, 107, 109, 111, 113, 115, 117

           -------------------------------------------------
          |                Calculation Setup                |
           -------------------------------------------------

          program call               : "c:\Users\Andre\Proyectos doctorado\kras-pancreatic-gC3N4-ai\tools\xtb\xtb-6.7.1\bin\xtb.exe" "c:\Users\Andre\Proyectos doctorado\nano-qsar-ai-therapeutics\calculations\tnbc\Exatecan\Exatecan_B36N36_clean_complex.xyz" --gfn 2 --sp --chrg 0 --uhf 0 --etemp 300 --iterations 500 --norestart
          coordinate file            : c:\Users\Andre\Proyectos doctorado\nano-qsar-ai-therapeutics\calculations\tnbc\Exatecan\Exatecan_B36N36_clean_complex.xyz
          omp threads                :                    16


molecular fragmentation (1/2 indicates fragments):
111111111111111111111111111111111111111111111122222222222222222222222222
2222222222222222222222222222222222222222222222
# atoms in fragment 1/2:    46    72
 fragment masses (1/2) :      370.38      893.44
CMA distance (Bohr)    :  17.871
constraining FC (au)   :  0.0500

           -------------------------------------------------
          |                 G F N 2 - x T B                 |
           -------------------------------------------------

        Reference                      10.1021/acs.jctc.8b01176
      * Hamiltonian:
        H0-scaling (s, p, d)           1.850000    2.230000    2.230000
        zeta-weighting                 0.500000
      * Dispersion:
        s8                             2.700000
        a1                             0.520000
        a2                             5.000000
        s9                             5.000000
      * Repulsion:
        kExp                           1.500000    1.000000
        rExp                           1.000000
      * Coulomb:
        alpha                          2.000000
        third order                    shell-resolved
        anisotropic                    true
        a3                             3.000000
        a5                             4.000000
        cn-shift                       1.200000
        cn-exp                         4.000000
        max-rad                        5.000000


          ...................................................
          :                      SETUP                      :
          :.................................................:
          :  # basis functions                 415          :
          :  # atomic orbitals                 415          :
          :  # shells                          217          :
          :  # electrons                       428          :
          :  max. iterations                   500          :
          :  Hamiltonian                  GFN2-xTB          :
          :  restarted?                      false          :
          :  GBSA solvation                  false          :
          :  PC potential                    false          :
          :  electronic temp.          300.0000000     K    :
          :  accuracy                    1.0000000          :
          :  -> integral cutoff          0.2500000E+02      :
          :  -> integral neglect         0.1000000E-07      :
          :  -> SCF convergence          0.1000000E-05 Eh   :
          :  -> wf. convergence          0.1000000E-03 e    :
          :  Broyden damping             0.4000000          :
          :  net charge                          0          :
          :  unpaired electrons                  0          :
          ...................................................

 iter      E             dE          RMSdq      gap      omega  full diag
   1   -231.0338354 -0.231034E+03  0.112E+01    0.61       0.0  T
   2   -231.4942915 -0.460456E+00  0.679E+00    0.42       1.0  T
   3   -228.5600515  0.293424E+01  0.437E+00    0.15       1.0  T
   4   -230.6817721 -0.212172E+01  0.221E+00    0.09       1.0  T
   5   -230.7940550 -0.112283E+00  0.190E+00    0.07       1.0  T
   6   -231.9637132 -0.116966E+01  0.780E-01    0.71       1.0  T
   7   -231.9811567 -0.174435E-01  0.542E-01    0.81       1.0  T
   8   -231.9759226  0.523406E-02  0.438E-01    0.75       1.0  T
   9   -231.9768275 -0.904864E-03  0.220E-01    0.75       1.0  T
  10   -231.9821378 -0.531030E-02  0.965E-02    0.76       1.0  T
  11   -231.9834064 -0.126862E-02  0.559E-02    0.71       1.0  T
  12   -231.9836110 -0.204610E-03  0.433E-02    0.73       1.0  T
  13   -231.9836505 -0.394964E-04  0.316E-02    0.73       1.0  T
  14   -231.9836802 -0.296912E-04  0.190E-02    0.73       1.0  T
  15   -231.9836877 -0.751446E-05  0.872E-03    0.73       1.1  T
  16   -231.9836895 -0.183632E-05  0.332E-03    0.73       2.8  T
  17   -231.9836898 -0.213333E-06  0.147E-03    0.73       6.3  T
  18   -231.9836898 -0.656285E-07  0.785E-04    0.73      11.7  T
  19   -231.9836899 -0.329558E-07  0.507E-04    0.73      18.2  T

   *** convergence criteria satisfied after 19 iterations ***

         #    Occupation            Energy/Eh            Energy/eV
      -------------------------------------------------------------
         1        2.0000           -0.8207378             -22.3334
       ...           ...                  ...                  ...
       208        2.0000           -0.3281803              -8.9302
       209        2.0000           -0.3257560              -8.8643
       210        2.0000           -0.3244753              -8.8294
       211        2.0000           -0.3218672              -8.7585
       212        2.0000           -0.3166498              -8.6165
       213        2.0000           -0.3143949              -8.5551
       214        2.0000           -0.3109328              -8.4609 (HOMO)
       215        0.0000           -0.2840569              -7.7296 (LUMO)
       216                         -0.2764498              -7.5226
       217                         -0.2690360              -7.3208
       218                         -0.2650583              -7.2126
       219                         -0.2533423              -6.8938
       ...                                ...                  ...
       415                          0.9827937              26.7432
      -------------------------------------------------------------
                  HL-Gap            0.0268759 Eh            0.7313 eV
             Fermi-level           -0.2974816 Eh           -8.0949 eV

 SCC (total)                   0 d,  0 h,  0 min,  0.811 sec
 SCC setup                      ...        0 min,  0.006 sec (  0.740%)
 Dispersion                     ...        0 min,  0.007 sec (  0.863%)
 classical contributions        ...        0 min,  0.000 sec (  0.000%)
 integral evaluation            ...        0 min,  0.025 sec (  3.083%)
 iterations                     ...        0 min,  0.730 sec ( 90.012%)
 molecular gradient             ...        0 min,  0.036 sec (  4.439%)
 printout                       ...        0 min,  0.006 sec (  0.740%)

         :::::::::::::::::::::::::::::::::::::::::::::::::::::
         ::                     SUMMARY                     ::
         :::::::::::::::::::::::::::::::::::::::::::::::::::::
         :: total energy            -229.651432493231 Eh    ::
         :: gradient norm              0.101835763464 Eh/a0 ::
         :: HOMO-LUMO gap              0.731330086978 eV    ::
         ::.................................................::
         :: SCC energy              -231.967493482918 Eh    ::
         :: -> isotropic ES            0.753556210015 Eh    ::
         :: -> anisotropic ES         -0.026463083062 Eh    ::
         :: -> anisotropic XC          0.077025837666 Eh    ::
         :: -> dispersion             -0.197648485002 Eh    ::
         :: repulsion energy           2.316060989687 Eh    ::
         :: add. restraining           0.000000000000 Eh    ::
         :: total charge               0.000000000002 e     ::
         :::::::::::::::::::::::::::::::::::::::::::::::::::::

           -------------------------------------------------
          |                Property Printout                |
           -------------------------------------------------

    * Orbital Energies and Occupations

         #    Occupation            Energy/Eh            Energy/eV
      -------------------------------------------------------------
         1        2.0000           -0.8207378             -22.3334
       ...           ...                  ...                  ...
       202        2.0000           -0.3405950              -9.2681
       203        2.0000           -0.3398644              -9.2482
       204        2.0000           -0.3355643              -9.1312
       205        2.0000           -0.3333070              -9.0697
       206        2.0000           -0.3317188              -9.0265
       207        2.0000           -0.3298943              -8.9769
       208        2.0000           -0.3281803              -8.9302
       209        2.0000           -0.3257560              -8.8643
       210        2.0000           -0.3244753              -8.8294
       211        2.0000           -0.3218672              -8.7585
       212        2.0000           -0.3166498              -8.6165
       213        2.0000           -0.3143949              -8.5551
       214        2.0000           -0.3109328              -8.4609 (HOMO)
       215        0.0000           -0.2840569              -7.7296 (LUMO)
       216                         -0.2764498              -7.5226
       217                         -0.2690360              -7.3208
       218                         -0.2650583              -7.2126
       219                         -0.2533423              -6.8938
       220                         -0.2463499              -6.7035
       221                         -0.2440456              -6.6408
       222                         -0.2400928              -6.5333
       223                         -0.2354403              -6.4067
       224                         -0.2317091              -6.3051
       225                         -0.2298090              -6.2534
       ...                                ...                  ...
       415                          0.9827937              26.7432
      -------------------------------------------------------------
                  HL-Gap            0.0268759 Eh            0.7313 eV
             Fermi-level           -0.2974816 Eh           -8.0949 eV

     #   Z          covCN         q      C6AA      α(0)
     1   6 C        3.748    -0.101    22.495     6.765
     2   6 C        3.797    -0.072    21.879     6.660
     3   6 C        3.775     0.117    18.702     6.162
     4   8 O        1.652    -0.437    21.585     6.272
     5   6 C        2.697     0.330    21.391     7.570
     6   8 O        0.856    -0.383    21.342     6.194
     7   8 O        1.700    -0.245    18.056     5.737
     8   6 C        3.688     0.074    19.525     6.324
     9   6 C        2.962    -0.042    29.034     8.838
    10   6 C        2.967     0.013    27.715     8.635
    11   6 C        2.910    -0.071    29.761     8.946
    12   6 C        2.974     0.064    26.552     8.452
    13   7 N        2.788    -0.047    22.148     6.990
    14   6 C        2.764     0.250    22.796     7.819
    15   8 O        0.857    -0.458    22.884     6.414
    16   6 C        3.786    -0.002    20.632     6.470
    17   6 C        3.037    -0.015    28.346     8.733
    18   6 C        3.019    -0.013    28.306     8.727
    19   6 C        2.907    -0.055    29.354     8.884
    20   6 C        2.782     0.138    24.966     8.184
    21   9 F        0.787    -0.226    11.507     4.007
    22   6 C        2.906     0.051    26.865     8.499
    23   6 C        2.962    -0.013    28.333     8.731
    24   6 C        3.808    -0.062    21.685     6.629
    25   6 C        3.804    -0.061    21.670     6.627
    26   6 C        3.745     0.009    20.487     6.456
    27   7 N        2.685    -0.182    24.947     7.418
    28   1 H        0.924     0.038     2.474     2.460
    29   1 H        0.924     0.043     2.408     2.427
    30   1 H        0.924     0.041     2.438     2.442
    31   1 H        0.924     0.057     2.233     2.337
    32   1 H        0.924     0.048     2.349     2.397
    33   1 H        0.804     0.297     0.729     1.342
    34   1 H        0.924     0.097     1.815     2.107
    35   1 H        0.924     0.080     1.983     2.202
    36   1 H        0.925     0.067     2.121     2.277
    37   1 H        0.924     0.083     1.947     2.182
    38   1 H        0.924     0.081     1.971     2.195
    39   1 H        0.925     0.068     2.103     2.268
    40   1 H        0.924     0.050     2.325     2.385
    41   1 H        0.924     0.051     2.303     2.373
    42   1 H        0.924     0.043     2.412     2.429
    43   1 H        0.923     0.052     2.300     2.372
    44   1 H        0.924     0.045     2.388     2.417
    45   1 H        0.924     0.030     2.580     2.512
    46   1 H        0.860     0.167     1.291     1.780
    47   5 B        2.781     0.075    20.208     7.516
    48   7 N        2.774    -0.229    25.992     7.572
    49   5 B        2.788     0.091    19.941     7.465
    50   7 N        2.524    -0.314    28.129     7.877
    51   5 B        2.779     0.083    20.092     7.495
    52   7 N        2.655    -0.267    26.913     7.705
    53   5 B        2.849     0.241    17.668     7.018
    54   7 N        2.529    -0.272    27.078     7.728
    55   5 B        3.195     0.150    18.926     7.256
    56   7 N        2.979    -0.110    23.394     7.184
    57   5 B        2.644     0.373    16.322     6.813
    58   7 N        2.669    -0.212    25.621     7.518
    59   5 B        3.181     0.022    20.995     7.642
    60   7 N        2.888    -0.223    25.854     7.552
    61   5 B        3.009     0.209    18.075     7.092
    62   7 N        2.660    -0.163    24.526     7.355
    63   5 B        2.906     0.319    16.613     6.802
    64   7 N        3.156    -0.085    22.888     7.106
    65   5 B        2.779     0.094    19.911     7.461
    66   7 N        3.037    -0.129    23.786     7.244
    67   5 B        2.758     0.090    20.000     7.483
    68   7 N        2.634    -0.307    27.915     7.847
    69   5 B        3.040     0.227    17.827     7.043
    70   7 N        2.981    -0.006    21.365     6.865
    71   5 B        2.582     0.326    17.304     7.087
    72   7 N        2.596    -0.360    29.296     8.039
    73   5 B        3.287     0.340    16.332     6.740
    74   7 N        2.784    -0.254    26.587     7.658
    75   5 B        2.559     0.321    17.579     7.181
    76   7 N        2.579    -0.367    29.489     8.065
    77   5 B        2.530     0.301    18.223     7.377
    78   7 N        2.665    -0.204    25.443     7.491
    79   5 B        2.698     0.196    18.508     7.220
    80   7 N        2.844    -0.167    24.603     7.367
    81   5 B        2.758     0.082    20.125     7.506
    82   7 N        2.672    -0.174    24.768     7.391
    83   5 B        2.877     0.110    19.575     7.385
    84   7 N        2.663    -0.143    24.106     7.292
    85   5 B        2.594     0.312    17.392     7.086
    86   7 N        2.519    -0.354    29.156     8.019
    87   5 B        2.684     0.183    18.727     7.270
    88   7 N        3.008    -0.131    23.837     7.251
    89   5 B        2.677     0.210    18.359     7.202
    90   7 N        2.716    -0.248    26.444     7.637
    91   5 B        2.647     0.164    19.169     7.381
    92   7 N        2.825    -0.206    25.481     7.497
    93   5 B        3.321     0.229    17.790     7.033
    94   7 N        2.531    -0.286    27.403     7.774
    95   5 B        2.950     0.036    20.772     7.604
    96   7 N        2.783    -0.183    24.963     7.421
    97   5 B        2.796     0.085    20.042     7.482
    98   7 N        2.673    -0.155    24.358     7.330
    99   5 B        3.021     0.210    18.060     7.089
   100   7 N        3.272     0.015    20.980     6.803
   101   5 B        2.869     0.305    16.809     6.844
   102   7 N        3.154    -0.114    23.486     7.198
   103   5 B        3.263     0.320    16.584     6.792
   104   7 N        2.833    -0.060    22.402     7.030
   105   5 B        3.303     0.231    17.765     7.029
   106   7 N        2.656    -0.184    24.984     7.424
   107   5 B        2.838     0.112    19.566     7.387
   108   7 N        2.834    -0.223    25.872     7.554
   109   5 B        2.863     0.252    17.506     6.985
   110   7 N        2.654    -0.228    25.986     7.571
   111   5 B        3.011     0.114    19.484     7.363
   112   7 N        3.153    -0.086    22.904     7.108
   113   5 B        2.674     0.203    18.481     7.228
   114   7 N        2.696    -0.232    26.067     7.583
   115   5 B        2.585     0.370    16.713     6.960
   116   7 N        2.881    -0.181    24.921     7.414
   117   5 B        2.825     0.106    19.675     7.409
   118   7 N        2.827    -0.253    26.557     7.654

 Mol. C6AA /au·bohr⁶  :     242158.643458
 Mol. C8AA /au·bohr⁸  :    6701261.453037
 Mol. α(0) /au        :        768.891051


Wiberg/Mayer (AO) data.
largest (>0.10) Wiberg bond orders for each atom

 ---------------------------------------------------------------------------
     #   Z sym  total        # sym  WBO       # sym  WBO       # sym  WBO
 ---------------------------------------------------------------------------
     1   6 C    3.995 --     2 C    1.019    30 H    0.986    28 H    0.986
                            29 H    0.983
     2   6 C    3.990 --     1 C    1.019     3 C    0.978    32 H    0.974
                            31 H    0.971
     3   6 C    3.948 --     2 C    0.978    10 C    0.974     4 O    0.961
                             5 C    0.905
     4   8 O    1.970 --     3 C    0.961    33 H    0.894
     5   6 C    3.912 --     6 O    1.759     7 O    1.151     3 C    0.905
     6   8 O    2.053 --     5 C    1.759     7 O    0.170
     7   8 O    2.334 --     5 C    1.151     8 C    0.934     6 O    0.170
     8   6 C    3.921 --     9 C    1.020    34 H    0.954    35 H    0.944
                             7 O    0.934
     9   6 C    3.962 --    10 C    1.612    14 C    1.061     8 C    1.020
    10   6 C    3.984 --     9 C    1.612    11 C    1.205     3 C    0.974
    11   6 C    3.959 --    12 C    1.553    10 C    1.205    36 H    0.958
    12   6 C    3.962 --    11 C    1.553    13 N    1.150    18 C    1.084
    13   7 N    3.601 --    14 C    1.154    12 C    1.150    16 C    0.977
                            15 O    0.159
    14   6 C    3.956 --    15 O    1.629    13 N    1.154     9 C    1.061
    15   8 O    1.974 --    14 C    1.629    13 N    0.159
    16   6 C    3.967 --    17 C    1.017    13 N    0.977    37 H    0.948
                            38 H    0.947
    17   6 C    3.983 --    23 C    1.421    18 C    1.320    16 C    1.017
    18   6 C    3.984 --    19 C    1.376    17 C    1.320    12 C    1.084
    19   6 C    3.977 --    20 C    1.425    18 C    1.376    39 H    0.963
    20   6 C    3.874 --    19 C    1.425    22 C    1.299    21 F    0.956
    21   9 F    1.087 --    20 C    0.956
    22   6 C    3.954 --    23 C    1.320    20 C    1.299    27 N    1.147
    23   6 C    3.984 --    17 C    1.421    22 C    1.320    24 C    1.013
    24   6 C    3.997 --    23 C    1.013    25 C    1.007    40 H    0.966
                            41 H    0.958
    25   6 C    3.996 --    26 C    1.008    24 C    1.007    43 H    0.976
                            42 H    0.976
    26   6 C    3.979 --    25 C    1.008    27 N    1.000    44 H    0.973
                            45 H    0.968
    27   7 N    3.287 --    22 C    1.147    26 C    1.000    46 H    0.942
    28   1 H    0.998 --     1 C    0.986
    29   1 H    0.998 --     1 C    0.983
    30   1 H    0.998 --     1 C    0.986
    31   1 H    0.996 --     2 C    0.971
    32   1 H    0.998 --     2 C    0.974
    33   1 H    0.911 --     4 O    0.894
    34   1 H    0.990 --     8 C    0.954
    35   1 H    0.992 --     8 C    0.944
    36   1 H    0.995 --    11 C    0.958
    37   1 H    0.992 --    16 C    0.948
    38   1 H    0.992 --    16 C    0.947
    39   1 H    0.994 --    19 C    0.963
    40   1 H    0.997 --    24 C    0.966
    41   1 H    0.997 --    24 C    0.958
    42   1 H    0.997 --    25 C    0.976
    43   1 H    0.997 --    25 C    0.976
    44   1 H    0.997 --    26 C    0.973
    45   1 H    0.998 --    26 C    0.968
    46   1 H    0.971 --    27 N    0.942
    47   5 B    3.478 --   116 N    1.281    99 B    1.000    93 B    0.970
    48   7 N    3.397 --    93 B    1.143   106 N    1.007   105 B    1.000
    49   5 B    3.465 --    94 N    1.277   117 B    0.978   105 B    0.959
    50   7 N    3.530 --   109 B    1.152   107 B    1.150    77 B    1.018
    51   5 B    3.465 --    84 N    1.241   113 B    0.995    87 B    0.990
    52   7 N    3.267 --    73 B    1.202   115 B    0.968   110 N    0.889
    53   5 B    3.408 --    86 N    1.177    60 N    1.033    69 B    0.963
    54   7 N    3.568 --    67 B    1.277    55 B    1.158   111 B    0.973
    55   5 B    3.393 --    54 N    1.158    97 B    0.932    95 B    0.640
                            59 B    0.293
    56   7 N    3.323 --    61 B    1.113   100 N    1.043   112 N    0.945
    57   5 B    3.433 --    58 N    1.186    68 N    1.127    96 N    0.962
    58   7 N    3.446 --    57 B    1.186    85 B    1.087    98 N    0.967
    59   5 B    3.456 --    95 B    1.285   111 B    1.004   109 B    0.627
                            55 B    0.293
    60   7 N    3.427 --    63 B    1.233    53 B    1.033    74 N    0.929
    61   5 B    3.390 --    56 N    1.113    80 N    1.039   107 B    1.005
    62   7 N    3.510 --    65 B    1.206    85 B    1.123    82 N    0.999
    63   5 B    3.514 --    60 N    1.233    88 N    1.071   108 N    1.002
    64   7 N    3.345 --   113 B    1.139   116 N    0.990    66 N    0.982
    65   5 B    3.414 --    62 N    1.206    83 B    1.008    97 B    0.926
    66   7 N    3.325 --   101 B    1.135    64 N    0.982    70 N    0.973
    67   5 B    3.463 --    54 N    1.277    81 B    0.978    91 B    0.932
    68   7 N    3.220 --    57 B    1.127    71 B    1.068    96 N    0.793
    69   5 B    3.368 --    82 N    1.152    74 N    0.991    53 B    0.963
    70   7 N    3.095 --    88 N    1.013    66 N    0.973   114 N    0.938
    71   5 B    3.511 --   108 N    1.245    68 N    1.068    86 N    0.989
    72   7 N    3.433 --    77 B    1.201   105 B    1.062    93 B    0.926
    73   5 B    3.481 --    52 N    1.202    90 N    1.041    76 N    0.980
    74   7 N    3.282 --    79 B    1.169    69 B    0.991    60 N    0.929
    75   5 B    3.523 --   110 N    1.213   114 N    1.118   102 N    1.033
    76   7 N    3.432 --    89 B    1.220   103 B    0.994    73 B    0.980
    77   5 B    3.519 --    72 N    1.201   118 N    1.099    50 N    1.018
    78   7 N    3.442 --   115 B    1.260    89 B    0.998   104 N    0.990
    79   5 B    3.445 --    74 N    1.169   106 N    1.122   117 B    0.923
    80   7 N    3.470 --    81 B    1.260    61 B    1.039   112 N    0.984
    81   5 B    3.420 --    80 N    1.260    67 B    0.978    89 B    0.959
    82   7 N    3.511 --   117 B    1.171    69 B    1.152    62 N    0.999
    83   5 B    3.347 --    95 B    1.009    65 B    1.008    94 N    0.963
    84   7 N    3.510 --    51 B    1.241    87 B    1.093    90 N    1.036
    85   5 B    3.515 --    62 N    1.123    86 N    1.104    58 N    1.087
    86   7 N    3.477 --    53 B    1.177    85 B    1.104    71 B    0.989
    87   5 B    3.464 --    92 N    1.178    84 N    1.093    51 B    0.990
    88   7 N    3.260 --    63 B    1.071    70 N    1.013   102 N    0.975
    89   5 B    3.391 --    76 N    1.220    78 N    0.998    81 B    0.959
    90   7 N    3.373 --    73 B    1.041    84 N    1.036   103 B    0.985
    91   5 B    3.454 --   104 N    1.192    98 N    1.079    67 B    0.932
    92   7 N    3.407 --    87 B    1.178    99 B    1.073   100 N    0.959
    93   5 B    3.366 --    48 N    1.143    47 B    0.970    72 N    0.926
                           105 B    0.127
    94   7 N    3.561 --    49 B    1.277   109 B    1.105    83 B    0.963
    95   5 B    3.367 --    59 B    1.285    83 B    1.009    55 B    0.640
                           109 B    0.186
    96   7 N    2.988 --   104 N    1.045    57 B    0.962    68 N    0.793
    97   5 B    3.456 --    98 N    1.267    55 B    0.932    65 B    0.926
    98   7 N    3.481 --    97 B    1.267    91 B    1.079    58 N    0.967
    99   5 B    3.443 --   118 N    1.131    92 N    1.073    47 B    1.000
   100   7 N    3.187 --    56 N    1.043    92 N    0.959   118 N    0.950
   101   5 B    3.524 --   106 N    1.164    66 N    1.135   116 N    0.994
   102   7 N    3.217 --    75 B    1.033   108 N    0.984    88 N    0.975
   103   5 B    3.507 --   112 N    1.264    76 N    0.994    90 N    0.985
   104   7 N    3.441 --    91 B    1.192    96 N    1.045    78 N    0.990
   105   5 B    3.326 --    72 N    1.062    48 N    1.000    49 B    0.959
                            93 B    0.127
   106   7 N    3.490 --   101 B    1.164    79 B    1.122    48 N    1.007
   107   5 B    3.385 --    50 N    1.150    61 B    1.005   111 B    1.002
   108   7 N    3.447 --    71 B    1.245    63 B    1.002   102 N    0.984
   109   5 B    3.443 --    50 N    1.152    94 N    1.105    59 B    0.627
                            95 B    0.186   111 B    0.120
   110   7 N    3.335 --    75 B    1.213   115 B    1.036    52 N    0.889
   111   5 B    3.333 --    59 B    1.004   107 B    1.002    54 N    0.973
                           109 B    0.120
   112   7 N    3.439 --   103 B    1.264    80 N    0.984    56 N    0.945
   113   5 B    3.445 --    64 N    1.139   114 N    1.118    51 B    0.995
   114   7 N    3.392 --    75 B    1.118   113 B    1.118    70 N    0.938
   115   5 B    3.438 --    78 N    1.260   110 N    1.036    52 N    0.968
   116   7 N    3.473 --    47 B    1.281   101 B    0.994    64 N    0.990
   117   5 B    3.360 --    82 N    1.171    49 B    0.978    79 B    0.923
   118   7 N    3.418 --    99 B    1.131    77 B    1.099   100 N    0.950
 ---------------------------------------------------------------------------

Topologies differ in total number of bonds
Writing topology from bond orders to xtbtopo.mol

molecular dipole:
                 x           y           z       tot (Debye)
 q only:        4.594       2.949      -3.661
   full:        2.757       2.211      -1.763      10.038
molecular quadrupole (traceless):
                xx          xy          yy          xz          yz          zz
 q only:      -12.188     -22.687     -15.154      74.887      11.082      27.342
  q+dip:        5.685     -25.167       0.196      64.358      20.904      -5.881
   full:        9.572     -24.411      -3.403      67.491      22.280      -6.169


           -------------------------------------------------
          | TOTAL ENERGY             -229.651432493231 Eh   |
          | GRADIENT NORM               0.101835763464 Eh/α |
          | HOMO-LUMO GAP               0.731330086978 eV   |
           -------------------------------------------------

------------------------------------------------------------------------
 * finished run on 2026/08/31 at 22:22:03.057     
------------------------------------------------------------------------
 total:
 * wall-time:     0 d,  0 h,  0 min,  0.896 sec
 *  cpu-time:     0 d,  0 h,  0 min,  7.328 sec
 * ratio c/w:     8.179 speedup
 SCF:
 * wall-time:     0 d,  0 h,  0 min,  0.813 sec
 *  cpu-time:     0 d,  0 h,  0 min,  7.016 sec
 * ratio c/w:     8.629 speedup

normal termination of xtb
