      -----------------------------------------------------------      
     |                   =====================                   |     
     |                           x T B                           |     
     |                   =====================                   |     
     |                         S. Grimme                         |     
     |          Mulliken Center for Theoretical Chemistry        |     
     |                    University of Bonn                     |     
      -----------------------------------------------------------      

   * xtb version 6.7.1pre (5071a88) compiled by 'Marcel@Raven' on 2024-07-23

   xtb is free software: you can redistribute it and/or modify it under
   the terms of the GNU Lesser General Public License as published by
   the Free Software Foundation, either version 3 of the License, or
   (at your option) any later version.
   
   xtb is distributed in the hope that it will be useful,
   but WITHOUT ANY WARRANTY; without even the implied warranty of
   MERCHANTABILITY or FITNESS FOR A PARTICULAR PURPOSE.  See the
   GNU Lesser General Public License for more details.
   
   Cite this work as:
   * C. Bannwarth, E. Caldeweyher, S. Ehlert, A. Hansen, P. Pracht,
     J. Seibert, S. Spicher, S. Grimme, WIREs Comput. Mol. Sci., 2020, 11,
     e01493. DOI: 10.1002/wcms.1493
   
   for GFN2-xTB:
   * C. Bannwarth, S. Ehlert and S. Grimme., J. Chem. Theory Comput., 2019,
     15, 1652-1671. DOI: 10.1021/acs.jctc.8b01176
   for GFN1-xTB:
   * S. Grimme, C. Bannwarth, P. Shushkov, J. Chem. Theory Comput., 2017,
     13, 1989-2009. DOI: 10.1021/acs.jctc.7b00118
   for GFN0-xTB:
   * P. Pracht, E. Caldeweyher, S. Ehlert, S. Grimme, ChemRxiv, 2019, preprint.
     DOI: 10.26434/chemrxiv.8326202.v1
   for GFN-FF:
   * S. Spicher and S. Grimme, Angew. Chem. Int. Ed., 2020, 59, 15665-15673.
     DOI: 10.1002/anie.202004239
   
   for ALPB and GBSA implicit solvation:
   * S. Ehlert, M. Stahn, S. Spicher, S. Grimme, J. Chem. Theory Comput.,
     2021, 17, 4250-4261. DOI: 10.1021/acs.jctc.1c00471
   
   for ddCOSMO and CPCM-X implicit solvation:
   * M. Stahn, S. Ehlert, S. Grimme, J. Phys. Chem. A,
     2023, XX, XXXX-XXXX. DOI: 10.1021/acs.jpca.3c04382
   
   for DFT-D4:
   * E. Caldeweyher, C. Bannwarth and S. Grimme, J. Chem. Phys., 2017,
     147, 034112. DOI: 10.1063/1.4993215
   * E. Caldeweyher, S. Ehlert, A. Hansen, H. Neugebauer, S. Spicher,
     C. Bannwarth and S. Grimme, J. Chem. Phys., 2019, 150, 154122.
     DOI: 10.1063/1.5090222
   * E. Caldeweyher, J.-M. Mewes, S. Ehlert and S. Grimme, Phys. Chem. Chem. Phys.
     2020, 22, 8499-8512. DOI: 10.1039/D0CP00502A
   
   for sTDA-xTB:
   * S. Grimme and C. Bannwarth, J. Chem. Phys., 2016, 145, 054103.
     DOI: 10.1063/1.4959605
   
   in the mass-spec context:
   * V. Asgeirsson, C. Bauer and S. Grimme, Chem. Sci., 2017, 8, 4879.
     DOI: 10.1039/c7sc00601b
   * J. Koopman and S. Grimme, ACS Omega 2019, 4, 12, 15120-15133.
     DOI: 10.1021/acsomega.9b02011
   
   for metadynamics refer to:
   * S. Grimme, J. Chem. Theory Comput., 2019, 155, 2847-2862
     DOI: 10.1021/acs.jctc.9b00143
   
   for SPH calculations refer to:
   * S. Spicher and S. Grimme, J. Chem. Theory Comput., 2021, 17, 1701-1714
     DOI: 10.1021/acs.jctc.0c01306
   
   for ONIOM refer to:
   * C. Plett, A. Katbashev, S. Ehlert, S. Grimme, M. Bursch,
     Phys. Chem. Chem. Phys., 2023, 25, 17860-17868. DOI: 10.1039/D3CP02178E
   
   for DIPRO refer to:
   * J. Kohn, N. Gildemeister, S. Grimme, D. Fazzi, A. Hansen,
     J. Chem. Phys., 2023, just accepted.
   
   for PTB refer to:
   * S. Grimme, M. Mueller, A. Hansen, J. Chem. Phys., 2023, 158, 124111.
     DOI: 10.1063/5.0137838
   
   with help from (in alphabetical order)
   P. Atkinson, C. Bannwarth, F. Bohle, G. Brandenburg, E. Caldeweyher
   M. Checinski, S. Dohm, S. Ehlert, S. Ehrlich, I. Gerasimov, C. Hölzer
   A. Katbashev, J. Kohn, J. Koopman, C. Lavigne, S. Lehtola, F. März, M. Müller,
   F. Musil, H. Neugebauer, J. Pisarek, C. Plett, P. Pracht, F. Pultar,
   J. Seibert, P. Shushkov, S. Spicher, M. Stahn, M. Steiner, T. Strunk,
   J. Stückrath, T. Rose, and J. Unsleber
   
 * started run on 2026/08/31 at 18:34:38.232     
   ID    Z sym.   atoms
    1    6 C      1-3, 5, 8-12, 14, 16-20, 22-26
    2    8 O      4, 6, 7, 15
    3    7 N      13, 27, 83-118
    4    9 F      21
    5    1 H      28-46
    6    5 B      47-82

           -------------------------------------------------
          |                Calculation Setup                |
           -------------------------------------------------

          program call               : "c:\Users\Andre\Proyectos doctorado\kras-pancreatic-gC3N4-ai\tools\xtb\xtb-6.7.1\bin\xtb.exe" "c:\Users\Andre\Proyectos doctorado\nano-qsar-ai-therapeutics\calculations\tnbc\Exatecan\Exatecan_B36N36_complex.xyz" --gfn 2 --sp --chrg 0 --uhf 0 --iterations 500 --norestart
          coordinate file            : c:\Users\Andre\Proyectos doctorado\nano-qsar-ai-therapeutics\calculations\tnbc\Exatecan\Exatecan_B36N36_complex.xyz
          omp threads                :                    16


molecular fragmentation (1/2 indicates fragments):
111111111111111111111111111111111111111111111111111111111111221212111111
1111111111111111111111112212121111111111111111
# atoms in fragment 1/2:   110     8
 fragment masses (1/2) :     1164.54       99.27
CMA distance (Bohr)    :   6.581
constraining FC (au)   :  0.0500

           -------------------------------------------------
          |                 G F N 2 - x T B                 |
           -------------------------------------------------

        Reference                      10.1021/acs.jctc.8b01176
      * Hamiltonian:
        H0-scaling (s, p, d)           1.850000    2.230000    2.230000
        zeta-weighting                 0.500000
      * Dispersion:
        s8                             2.700000
        a1                             0.520000
        a2                             5.000000
        s9                             5.000000
      * Repulsion:
        kExp                           1.500000    1.000000
        rExp                           1.000000
      * Coulomb:
        alpha                          2.000000
        third order                    shell-resolved
        anisotropic                    true
        a3                             3.000000
        a5                             4.000000
        cn-shift                       1.200000
        cn-exp                         4.000000
        max-rad                        5.000000


          ...................................................
          :                      SETUP                      :
          :.................................................:
          :  # basis functions                 415          :
          :  # atomic orbitals                 415          :
          :  # shells                          217          :
          :  # electrons                       428          :
          :  max. iterations                   500          :
          :  Hamiltonian                  GFN2-xTB          :
          :  restarted?                      false          :
          :  GBSA solvation                  false          :
          :  PC potential                    false          :
          :  electronic temp.          300.0000000     K    :
          :  accuracy                    1.0000000          :
          :  -> integral cutoff          0.2500000E+02      :
          :  -> integral neglect         0.1000000E-07      :
          :  -> SCF convergence          0.1000000E-05 Eh   :
          :  -> wf. convergence          0.1000000E-03 e    :
          :  Broyden damping             0.4000000          :
          :  net charge                          0          :
          :  unpaired electrons                  0          :
          ...................................................

 iter      E             dE          RMSdq      gap      omega  full diag
   1   -216.3502169 -0.216350E+03  0.143E+01    0.08       0.0  T
   2   -196.2989343  0.200513E+02  0.115E+01    0.16       1.0  T
   3    -27.2831378  0.169016E+03  0.136E+01    0.28       1.0  T
   4     51.5710686  0.788542E+02  0.138E+01    0.06       1.0  T
   5   -149.0978149 -0.200669E+03  0.953E+00    0.13       1.0  T
   6   -220.2383646 -0.711405E+02  0.541E+00    0.07       1.0  T
   7   -224.3463171 -0.410795E+01  0.380E+00    0.17       1.0  T
   8   -224.9560235 -0.609706E+00  0.327E+00    0.34       1.0  T
   9   -224.9516388  0.438470E-02  0.296E+00    0.39       1.0  T
  10   -225.5213149 -0.569676E+00  0.221E+00    0.15       1.0  T
  11   -225.0870020  0.434313E+00  0.209E+00    0.34       1.0  T
  12   -226.3307226 -0.124372E+01  0.137E+00    0.08       1.0  T
  13   -225.9386872  0.392035E+00  0.139E+00    0.15       1.0  T
  14   -226.4224624 -0.483775E+00  0.992E-01    0.03       1.0  T
  15   -226.5721016 -0.149639E+00  0.599E-01    0.09       1.0  T
  16   -226.4771508  0.949509E-01  0.655E-01    0.11       1.0  T
  17   -226.4275249  0.496258E-01  0.897E-01    0.21       1.0  T
  18   -226.5027216 -0.751966E-01  0.715E-01    0.19       1.0  T
  19   -226.5403208 -0.375992E-01  0.512E-01    0.12       1.0  T
  20   -226.5789598 -0.386390E-01  0.273E-01    0.10       1.0  T
  21   -226.6078338 -0.288740E-01  0.150E-01    0.08       1.0  T
  22   -226.6042053  0.362843E-02  0.176E-01    0.08       1.0  T
  23   -226.6134328 -0.922742E-02  0.935E-02    0.08       1.0  T
  24   -226.6148710 -0.143821E-02  0.896E-02    0.08       1.0  T
  25   -226.6145616  0.309346E-03  0.969E-02    0.08       1.0  T
  26   -226.6080744  0.648720E-02  0.179E-01    0.09       1.0  T
  27   -226.6135249 -0.545051E-02  0.108E-01    0.08       1.0  T
  28   -226.6151659 -0.164096E-02  0.792E-02    0.08       1.0  T
  29   -226.6164225 -0.125663E-02  0.464E-02    0.08       1.0  T
  30   -226.6170225 -0.599987E-03  0.102E-02    0.08       1.0  T
  31   -226.6169613  0.611716E-04  0.171E-02    0.07       1.0  T
  32   -226.6169982 -0.368980E-04  0.126E-02    0.08       1.0  T
  33   -226.6170324 -0.341931E-04  0.424E-03    0.08       2.2  T
  34   -226.6170371 -0.463299E-05  0.993E-04    0.08       9.3  T
  35   -226.6170373 -0.223947E-06  0.471E-04    0.08      19.6  T
  36   -226.6170373 -0.192011E-07  0.389E-04    0.08      23.6  T

   *** convergence criteria satisfied after 36 iterations ***

         #    Occupation            Energy/Eh            Energy/eV
      -------------------------------------------------------------
         1        2.0000           -0.9437294             -25.6802
       ...           ...                  ...                  ...
       208        2.0000           -0.1691512              -4.6028
       209        2.0000           -0.1630858              -4.4378
       210        2.0000           -0.1608662              -4.3774
       211        2.0000           -0.1474743              -4.0130
       212        2.0000           -0.1420598              -3.8656
       213        1.9873           -0.1355693              -3.6890
       214        1.6283           -0.1321695              -3.5965 (HOMO)
       215        0.3755           -0.1293747              -3.5205 (LUMO)
       216        0.0088           -0.1256155              -3.4182
       217        0.0000           -0.1203054              -3.2737
       218                         -0.1027786              -2.7967
       219                         -0.1002439              -2.7278
       ...                                ...                  ...
       415                         47.5231208            1293.1699
      -------------------------------------------------------------
                  HL-Gap            0.0027948 Eh            0.0760 eV
             Fermi-level           -0.1307661 Eh           -3.5583 eV

 SCC (total)                   0 d,  0 h,  0 min,  0.844 sec
 SCC setup                      ...        0 min,  0.001 sec (  0.119%)
 Dispersion                     ...        0 min,  0.004 sec (  0.474%)
 classical contributions        ...        0 min,  0.000 sec (  0.000%)
 integral evaluation            ...        0 min,  0.014 sec (  1.659%)
 iterations                     ...        0 min,  0.788 sec ( 93.365%)
 molecular gradient             ...        0 min,  0.035 sec (  4.147%)
 printout                       ...        0 min,  0.002 sec (  0.237%)

         :::::::::::::::::::::::::::::::::::::::::::::::::::::
         ::                     SUMMARY                     ::
         :::::::::::::::::::::::::::::::::::::::::::::::::::::
         :: total energy               2.322044309356 Eh    ::
         :: gradient norm            161.401228141741 Eh/a0 ::
         :: HOMO-LUMO gap              0.076049445395 eV    ::
         ::.................................................::
         :: SCC energy              -226.581062854088 Eh    ::
         :: -> isotropic ES            0.983585579556 Eh    ::
         :: -> anisotropic ES          0.157871507172 Eh    ::
         :: -> anisotropic XC          0.244699338656 Eh    ::
         :: -> dispersion             -0.344233359280 Eh    ::
         :: repulsion energy         228.903107163444 Eh    ::
         :: add. restraining           0.000000000000 Eh    ::
         :: total charge              -0.000000000000 e     ::
         :::::::::::::::::::::::::::::::::::::::::::::::::::::

           -------------------------------------------------
          |                Property Printout                |
           -------------------------------------------------

    * Orbital Energies and Occupations

         #    Occupation            Energy/Eh            Energy/eV
      -------------------------------------------------------------
         1        2.0000           -0.9437294             -25.6802
       ...           ...                  ...                  ...
       202        2.0000           -0.1970283              -5.3614
       203        2.0000           -0.1953088              -5.3146
       204        2.0000           -0.1920454              -5.2258
       205        2.0000           -0.1826555              -4.9703
       206        2.0000           -0.1788145              -4.8658
       207        2.0000           -0.1732911              -4.7155
       208        2.0000           -0.1691512              -4.6028
       209        2.0000           -0.1630858              -4.4378
       210        2.0000           -0.1608662              -4.3774
       211        2.0000           -0.1474743              -4.0130
       212        2.0000           -0.1420598              -3.8656
       213        1.9873           -0.1355693              -3.6890
       214        1.6283           -0.1321695              -3.5965 (HOMO)
       215        0.3755           -0.1293747              -3.5205 (LUMO)
       216        0.0088           -0.1256155              -3.4182
       217        0.0000           -0.1203054              -3.2737
       218                         -0.1027786              -2.7967
       219                         -0.1002439              -2.7278
       220                         -0.0929138              -2.5283
       221                         -0.0856887              -2.3317
       222                         -0.0836514              -2.2763
       223                         -0.0828028              -2.2532
       224                         -0.0772678              -2.1026
       225                         -0.0685250              -1.8647
       ...                                ...                  ...
       415                         47.5231208            1293.1699
      -------------------------------------------------------------
                  HL-Gap            0.0027948 Eh            0.0760 eV
             Fermi-level           -0.1307661 Eh           -3.5583 eV

     #   Z          covCN         q      C6AA      α(0)
     1   6 C        7.953    -0.005    20.573     6.442
     2   6 C        8.382     0.111    18.678     6.138
     3   6 C        7.178    -0.274    25.980     7.239
     4   8 O        5.349    -0.056    15.190     5.264
     5   6 C        6.379     0.289    16.181     5.713
     6   8 O        1.668    -0.807    30.685     7.478
     7   8 O        4.907    -0.236    17.880     5.711
     8   6 C        8.328    -0.135    22.985     6.809
     9   6 C        7.110    -0.140    23.101     6.826
    10   6 C        5.205    -0.216    24.678     7.055
    11   6 C        2.922    -0.290    36.053     9.847
    12   6 C        2.974    -0.010    28.266     8.721
    13   7 N        2.788    -0.109    23.376     7.181
    14   6 C        4.314    -0.031    21.042     6.515
    15   8 O        4.077    -0.218    17.588     5.664
    16   6 C        4.462    -0.219    24.734     7.063
    17   6 C        3.350    -0.158    28.922     8.476
    18   6 C        3.019    -0.067    29.647     8.932
    19   6 C        4.285    -0.370    28.299     7.555
    20   6 C        7.569     0.029    20.003     6.352
    21   9 F        3.801    -0.144    10.659     3.858
    22   6 C        8.341     0.282    16.262     5.727
    23   6 C        7.198    -0.297    26.509     7.312
    24   6 C        8.626     0.142    18.210     6.060
    25   6 C        4.717    -0.159    23.470     6.880
    26   6 C        3.747    -0.020    21.001     6.537
    27   7 N        6.443    -0.189    25.078     7.438
    28   1 H        0.943    -0.182     9.538     4.828
    29   1 H        3.560     0.479     0.354     0.929
    30   1 H        1.319    -0.268    17.594     6.548
    31   1 H        1.763    -0.180     9.372     4.779
    32   1 H        3.183     0.613     0.227     0.745
    33   1 H        0.804     0.126     1.592     1.982
    34   1 H        2.228     0.090     1.863     2.131
    35   1 H        2.712     0.236     0.928     1.504
    36   1 H        0.926     0.045     2.385     2.415
    37   1 H        1.995     0.274     0.786     1.384
    38   1 H        0.924     0.051     2.309     2.376
    39   1 H        0.954     0.081     1.962     2.189
    40   1 H        2.767     0.529     0.298     0.853
    41   1 H        3.091     0.440     0.407     0.996
    42   1 H        0.924    -0.026     3.543     2.944
    43   1 H        0.925     0.051     2.310     2.377
    44   1 H        0.924    -0.006     3.163     2.781
    45   1 H        0.924     0.020     2.731     2.585
    46   1 H        1.043     0.128     1.541     1.939
    47   5 B        5.102     0.094    21.076     7.397
    48   5 B        5.102     0.126    20.547     7.304
    49   5 B        5.102     0.122    20.613     7.315
    50   5 B        5.102     0.104    20.900     7.366
    51   5 B        8.895     0.246    18.697     6.967
    52   5 B        7.664     0.068    21.523     7.475
    53   5 B        6.483     0.223    19.038     7.030
    54   5 B        5.131     0.149    20.165     7.235
    55   5 B        8.066    -0.221    27.419     8.437
    56   5 B        9.129     0.151    20.140     7.231
    57   5 B        5.925    -0.026    23.244     7.768
    58   5 B        6.364     0.165    19.910     7.189
    59   5 B        1.850     0.108    40.766    13.448
    60   5 B        1.850     0.052    42.673    13.759
    61   5 B        1.850     0.091    41.328    13.540
    62   5 B        1.850     0.093    41.255    13.528
    63   5 B        1.850     0.055    42.555    13.740
    64   5 B        1.864     0.118    40.420    13.389
    65   5 B        2.861     0.271    17.252     6.934
    66   5 B        1.850     0.096    41.178    13.516
    67   5 B        4.359     0.442    16.133     6.472
    68   5 B        2.776     0.058    20.501     7.571
    69   5 B        3.344     0.082    20.004     7.458
    70   5 B        5.841     0.443    16.115     6.468
    71   5 B        4.397     0.278    18.246     6.882
    72   5 B        4.397     0.285    18.149     6.864
    73   5 B        4.398     0.278    18.243     6.882
    74   5 B        4.397     0.282    18.189     6.872
    75   5 B        6.379     0.259    18.504     6.931
    76   5 B        7.228     0.012    22.516     7.646
    77   5 B        6.479     0.301    17.930     6.823
    78   5 B        4.559     0.299    17.959     6.828
    79   5 B        5.642     0.121    20.630     7.318
    80   5 B        7.747     0.383    16.846     6.613
    81   5 B        7.424    -0.350    30.740     8.933
    82   5 B        7.008    -0.015    23.027     7.732
    83   7 N        4.372    -0.072    22.637     7.066
    84   7 N        4.372    -0.135    23.908     7.262
    85   7 N        4.372    -0.057    22.327     7.018
    86   7 N        4.372    -0.066    22.509     7.046
    87   7 N        8.006     0.311    16.351     6.006
    88   7 N        6.316    -0.137    23.960     7.270
    89   7 N        5.844    -0.313    28.045     7.865
    90   7 N        4.379    -0.131    23.835     7.251
    91   7 N        7.708     0.763    11.404     5.016
    92   7 N        8.286     0.762    11.417     5.018
    93   7 N        5.323     0.161    18.535     6.394
    94   7 N        6.266    -0.232    26.063     7.582
    95   7 N        0.932    -0.162    24.386     7.131
    96   7 N        0.932    -0.135    23.825     7.048
    97   7 N        0.932    -0.095    22.993     6.924
    98   7 N        0.932    -0.092    22.928     6.914
    99   7 N        0.932    -0.154    24.224     7.107
   100   7 N        0.932    -0.156    24.263     7.113
   101   7 N        1.767    -0.165    25.341     7.454
   102   7 N        0.932    -0.101    23.121     6.943
   103   7 N        2.341    -0.260    26.950     7.708
   104   7 N        0.941    -0.244    26.197     7.386
   105   7 N        1.045    -0.310    27.196     7.468
   106   7 N        2.747    -0.402    30.415     8.191
   107   7 N        3.977    -0.354    29.089     8.010
   108   7 N        3.977    -0.336    28.628     7.947
   109   7 N        3.977    -0.362    29.307     8.040
   110   7 N        3.977    -0.357    29.182     8.023
   111   7 N        5.855    -0.379    29.782     8.105
   112   7 N        6.866    -0.032    21.855     6.943
   113   7 N        6.096    -0.417    30.836     8.248
   114   7 N        4.291    -0.554    35.010     8.788
   115   7 N        5.420    -0.364    29.378     8.050
   116   7 N        6.545    -0.547    34.781     8.759
   117   7 N        7.748     0.602    12.935     5.342
   118   7 N        6.847     0.077    19.894     6.625

 Mol. C6AA /au·bohr⁶  :     257082.870063
 Mol. C8AA /au·bohr⁸  :    7215054.712905
 Mol. α(0) /au        :        796.998315


Wiberg/Mayer (AO) data.
largest (>0.10) Wiberg bond orders for each atom

 ---------------------------------------------------------------------------
     #   Z sym  total        # sym  WBO       # sym  WBO       # sym  WBO
 ---------------------------------------------------------------------------
     1   6 C    3.944 --    91 N    1.983    28 H    0.730    30 H    0.548
                            55 B    0.335
     2   6 C    3.768 --   117 N    2.125     3 C    0.410    91 N    0.346
                            81 B    0.291    31 H    0.205
     3   6 C    3.642 --    10 C    0.973     5 C    0.826     4 O    0.719
                             2 C    0.410    81 B    0.113
     4   8 O    2.702 --    33 H    0.762     3 C    0.719    93 N    0.514
                           115 N    0.205
     5   6 C    3.748 --     6 O    1.107   118 N    0.996     3 C    0.826
                             7 O    0.515
     6   8 O    1.455 --     5 C    1.107
     7   8 O    2.277 --    92 N    0.959     5 C    0.515     8 C    0.175
                           118 N    0.127
     8   6 C    3.774 --    92 N    1.164    34 H    0.625    56 B    0.615
                            35 H    0.427     9 C    0.190     7 O    0.175
                           118 N    0.109
     9   6 C    3.855 --    56 B    0.917    14 C    0.850    10 C    0.830
                            80 B    0.452     8 C    0.190
    10   6 C    3.676 --    11 C    1.073     3 C    0.973     9 C    0.830
    11   6 C    3.841 --    12 C    1.421    10 C    1.073    36 H    0.882
    12   6 C    3.911 --    11 C    1.421    18 C    1.105    13 N    1.080
    13   7 N    3.434 --    12 C    1.080    14 C    1.041    16 C    0.960
    14   6 C    3.685 --    15 O    1.111    13 N    1.041     9 C    0.850
                            70 B    0.208   101 N    0.124
    15   8 O    2.035 --    14 C    1.111    65 B    0.214   101 N    0.190
                            70 B    0.168   106 N    0.133
    16   6 C    3.901 --    17 C    1.007    13 N    0.960    38 H    0.830
                            37 H    0.632   105 N    0.135
    17   6 C    3.833 --    18 C    1.302    23 C    1.050    16 C    1.007
                            19 C    0.103
    18   6 C    3.954 --    17 C    1.302    19 C    1.259    12 C    1.105
    19   6 C    3.637 --    18 C    1.259    39 H    0.855    20 C    0.762
                            67 B    0.202    17 C    0.103
    20   6 C    3.808 --    51 B    1.062    19 C    0.762    21 F    0.413
                            77 B    0.339    87 N    0.308    22 C    0.275
                            67 B    0.211   103 N    0.131    27 N    0.117
    21   9 F    1.122 --    20 C    0.413   103 N    0.214    67 B    0.208
    22   6 C    3.777 --    23 C    1.077    87 N    0.778    51 B    0.386
                            27 N    0.357    20 C    0.275   113 N    0.251
                            77 B    0.141   111 N    0.129
    23   6 C    3.745 --    22 C    1.077    17 C    1.050    24 C    0.625
                           112 N    0.151    53 B    0.106
    24   6 C    3.785 --   112 N    1.297    25 C    0.686    23 C    0.625
                            88 N    0.486    76 B    0.255    41 H    0.169
    25   6 C    3.949 --    26 C    0.979    42 H    0.967    43 H    0.934
                            24 C    0.686
    26   6 C    3.978 --    25 C    0.979    44 H    0.966    45 H    0.956
                            27 N    0.884
    27   7 N    3.268 --    26 C    0.884    46 H    0.814    87 N    0.524
                            22 C    0.357    20 C    0.117    51 B    0.103
    28   1 H    0.958 --     1 C    0.730
    29   1 H    0.768 --    55 B    0.491
    30   1 H    0.918 --     1 C    0.548    55 B    0.107
    31   1 H    0.652 --     2 C    0.205
    32   1 H    0.623 --    81 B    0.343   117 N    0.215
    33   1 H    0.963 --     4 O    0.762
    34   1 H    0.927 --     8 C    0.625
    35   1 H    0.904 --     8 C    0.427   116 N    0.202
    36   1 H    0.997 --    11 C    0.882
    37   1 H    0.920 --    16 C    0.632    69 B    0.211
    38   1 H    0.994 --    16 C    0.830
    39   1 H    0.991 --    19 C    0.855
    40   1 H    0.720 --   112 N    0.436    76 B    0.238
    41   1 H    0.802 --    88 N    0.499    24 C    0.169
    42   1 H    0.994 --    25 C    0.967
    43   1 H    0.995 --    25 C    0.934
    44   1 H    0.997 --    26 C    0.966
    45   1 H    0.998 --    26 C    0.956
    46   1 H    0.976 --    27 N    0.814
    47   5 B    3.603 --    83 N    2.969    53 B    0.189    71 B    0.167
                            73 B    0.150
    48   5 B    3.614 --    84 N    2.886    57 B    0.312    74 B    0.141
                            72 B    0.139
    49   5 B    3.578 --    85 N    3.007    63 B    0.175    71 B    0.154
                            72 B    0.149
    50   5 B    3.605 --    86 N    2.998    65 B    0.187    74 B    0.152
                            73 B    0.144
    51   5 B    3.478 --    87 N    1.671    20 C    1.062    22 C    0.386
                            27 N    0.103
    52   5 B    3.434 --    88 N    2.303    78 B    0.261    69 B    0.248
                            76 B    0.154
    53   5 B    3.599 --    89 N    2.934    47 B    0.189    76 B    0.144
                            23 C    0.106    75 B    0.103
    54   5 B    3.656 --    90 N    3.213    59 B    0.150    78 B    0.114
                            77 B    0.113
    55   5 B    3.220 --    91 N    1.225    29 H    0.491     1 C    0.335
                            81 B    0.266    68 B    0.217    79 B    0.168
                            30 H    0.107
    56   5 B    3.478 --    92 N    1.366     9 C    0.917     8 C    0.615
                            82 B    0.151
    57   5 B    3.612 --    93 N    2.664    48 B    0.312    79 B    0.136
                            80 B    0.129
    58   5 B    3.627 --    94 N    2.813    82 B    0.276    81 B    0.169
                            60 B    0.162
    59   5 B    3.663 --    95 N    3.474    54 B    0.150
    60   5 B    3.692 --    96 N    3.445    58 B    0.162
    61   5 B    3.669 --    97 N    3.539    64 B    0.123
    62   5 B    3.668 --    98 N    3.542    66 B    0.123
    63   5 B    3.685 --    99 N    3.446    49 B    0.175
    64   5 B    3.658 --   100 N    3.464    61 B    0.123
    65   5 B    3.524 --   101 N    2.956    15 O    0.214    50 B    0.187
    66   5 B    3.668 --   102 N    3.538    62 B    0.123
    67   5 B    3.290 --   103 N    2.556    20 C    0.211    21 F    0.208
                            19 C    0.202
    68   5 B    3.674 --   104 N    3.292    55 B    0.217
    69   5 B    3.673 --   105 N    3.093    52 B    0.248    37 H    0.211
    70   5 B    3.395 --   106 N    2.760    14 C    0.208    15 O    0.168
    71   5 B    3.439 --   107 N    2.812    47 B    0.167    49 B    0.154
    72   5 B    3.467 --   108 N    2.874    49 B    0.149    48 B    0.139
    73   5 B    3.466 --   109 N    2.827    47 B    0.150    50 B    0.144
    74   5 B    3.464 --   110 N    2.860    50 B    0.152    48 B    0.141
    75   5 B    3.377 --   111 N    2.787    53 B    0.103
    76   5 B    2.622 --   112 N    1.292    24 C    0.255    40 H    0.238
                            52 B    0.154    53 B    0.144
    77   5 B    3.432 --   113 N    2.536    20 C    0.339    22 C    0.141
                            54 B    0.113
    78   5 B    3.458 --   114 N    2.900    52 B    0.261    54 B    0.114
    79   5 B    3.456 --   115 N    2.737    55 B    0.168    57 B    0.136
    80   5 B    3.362 --   116 N    2.332     9 C    0.452    57 B    0.129
    81   5 B    2.905 --   117 N    1.176    32 H    0.343     2 C    0.291
                            55 B    0.266    94 N    0.179    58 B    0.169
                             3 C    0.113
    82   5 B    3.187 --   118 N    2.029    58 B    0.276    56 B    0.151
    83   7 N    3.585 --    47 B    2.969   109 N    0.144   107 N    0.137
    84   7 N    3.536 --    48 B    2.886   108 N    0.131   110 N    0.125
    85   7 N    3.596 --    49 B    3.007   107 N    0.151   108 N    0.135
    86   7 N    3.602 --    50 B    2.998   110 N    0.140   109 N    0.139
    87   7 N    3.664 --    51 B    1.671    22 C    0.778    27 N    0.524
                            20 C    0.308
    88   7 N    3.525 --    52 B    2.303    41 H    0.499    24 C    0.486
    89   7 N    3.510 --    53 B    2.934
    90   7 N    3.662 --    54 B    3.213   114 N    0.105
    91   7 N    3.865 --     1 C    1.983    55 B    1.225     2 C    0.346
    92   7 N    3.743 --    56 B    1.366     8 C    1.164     7 O    0.959
    93   7 N    3.679 --    57 B    2.664     4 O    0.514
    94   7 N    3.527 --    58 B    2.813    81 B    0.179
    95   7 N    3.615 --    59 B    3.474
    96   7 N    3.622 --    60 B    3.445
    97   7 N    3.658 --    61 B    3.539   100 N    0.108
    98   7 N    3.662 --    62 B    3.542   102 N    0.114
    99   7 N    3.597 --    63 B    3.446
   100   7 N    3.623 --    64 B    3.464    97 N    0.108
   101   7 N    3.550 --    65 B    2.956    15 O    0.190    14 C    0.124
   102   7 N    3.657 --    66 B    3.538    98 N    0.114
   103   7 N    3.318 --    67 B    2.556    21 F    0.214    20 C    0.131
   104   7 N    3.479 --    68 B    3.292
   105   7 N    3.403 --    69 B    3.093    16 C    0.135
   106   7 N    3.307 --    70 B    2.760    15 O    0.133
   107   7 N    3.296 --    71 B    2.812    85 N    0.151    83 N    0.137
   108   7 N    3.326 --    72 B    2.874    85 N    0.135    84 N    0.131
   109   7 N    3.319 --    73 B    2.827    83 N    0.144    86 N    0.139
   110   7 N    3.333 --    74 B    2.860    86 N    0.140    84 N    0.125
   111   7 N    3.376 --    75 B    2.787    22 C    0.129
   112   7 N    3.434 --    24 C    1.297    76 B    1.292    40 H    0.436
                            23 C    0.151
   113   7 N    3.300 --    77 B    2.536    22 C    0.251
   114   7 N    3.288 --    78 B    2.900    90 N    0.105
   115   7 N    3.337 --    79 B    2.737     4 O    0.205
   116   7 N    3.085 --    80 B    2.332    35 H    0.202
   117   7 N    3.847 --     2 C    2.125    81 B    1.176    32 H    0.215
   118   7 N    3.636 --    82 B    2.029     5 C    0.996     7 O    0.127
                             8 C    0.109
 ---------------------------------------------------------------------------

Topologies differ in total number of bonds
Writing topology from bond orders to xtbtopo.mol

molecular dipole:
                 x           y           z       tot (Debye)
 q only:        1.184       0.620      -0.229
   full:       -1.489       0.469       0.965       4.665
molecular quadrupole (traceless):
                xx          xy          yy          xz          yz          zz
 q only:       11.982     -15.034      26.362       1.015     -25.483     -38.344
  q+dip:      134.326     -14.133     -47.034      -6.459     -36.922     -87.292
   full:      128.814     -15.105     -34.839      -4.733     -37.365     -93.976


           -------------------------------------------------
          | TOTAL ENERGY                2.322044309356 Eh   |
          | GRADIENT NORM             161.401228141741 Eh/α |
          | HOMO-LUMO GAP               0.076049445395 eV   |
           -------------------------------------------------

------------------------------------------------------------------------
 * finished run on 2026/08/31 at 18:34:39.134     
------------------------------------------------------------------------
 total:
 * wall-time:     0 d,  0 h,  0 min,  0.901 sec
 *  cpu-time:     0 d,  0 h,  0 min, 11.938 sec
 * ratio c/w:    13.249 speedup
 SCF:
 * wall-time:     0 d,  0 h,  0 min,  0.845 sec
 *  cpu-time:     0 d,  0 h,  0 min, 11.328 sec
 * ratio c/w:    13.406 speedup

normal termination of xtb
