      -----------------------------------------------------------      
     |                   =====================                   |     
     |                           x T B                           |     
     |                   =====================                   |     
     |                         S. Grimme                         |     
     |          Mulliken Center for Theoretical Chemistry        |     
     |                    University of Bonn                     |     
      -----------------------------------------------------------      

   * xtb version 6.7.1pre (5071a88) compiled by 'Marcel@Raven' on 2024-07-23

   xtb is free software: you can redistribute it and/or modify it under
   the terms of the GNU Lesser General Public License as published by
   the Free Software Foundation, either version 3 of the License, or
   (at your option) any later version.
   
   xtb is distributed in the hope that it will be useful,
   but WITHOUT ANY WARRANTY; without even the implied warranty of
   MERCHANTABILITY or FITNESS FOR A PARTICULAR PURPOSE.  See the
   GNU Lesser General Public License for more details.
   
   Cite this work as:
   * C. Bannwarth, E. Caldeweyher, S. Ehlert, A. Hansen, P. Pracht,
     J. Seibert, S. Spicher, S. Grimme, WIREs Comput. Mol. Sci., 2020, 11,
     e01493. DOI: 10.1002/wcms.1493
   
   for GFN2-xTB:
   * C. Bannwarth, S. Ehlert and S. Grimme., J. Chem. Theory Comput., 2019,
     15, 1652-1671. DOI: 10.1021/acs.jctc.8b01176
   for GFN1-xTB:
   * S. Grimme, C. Bannwarth, P. Shushkov, J. Chem. Theory Comput., 2017,
     13, 1989-2009. DOI: 10.1021/acs.jctc.7b00118
   for GFN0-xTB:
   * P. Pracht, E. Caldeweyher, S. Ehlert, S. Grimme, ChemRxiv, 2019, preprint.
     DOI: 10.26434/chemrxiv.8326202.v1
   for GFN-FF:
   * S. Spicher and S. Grimme, Angew. Chem. Int. Ed., 2020, 59, 15665-15673.
     DOI: 10.1002/anie.202004239
   
   for ALPB and GBSA implicit solvation:
   * S. Ehlert, M. Stahn, S. Spicher, S. Grimme, J. Chem. Theory Comput.,
     2021, 17, 4250-4261. DOI: 10.1021/acs.jctc.1c00471
   
   for ddCOSMO and CPCM-X implicit solvation:
   * M. Stahn, S. Ehlert, S. Grimme, J. Phys. Chem. A,
     2023, XX, XXXX-XXXX. DOI: 10.1021/acs.jpca.3c04382
   
   for DFT-D4:
   * E. Caldeweyher, C. Bannwarth and S. Grimme, J. Chem. Phys., 2017,
     147, 034112. DOI: 10.1063/1.4993215
   * E. Caldeweyher, S. Ehlert, A. Hansen, H. Neugebauer, S. Spicher,
     C. Bannwarth and S. Grimme, J. Chem. Phys., 2019, 150, 154122.
     DOI: 10.1063/1.5090222
   * E. Caldeweyher, J.-M. Mewes, S. Ehlert and S. Grimme, Phys. Chem. Chem. Phys.
     2020, 22, 8499-8512. DOI: 10.1039/D0CP00502A
   
   for sTDA-xTB:
   * S. Grimme and C. Bannwarth, J. Chem. Phys., 2016, 145, 054103.
     DOI: 10.1063/1.4959605
   
   in the mass-spec context:
   * V. Asgeirsson, C. Bauer and S. Grimme, Chem. Sci., 2017, 8, 4879.
     DOI: 10.1039/c7sc00601b
   * J. Koopman and S. Grimme, ACS Omega 2019, 4, 12, 15120-15133.
     DOI: 10.1021/acsomega.9b02011
   
   for metadynamics refer to:
   * S. Grimme, J. Chem. Theory Comput., 2019, 155, 2847-2862
     DOI: 10.1021/acs.jctc.9b00143
   
   for SPH calculations refer to:
   * S. Spicher and S. Grimme, J. Chem. Theory Comput., 2021, 17, 1701-1714
     DOI: 10.1021/acs.jctc.0c01306
   
   for ONIOM refer to:
   * C. Plett, A. Katbashev, S. Ehlert, S. Grimme, M. Bursch,
     Phys. Chem. Chem. Phys., 2023, 25, 17860-17868. DOI: 10.1039/D3CP02178E
   
   for DIPRO refer to:
   * J. Kohn, N. Gildemeister, S. Grimme, D. Fazzi, A. Hansen,
     J. Chem. Phys., 2023, just accepted.
   
   for PTB refer to:
   * S. Grimme, M. Mueller, A. Hansen, J. Chem. Phys., 2023, 158, 124111.
     DOI: 10.1063/5.0137838
   
   with help from (in alphabetical order)
   P. Atkinson, C. Bannwarth, F. Bohle, G. Brandenburg, E. Caldeweyher
   M. Checinski, S. Dohm, S. Ehlert, S. Ehrlich, I. Gerasimov, C. Hölzer
   A. Katbashev, J. Kohn, J. Koopman, C. Lavigne, S. Lehtola, F. März, M. Müller,
   F. Musil, H. Neugebauer, J. Pisarek, C. Plett, P. Pracht, F. Pultar,
   J. Seibert, P. Shushkov, S. Spicher, M. Stahn, M. Steiner, T. Strunk,
   J. Stückrath, T. Rose, and J. Unsleber
   
 * started run on 2026/08/31 at 21:10:59.100     
   ID    Z sym.   atoms
    1    6 C      1-4, 6, 9-16, 18, 21-23, 25-27, 29, 31-36, 38, 40-51
    2    8 O      5, 7, 17, 19, 20, 24, 28, 30, 37, 39
    3    7 N      8, 102, 104, 106, 108, 110, 112, 114, 116, 118, 120, 122,
                  124, 126, 128, 130, 132, 134, 136, 138, 140, 142, 144, 146,
                  148, 150, 152, 154, 156, 158, 160, 162, 164, 166, 168, 170,
                  172
    4    1 H      52-100
    5    5 B      101, 103, 105, 107, 109, 111, 113, 115, 117, 119, 121, 123,
                  125, 127, 129, 131, 133, 135, 137, 139, 141, 143, 145, 147,
                  149, 151, 153, 155, 157, 159, 161, 163, 165, 167, 169, 171

           -------------------------------------------------
          |                Calculation Setup                |
           -------------------------------------------------

          program call               : "c:\Users\Andre\Proyectos doctorado\kras-pancreatic-gC3N4-ai\tools\xtb\xtb-6.7.1\bin\xtb.exe" "c:\Users\Andre\Proyectos doctorado\nano-qsar-ai-therapeutics\calculations\tnbc\Cabazitaxel\Cabazitaxel_B36N36_relaxed_complex.xyz" --gfn 2 --opt normal --chrg 0 --uhf 0 --iterations 50 --norestart
          coordinate file            : c:\Users\Andre\Proyectos doctorado\nano-qsar-ai-therapeutics\calculations\tnbc\Cabazitaxel\Cabazitaxel_B36N36_relaxed_complex.xyz
          omp threads                :                    16


           -------------------------------------------------
          |                 G F N 2 - x T B                 |
           -------------------------------------------------

        Reference                      10.1021/acs.jctc.8b01176
      * Hamiltonian:
        H0-scaling (s, p, d)           1.850000    2.230000    2.230000
        zeta-weighting                 0.500000
      * Dispersion:
        s8                             2.700000
        a1                             0.520000
        a2                             5.000000
        s9                             5.000000
      * Repulsion:
        kExp                           1.500000    1.000000
        rExp                           1.000000
      * Coulomb:
        alpha                          2.000000
        third order                    shell-resolved
        anisotropic                    true
        a3                             3.000000
        a5                             4.000000
        cn-shift                       1.200000
        cn-exp                         4.000000
        max-rad                        5.000000


          ...................................................
          :                      SETUP                      :
          :.................................................:
          :  # basis functions                 541          :
          :  # atomic orbitals                 541          :
          :  # shells                          295          :
          :  # electrons                       562          :
          :  max. iterations                    50          :
          :  Hamiltonian                  GFN2-xTB          :
          :  restarted?                      false          :
          :  GBSA solvation                  false          :
          :  PC potential                    false          :
          :  electronic temp.          300.0000000     K    :
          :  accuracy                    1.0000000          :
          :  -> integral cutoff          0.2500000E+02      :
          :  -> integral neglect         0.1000000E-07      :
          :  -> SCF convergence          0.1000000E-05 Eh   :
          :  -> wf. convergence          0.1000000E-03 e    :
          :  Broyden damping             0.4000000          :
          :  net charge                          0          :
          :  unpaired electrons                  0          :
          ...................................................

 iter      E             dE          RMSdq      gap      omega  full diag
   1   -305.1069432 -0.305107E+03  0.948E+00    0.50       0.0  T
   2   -296.2262335  0.888071E+01  0.707E+00    0.16       1.0  T
   3   -189.1165561  0.107110E+03  0.910E+00    0.04       1.0  T
   4     32.1235737  0.221240E+03  0.143E+01    0.06       1.0  T
   5   -261.6744023 -0.293798E+03  0.738E+00    0.03       1.0  T
   6   -207.1730703  0.545013E+02  0.921E+00    0.01       1.0  T
   7   -259.4057545 -0.522327E+02  0.626E+00    0.02       1.0  T
   8   -134.1965314  0.125209E+03  0.912E+00    0.14       1.0  T
   9   -298.8051786 -0.164609E+03  0.339E+00    0.02       1.0  T
  10   -305.0931034 -0.628792E+01  0.278E+00    0.13       1.0  T
  11   -306.5450925 -0.145199E+01  0.234E+00    0.42       1.0  T
  12   -306.5003287  0.447638E-01  0.263E+00    0.20       1.0  T
  13   -306.9496075 -0.449279E+00  0.216E+00    0.08       1.0  T
  14   -306.8591775  0.904300E-01  0.190E+00    0.01       1.0  T
  15   -307.0239658 -0.164788E+00  0.173E+00    0.06       1.0  T
  16   -307.0342564 -0.102906E-01  0.126E+00    0.20       1.0  T
  17   -307.0489436 -0.146871E-01  0.893E-01    0.22       1.0  T
  18   -307.0093326  0.396110E-01  0.874E-01    0.16       1.0  T
  19   -307.0693601 -0.600275E-01  0.691E-01    0.19       1.0  T
  20   -307.0495095  0.198506E-01  0.667E-01    0.15       1.0  T
  21   -307.0942084 -0.446988E-01  0.520E-01    0.16       1.0  T
  22   -307.1096668 -0.154584E-01  0.435E-01    0.15       1.0  T
  23   -307.1254005 -0.157336E-01  0.357E-01    0.14       1.0  T
  24   -307.1305141 -0.511361E-02  0.333E-01    0.13       1.0  T
  25   -307.1518674 -0.213533E-01  0.193E-01    0.10       1.0  T
  26   -307.0663373  0.855301E-01  0.453E-01    0.05       1.0  T
  27   -307.1483022 -0.819649E-01  0.181E-01    0.07       1.0  T
  28   -307.1563075 -0.800529E-02  0.139E-01    0.08       1.0  T
  29   -307.1487188  0.758869E-02  0.215E-01    0.11       1.0  T
  30   -307.1497520 -0.103320E-02  0.199E-01    0.09       1.0  T
  31   -307.1493122  0.439763E-03  0.198E-01    0.10       1.0  T
  32   -307.1531109 -0.379866E-02  0.152E-01    0.09       1.0  T
  33   -307.1540743 -0.963399E-03  0.136E-01    0.09       1.0  T
  34   -307.1514768  0.259743E-02  0.157E-01    0.10       1.0  T
  35   -307.1547364 -0.325952E-02  0.116E-01    0.10       1.0  T
  36   -307.1587593 -0.402291E-02  0.521E-02    0.09       1.0  T
  37   -307.1538681  0.489112E-02  0.115E-01    0.07       1.0  T
  38   -307.1556481 -0.177999E-02  0.936E-02    0.07       1.0  T
  39   -307.1576754 -0.202723E-02  0.644E-02    0.08       1.0  T
  40   -307.1593157 -0.164037E-02  0.239E-02    0.08       1.0  T
  41   -307.1593971 -0.813457E-04  0.197E-02    0.08       1.0  T
  42   -307.1595269 -0.129832E-03  0.120E-02    0.09       1.0  T
  43   -307.1595896 -0.626870E-04  0.395E-03    0.09       1.9  T
  44   -307.1595778  0.118212E-04  0.691E-03    0.09       1.1  T
  45   -307.1595725  0.529984E-05  0.766E-03    0.09       1.0  T
  46   -307.1595913 -0.187978E-04  0.282E-03    0.09       2.7  T
  47   -307.1595935 -0.226453E-05  0.991E-04    0.09       7.7  T
  48   -307.1595935  0.779240E-07  0.111E-03    0.09       6.8  T
  49   -307.1595937 -0.221622E-06  0.503E-04    0.09      15.1  T
  50   -307.1595936  0.781012E-07  0.523E-04    0.09      14.6  T

   *** convergence criteria satisfied after 50 iterations ***

         #    Occupation            Energy/Eh            Energy/eV
      -------------------------------------------------------------
         1        2.0000           -0.8074304             -21.9713
       ...           ...                  ...                  ...
       275        2.0000           -0.3355522              -9.1308
       276        2.0000           -0.3315111              -9.0209
       277        2.0000           -0.3276967              -8.9171
       278        2.0000           -0.3274258              -8.9097
       279        2.0000           -0.3188423              -8.6761
       280        2.0000           -0.3126850              -8.5086
       281        1.6342           -0.2911292              -7.9220 (HOMO)
       282        0.2613           -0.2879068              -7.8343 (LUMO)
       283        0.0906           -0.2868117              -7.8045
       284        0.0138           -0.2849866              -7.7549
       285        0.0000           -0.2777255              -7.5573
       286        0.0000           -0.2750822              -7.4854
       ...           ...                  ...                  ...
       541                          2.7430518              74.6422
      -------------------------------------------------------------
                  HL-Gap            0.0032224 Eh            0.0877 eV
             Fermi-level           -0.2897071 Eh           -7.8833 eV

 SCC (total)                   0 d,  0 h,  0 min,  2.937 sec
 SCC setup                      ...        0 min,  0.001 sec (  0.034%)
 Dispersion                     ...        0 min,  0.007 sec (  0.238%)
 classical contributions        ...        0 min,  0.001 sec (  0.034%)
 integral evaluation            ...        0 min,  0.026 sec (  0.885%)
 iterations                     ...        0 min,  2.828 sec ( 96.289%)
 molecular gradient             ...        0 min,  0.068 sec (  2.315%)
 printout                       ...        0 min,  0.006 sec (  0.204%)

         :::::::::::::::::::::::::::::::::::::::::::::::::::::
         ::                     SUMMARY                     ::
         :::::::::::::::::::::::::::::::::::::::::::::::::::::
         :: total energy            -303.680935967260 Eh    ::
         :: gradient norm              0.842287216429 Eh/a0 ::
         :: HOMO-LUMO gap              0.087687030250 eV    ::
         ::.................................................::
         :: SCC energy              -307.135273393423 Eh    ::
         :: -> isotropic ES            0.873166384186 Eh    ::
         :: -> anisotropic ES         -0.004322516249 Eh    ::
         :: -> anisotropic XC          0.101704232827 Eh    ::
         :: -> dispersion             -0.300719016925 Eh    ::
         :: repulsion energy           3.454337426163 Eh    ::
         :: add. restraining           0.000000000000 Eh    ::
         :: total charge              -0.000000000003 e     ::
         :::::::::::::::::::::::::::::::::::::::::::::::::::::

      ----------------------------------------------------------- 
     |                   =====================                   |
     |                        A N C O P T                        |
     |                   =====================                   |
     |               Approximate Normal Coordinate               |
     |                Rational Function Optimizer                |
      ----------------------------------------------------------- 
      ----------------------------------------------------------- 
     |                   =====================                   |
     |                        A N C O P T                        |
     |                   =====================                   |
     |               Approximate Normal Coordinate               |
     |                Rational Function Optimizer                |
      ----------------------------------------------------------- 

          ...................................................
          :                      SETUP                      :
          :.................................................:
          :   optimization level            normal          :
          :   max. optcycles                   516          :
          :   ANC micro-cycles                  20          :
          :   degrees of freedom               510          :
          :.................................................:
          :   RF solver                   davidson          :
          :   write xtbopt.log                true          :
          :   linear?                        false          :
          :   energy convergence         0.5000000E-05 Eh   :
          :   grad. convergence          0.1000000E-02 Eh/α :
          :   maxmium RF displ.          1.0000000          :
          :   Hlow (freq-cutoff)         0.1000000E-01      :
          :   Hmax (freq-cutoff)         5.0000000          :
          :   S6 in model hess.         20.0000000          :
          ...................................................

generating ANC from exact Hessian ...
Using Lindh-Hessian (1995)
 Shifting diagonal of input Hessian by   1.006431441031556E-002
 Lowest  eigenvalues of input Hessian
    0.010000    0.000000    0.000000    0.010046    0.000000    0.000000
    0.000000    0.000000    0.010112    0.010205    0.010272    0.010331
    0.010434    0.010528    0.010543    0.010687    0.010809    0.011034
 Highest eigenvalues
    2.430295    2.481872    2.581736    2.871138    3.067700    3.538924
 

........................................................................
.............................. CYCLE    1 ..............................
........................................................................

 iter      E             dE          RMSdq      gap      omega  full diag
   1   -307.1595937 -0.307160E+03  0.242E-04    0.09       0.0  T
   2   -307.1595873  0.645099E-05  0.386E-03    0.09       2.0  T
   3   -307.1595937 -0.642984E-05  0.394E-04    0.09      19.3  T
   4   -307.1595937 -0.106832E-07  0.308E-04    0.09      24.7  T
   5   -307.1595937 -0.214759E-07  0.225E-04    0.09      33.9  T
     SCC iter.                  ...        0 min,  0.296 sec
     gradient                   ...        0 min,  0.071 sec
 * total energy  :  -303.6809361 Eh     change       -0.1197585E-06 Eh
   gradient norm :     0.8422892 Eh/α   predicted     0.0000000E+00 (-100.00%)
   displ. norm   :     0.4948661 α      lambda       -0.3505707E+00
   maximum displ.:     0.1311449 α      in ANC's #485, #487, #510, ...

........................................................................
.............................. CYCLE    2 ..............................
........................................................................

 iter      E             dE          RMSdq      gap      omega  full diag
   1   -307.2398410 -0.307240E+03  0.388E-01    0.17       0.0  T
   2   -306.8285304  0.411311E+00  0.111E+00    0.06       1.0  T
   3   -306.9951141 -0.166584E+00  0.949E-01    0.11       1.0  T
   4   -307.2568433 -0.261729E+00  0.267E-01    0.05       1.0  T
   5   -307.1433068  0.113536E+00  0.569E-01    0.05       1.0  T
   6   -307.2350780 -0.917712E-01  0.330E-01    0.17       1.0  T
   7   -307.2458059 -0.107279E-01  0.267E-01    0.10       1.0  T
   8   -307.2672042 -0.213984E-01  0.140E-01    0.10       1.0  T
   9   -307.2683382 -0.113395E-02  0.105E-01    0.08       1.0  T
  10   -307.2711204 -0.278219E-02  0.800E-02    0.10       1.0  T
  11   -307.2725403 -0.141997E-02  0.455E-02    0.09       1.0  T
  12   -307.2730574 -0.517054E-03  0.277E-02    0.09       1.0  T
  13   -307.2732237 -0.166272E-03  0.102E-02    0.09       1.0  T
  14   -307.2730217  0.201990E-03  0.230E-02    0.08       1.0  T
  15   -307.2732398 -0.218167E-03  0.453E-03    0.09       1.7  T
  16   -307.2732445 -0.463496E-05  0.239E-03    0.09       3.2  T
  17   -307.2732451 -0.664762E-06  0.209E-03    0.09       3.7  T
  18   -307.2732467 -0.154051E-05  0.572E-04    0.09      13.3  T
  19   -307.2732467 -0.634873E-07  0.235E-04    0.09      32.4  T
  20   -307.2732468 -0.108675E-07  0.934E-05    0.09      81.7  T
     SCC iter.                  ...        0 min,  1.018 sec
     gradient                   ...        0 min,  0.068 sec
 * total energy  :  -303.9152470 Eh     change       -0.2343109E+00 Eh
   gradient norm :     0.3534461 Eh/α   predicted    -0.2182712E+00 (  -6.85%)
   displ. norm   :     0.5131186 α      lambda       -0.1345873E+00
   maximum displ.:     0.0917703 α      in ANC's #153, #485, #92, ...

........................................................................
.............................. CYCLE    3 ..............................
........................................................................

 iter      E             dE          RMSdq      gap      omega  full diag
   1   -307.3309047 -0.307331E+03  0.334E-01    0.16       0.0  T
   2   -306.7513872  0.579517E+00  0.126E+00    0.19       1.0  T
   3   -307.0224160 -0.271029E+00  0.968E-01    0.10       1.0  T
   4   -307.2975497 -0.275134E+00  0.503E-01    0.07       1.0  T
   5   -307.2917169  0.583278E-02  0.420E-01    0.06       1.0  T
   6   -307.3472897 -0.555728E-01  0.196E-01    0.12       1.0  T
   7   -307.3476080 -0.318267E-03  0.183E-01    0.11       1.0  T
   8   -307.3373735  0.102344E-01  0.231E-01    0.06       1.0  T
   9   -307.3551958 -0.178223E-01  0.102E-01    0.09       1.0  T
  10   -307.3577391 -0.254325E-02  0.845E-02    0.10       1.0  T
  11   -307.3590005 -0.126145E-02  0.495E-02    0.09       1.0  T
  12   -307.3598912 -0.890626E-03  0.233E-02    0.09       1.0  T
  13   -307.3600244 -0.133224E-03  0.997E-03    0.09       1.0  T
  14   -307.3600224  0.204538E-05  0.102E-02    0.09       1.0  T
  15   -307.3600515 -0.291780E-04  0.527E-03    0.09       1.4  T
  16   -307.3600616 -0.100867E-04  0.116E-03    0.09       6.6  T
  17   -307.3600620 -0.355019E-06  0.568E-04    0.09      13.4  T
  18   -307.3600620 -0.685350E-08  0.486E-04    0.09      15.7  T
     SCC iter.                  ...        0 min,  0.983 sec
     gradient                   ...        0 min,  0.066 sec
 * total energy  :  -304.0187349 Eh     change       -0.1034879E+00 Eh
   gradient norm :     0.1843087 Eh/α   predicted    -0.8501147E-01 ( -17.85%)
   displ. norm   :     0.5970084 α      lambda       -0.8108390E-01
   maximum displ.:     0.1355498 α      in ANC's #153, #92, #86, ...

........................................................................
.............................. CYCLE    4 ..............................
........................................................................

 iter      E             dE          RMSdq      gap      omega  full diag
   1   -307.3696098 -0.307370E+03  0.346E-01    0.16       0.0  T
   2   -306.8014040  0.568206E+00  0.126E+00    0.16       1.0  T
   3   -307.0862009 -0.284797E+00  0.936E-01    0.08       1.0  T
   4   -307.3463525 -0.260152E+00  0.461E-01    0.06       1.0  T
   5   -307.3343001  0.120524E-01  0.456E-01    0.02       1.0  T
   6   -307.3807589 -0.464588E-01  0.243E-01    0.12       1.0  T
   7   -307.3901177 -0.935881E-02  0.182E-01    0.09       1.0  T
   8   -307.3904941 -0.376370E-03  0.163E-01    0.09       1.0  T
   9   -307.3984142 -0.792018E-02  0.105E-01    0.11       1.0  T
  10   -307.4010258 -0.261153E-02  0.561E-02    0.10       1.0  T
  11   -307.4018557 -0.829944E-03  0.244E-02    0.09       1.0  T
  12   -307.4020038 -0.148112E-03  0.135E-02    0.09       1.0  T
  13   -307.4020102 -0.631939E-05  0.105E-02    0.09       1.0  T
  14   -307.4020252 -0.150960E-04  0.836E-03    0.09       1.0  T
  15   -307.4020344 -0.915987E-05  0.613E-03    0.09       1.2  T
  16   -307.4020474 -0.129430E-04  0.155E-03    0.09       4.9  T
  17   -307.4020478 -0.486700E-06  0.771E-04    0.09       9.9  T
  18   -307.4020480 -0.173238E-06  0.253E-04    0.09      30.1  T
     SCC iter.                  ...        0 min,  1.098 sec
     gradient                   ...        0 min,  0.063 sec
 * total energy  :  -304.0804029 Eh     change       -0.6166808E-01 Eh
   gradient norm :     0.1002663 Eh/α   predicted    -0.5499195E-01 ( -10.83%)
   displ. norm   :     0.6397601 α      lambda       -0.4475542E-01
   maximum displ.:     0.1498006 α      in ANC's #153, #38, #86, ...

........................................................................
.............................. CYCLE    5 ..............................
........................................................................

 iter      E             dE          RMSdq      gap      omega  full diag
   1   -307.3799306 -0.307380E+03  0.329E-01    0.16       0.0  T
   2   -306.8817495  0.498181E+00  0.119E+00    0.10       1.0  T
   3   -307.1216377 -0.239888E+00  0.912E-01    0.09       1.0  T
   4   -307.3466731 -0.225035E+00  0.443E-01    0.04       1.0  T
   5   -307.3908997 -0.442266E-01  0.262E-01    0.13       1.0  T
   6   -307.4025019 -0.116022E-01  0.170E-01    0.10       1.0  T
   7   -307.3781216  0.243803E-01  0.310E-01    0.03       1.0  T
   8   -307.3906567 -0.125351E-01  0.217E-01    0.07       1.0  T
   9   -307.4030832 -0.124265E-01  0.163E-01    0.13       1.0  T
  10   -307.4082705 -0.518733E-02  0.105E-01    0.11       1.0  T
  11   -307.4113416 -0.307105E-02  0.473E-02    0.10       1.0  T
  12   -307.4117954 -0.453843E-03  0.283E-02    0.09       1.0  T
  13   -307.4120202 -0.224844E-03  0.151E-02    0.09       1.0  T
  14   -307.4120800 -0.597519E-04  0.730E-03    0.09       1.0  T
  15   -307.4120820 -0.203414E-05  0.550E-03    0.09       1.4  T
  16   -307.4120844 -0.239946E-05  0.435E-03    0.09       1.8  T
  17   -307.4120899 -0.542723E-05  0.248E-03    0.09       3.1  T
  18   -307.4120920 -0.210563E-05  0.825E-04    0.09       9.2  T
  19   -307.4120922 -0.237098E-06  0.283E-04    0.09      26.9  T
  20   -307.4120922  0.303146E-09  0.277E-04    0.09      27.5  T
     SCC iter.                  ...        0 min,  1.136 sec
     gradient                   ...        0 min,  0.064 sec
 * total energy  :  -304.1154762 Eh     change       -0.3507327E-01 Eh
   gradient norm :     0.0712567 Eh/α   predicted    -0.3153690E-01 ( -10.08%)
   displ. norm   :     0.6626403 α      lambda       -0.2753586E-01
   maximum displ.:     0.1999797 α      in ANC's #38, #86, #66, ...

........................................................................
.............................. CYCLE    6 ..............................
........................................................................

 iter      E             dE          RMSdq      gap      omega  full diag
   1   -307.3852903 -0.307385E+03  0.303E-01    0.15       0.0  T
   2   -306.9709739  0.414316E+00  0.108E+00    0.05       1.0  T
   3   -307.1313877 -0.160414E+00  0.918E-01    0.13       1.0  T
   4   -307.3264983 -0.195111E+00  0.492E-01    0.03       1.0  T
   5   -307.3229739  0.352437E-02  0.463E-01    0.05       1.0  T
   6   -307.3942512 -0.712773E-01  0.247E-01    0.13       1.0  T
   7   -307.4044685 -0.102173E-01  0.160E-01    0.11       1.0  T
   8   -307.4088786 -0.441006E-02  0.122E-01    0.09       1.0  T
   9   -307.4116489 -0.277028E-02  0.874E-02    0.10       1.0  T
  10   -307.4135901 -0.194120E-02  0.421E-02    0.10       1.0  T
  11   -307.4130461  0.544031E-03  0.569E-02    0.08       1.0  T
  12   -307.4139896 -0.943592E-03  0.232E-02    0.09       1.0  T
  13   -307.4140974 -0.107744E-03  0.132E-02    0.09       1.0  T
  14   -307.4141084 -0.110311E-04  0.103E-02    0.09       1.0  T
  15   -307.4141430 -0.345290E-04  0.402E-03    0.09       1.9  T
  16   -307.4141484 -0.545007E-05  0.144E-03    0.09       5.3  T
  17   -307.4141488 -0.400689E-06  0.769E-04    0.09       9.9  T
  18   -307.4141488  0.343550E-07  0.808E-04    0.09       9.4  T
     SCC iter.                  ...        0 min,  1.001 sec
     gradient                   ...        0 min,  0.069 sec
 * total energy  :  -304.1374155 Eh     change       -0.2193926E-01 Eh
   gradient norm :     0.0619755 Eh/α   predicted    -0.1981333E-01 (  -9.69%)
   displ. norm   :     0.6752012 α      lambda       -0.1876242E-01
   maximum displ.:     0.2431700 α      in ANC's #38, #86, #66, ...

........................................................................
.............................. CYCLE    7 ..............................
........................................................................

 iter      E             dE          RMSdq      gap      omega  full diag
   1   -307.3927408 -0.307393E+03  0.275E-01    0.13       0.0  T
   2   -307.0196248  0.373116E+00  0.101E+00    0.04       1.0  T
   3   -307.1467241 -0.127099E+00  0.892E-01    0.15       1.0  T
   4   -307.3063324 -0.159608E+00  0.526E-01    0.03       1.0  T
   5   -307.3990230 -0.926906E-01  0.236E-01    0.14       1.0  T
   6   -307.4090241 -0.100010E-01  0.144E-01    0.09       1.0  T
   7   -307.4104923 -0.146826E-02  0.134E-01    0.11       1.0  T
   8   -307.4118040 -0.131165E-02  0.124E-01    0.07       1.0  T
   9   -307.4136575 -0.185355E-02  0.100E-01    0.10       1.0  T
  10   -307.4169267 -0.326916E-02  0.291E-02    0.08       1.0  T
  11   -307.4161526  0.774133E-03  0.519E-02    0.08       1.0  T
  12   -307.4168999 -0.747376E-03  0.285E-02    0.08       1.0  T
  13   -307.4169956 -0.956766E-04  0.247E-02    0.08       1.0  T
  14   -307.4171560 -0.160438E-03  0.116E-02    0.08       1.0  T
  15   -307.4172080 -0.519046E-04  0.313E-03    0.08       2.4  T
  16   -307.4172112 -0.322824E-05  0.121E-03    0.08       6.3  T
  17   -307.4172115 -0.324713E-06  0.801E-04    0.08       9.5  T
  18   -307.4172115  0.464479E-07  0.795E-04    0.08       9.6  T
     SCC iter.                  ...        0 min,  1.008 sec
     gradient                   ...        0 min,  0.062 sec
 * total energy  :  -304.1528786 Eh     change       -0.1546319E-01 Eh
   gradient norm :     0.0600012 Eh/α   predicted    -0.1365809E-01 ( -11.67%)
   displ. norm   :     0.6934472 α      lambda       -0.1511064E-01
   maximum displ.:     0.2736370 α      in ANC's #38, #41, #21, ...

........................................................................
.............................. CYCLE    8 ..............................
........................................................................

 iter      E             dE          RMSdq      gap      omega  full diag
   1   -307.3984820 -0.307398E+03  0.284E-01    0.13       0.0  T
   2   -307.0599791  0.338503E+00  0.941E-01    0.01       1.0  T
   3   -307.1723343 -0.112355E+00  0.857E-01    0.17       1.0  T
   4   -307.1441933  0.281410E-01  0.796E-01    0.07       1.0  T
   5   -307.2039379 -0.597446E-01  0.746E-01    0.06       1.0  T
   6   -307.3875690 -0.183631E+00  0.333E-01    0.21       1.0  T
   7   -307.4069935 -0.194245E-01  0.203E-01    0.12       1.0  T
   8   -307.4139591 -0.696556E-02  0.176E-01    0.10       1.0  T
   9   -307.4146997 -0.740589E-03  0.162E-01    0.10       1.0  T
  10   -307.4194994 -0.479971E-02  0.111E-01    0.08       1.0  T
  11   -307.4197893 -0.289916E-03  0.103E-01    0.07       1.0  T
  12   -307.4201000 -0.310669E-03  0.965E-02    0.07       1.0  T
  13   -307.4227305 -0.263053E-02  0.532E-02    0.07       1.0  T
  14   -307.4235402 -0.809666E-03  0.291E-02    0.07       1.0  T
  15   -307.4236737 -0.133536E-03  0.234E-02    0.07       1.0  T
  16   -307.4236953 -0.216354E-04  0.213E-02    0.07       1.0  T
  17   -307.4238291 -0.133760E-03  0.110E-02    0.08       1.0  T
  18   -307.4238617 -0.325871E-04  0.610E-03    0.08       1.3  T
  19   -307.4238710 -0.933493E-05  0.362E-03    0.08       2.1  T
  20   -307.4238715 -0.443217E-06  0.310E-03    0.08       2.5  T
  21   -307.4238741 -0.265309E-05  0.152E-03    0.08       5.0  T
  22   -307.4238745 -0.354269E-06  0.104E-03    0.08       7.3  T
  23   -307.4238748 -0.314103E-06  0.504E-04    0.08      15.1  T
  24   -307.4238749 -0.791341E-07  0.182E-04    0.08      41.8  T
     SCC iter.                  ...        0 min,  1.402 sec
     gradient                   ...        0 min,  0.063 sec
 * total energy  :  -304.1657597 Eh     change       -0.1288109E-01 Eh
   gradient norm :     0.0637427 Eh/α   predicted    -0.1118853E-01 ( -13.14%)
   displ. norm   :     0.7163062 α      lambda       -0.1502975E-01
   maximum displ.:     0.2888355 α      in ANC's #38, #21, #39, ...

........................................................................
.............................. CYCLE    9 ..............................
........................................................................

 iter      E             dE          RMSdq      gap      omega  full diag
   1   -307.3993960 -0.307399E+03  0.375E-01    0.17       0.0  T
   2   -306.9640863  0.435310E+00  0.103E+00    0.03       1.0  T
   3   -307.2027119 -0.238626E+00  0.820E-01    0.15       1.0  T
   4   -307.3743796 -0.171668E+00  0.413E-01    0.06       1.0  T
   5   -307.2964948  0.778848E-01  0.597E-01    0.03       1.0  T
   6   -307.4176943 -0.121200E+00  0.226E-01    0.07       1.0  T
   7   -307.4158893  0.180496E-02  0.247E-01    0.14       1.0  T
   8   -307.4261468 -0.102575E-01  0.171E-01    0.11       1.0  T
   9   -307.4347088 -0.856202E-02  0.879E-02    0.09       1.0  T
  10   -307.4366876 -0.197883E-02  0.367E-02    0.07       1.0  T
  11   -307.4366720  0.156550E-04  0.351E-02    0.07       1.0  T
  12   -307.4346217  0.205027E-02  0.729E-02    0.06       1.0  T
  13   -307.4368403 -0.221856E-02  0.203E-02    0.07       1.0  T
  14   -307.4369364 -0.961193E-04  0.120E-02    0.07       1.0  T
  15   -307.4369849 -0.484764E-04  0.520E-03    0.08       1.5  T
  16   -307.4369911 -0.627311E-05  0.314E-03    0.08       2.4  T
  17   -307.4369917 -0.556532E-06  0.251E-03    0.08       3.0  T
  18   -307.4369911  0.611482E-06  0.249E-03    0.08       3.1  T
  19   -307.4369931 -0.199405E-05  0.136E-03    0.08       5.6  T
  20   -307.4369935 -0.396016E-06  0.918E-04    0.08       8.3  T
  21   -307.4369938 -0.333548E-06  0.308E-04    0.08      24.7  T
     SCC iter.                  ...        0 min,  1.133 sec
     gradient                   ...        0 min,  0.063 sec
 * total energy  :  -304.1794115 Eh     change       -0.1365174E-01 Eh
   gradient norm :     0.0776546 Eh/α   predicted    -0.1137072E-01 ( -16.71%)
   displ. norm   :     0.7389301 α      lambda       -0.2029584E-01
   maximum displ.:     0.2786323 α      in ANC's #38, #487, #39, ...

........................................................................
.............................. CYCLE   10 ..............................
........................................................................

 iter      E             dE          RMSdq      gap      omega  full diag
   1   -307.4262051 -0.307426E+03  0.436E-01    0.31       0.0  T
   2   -306.6961437  0.730061E+00  0.129E+00    0.16       1.0  T
   3   -307.1332446 -0.437101E+00  0.937E-01    0.13       1.0  T
   4   -307.4059096 -0.272665E+00  0.436E-01    0.35       1.0  T
   5   -307.4551869 -0.492773E-01  0.227E-01    0.10       1.0  T
   6   -307.4605898 -0.540288E-02  0.157E-01    0.10       1.0  T
   7   -307.4583460  0.224376E-02  0.145E-01    0.15       1.0  T
   8   -307.4634960 -0.514995E-02  0.100E-01    0.10       1.0  T
   9   -307.4643826 -0.886632E-03  0.762E-02    0.11       1.0  T
  10   -307.4640715  0.311088E-03  0.771E-02    0.07       1.0  T
  11   -307.4651301 -0.105857E-02  0.554E-02    0.08       1.0  T
  12   -307.4655113 -0.381148E-03  0.420E-02    0.08       1.0  T
  13   -307.4661795 -0.668243E-03  0.161E-02    0.09       1.0  T
  14   -307.4662197 -0.401491E-04  0.927E-03    0.09       1.0  T
  15   -307.4662561 -0.364705E-04  0.231E-03    0.09       3.3  T
  16   -307.4662532  0.288724E-05  0.324E-03    0.09       2.4  T
  17   -307.4662566 -0.333538E-05  0.154E-03    0.09       5.0  T
  18   -307.4662572 -0.594214E-06  0.823E-04    0.09       9.3  T
  19   -307.4662574 -0.249601E-06  0.239E-04    0.09      31.9  T
     SCC iter.                  ...        0 min,  1.003 sec
     gradient                   ...        0 min,  0.062 sec
 * total energy  :  -304.1992674 Eh     change       -0.1985590E-01 Eh
   gradient norm :     0.1157146 Eh/α   predicted    -0.1568888E-01 ( -20.99%)
   displ. norm   :     0.7974552 α      lambda       -0.3868640E-01
   maximum displ.:     0.2866339 α      in ANC's #487, #485, #38, ...

........................................................................
.............................. CYCLE   11 ..............................
........................................................................

 iter      E             dE          RMSdq      gap      omega  full diag
   1   -307.5238416 -0.307524E+03  0.423E-01    0.50       0.0  T
   2   -306.7495241  0.774317E+00  0.131E+00    0.31       1.0  T
   3   -307.5300175 -0.780493E+00  0.277E-01    0.28       1.0  T
   4   -307.5281495  0.186803E-02  0.235E-01    0.36       1.0  T
   5   -307.5325380 -0.438855E-02  0.184E-01    0.27       1.0  T
   6   -307.5352540 -0.271597E-02  0.129E-01    0.25       1.0  T
   7   -307.5360148 -0.760793E-03  0.110E-01    0.27       1.0  T
   8   -307.5369115 -0.896735E-03  0.105E-01    0.25       1.0  T
   9   -307.5373456 -0.434052E-03  0.932E-02    0.25       1.0  T
  10   -307.5387565 -0.141086E-02  0.707E-02    0.22       1.0  T
  11   -307.5307679  0.798856E-02  0.145E-01    0.08       1.0  T
  12   -307.5399488 -0.918094E-02  0.440E-02    0.18       1.0  T
  13   -307.5405101 -0.561273E-03  0.243E-02    0.16       1.0  T
  14   -307.5406975 -0.187343E-03  0.134E-02    0.15       1.0  T
  15   -307.5405381  0.159382E-03  0.228E-02    0.16       1.0  T
  16   -307.5407386 -0.200563E-03  0.868E-03    0.15       1.0  T
  17   -307.5407683 -0.296906E-04  0.323E-03    0.15       2.4  T
  18   -307.5407717 -0.342122E-05  0.167E-03    0.14       4.6  T
  19   -307.5407730 -0.126681E-05  0.944E-05    0.14      80.8  T
  20   -307.5407730 -0.113789E-08  0.483E-05    0.14     158.0  T
  21   -307.5407730  0.179597E-08  0.762E-05    0.14     100.1  T
     SCC iter.                  ...        0 min,  1.281 sec
     gradient                   ...        0 min,  0.066 sec
 * total energy  :  -304.2327185 Eh     change       -0.3345109E-01 Eh
   gradient norm :     0.1895263 Eh/α   predicted    -0.3164429E-01 (  -5.40%)
   displ. norm   :     0.6318282 α      lambda       -0.3105588E-01
   maximum displ.:     0.2377376 α      in ANC's #487, #485, #509, ...

........................................................................
.............................. CYCLE   12 ..............................
........................................................................

 iter      E             dE          RMSdq      gap      omega  full diag
   1   -307.5854618 -0.307585E+03  0.312E-01    0.46       0.0  T
   2   -307.5431887  0.422731E-01  0.368E-01    0.06       1.0  T
   3   -307.5828753 -0.396866E-01  0.204E-01    0.71       1.0  T
   4   -307.5857186 -0.284335E-02  0.144E-01    0.59       1.0  T
   5   -307.5880053 -0.228665E-02  0.106E-01    0.49       1.0  T
   6   -307.5888776 -0.872328E-03  0.655E-02    0.42       1.0  T
   7   -307.5894315 -0.553916E-03  0.547E-02    0.31       1.0  T
   8   -307.5899342 -0.502648E-03  0.326E-02    0.23       1.0  T
   9   -307.5900828 -0.148690E-03  0.163E-02    0.17       1.0  T
  10   -307.5901385 -0.556194E-04  0.111E-02    0.21       1.0  T
  11   -307.5901515 -0.130810E-04  0.816E-03    0.18       1.0  T
  12   -307.5901736 -0.220941E-04  0.484E-03    0.20       1.6  T
  13   -307.5901832 -0.953074E-05  0.136E-03    0.19       5.6  T
  14   -307.5901839 -0.717191E-06  0.267E-04    0.19      28.5  T
  15   -307.5901839 -0.919101E-08  0.149E-04    0.19      51.3  T
     SCC iter.                  ...        0 min,  0.895 sec
     gradient                   ...        0 min,  0.064 sec
 * total energy  :  -304.2524474 Eh     change       -0.1972895E-01 Eh
   gradient norm :     0.2272888 Eh/α   predicted    -0.2172685E-01 (  10.13%)
   displ. norm   :     0.3736340 α      lambda       -0.2703908E-01
   maximum displ.:     0.0813245 α      in ANC's #38, #32, #152, ...

........................................................................
.............................. CYCLE   13 ..............................
........................................................................

 iter      E             dE          RMSdq      gap      omega  full diag
   1   -307.6109295 -0.307611E+03  0.142E-01    0.34       0.0  T
   2   -307.6102162  0.713377E-03  0.110E-01    0.18       1.0  T
   3   -307.6112329 -0.101676E-02  0.776E-02    0.33       1.0  T
   4   -307.6117330 -0.500041E-03  0.443E-02    0.24       1.0  T
   5   -307.6120429 -0.309893E-03  0.151E-02    0.23       1.0  T
   6   -307.6120747 -0.318587E-04  0.492E-03    0.23       1.5  T
   7   -307.6120757 -0.101247E-05  0.283E-03    0.23       2.7  T
   8   -307.6120768 -0.107594E-05  0.143E-03    0.23       5.3  T
   9   -307.6120774 -0.613387E-06  0.677E-04    0.23      11.3  T
  10   -307.6120775 -0.786810E-07  0.425E-04    0.23      17.9  T
     SCC iter.                  ...        0 min,  0.583 sec
     gradient                   ...        0 min,  0.065 sec
 * total energy  :  -304.2777346 Eh     change       -0.2528713E-01 Eh
   gradient norm :     0.2279794 Eh/α   predicted    -0.1540735E-01 ( -39.07%)
   displ. norm   :     0.6618309 α      lambda       -0.8390717E-01
   maximum displ.:     0.1329217 α      in ANC's #509, #223, #152, ...

........................................................................
.............................. CYCLE   14 ..............................
........................................................................

 iter      E             dE          RMSdq      gap      omega  full diag
   1   -307.6682568 -0.307668E+03  0.277E-01    0.36       0.0  T
   2   -307.6692326 -0.975836E-03  0.182E-01    0.30       1.0  T
   3   -307.6690831  0.149562E-03  0.121E-01    0.34       1.0  T
   4   -307.6706045 -0.152140E-02  0.428E-02    0.34       1.0  T
   5   -307.6708896 -0.285103E-03  0.264E-02    0.33       1.0  T
   6   -307.6710854 -0.195860E-03  0.879E-03    0.33       1.0  T
   7   -307.6710929 -0.743931E-05  0.510E-03    0.33       1.5  T
   8   -307.6710973 -0.438999E-05  0.237E-03    0.33       3.2  T
   9   -307.6710983 -0.105813E-05  0.103E-03    0.33       7.4  T
  10   -307.6710985 -0.162568E-06  0.458E-04    0.33      16.7  T
  11   -307.6710985 -0.142836E-07  0.232E-04    0.33      32.8  T
     SCC iter.                  ...        0 min,  0.644 sec
     gradient                   ...        0 min,  0.064 sec
 * total energy  :  -304.3396367 Eh     change       -0.6190218E-01 Eh
   gradient norm :     0.1857416 Eh/α   predicted    -0.6033018E-01 (  -2.54%)
   displ. norm   :     0.5184127 α      lambda       -0.4291724E-01
   maximum displ.:     0.1087399 α      in ANC's #509, #38, #152, ...

........................................................................
.............................. CYCLE   15 ..............................
........................................................................

 iter      E             dE          RMSdq      gap      omega  full diag
   1   -307.7033907 -0.307703E+03  0.180E-01    0.41       0.0  T
   2   -307.7038194 -0.428723E-03  0.119E-01    0.38       1.0  T
   3   -307.7036674  0.152068E-03  0.926E-02    0.39       1.0  T
   4   -307.7042753 -0.607940E-03  0.509E-02    0.41       1.0  T
   5   -307.7046841 -0.408793E-03  0.126E-02    0.39       1.0  T
   6   -307.7047104 -0.262989E-04  0.490E-03    0.39       1.6  T
   7   -307.7047055  0.492659E-05  0.513E-03    0.39       1.5  T
   8   -307.7047122 -0.678560E-05  0.168E-03    0.39       4.5  T
   9   -307.7047129 -0.685132E-06  0.552E-04    0.39      13.8  T
  10   -307.7047130 -0.361657E-07  0.268E-04    0.39      28.4  T
     SCC iter.                  ...        0 min,  0.566 sec
     gradient                   ...        0 min,  0.063 sec
 * total energy  :  -304.3727795 Eh     change       -0.3314278E-01 Eh
   gradient norm :     0.1698529 Eh/α   predicted    -0.2722568E-01 ( -17.85%)
   displ. norm   :     0.4941949 α      lambda       -0.3885904E-01
   maximum displ.:     0.1173465 α      in ANC's #509, #508, #152, ...

........................................................................
.............................. CYCLE   16 ..............................
........................................................................

 iter      E             dE          RMSdq      gap      omega  full diag
   1   -307.7310011 -0.307731E+03  0.196E-01    0.48       0.0  T
   2   -307.7314343 -0.433197E-03  0.126E-01    0.45       1.0  T
   3   -307.7312394  0.194845E-03  0.995E-02    0.44       1.0  T
   4   -307.7320165 -0.777093E-03  0.508E-02    0.47       1.0  T
   5   -307.7324077 -0.391203E-03  0.123E-02    0.45       1.0  T
   6   -307.7324333 -0.255786E-04  0.479E-03    0.45       1.6  T
   7   -307.7324290  0.431184E-05  0.476E-03    0.45       1.6  T
   8   -307.7324347 -0.574546E-05  0.181E-03    0.45       4.2  T
   9   -307.7324355 -0.804501E-06  0.567E-04    0.45      13.5  T
  10   -307.7324356 -0.409172E-07  0.288E-04    0.45      26.5  T
     SCC iter.                  ...        0 min,  0.544 sec
     gradient                   ...        0 min,  0.059 sec
 * total energy  :  -304.4032047 Eh     change       -0.3042514E-01 Eh
   gradient norm :     0.1237163 Eh/α   predicted    -0.2417508E-01 ( -20.54%)
   displ. norm   :     0.5469687 α      lambda       -0.3085408E-01
   maximum displ.:     0.1466304 α      in ANC's #509, #62, #144, ...

........................................................................
.............................. CYCLE   17 ..............................
........................................................................

 iter      E             dE          RMSdq      gap      omega  full diag
   1   -307.7580988 -0.307758E+03  0.190E-01    0.52       0.0  T
   2   -307.7583254 -0.226600E-03  0.119E-01    0.50       1.0  T
   3   -307.7577127  0.612744E-03  0.941E-02    0.49       1.0  T
   4   -307.7587258 -0.101310E-02  0.409E-02    0.51       1.0  T
   5   -307.7589902 -0.264434E-03  0.108E-02    0.50       1.0  T
   6   -307.7590064 -0.161912E-04  0.549E-03    0.50       1.4  T
   7   -307.7590055  0.937752E-06  0.492E-03    0.50       1.6  T
   8   -307.7590117 -0.618512E-05  0.139E-03    0.50       5.5  T
   9   -307.7590121 -0.423483E-06  0.522E-04    0.50      14.6  T
  10   -307.7590121 -0.358202E-07  0.277E-04    0.50      27.5  T
     SCC iter.                  ...        0 min,  0.699 sec
     gradient                   ...        0 min,  0.061 sec
 * total energy  :  -304.4257395 Eh     change       -0.2253484E-01 Eh
   gradient norm :     0.0742485 Eh/α   predicted    -0.2004245E-01 ( -11.06%)
   displ. norm   :     0.5783784 α      lambda       -0.1622957E-01
   maximum displ.:     0.1637535 α      in ANC's #38, #15, #18, ...

........................................................................
.............................. CYCLE   18 ..............................
........................................................................

 iter      E             dE          RMSdq      gap      omega  full diag
   1   -307.7612533 -0.307761E+03  0.140E-01    0.54       0.0  T
   2   -307.7613816 -0.128249E-03  0.839E-02    0.52       1.0  T
   3   -307.7608778  0.503731E-03  0.701E-02    0.52       1.0  T
   4   -307.7615127 -0.634878E-03  0.267E-02    0.53       1.0  T
   5   -307.7616194 -0.106693E-03  0.786E-03    0.52       1.0  T
   6   -307.7616296 -0.101834E-04  0.338E-03    0.52       2.3  T
   7   -307.7616282  0.141975E-05  0.331E-03    0.52       2.3  T
   8   -307.7616310 -0.289347E-05  0.995E-04    0.52       7.7  T
   9   -307.7616313 -0.227258E-06  0.388E-04    0.52      19.6  T
  10   -307.7616313 -0.264602E-07  0.187E-04    0.52      40.8  T
     SCC iter.                  ...        0 min,  0.503 sec
     gradient                   ...        0 min,  0.059 sec
 * total energy  :  -304.4380393 Eh     change       -0.1229984E-01 Eh
   gradient norm :     0.0582974 Eh/α   predicted    -0.1082937E-01 ( -11.96%)
   displ. norm   :     0.6064705 α      lambda       -0.1183172E-01
   maximum displ.:     0.1871948 α      in ANC's #18, #15, #9, ...

........................................................................
.............................. CYCLE   19 ..............................
........................................................................

 iter      E             dE          RMSdq      gap      omega  full diag
   1   -307.7741475 -0.307774E+03  0.119E-01    0.54       0.0  T
   2   -307.7742186 -0.710734E-04  0.708E-02    0.53       1.0  T
   3   -307.7738241  0.394469E-03  0.498E-02    0.52       1.0  T
   4   -307.7742388 -0.414748E-03  0.168E-02    0.53       1.0  T
   5   -307.7742846 -0.457612E-04  0.677E-03    0.53       1.1  T
   6   -307.7742927 -0.806384E-05  0.269E-03    0.53       2.8  T
   7   -307.7742922  0.474445E-06  0.239E-03    0.53       3.2  T
   8   -307.7742936 -0.141328E-05  0.877E-04    0.53       8.7  T
   9   -307.7742938 -0.179279E-06  0.297E-04    0.53      25.7  T
  10   -307.7742938 -0.113420E-07  0.162E-04    0.53      47.2  T
     SCC iter.                  ...        0 min,  0.579 sec
     gradient                   ...        0 min,  0.063 sec
 * total energy  :  -304.4473834 Eh     change       -0.9344010E-02 Eh
   gradient norm :     0.0541323 Eh/α   predicted    -0.8091759E-02 ( -13.40%)
   displ. norm   :     0.7035124 α      lambda       -0.1075463E-01
   maximum displ.:     0.2366601 α      in ANC's #15, #18, #38, ...

........................................................................
.............................. CYCLE   20 ..............................
........................................................................

 iter      E             dE          RMSdq      gap      omega  full diag
   1   -307.7737376 -0.307774E+03  0.118E-01    0.53       0.0  T
   2   -307.7738266 -0.890550E-04  0.697E-02    0.52       1.0  T
   3   -307.7735533  0.273301E-03  0.421E-02    0.52       1.0  T
   4   -307.7737598 -0.206507E-03  0.210E-02    0.52       1.0  T
   5   -307.7738649 -0.105043E-03  0.649E-03    0.52       1.2  T
   6   -307.7738732 -0.835852E-05  0.343E-03    0.52       2.2  T
   7   -307.7738745 -0.125539E-05  0.219E-03    0.52       3.5  T
   8   -307.7738754 -0.966008E-06  0.696E-04    0.52      11.0  T
   9   -307.7738755 -0.992284E-07  0.293E-04    0.52      26.1  T
     SCC iter.                  ...        0 min,  0.527 sec
     gradient                   ...        0 min,  0.066 sec
 * total energy  :  -304.4563482 Eh     change       -0.8964852E-02 Eh
   gradient norm :     0.0493859 Eh/α   predicted    -0.8038716E-02 ( -10.33%)
   displ. norm   :     0.6640018 α      lambda       -0.1005130E-01
   maximum displ.:     0.2435198 α      in ANC's #18, #15, #9, ...
 * RMSD in coord.:     0.6615876 α      energy gain  -0.7754122E+00 Eh

generating ANC from exact Hessian ...
Using Lindh-Hessian (1995)
 Shifting diagonal of input Hessian by   1.006532419759336E-002
 Lowest  eigenvalues of input Hessian
    0.010000    0.010017    0.010025    0.000000    0.000000    0.000000
    0.000000    0.000000    0.000000    0.010092    0.010110    0.010155
    0.010232    0.010299    0.010375    0.010446    0.010462    0.010544
 Highest eigenvalues
    2.174409    2.255851    2.316199    2.342163    2.444118    2.543797
 

........................................................................
.............................. CYCLE   21 ..............................
........................................................................

 iter      E             dE          RMSdq      gap      omega  full diag
   1   -307.7846342 -0.307785E+03  0.126E-01    0.51       0.0  T
   2   -307.7847257 -0.915106E-04  0.734E-02    0.50       1.0  T
   3   -307.7843785  0.347251E-03  0.491E-02    0.51       1.0  T
   4   -307.7847126 -0.334076E-03  0.196E-02    0.50       1.0  T
   5   -307.7847953 -0.827564E-04  0.595E-03    0.50       1.3  T
   6   -307.7848011 -0.575961E-05  0.284E-03    0.50       2.7  T
   7   -307.7848017 -0.649533E-06  0.160E-03    0.50       4.8  T
   8   -307.7848022 -0.442015E-06  0.804E-04    0.50       9.5  T
   9   -307.7848023 -0.119320E-06  0.408E-04    0.50      18.7  T
     SCC iter.                  ...        0 min,  0.570 sec
     gradient                   ...        0 min,  0.067 sec
 * total energy  :  -304.4642715 Eh     change       -0.7923247E-02 Eh
   gradient norm :     0.0395018 Eh/α   predicted     0.0000000E+00 (-100.00%)
   displ. norm   :     0.4271479 α      lambda       -0.7734463E-02
   maximum displ.:     0.2155977 α      in ANC's #15, #8, #162, ...

........................................................................
.............................. CYCLE   22 ..............................
........................................................................

 iter      E             dE          RMSdq      gap      omega  full diag
   1   -307.7935886 -0.307794E+03  0.814E-02    0.50       0.0  T
   2   -307.7935918 -0.328264E-05  0.484E-02    0.50       1.0  T
   3   -307.7933532  0.238661E-03  0.359E-02    0.49       1.0  T
   4   -307.7936076 -0.254402E-03  0.719E-03    0.50       1.1  T
   5   -307.7936155 -0.796969E-05  0.258E-03    0.50       3.0  T
   6   -307.7936161 -0.538872E-06  0.172E-03    0.50       4.4  T
   7   -307.7936163 -0.199712E-06  0.124E-03    0.50       6.1  T
   8   -307.7936167 -0.381051E-06  0.311E-04    0.50      24.5  T
   9   -307.7936167 -0.177179E-07  0.137E-04    0.50      55.5  T
     SCC iter.                  ...        0 min,  0.553 sec
     gradient                   ...        0 min,  0.077 sec
 * total energy  :  -304.4706020 Eh     change       -0.6330571E-02 Eh
   gradient norm :     0.0218912 Eh/α   predicted    -0.4572887E-02 ( -27.77%)
   displ. norm   :     0.6686897 α      lambda       -0.7464598E-02
   maximum displ.:     0.3579963 α      in ANC's #15, #8, #7, ...

........................................................................
.............................. CYCLE   23 ..............................
........................................................................

 iter      E             dE          RMSdq      gap      omega  full diag
   1   -307.7984813 -0.307798E+03  0.103E-01    0.50       0.0  T
   2   -307.7984945 -0.132335E-04  0.610E-02    0.50       1.0  T
   3   -307.7981089  0.385616E-03  0.461E-02    0.49       1.0  T
   4   -307.7985164 -0.407424E-03  0.116E-02    0.50       1.0  T
   5   -307.7985397 -0.233354E-04  0.465E-03    0.50       1.6  T
   6   -307.7985436 -0.391248E-05  0.264E-03    0.50       2.9  T
   7   -307.7985444 -0.830462E-06  0.166E-03    0.50       4.6  T
   8   -307.7985449 -0.501955E-06  0.438E-04    0.50      17.4  T
   9   -307.7985450 -0.340086E-07  0.190E-04    0.50      40.2  T
     SCC iter.                  ...        0 min,  0.518 sec
     gradient                   ...        0 min,  0.072 sec
 * total energy  :  -304.4763694 Eh     change       -0.5767344E-02 Eh
   gradient norm :     0.0152803 Eh/α   predicted    -0.5401181E-02 (  -6.35%)
   displ. norm   :     0.6999624 α      lambda       -0.4638141E-02
   maximum displ.:     0.3896667 α      in ANC's #15, #8, #13, ...

........................................................................
.............................. CYCLE   24 ..............................
........................................................................

 iter      E             dE          RMSdq      gap      omega  full diag
   1   -307.7987762 -0.307799E+03  0.866E-02    0.50       0.0  T
   2   -307.7987919 -0.157461E-04  0.519E-02    0.51       1.0  T
   3   -307.7985513  0.240675E-03  0.358E-02    0.50       1.0  T
   4   -307.7987964 -0.245144E-03  0.107E-02    0.50       1.0  T
   5   -307.7988189 -0.224330E-04  0.443E-03    0.50       1.7  T
   6   -307.7988236 -0.472277E-05  0.193E-03    0.50       3.9  T
   7   -307.7988239 -0.332672E-06  0.129E-03    0.50       5.9  T
   8   -307.7988242 -0.256654E-06  0.368E-04    0.50      20.7  T
   9   -307.7988242 -0.231366E-07  0.149E-04    0.50      51.0  T
     SCC iter.                  ...        0 min,  0.580 sec
     gradient                   ...        0 min,  0.063 sec
 * total energy  :  -304.4803133 Eh     change       -0.3943934E-02 Eh
   gradient norm :     0.0154606 Eh/α   predicted    -0.3455292E-02 ( -12.39%)
   displ. norm   :     0.7544869 α      lambda       -0.4164100E-02
   maximum displ.:     0.4036541 α      in ANC's #15, #8, #13, ...

........................................................................
.............................. CYCLE   25 ..............................
........................................................................

 iter      E             dE          RMSdq      gap      omega  full diag
   1   -307.8001136 -0.307800E+03  0.890E-02    0.50       0.0  T
   2   -307.8001347 -0.211596E-04  0.534E-02    0.51       1.0  T
   3   -307.7999406  0.194167E-03  0.313E-02    0.50       1.0  T
   4   -307.8001312 -0.190600E-03  0.105E-02    0.51       1.0  T
   5   -307.8001547 -0.235727E-04  0.455E-03    0.51       1.7  T
   6   -307.8001601 -0.535330E-05  0.169E-03    0.51       4.5  T
   7   -307.8001602 -0.165363E-06  0.120E-03    0.51       6.4  T
   8   -307.8001604 -0.203995E-06  0.395E-04    0.51      19.3  T
   9   -307.8001605 -0.239824E-07  0.148E-04    0.51      51.6  T
     SCC iter.                  ...        0 min,  0.514 sec
     gradient                   ...        0 min,  0.072 sec
 * total energy  :  -304.4840598 Eh     change       -0.3746493E-02 Eh
   gradient norm :     0.0145456 Eh/α   predicted    -0.3267259E-02 ( -12.79%)
   displ. norm   :     0.8039358 α      lambda       -0.4180851E-02
   maximum displ.:     0.4137873 α      in ANC's #15, #8, #13, ...

........................................................................
.............................. CYCLE   26 ..............................
........................................................................

 iter      E             dE          RMSdq      gap      omega  full diag
   1   -307.8029014 -0.307803E+03  0.999E-02    0.50       0.0  T
   2   -307.8029272 -0.258245E-04  0.598E-02    0.51       1.0  T
   3   -307.8027402  0.187045E-03  0.301E-02    0.49       1.0  T
   4   -307.8029249 -0.184697E-03  0.976E-03    0.50       1.0  T
   5   -307.8029459 -0.210744E-04  0.471E-03    0.50       1.6  T
   6   -307.8029516 -0.566548E-05  0.181E-03    0.50       4.2  T
   7   -307.8029519 -0.275006E-06  0.105E-03    0.50       7.3  T
   8   -307.8029520 -0.152671E-06  0.443E-04    0.50      17.2  T
   9   -307.8029521 -0.304991E-07  0.180E-04    0.50      42.4  T
     SCC iter.                  ...        0 min,  0.623 sec
     gradient                   ...        0 min,  0.065 sec
 * total energy  :  -304.4878278 Eh     change       -0.3767959E-02 Eh
   gradient norm :     0.0139707 Eh/α   predicted    -0.3441501E-02 (  -8.66%)
   displ. norm   :     0.8286171 α      lambda       -0.3853990E-02
   maximum displ.:     0.4111604 α      in ANC's #15, #8, #13, ...

........................................................................
.............................. CYCLE   27 ..............................
........................................................................

 iter      E             dE          RMSdq      gap      omega  full diag
   1   -307.8058455 -0.307806E+03  0.108E-01    0.50       0.0  T
   2   -307.8058690 -0.234400E-04  0.646E-02    0.51       1.0  T
   3   -307.8056909  0.178069E-03  0.289E-02    0.49       1.0  T
   4   -307.8058673 -0.176416E-03  0.899E-03    0.50       1.0  T
   5   -307.8058851 -0.177726E-04  0.450E-03    0.50       1.7  T
   6   -307.8058896 -0.454748E-05  0.212E-03    0.50       3.6  T
   7   -307.8058902 -0.525311E-06  0.116E-03    0.50       6.6  T
   8   -307.8058904 -0.214744E-06  0.516E-04    0.50      14.8  T
   9   -307.8058904 -0.544610E-07  0.203E-04    0.50      37.6  T
     SCC iter.                  ...        0 min,  0.519 sec
     gradient                   ...        0 min,  0.066 sec
 * total energy  :  -304.4912161 Eh     change       -0.3388371E-02 Eh
   gradient norm :     0.0119553 Eh/α   predicted    -0.3250086E-02 (  -4.08%)
   displ. norm   :     0.8229166 α      lambda       -0.3073543E-02
   maximum displ.:     0.3872225 α      in ANC's #15, #8, #13, ...

........................................................................
.............................. CYCLE   28 ..............................
........................................................................

 iter      E             dE          RMSdq      gap      omega  full diag
   1   -307.8067957 -0.307807E+03  0.108E-01    0.49       0.0  T
   2   -307.8068106 -0.149527E-04  0.642E-02    0.50       1.0  T
   3   -307.8066405  0.170104E-03  0.282E-02    0.48       1.0  T
   4   -307.8068058 -0.165248E-03  0.890E-03    0.49       1.0  T
   5   -307.8068232 -0.174580E-04  0.388E-03    0.49       2.0  T
   6   -307.8068257 -0.245493E-05  0.233E-03    0.49       3.3  T
   7   -307.8068265 -0.785662E-06  0.125E-03    0.49       6.1  T
   8   -307.8068267 -0.271467E-06  0.476E-04    0.49      16.0  T
   9   -307.8068268 -0.440193E-07  0.205E-04    0.49      37.3  T
     SCC iter.                  ...        0 min,  0.484 sec
     gradient                   ...        0 min,  0.066 sec
 * total energy  :  -304.4938619 Eh     change       -0.2645787E-02 Eh
   gradient norm :     0.0096543 Eh/α   predicted    -0.2577462E-02 (  -2.58%)
   displ. norm   :     0.7879071 α      lambda       -0.2301581E-02
   maximum displ.:     0.3433011 α      in ANC's #15, #13, #8, ...

........................................................................
.............................. CYCLE   29 ..............................
........................................................................

 iter      E             dE          RMSdq      gap      omega  full diag
   1   -307.8082368 -0.307808E+03  0.988E-02    0.49       0.0  T
   2   -307.8082455 -0.870116E-05  0.589E-02    0.49       1.0  T
   3   -307.8080605  0.184987E-03  0.297E-02    0.48       1.0  T
   4   -307.8082444 -0.183944E-03  0.775E-03    0.49       1.0  T
   5   -307.8082565 -0.120996E-04  0.353E-03    0.49       2.2  T
   6   -307.8082583 -0.179363E-05  0.229E-03    0.49       3.3  T
   7   -307.8082592 -0.864307E-06  0.113E-03    0.49       6.7  T
   8   -307.8082594 -0.215797E-06  0.464E-04    0.49      16.4  T
   9   -307.8082594 -0.430506E-07  0.217E-04    0.49      35.1  T
     SCC iter.                  ...        0 min,  0.508 sec
     gradient                   ...        0 min,  0.061 sec
 * total energy  :  -304.4958043 Eh     change       -0.1942401E-02 Eh
   gradient norm :     0.0083950 Eh/α   predicted    -0.1865200E-02 (  -3.97%)
   displ. norm   :     0.7449267 α      lambda       -0.1677034E-02
   maximum displ.:     0.2960906 α      in ANC's #15, #13, #16, ...

........................................................................
.............................. CYCLE   30 ..............................
........................................................................

 iter      E             dE          RMSdq      gap      omega  full diag
   1   -307.8090959 -0.307809E+03  0.891E-02    0.49       0.0  T
   2   -307.8091005 -0.456823E-05  0.531E-02    0.49       1.0  T
   3   -307.8089154  0.185093E-03  0.296E-02    0.48       1.0  T
   4   -307.8091032 -0.187780E-03  0.633E-03    0.49       1.2  T
   5   -307.8091109 -0.777942E-05  0.310E-03    0.49       2.5  T
   6   -307.8091124 -0.146461E-05  0.195E-03    0.49       3.9  T
   7   -307.8091129 -0.536572E-06  0.107E-03    0.49       7.1  T
   8   -307.8091131 -0.208529E-06  0.442E-04    0.49      17.2  T
   9   -307.8091132 -0.426452E-07  0.192E-04    0.49      39.7  T
     SCC iter.                  ...        0 min,  0.512 sec
     gradient                   ...        0 min,  0.062 sec
 * total energy  :  -304.4971884 Eh     change       -0.1384094E-02 Eh
   gradient norm :     0.0088312 Eh/α   predicted    -0.1303832E-02 (  -5.80%)
   displ. norm   :     0.6946763 α      lambda       -0.1247096E-02
   maximum displ.:     0.2687527 α      in ANC's #6, #13, #16, ...

........................................................................
.............................. CYCLE   31 ..............................
........................................................................

 iter      E             dE          RMSdq      gap      omega  full diag
   1   -307.8122241 -0.307812E+03  0.774E-02    0.49       0.0  T
   2   -307.8122286 -0.456440E-05  0.461E-02    0.49       1.0  T
   3   -307.8120688  0.159852E-03  0.274E-02    0.49       1.0  T
   4   -307.8122322 -0.163428E-03  0.561E-03    0.49       1.4  T
   5   -307.8122385 -0.631371E-05  0.259E-03    0.49       2.9  T
   6   -307.8122395 -0.103763E-05  0.156E-03    0.49       4.9  T
   7   -307.8122398 -0.232315E-06  0.103E-03    0.49       7.4  T
   8   -307.8122400 -0.196156E-06  0.462E-04    0.49      16.5  T
   9   -307.8122400 -0.476445E-07  0.203E-04    0.49      37.6  T
     SCC iter.                  ...        0 min,  0.481 sec
     gradient                   ...        0 min,  0.067 sec
 * total energy  :  -304.4981537 Eh     change       -0.9652453E-03 Eh
   gradient norm :     0.0088823 Eh/α   predicted    -0.9244571E-03 (  -4.23%)
   displ. norm   :     0.6707612 α      lambda       -0.9534496E-03
   maximum displ.:     0.2725834 α      in ANC's #6, #16, #13, ...

........................................................................
.............................. CYCLE   32 ..............................
........................................................................

 iter      E             dE          RMSdq      gap      omega  full diag
   1   -307.8104136 -0.307810E+03  0.758E-02    0.50       0.0  T
   2   -307.8104167 -0.313680E-05  0.449E-02    0.50       1.0  T
   3   -307.8102861  0.130595E-03  0.243E-02    0.49       1.0  T
   4   -307.8104194 -0.133307E-03  0.495E-03    0.50       1.5  T
   5   -307.8104248 -0.535886E-05  0.212E-03    0.50       3.6  T
   6   -307.8104255 -0.683951E-06  0.123E-03    0.50       6.2  T
   7   -307.8104256 -0.104052E-06  0.732E-04    0.50      10.4  T
   8   -307.8104257 -0.806609E-07  0.318E-04    0.50      24.0  T
     SCC iter.                  ...        0 min,  0.466 sec
     gradient                   ...        0 min,  0.063 sec
 * total energy  :  -304.4988104 Eh     change       -0.6567611E-03 Eh
   gradient norm :     0.0087305 Eh/α   predicted    -0.6912138E-03 (   5.25%)
   displ. norm   :     0.5344856 α      lambda       -0.6145703E-03
   maximum displ.:     0.2458160 α      in ANC's #6, #16, #13, ...

........................................................................
.............................. CYCLE   33 ..............................
........................................................................

 iter      E             dE          RMSdq      gap      omega  full diag
   1   -307.8133326 -0.307813E+03  0.538E-02    0.51       0.0  T
   2   -307.8133358 -0.319069E-05  0.318E-02    0.50       1.0  T
   3   -307.8132501  0.856240E-04  0.198E-02    0.50       1.0  T
   4   -307.8133346 -0.844915E-04  0.528E-03    0.50       1.4  T
   5   -307.8133406 -0.599729E-05  0.240E-03    0.50       3.2  T
   6   -307.8133418 -0.120183E-05  0.127E-03    0.50       6.0  T
   7   -307.8133420 -0.170255E-06  0.699E-04    0.50      10.9  T
   8   -307.8133421 -0.891611E-07  0.328E-04    0.50      23.3  T
     SCC iter.                  ...        0 min,  0.432 sec
     gradient                   ...        0 min,  0.069 sec
 * total energy  :  -304.4992759 Eh     change       -0.4655116E-03 Eh
   gradient norm :     0.0051844 Eh/α   predicted    -0.3950695E-03 ( -15.13%)
   displ. norm   :     0.5193407 α      lambda       -0.4199808E-03
   maximum displ.:     0.2476231 α      in ANC's #6, #16, #13, ...

........................................................................
.............................. CYCLE   34 ..............................
........................................................................

 iter      E             dE          RMSdq      gap      omega  full diag
   1   -307.8118801 -0.307812E+03  0.531E-02    0.52       0.0  T
   2   -307.8118830 -0.290788E-05  0.313E-02    0.51       1.0  T
   3   -307.8118081  0.749006E-04  0.179E-02    0.51       1.0  T
   4   -307.8118791 -0.709350E-04  0.559E-03    0.51       1.4  T
   5   -307.8118866 -0.758026E-05  0.221E-03    0.51       3.4  T
   6   -307.8118877 -0.103537E-05  0.109E-03    0.51       7.0  T
   7   -307.8118878 -0.921640E-07  0.612E-04    0.51      12.5  T
   8   -307.8118878 -0.664821E-07  0.285E-04    0.51      26.7  T
     SCC iter.                  ...        0 min,  0.468 sec
     gradient                   ...        0 min,  0.069 sec
 * total energy  :  -304.4995904 Eh     change       -0.3144416E-03 Eh
   gradient norm :     0.0057710 Eh/α   predicted    -0.2666338E-03 ( -15.20%)
   displ. norm   :     0.5003837 α      lambda       -0.4311523E-03
   maximum displ.:     0.2600582 α      in ANC's #6, #9, #16, ...

........................................................................
.............................. CYCLE   35 ..............................
........................................................................

 iter      E             dE          RMSdq      gap      omega  full diag
   1   -307.8172466 -0.307817E+03  0.520E-02    0.53       0.0  T
   2   -307.8172506 -0.392469E-05  0.308E-02    0.52       1.0  T
   3   -307.8171397  0.110874E-03  0.209E-02    0.53       1.0  T
   4   -307.8172403 -0.100655E-03  0.763E-03    0.53       1.0  T
   5   -307.8172563 -0.159421E-04  0.227E-03    0.53       3.4  T
   6   -307.8172573 -0.981742E-06  0.111E-03    0.53       6.8  T
   7   -307.8172573 -0.587103E-07  0.668E-04    0.53      11.4  T
   8   -307.8172574 -0.699103E-07  0.286E-04    0.53      26.7  T
     SCC iter.                  ...        0 min,  0.484 sec
     gradient                   ...        0 min,  0.064 sec
 * total energy  :  -304.4998334 Eh     change       -0.2430018E-03 Eh
   gradient norm :     0.0087641 Eh/α   predicted    -0.2695552E-03 (  10.93%)
   displ. norm   :     0.3957134 α      lambda       -0.3255835E-03
   maximum displ.:     0.2025693 α      in ANC's #6, #9, #16, ...

........................................................................
.............................. CYCLE   36 ..............................
........................................................................

 iter      E             dE          RMSdq      gap      omega  full diag
   1   -307.8139656 -0.307814E+03  0.437E-02    0.54       0.0  T
   2   -307.8139680 -0.245206E-05  0.259E-02    0.53       1.0  T
   3   -307.8139043  0.637059E-04  0.154E-02    0.54       1.0  T
   4   -307.8139625 -0.581402E-04  0.551E-03    0.54       1.4  T
   5   -307.8139708 -0.833454E-05  0.176E-03    0.54       4.3  T
   6   -307.8139714 -0.565334E-06  0.823E-04    0.54       9.3  T
   7   -307.8139714 -0.420258E-07  0.472E-04    0.54      16.2  T
     SCC iter.                  ...        0 min,  0.481 sec
     gradient                   ...        0 min,  0.068 sec
 * total energy  :  -304.5000646 Eh     change       -0.2312417E-03 Eh
   gradient norm :     0.0062658 Eh/α   predicted    -0.1882850E-03 ( -18.58%)
   displ. norm   :     0.3646047 α      lambda       -0.2848521E-03
   maximum displ.:     0.1830421 α      in ANC's #6, #9, #4, ...

........................................................................
.............................. CYCLE   37 ..............................
........................................................................

 iter      E             dE          RMSdq      gap      omega  full diag
   1   -307.8120711 -0.307812E+03  0.407E-02    0.54       0.0  T
   2   -307.8120730 -0.185703E-05  0.243E-02    0.54       1.0  T
   3   -307.8120075  0.655034E-04  0.151E-02    0.54       1.0  T
   4   -307.8120686 -0.611550E-04  0.508E-03    0.54       1.5  T
   5   -307.8120756 -0.701497E-05  0.195E-03    0.54       3.9  T
   6   -307.8120764 -0.736004E-06  0.873E-04    0.54       8.7  T
   7   -307.8120764 -0.385176E-07  0.574E-04    0.54      13.3  T
     SCC iter.                  ...        0 min,  0.406 sec
     gradient                   ...        0 min,  0.063 sec
 * total energy  :  -304.5002722 Eh     change       -0.2075941E-03 Eh
   gradient norm :     0.0053341 Eh/α   predicted    -0.1613621E-03 ( -22.27%)
   displ. norm   :     0.4312817 α      lambda       -0.3301348E-03
   maximum displ.:     0.2100613 α      in ANC's #9, #6, #4, ...

........................................................................
.............................. CYCLE   38 ..............................
........................................................................

 iter      E             dE          RMSdq      gap      omega  full diag
   1   -307.8127303 -0.307813E+03  0.515E-02    0.55       0.0  T
   2   -307.8127330 -0.273330E-05  0.308E-02    0.55       1.0  T
   3   -307.8126306  0.102376E-03  0.195E-02    0.55       1.0  T
   4   -307.8127288 -0.981945E-04  0.578E-03    0.55       1.3  T
   5   -307.8127378 -0.898405E-05  0.264E-03    0.55       2.9  T
   6   -307.8127393 -0.146443E-05  0.123E-03    0.55       6.2  T
   7   -307.8127394 -0.127513E-06  0.801E-04    0.55       9.5  T
   8   -307.8127395 -0.124430E-06  0.278E-04    0.55      27.4  T
     SCC iter.                  ...        0 min,  0.499 sec
     gradient                   ...        0 min,  0.066 sec
 * total energy  :  -304.5005337 Eh     change       -0.2614879E-03 Eh
   gradient norm :     0.0054903 Eh/α   predicted    -0.1957734E-03 ( -25.13%)
   displ. norm   :     0.5006602 α      lambda       -0.3456724E-03
   maximum displ.:     0.2435212 α      in ANC's #9, #6, #4, ...

........................................................................
.............................. CYCLE   39 ..............................
........................................................................

 iter      E             dE          RMSdq      gap      omega  full diag
   1   -307.8120179 -0.307812E+03  0.575E-02    0.56       0.0  T
   2   -307.8120212 -0.325243E-05  0.341E-02    0.56       1.0  T
   3   -307.8119123  0.108868E-03  0.216E-02    0.56       1.0  T
   4   -307.8120216 -0.109287E-03  0.510E-03    0.56       1.5  T
   5   -307.8120281 -0.652587E-05  0.216E-03    0.56       3.5  T
   6   -307.8120291 -0.950499E-06  0.105E-03    0.56       7.3  T
   7   -307.8120291  0.447278E-08  0.728E-04    0.56      10.5  T
   8   -307.8120291 -0.834963E-07  0.371E-04    0.56      20.5  T
     SCC iter.                  ...        0 min,  0.493 sec
     gradient                   ...        0 min,  0.065 sec
 * total energy  :  -304.5007963 Eh     change       -0.2626349E-03 Eh
   gradient norm :     0.0069415 Eh/α   predicted    -0.2161751E-03 ( -17.69%)
   displ. norm   :     0.4950150 α      lambda       -0.3135014E-03
   maximum displ.:     0.2435732 α      in ANC's #9, #6, #4, ...

........................................................................
.............................. CYCLE   40 ..............................
........................................................................

 iter      E             dE          RMSdq      gap      omega  full diag
   1   -307.8154281 -0.307815E+03  0.553E-02    0.57       0.0  T
   2   -307.8154295 -0.139864E-05  0.328E-02    0.57       1.0  T
   3   -307.8152833  0.146155E-03  0.253E-02    0.57       1.0  T
   4   -307.8154281 -0.144747E-03  0.645E-03    0.57       1.2  T
   5   -307.8154379 -0.980749E-05  0.272E-03    0.57       2.8  T
   6   -307.8154395 -0.163748E-05  0.137E-03    0.57       5.6  T
   7   -307.8154397 -0.195026E-06  0.796E-04    0.57       9.6  T
   8   -307.8154398 -0.135468E-06  0.301E-04    0.57      25.3  T
     SCC iter.                  ...        0 min,  0.626 sec
     gradient                   ...        0 min,  0.068 sec
 * total energy  :  -304.5010148 Eh     change       -0.2184250E-03 Eh
   gradient norm :     0.0073176 Eh/α   predicted    -0.1951641E-03 ( -10.65%)
   displ. norm   :     0.5132893 α      lambda       -0.2925581E-03
   maximum displ.:     0.2485884 α      in ANC's #9, #6, #4, ...

........................................................................
.............................. CYCLE   41 ..............................
........................................................................

 iter      E             dE          RMSdq      gap      omega  full diag
   1   -307.8133058 -0.307813E+03  0.523E-02    0.58       0.0  T
   2   -307.8133111 -0.530903E-05  0.310E-02    0.57       1.0  T
   3   -307.8131793  0.131811E-03  0.233E-02    0.57       1.0  T
   4   -307.8133030 -0.123702E-03  0.748E-03    0.57       1.0  T
   5   -307.8133171 -0.141187E-04  0.284E-03    0.57       2.7  T
   6   -307.8133190 -0.188436E-05  0.128E-03    0.57       6.0  T
   7   -307.8133192 -0.179801E-06  0.706E-04    0.57      10.8  T
   8   -307.8133193 -0.636861E-07  0.389E-04    0.57      19.6  T
     SCC iter.                  ...        0 min,  0.450 sec
     gradient                   ...        0 min,  0.060 sec
 * total energy  :  -304.5012041 Eh     change       -0.1893303E-03 Eh
   gradient norm :     0.0090213 Eh/α   predicted    -0.1848189E-03 (  -2.38%)
   displ. norm   :     0.4231447 α      lambda       -0.2982325E-03
   maximum displ.:     0.2016627 α      in ANC's #9, #6, #4, ...

........................................................................
.............................. CYCLE   42 ..............................
........................................................................

 iter      E             dE          RMSdq      gap      omega  full diag
   1   -307.8153503 -0.307815E+03  0.424E-02    0.59       0.0  T
   2   -307.8153531 -0.281279E-05  0.252E-02    0.59       1.0  T
   3   -307.8152176  0.135515E-03  0.229E-02    0.59       1.0  T
   4   -307.8153489 -0.131381E-03  0.649E-03    0.59       1.2  T
   5   -307.8153595 -0.105287E-04  0.255E-03    0.59       3.0  T
   6   -307.8153609 -0.139569E-05  0.919E-04    0.59       8.3  T
   7   -307.8153609 -0.781779E-07  0.481E-04    0.59      15.8  T
   8   -307.8153610 -0.152265E-07  0.313E-04    0.59      24.4  T
     SCC iter.                  ...        0 min,  0.446 sec
     gradient                   ...        0 min,  0.065 sec
 * total energy  :  -304.5013782 Eh     change       -0.1740832E-03 Eh
   gradient norm :     0.0092921 Eh/α   predicted    -0.1758164E-03 (   1.00%)
   displ. norm   :     0.4135883 α      lambda       -0.2592115E-03
   maximum displ.:     0.1976441 α      in ANC's #6, #9, #4, ...
 * RMSD in coord.:     0.7949812 α      energy gain  -0.4502996E-01 Eh

generating ANC from exact Hessian ...
Using Lindh-Hessian (1995)
 Shifting diagonal of input Hessian by   1.006908076793161E-002
 Lowest  eigenvalues of input Hessian
    0.010000    0.010017    0.010028    0.000000    0.010043    0.000000
    0.000000    0.000000    0.000000    0.000000    0.010095    0.010135
    0.010219    0.010301    0.010352    0.010392    0.010501    0.010537
 Highest eigenvalues
    2.184245    2.264877    2.321419    2.374981    2.393847    2.547919
 

........................................................................
.............................. CYCLE   43 ..............................
........................................................................

 iter      E             dE          RMSdq      gap      omega  full diag
   1   -307.8168234 -0.307817E+03  0.397E-02    0.60       0.0  T
   2   -307.8168290 -0.561880E-05  0.236E-02    0.60       1.0  T
   3   -307.8167704  0.585787E-04  0.149E-02    0.60       1.0  T
   4   -307.8168178 -0.473601E-04  0.690E-03    0.60       1.1  T
   5   -307.8168316 -0.137607E-04  0.216E-03    0.60       3.5  T
   6   -307.8168325 -0.944669E-06  0.805E-04    0.60       9.5  T
   7   -307.8168325 -0.462175E-07  0.468E-04    0.60      16.3  T
     SCC iter.                  ...        0 min,  0.395 sec
     gradient                   ...        0 min,  0.060 sec
 * total energy  :  -304.5015435 Eh     change       -0.1653180E-03 Eh
   gradient norm :     0.0069674 Eh/α   predicted     0.0000000E+00 (-100.00%)
   displ. norm   :     0.0459792 α      lambda       -0.7246278E-04
   maximum displ.:     0.0228524 α      in ANC's #7, #25, #13, ...

........................................................................
.............................. CYCLE   44 ..............................
........................................................................

 iter      E             dE          RMSdq      gap      omega  full diag
   1   -307.8167595 -0.307817E+03  0.116E-02    0.60       0.0  T
   2   -307.8167598 -0.335488E-06  0.703E-03    0.60       1.1  T
   3   -307.8167500  0.986798E-05  0.647E-03    0.60       1.2  T
   4   -307.8167590 -0.901437E-05  0.245E-03    0.60       3.1  T
   5   -307.8167606 -0.160537E-05  0.693E-04    0.60      11.0  T
   6   -307.8167607 -0.115801E-06  0.349E-04    0.60      21.8  T
   7   -307.8167607 -0.257726E-07  0.151E-04    0.60      50.3  T
     SCC iter.                  ...        0 min,  0.390 sec
     gradient                   ...        0 min,  0.060 sec
 * total energy  :  -304.5016124 Eh     change       -0.6895367E-04 Eh
   gradient norm :     0.0030863 Eh/α   predicted    -0.4633884E-04 ( -32.80%)
   displ. norm   :     0.0939630 α      lambda       -0.8339561E-04
   maximum displ.:     0.0515444 α      in ANC's #7, #13, #25, ...

........................................................................
.............................. CYCLE   45 ..............................
........................................................................

 iter      E             dE          RMSdq      gap      omega  full diag
   1   -307.8166342 -0.307817E+03  0.180E-02    0.60       0.0  T
   2   -307.8166340  0.161636E-06  0.108E-02    0.60       1.0  T
   3   -307.8166078  0.261884E-04  0.107E-02    0.60       1.0  T
   4   -307.8166333 -0.254799E-04  0.328E-03    0.60       2.3  T
   5   -307.8166361 -0.280348E-05  0.102E-03    0.60       7.5  T
   6   -307.8166364 -0.249656E-06  0.521E-04    0.60      14.6  T
   7   -307.8166364 -0.508255E-07  0.244E-04    0.60      31.3  T
     SCC iter.                  ...        0 min,  0.375 sec
     gradient                   ...        0 min,  0.064 sec
 * total energy  :  -304.5016680 Eh     change       -0.5558463E-04 Eh
   gradient norm :     0.0025650 Eh/α   predicted    -0.4206667E-04 ( -24.32%)
   displ. norm   :     0.0970101 α      lambda       -0.4339653E-04
   maximum displ.:     0.0559537 α      in ANC's #7, #13, #9, ...

........................................................................
.............................. CYCLE   46 ..............................
........................................................................

 iter      E             dE          RMSdq      gap      omega  full diag
   1   -307.8165767 -0.307817E+03  0.160E-02    0.60       0.0  T
   2   -307.8165763  0.401388E-06  0.961E-03    0.60       1.0  T
   3   -307.8165549  0.213653E-04  0.964E-03    0.60       1.0  T
   4   -307.8165763 -0.213716E-04  0.251E-03    0.60       3.0  T
   5   -307.8165779 -0.161437E-05  0.837E-04    0.60       9.1  T
   6   -307.8165781 -0.165643E-06  0.442E-04    0.60      17.3  T
   7   -307.8165781 -0.361688E-07  0.204E-04    0.60      37.4  T
     SCC iter.                  ...        0 min,  0.446 sec
     gradient                   ...        0 min,  0.065 sec
 * total energy  :  -304.5017027 Eh     change       -0.3471930E-04 Eh
   gradient norm :     0.0032895 Eh/α   predicted    -0.2216767E-04 ( -36.15%)
   displ. norm   :     0.1528818 α      lambda       -0.5891346E-04
   maximum displ.:     0.0881720 α      in ANC's #7, #13, #9, ...

........................................................................
.............................. CYCLE   47 ..............................
........................................................................

 iter      E             dE          RMSdq      gap      omega  full diag
   1   -307.8165340 -0.307817E+03  0.227E-02    0.60       0.0  T
   2   -307.8165331  0.891977E-06  0.137E-02    0.60       1.0  T
   3   -307.8164922  0.408995E-04  0.134E-02    0.60       1.0  T
   4   -307.8165338 -0.416342E-04  0.321E-03    0.60       2.4  T
   5   -307.8165365 -0.262427E-05  0.112E-03    0.60       6.8  T
   6   -307.8165367 -0.270007E-06  0.646E-04    0.60      11.8  T
   7   -307.8165368 -0.794658E-07  0.289E-04    0.60      26.4  T
     SCC iter.                  ...        0 min,  0.372 sec
     gradient                   ...        0 min,  0.064 sec
 * total energy  :  -304.5017486 Eh     change       -0.4587360E-04 Eh
   gradient norm :     0.0031049 Eh/α   predicted    -0.3014539E-04 ( -34.29%)
   displ. norm   :     0.1787501 α      lambda       -0.5658896E-04
   maximum displ.:     0.1050101 α      in ANC's #7, #13, #9, ...

........................................................................
.............................. CYCLE   48 ..............................
........................................................................

 iter      E             dE          RMSdq      gap      omega  full diag
   1   -307.8165596 -0.307817E+03  0.243E-02    0.60       0.0  T
   2   -307.8165588  0.785621E-06  0.147E-02    0.60       1.0  T
   3   -307.8165161  0.426884E-04  0.134E-02    0.60       1.0  T
   4   -307.8165599 -0.437651E-04  0.298E-03    0.60       2.6  T
   5   -307.8165622 -0.229455E-05  0.103E-03    0.60       7.4  T
   6   -307.8165624 -0.187158E-06  0.671E-04    0.60      11.4  T
   7   -307.8165625 -0.823377E-07  0.308E-04    0.60      24.8  T
     SCC iter.                  ...        0 min,  0.379 sec
     gradient                   ...        0 min,  0.070 sec
 * total energy  :  -304.5017925 Eh     change       -0.4392601E-04 Eh
   gradient norm :     0.0024933 Eh/α   predicted    -0.2920001E-04 ( -33.52%)
   displ. norm   :     0.1827222 α      lambda       -0.4978127E-04
   maximum displ.:     0.1089218 α      in ANC's #7, #13, #9, ...

........................................................................
.............................. CYCLE   49 ..............................
........................................................................

 iter      E             dE          RMSdq      gap      omega  full diag
   1   -307.8166817 -0.307817E+03  0.228E-02    0.60       0.0  T
   2   -307.8166812  0.497177E-06  0.137E-02    0.60       1.0  T
   3   -307.8166480  0.332457E-04  0.114E-02    0.60       1.0  T
   4   -307.8166823 -0.343165E-04  0.224E-03    0.60       3.4  T
   5   -307.8166837 -0.140994E-05  0.724E-04    0.60      10.5  T
   6   -307.8166838 -0.869436E-07  0.392E-04    0.60      19.4  T
   7   -307.8166838  0.799162E-08  0.313E-04    0.60      24.4  T
     SCC iter.                  ...        0 min,  0.405 sec
     gradient                   ...        0 min,  0.064 sec
 * total energy  :  -304.5018326 Eh     change       -0.4003387E-04 Eh
   gradient norm :     0.0023013 Eh/α   predicted    -0.2572936E-04 ( -35.73%)
   displ. norm   :     0.1971397 α      lambda       -0.5078864E-04
   maximum displ.:     0.1183254 α      in ANC's #7, #13, #9, ...

........................................................................
.............................. CYCLE   50 ..............................
........................................................................

 iter      E             dE          RMSdq      gap      omega  full diag
   1   -307.8168637 -0.307817E+03  0.232E-02    0.60       0.0  T
   2   -307.8168636  0.104952E-06  0.139E-02    0.60       1.0  T
   3   -307.8168375  0.261236E-04  0.954E-03    0.60       1.0  T
   4   -307.8168637 -0.261928E-04  0.220E-03    0.60       3.5  T
   5   -307.8168651 -0.139025E-05  0.894E-04    0.60       8.5  T
   6   -307.8168652 -0.130178E-06  0.506E-04    0.60      15.1  T
   7   -307.8168652 -0.281381E-07  0.327E-04    0.60      23.3  T
     SCC iter.                  ...        0 min,  0.383 sec
     gradient                   ...        0 min,  0.069 sec
 * total energy  :  -304.5018737 Eh     change       -0.4113381E-04 Eh
   gradient norm :     0.0025049 Eh/α   predicted    -0.2638142E-04 ( -35.86%)
   displ. norm   :     0.2160513 α      lambda       -0.5102698E-04
   maximum displ.:     0.1304102 α      in ANC's #7, #13, #9, ...

........................................................................
.............................. CYCLE   51 ..............................
........................................................................

 iter      E             dE          RMSdq      gap      omega  full diag
   1   -307.8169676 -0.307817E+03  0.247E-02    0.59       0.0  T
   2   -307.8169677 -0.116826E-06  0.148E-02    0.60       1.0  T
   3   -307.8169455  0.222478E-04  0.845E-03    0.59       1.0  T
   4   -307.8169667 -0.212685E-04  0.258E-03    0.59       3.0  T
   5   -307.8169686 -0.190798E-05  0.886E-04    0.59       8.6  T
   6   -307.8169688 -0.127368E-06  0.477E-04    0.59      16.0  T
   7   -307.8169688 -0.253624E-07  0.285E-04    0.59      26.8  T
     SCC iter.                  ...        0 min,  0.404 sec
     gradient                   ...        0 min,  0.061 sec
 * total energy  :  -304.5019146 Eh     change       -0.4087617E-04 Eh
   gradient norm :     0.0025780 Eh/α   predicted    -0.2670492E-04 ( -34.67%)
   displ. norm   :     0.2197492 α      lambda       -0.4599833E-04
   maximum displ.:     0.1337485 α      in ANC's #7, #13, #9, ...

........................................................................
.............................. CYCLE   52 ..............................
........................................................................

 iter      E             dE          RMSdq      gap      omega  full diag
   1   -307.8169970 -0.307817E+03  0.246E-02    0.59       0.0  T
   2   -307.8169971 -0.166151E-06  0.146E-02    0.59       1.0  T
   3   -307.8169781  0.190298E-04  0.798E-03    0.59       1.0  T
   4   -307.8169962 -0.180838E-04  0.241E-03    0.59       3.2  T
   5   -307.8169979 -0.166066E-05  0.615E-04    0.59      12.4  T
   6   -307.8169979 -0.423010E-07  0.354E-04    0.59      21.5  T
   7   -307.8169979 -0.763993E-08  0.222E-04    0.59      34.4  T
     SCC iter.                  ...        0 min,  0.386 sec
     gradient                   ...        0 min,  0.065 sec
 * total energy  :  -304.5019517 Eh     change       -0.3710019E-04 Eh
   gradient norm :     0.0023273 Eh/α   predicted    -0.2411142E-04 ( -35.01%)
   displ. norm   :     0.2201998 α      lambda       -0.4294281E-04
   maximum displ.:     0.1351697 α      in ANC's #7, #13, #9, ...

........................................................................
.............................. CYCLE   53 ..............................
........................................................................

 iter      E             dE          RMSdq      gap      omega  full diag
   1   -307.8170188 -0.307817E+03  0.246E-02    0.59       0.0  T
   2   -307.8170188  0.649470E-07  0.146E-02    0.59       1.0  T
   3   -307.8169929  0.258228E-04  0.956E-03    0.59       1.0  T
   4   -307.8170185 -0.255363E-04  0.214E-03    0.59       3.6  T
   5   -307.8170197 -0.123110E-05  0.636E-04    0.59      12.0  T
   6   -307.8170198 -0.574727E-07  0.381E-04    0.59      20.0  T
   7   -307.8170198 -0.778510E-08  0.209E-04    0.59      36.5  T
     SCC iter.                  ...        0 min,  0.401 sec
     gradient                   ...        0 min,  0.066 sec
 * total energy  :  -304.5019872 Eh     change       -0.3549648E-04 Eh
   gradient norm :     0.0019546 Eh/α   predicted    -0.2251469E-04 ( -36.57%)
   displ. norm   :     0.3603674 α      lambda       -0.4609637E-04
   maximum displ.:     0.2220967 α      in ANC's #7, #13, #9, ...

........................................................................
.............................. CYCLE   54 ..............................
........................................................................

 iter      E             dE          RMSdq      gap      omega  full diag
   1   -307.8168913 -0.307817E+03  0.411E-02    0.59       0.0  T
   2   -307.8168904  0.898135E-06  0.242E-02    0.59       1.0  T
   3   -307.8168027  0.877123E-04  0.182E-02    0.59       1.0  T
   4   -307.8168906 -0.878879E-04  0.370E-03    0.59       2.1  T
   5   -307.8168941 -0.355874E-05  0.125E-03    0.59       6.1  T
   6   -307.8168944 -0.239723E-06  0.838E-04    0.59       9.1  T
   7   -307.8168945 -0.104817E-06  0.395E-04    0.59      19.3  T
     SCC iter.                  ...        0 min,  0.402 sec
     gradient                   ...        0 min,  0.066 sec
 * total energy  :  -304.5020394 Eh     change       -0.5219660E-04 Eh
   gradient norm :     0.0022536 Eh/α   predicted    -0.2438022E-04 ( -53.29%)
   displ. norm   :     0.2000463 α      lambda       -0.3742606E-04
   maximum displ.:     0.1241193 α      in ANC's #7, #13, #9, ...

........................................................................
.............................. CYCLE   55 ..............................
........................................................................

 iter      E             dE          RMSdq      gap      omega  full diag
   1   -307.8169531 -0.307817E+03  0.228E-02    0.59       0.0  T
   2   -307.8169529  0.197153E-06  0.135E-02    0.59       1.0  T
   3   -307.8169283  0.245493E-04  0.968E-03    0.59       1.0  T
   4   -307.8169530 -0.246658E-04  0.203E-03    0.59       3.8  T
   5   -307.8169540 -0.101808E-05  0.759E-04    0.59      10.0  T
   6   -307.8169541 -0.850348E-07  0.520E-04    0.59      14.7  T
   7   -307.8169541 -0.457442E-07  0.232E-04    0.59      32.8  T
     SCC iter.                  ...        0 min,  0.392 sec
     gradient                   ...        0 min,  0.065 sec
 * total energy  :  -304.5020727 Eh     change       -0.3331965E-04 Eh
   gradient norm :     0.0022572 Eh/α   predicted    -0.1946689E-04 ( -41.58%)
   displ. norm   :     0.3196312 α      lambda       -0.6374768E-04
   maximum displ.:     0.1970479 α      in ANC's #7, #9, #13, ...

........................................................................
.............................. CYCLE   56 ..............................
........................................................................

 iter      E             dE          RMSdq      gap      omega  full diag
   1   -307.8170971 -0.307817E+03  0.376E-02    0.60       0.0  T
   2   -307.8170970  0.118523E-06  0.223E-02    0.60       1.0  T
   3   -307.8170373  0.597513E-04  0.153E-02    0.60       1.0  T
   4   -307.8170972 -0.599156E-04  0.352E-03    0.60       2.2  T
   5   -307.8171002 -0.306081E-05  0.136E-03    0.60       5.6  T
   6   -307.8171005 -0.282274E-06  0.896E-04    0.60       8.5  T
   7   -307.8171006 -0.119868E-06  0.456E-04    0.60      16.7  T
     SCC iter.                  ...        0 min,  0.444 sec
     gradient                   ...        0 min,  0.066 sec
 * total energy  :  -304.5021244 Eh     change       -0.5172734E-04 Eh
   gradient norm :     0.0021685 Eh/α   predicted    -0.3513397E-04 ( -32.08%)
   displ. norm   :     0.3472410 α      lambda       -0.5381570E-04
   maximum displ.:     0.2141424 α      in ANC's #7, #9, #13, ...

........................................................................
.............................. CYCLE   57 ..............................
........................................................................

 iter      E             dE          RMSdq      gap      omega  full diag
   1   -307.8166566 -0.307817E+03  0.397E-02    0.60       0.0  T
   2   -307.8166571 -0.508753E-06  0.235E-02    0.60       1.0  T
   3   -307.8166039  0.531808E-04  0.145E-02    0.60       1.0  T
   4   -307.8166570 -0.531260E-04  0.353E-03    0.60       2.2  T
   5   -307.8166602 -0.319617E-05  0.137E-03    0.60       5.6  T
   6   -307.8166605 -0.257640E-06  0.875E-04    0.60       8.7  T
   7   -307.8166605 -0.725325E-07  0.539E-04    0.60      14.1  T
     SCC iter.                  ...        0 min,  0.387 sec
     gradient                   ...        0 min,  0.062 sec
 * total energy  :  -304.5021662 Eh     change       -0.4172871E-04 Eh
   gradient norm :     0.0021555 Eh/α   predicted    -0.3015395E-04 ( -27.74%)
   displ. norm   :     0.2845834 α      lambda       -0.3634115E-04
   maximum displ.:     0.1759055 α      in ANC's #7, #9, #13, ...

........................................................................
.............................. CYCLE   58 ..............................
........................................................................

 iter      E             dE          RMSdq      gap      omega  full diag
   1   -307.8167149 -0.307817E+03  0.309E-02    0.60       0.0  T
   2   -307.8167154 -0.561986E-06  0.183E-02    0.60       1.0  T
   3   -307.8166872  0.282512E-04  0.104E-02    0.60       1.0  T
   4   -307.8167152 -0.279985E-04  0.267E-03    0.60       2.9  T
   5   -307.8167172 -0.206684E-05  0.997E-04    0.60       7.6  T
   6   -307.8167174 -0.161891E-06  0.559E-04    0.60      13.6  T
   7   -307.8167174 -0.323791E-08  0.422E-04    0.60      18.1  T
     SCC iter.                  ...        0 min,  0.420 sec
     gradient                   ...        0 min,  0.067 sec
 * total energy  :  -304.5021957 Eh     change       -0.2953570E-04 Eh
   gradient norm :     0.0019358 Eh/α   predicted    -0.1964437E-04 ( -33.49%)
   displ. norm   :     0.4100129 α      lambda       -0.3503913E-04
   maximum displ.:     0.2532113 α      in ANC's #7, #9, #13, ...

........................................................................
.............................. CYCLE   59 ..............................
........................................................................

 iter      E             dE          RMSdq      gap      omega  full diag
   1   -307.8169135 -0.307817E+03  0.417E-02    0.61       0.0  T
   2   -307.8169148 -0.134786E-05  0.247E-02    0.61       1.0  T
   3   -307.8168648  0.500304E-04  0.138E-02    0.61       1.0  T
   4   -307.8169114 -0.466239E-04  0.460E-03    0.61       1.7  T
   5   -307.8169175 -0.606087E-05  0.178E-03    0.61       4.3  T
   6   -307.8169182 -0.706485E-06  0.824E-04    0.61       9.2  T
   7   -307.8169182 -0.479280E-07  0.487E-04    0.61      15.7  T
     SCC iter.                  ...        0 min,  0.413 sec
     gradient                   ...        0 min,  0.061 sec
 * total energy  :  -304.5022345 Eh     change       -0.3879737E-04 Eh
   gradient norm :     0.0017264 Eh/α   predicted    -0.1882882E-04 ( -51.47%)
   displ. norm   :     0.2891276 α      lambda       -0.2465648E-04
   maximum displ.:     0.1783381 α      in ANC's #7, #9, #13, ...

........................................................................
.............................. CYCLE   60 ..............................
........................................................................

 iter      E             dE          RMSdq      gap      omega  full diag
   1   -307.8171904 -0.307817E+03  0.284E-02    0.61       0.0  T
   2   -307.8171907 -0.260391E-06  0.168E-02    0.61       1.0  T
   3   -307.8171561  0.345992E-04  0.113E-02    0.61       1.0  T
   4   -307.8171889 -0.328098E-04  0.350E-03    0.61       2.2  T
   5   -307.8171923 -0.344530E-05  0.104E-03    0.61       7.3  T
   6   -307.8171925 -0.222997E-06  0.500E-04    0.61      15.2  T
   7   -307.8171926 -0.207658E-07  0.230E-04    0.61      33.1  T
     SCC iter.                  ...        0 min,  0.380 sec
     gradient                   ...        0 min,  0.068 sec
 * total energy  :  -304.5022642 Eh     change       -0.2974691E-04 Eh
   gradient norm :     0.0016978 Eh/α   predicted    -0.1278839E-04 ( -57.01%)
   displ. norm   :     0.3214913 α      lambda       -0.2678441E-04
   maximum displ.:     0.1970981 α      in ANC's #7, #9, #11, ...

........................................................................
.............................. CYCLE   61 ..............................
........................................................................

 iter      E             dE          RMSdq      gap      omega  full diag
   1   -307.8173823 -0.307817E+03  0.329E-02    0.61       0.0  T
   2   -307.8173825 -0.173153E-06  0.195E-02    0.62       1.0  T
   3   -307.8173297  0.527863E-04  0.143E-02    0.61       1.0  T
   4   -307.8173810 -0.512679E-04  0.393E-03    0.62       1.9  T
   5   -307.8173851 -0.409712E-05  0.126E-03    0.62       6.0  T
   6   -307.8173854 -0.328207E-06  0.657E-04    0.62      11.6  T
   7   -307.8173854 -0.279267E-07  0.392E-04    0.62      19.5  T
     SCC iter.                  ...        0 min,  0.381 sec
     gradient                   ...        0 min,  0.064 sec
 * total energy  :  -304.5022943 Eh     change       -0.3006370E-04 Eh
   gradient norm :     0.0017541 Eh/α   predicted    -0.1401213E-04 ( -53.39%)
   displ. norm   :     0.3222167 α      lambda       -0.2194944E-04
   maximum displ.:     0.1965300 α      in ANC's #7, #9, #11, ...

........................................................................
.............................. CYCLE   62 ..............................
........................................................................

 iter      E             dE          RMSdq      gap      omega  full diag
   1   -307.8174614 -0.307817E+03  0.328E-02    0.62       0.0  T
   2   -307.8174620 -0.636258E-06  0.194E-02    0.62       1.0  T
   3   -307.8174264  0.356138E-04  0.119E-02    0.62       1.0  T
   4   -307.8174613 -0.348866E-04  0.325E-03    0.62       2.3  T
   5   -307.8174638 -0.253317E-05  0.125E-03    0.62       6.1  T
   6   -307.8174641 -0.299763E-06  0.736E-04    0.62      10.4  T
   7   -307.8174642 -0.586159E-07  0.422E-04    0.62      18.1  T
     SCC iter.                  ...        0 min,  0.593 sec
     gradient                   ...        0 min,  0.073 sec
 * total energy  :  -304.5023176 Eh     change       -0.2327311E-04 Eh
   gradient norm :     0.0017164 Eh/α   predicted    -0.1148463E-04 ( -50.65%)
   displ. norm   :     0.3105216 α      lambda       -0.1970323E-04
   maximum displ.:     0.1874436 α      in ANC's #7, #11, #9, ...

........................................................................
.............................. CYCLE   63 ..............................
........................................................................

 iter      E             dE          RMSdq      gap      omega  full diag
   1   -307.8175478 -0.307818E+03  0.314E-02    0.62       0.0  T
   2   -307.8175490 -0.111485E-05  0.187E-02    0.62       1.0  T
   3   -307.8175283  0.206825E-04  0.874E-03    0.62       1.0  T
   4   -307.8175482 -0.199181E-04  0.264E-03    0.62       2.9  T
   5   -307.8175501 -0.193002E-05  0.102E-03    0.62       7.5  T
   6   -307.8175503 -0.166515E-06  0.601E-04    0.62      12.7  T
   7   -307.8175503 -0.111569E-07  0.465E-04    0.62      16.4  T
     SCC iter.                  ...        0 min,  0.539 sec
     gradient                   ...        0 min,  0.066 sec
 * total energy  :  -304.5023390 Eh     change       -0.2146982E-04 Eh
   gradient norm :     0.0017880 Eh/α   predicted    -0.1027799E-04 ( -52.13%)
   displ. norm   :     0.3185563 α      lambda       -0.2034191E-04
   maximum displ.:     0.1889817 α      in ANC's #7, #11, #9, ...

........................................................................
.............................. CYCLE   64 ..............................
........................................................................

 iter      E             dE          RMSdq      gap      omega  full diag
   1   -307.8181416 -0.307818E+03  0.315E-02    0.62       0.0  T
   2   -307.8181421 -0.457053E-06  0.188E-02    0.62       1.0  T
   3   -307.8181029  0.391728E-04  0.111E-02    0.62       1.0  T
   4   -307.8181405 -0.375738E-04  0.335E-03    0.62       2.3  T
   5   -307.8181436 -0.311710E-05  0.117E-03    0.62       6.5  T
   6   -307.8181438 -0.184975E-06  0.672E-04    0.62      11.3  T
   7   -307.8181438 -0.549439E-07  0.378E-04    0.62      20.1  T
     SCC iter.                  ...        0 min,  0.433 sec
     gradient                   ...        0 min,  0.070 sec
 * total energy  :  -304.5023630 Eh     change       -0.2395830E-04 Eh
   gradient norm :     0.0015179 Eh/α   predicted    -0.1063156E-04 ( -55.62%)
   displ. norm   :     0.3648216 α      lambda       -0.2365492E-04
   maximum displ.:     0.2114329 α      in ANC's #7, #11, #9, ...

........................................................................
.............................. CYCLE   65 ..............................
........................................................................

 iter      E             dE          RMSdq      gap      omega  full diag
   1   -307.8177887 -0.307818E+03  0.366E-02    0.62       0.0  T
   2   -307.8177879  0.801097E-06  0.218E-02    0.62       1.0  T
   3   -307.8176821  0.105823E-03  0.186E-02    0.62       1.0  T
   4   -307.8177890 -0.106946E-03  0.340E-03    0.62       2.2  T
   5   -307.8177919 -0.284669E-05  0.116E-03    0.62       6.6  T
   6   -307.8177920 -0.130438E-06  0.700E-04    0.62      10.9  T
   7   -307.8177920 -0.379365E-07  0.446E-04    0.62      17.1  T
     SCC iter.                  ...        0 min,  0.408 sec
     gradient                   ...        0 min,  0.066 sec
 * total energy  :  -304.5023896 Eh     change       -0.2663946E-04 Eh
   gradient norm :     0.0021313 Eh/α   predicted    -0.1252909E-04 ( -52.97%)
   displ. norm   :     0.2206205 α      lambda       -0.2489933E-04
   maximum displ.:     0.1169528 α      in ANC's #7, #11, #2, ...

........................................................................
.............................. CYCLE   66 ..............................
........................................................................

 iter      E             dE          RMSdq      gap      omega  full diag
   1   -307.8189003 -0.307819E+03  0.232E-02    0.62       0.0  T
   2   -307.8188994  0.867812E-06  0.139E-02    0.62       1.0  T
   3   -307.8188410  0.583967E-04  0.139E-02    0.62       1.0  T
   4   -307.8189005 -0.595080E-04  0.235E-03    0.62       3.2  T
   5   -307.8189018 -0.132540E-05  0.817E-04    0.62       9.3  T
   6   -307.8189019 -0.776654E-07  0.471E-04    0.62      16.2  T
   7   -307.8189019 -0.166414E-07  0.277E-04    0.62      27.5  T
     SCC iter.                  ...        0 min,  0.405 sec
     gradient                   ...        0 min,  0.064 sec
 * total energy  :  -304.5024099 Eh     change       -0.2026450E-04 Eh
   gradient norm :     0.0017133 Eh/α   predicted    -0.1305699E-04 ( -35.57%)
   displ. norm   :     0.4932061 α      lambda       -0.3406002E-04
   maximum displ.:     0.2561082 α      in ANC's #7, #11, #2, ...
 * RMSD in coord.:     0.4174829 α      energy gain  -0.1031737E-02 Eh

generating ANC from exact Hessian ...
Using Lindh-Hessian (1995)
 Shifting diagonal of input Hessian by   1.006856180784085E-002
 Lowest  eigenvalues of input Hessian
    0.010000    0.010015    0.010025    0.000000    0.010042    0.000000
    0.000000    0.000000    0.000000    0.000000    0.010098    0.010121
    0.010215    0.010306    0.010334    0.010423    0.010458    0.010541
 Highest eigenvalues
    2.187971    2.265431    2.319743    2.381179    2.388477    2.554772
 

........................................................................
.............................. CYCLE   67 ..............................
........................................................................

 iter      E             dE          RMSdq      gap      omega  full diag
   1   -307.8181628 -0.307818E+03  0.518E-02    0.63       0.0  T
   2   -307.8181598  0.293871E-05  0.309E-02    0.63       1.0  T
   3   -307.8179048  0.254997E-03  0.293E-02    0.63       1.0  T
   4   -307.8181632 -0.258362E-03  0.534E-03    0.63       1.4  T
   5   -307.8181703 -0.712087E-05  0.186E-03    0.63       4.1  T
   6   -307.8181708 -0.474546E-06  0.999E-04    0.63       7.6  T
   7   -307.8181709 -0.580694E-07  0.535E-04    0.63      14.2  T
     SCC iter.                  ...        0 min,  0.439 sec
     gradient                   ...        0 min,  0.064 sec
 * total energy  :  -304.5024473 Eh     change       -0.3737535E-04 Eh
   gradient norm :     0.0025160 Eh/α   predicted     0.0000000E+00 (-100.00%)
   displ. norm   :     0.0287073 α      lambda       -0.2098622E-04
   maximum displ.:     0.0106759 α      in ANC's #11, #13, #22, ...

........................................................................
.............................. CYCLE   68 ..............................
........................................................................

 iter      E             dE          RMSdq      gap      omega  full diag
   1   -307.8186018 -0.307819E+03  0.599E-03    0.63       0.0  T
   2   -307.8186018  0.410711E-07  0.366E-03    0.63       2.1  T
   3   -307.8185976  0.414945E-05  0.398E-03    0.63       1.9  T
   4   -307.8186017 -0.406961E-05  0.119E-03    0.63       6.4  T
   5   -307.8186021 -0.382999E-06  0.304E-04    0.63      25.1  T
   6   -307.8186021 -0.190875E-07  0.135E-04    0.63      56.7  T
     SCC iter.                  ...        0 min,  0.372 sec
     gradient                   ...        0 min,  0.065 sec
 * total energy  :  -304.5024654 Eh     change       -0.1810959E-04 Eh
   gradient norm :     0.0014709 Eh/α   predicted    -0.1059453E-04 ( -41.50%)
   displ. norm   :     0.1950642 α      lambda       -0.6678379E-04
   maximum displ.:     0.0755677 α      in ANC's #11, #13, #22, ...

........................................................................
.............................. CYCLE   69 ..............................
........................................................................

 iter      E             dE          RMSdq      gap      omega  full diag
   1   -307.8195329 -0.307820E+03  0.330E-02    0.63       0.0  T
   2   -307.8195297  0.314553E-05  0.201E-02    0.63       1.0  T
   3   -307.8193918  0.137870E-03  0.229E-02    0.63       1.0  T
   4   -307.8195296 -0.137737E-03  0.668E-03    0.63       1.1  T
   5   -307.8195417 -0.121094E-04  0.179E-03    0.63       4.3  T
   6   -307.8195424 -0.715442E-06  0.789E-04    0.63       9.7  T
   7   -307.8195424 -0.403365E-07  0.501E-04    0.63      15.2  T
     SCC iter.                  ...        0 min,  0.432 sec
     gradient                   ...        0 min,  0.059 sec
 * total energy  :  -304.5025134 Eh     change       -0.4802758E-04 Eh
   gradient norm :     0.0037664 Eh/α   predicted    -0.3395795E-04 ( -29.29%)
   displ. norm   :     0.0534969 α      lambda       -0.2275398E-04
   maximum displ.:     0.0219643 α      in ANC's #11, #13, #2, ...

........................................................................
.............................. CYCLE   70 ..............................
........................................................................

 iter      E             dE          RMSdq      gap      omega  full diag
   1   -307.8190778 -0.307819E+03  0.811E-03    0.63       0.0  T
   2   -307.8190778 -0.271286E-07  0.493E-03    0.63       1.5  T
   3   -307.8190717  0.607910E-05  0.460E-03    0.63       1.7  T
   4   -307.8190775 -0.574451E-05  0.163E-03    0.63       4.7  T
   5   -307.8190782 -0.757344E-06  0.498E-04    0.63      15.3  T
   6   -307.8190783 -0.561128E-07  0.226E-04    0.63      33.8  T
     SCC iter.                  ...        0 min,  0.346 sec
     gradient                   ...        0 min,  0.062 sec
 * total energy  :  -304.5025333 Eh     change       -0.1992443E-04 Eh
   gradient norm :     0.0025540 Eh/α   predicted    -0.1141168E-04 ( -42.73%)
   displ. norm   :     0.2345748 α      lambda       -0.8261370E-04
   maximum displ.:     0.0941914 α      in ANC's #11, #13, #2, ...

........................................................................
.............................. CYCLE   71 ..............................
........................................................................

 iter      E             dE          RMSdq      gap      omega  full diag
   1   -307.8173119 -0.307817E+03  0.315E-02    0.63       0.0  T
   2   -307.8173150 -0.311489E-05  0.188E-02    0.63       1.0  T
   3   -307.8172668  0.481601E-04  0.137E-02    0.63       1.0  T
   4   -307.8173051 -0.382496E-04  0.669E-03    0.63       1.1  T
   5   -307.8173188 -0.136617E-04  0.178E-03    0.63       4.3  T
   6   -307.8173195 -0.700084E-06  0.785E-04    0.63       9.7  T
   7   -307.8173195 -0.261110E-07  0.525E-04    0.63      14.5  T
     SCC iter.                  ...        0 min,  0.480 sec
     gradient                   ...        0 min,  0.067 sec
 * total energy  :  -304.5025872 Eh     change       -0.5386341E-04 Eh
   gradient norm :     0.0040627 Eh/α   predicted    -0.4358277E-04 ( -19.09%)
   displ. norm   :     0.1660968 α      lambda       -0.3830296E-04
   maximum displ.:     0.0667022 α      in ANC's #11, #13, #15, ...

........................................................................
.............................. CYCLE   72 ..............................
........................................................................

 iter      E             dE          RMSdq      gap      omega  full diag
   1   -307.8167536 -0.307817E+03  0.210E-02    0.63       0.0  T
   2   -307.8167549 -0.132597E-05  0.124E-02    0.63       1.0  T
   3   -307.8167401  0.148651E-04  0.758E-03    0.63       1.0  T
   4   -307.8167528 -0.127812E-04  0.322E-03    0.63       2.4  T
   5   -307.8167560 -0.320577E-05  0.114E-03    0.63       6.7  T
   6   -307.8167563 -0.275686E-06  0.555E-04    0.63      13.7  T
   7   -307.8167563 -0.278430E-07  0.357E-04    0.63      21.4  T
     SCC iter.                  ...        0 min,  0.395 sec
     gradient                   ...        0 min,  0.062 sec
 * total energy  :  -304.5026197 Eh     change       -0.3248934E-04 Eh
   gradient norm :     0.0053802 Eh/α   predicted    -0.1969874E-04 ( -39.37%)
   displ. norm   :     0.3508287 α      lambda       -0.1004736E-03
   maximum displ.:     0.1391106 α      in ANC's #11, #13, #15, ...

........................................................................
.............................. CYCLE   73 ..............................
........................................................................

 iter      E             dE          RMSdq      gap      omega  full diag
   1   -307.8162398 -0.307816E+03  0.431E-02    0.64       0.0  T
   2   -307.8162454 -0.566628E-05  0.255E-02    0.64       1.0  T
   3   -307.8162060  0.394549E-04  0.130E-02    0.64       1.0  T
   4   -307.8162440 -0.380240E-04  0.444E-03    0.64       1.7  T
   5   -307.8162492 -0.523875E-05  0.177E-03    0.64       4.3  T
   6   -307.8162499 -0.619411E-06  0.858E-04    0.64       8.9  T
   7   -307.8162499 -0.509817E-08  0.616E-04    0.64      12.4  T
     SCC iter.                  ...        0 min,  0.407 sec
     gradient                   ...        0 min,  0.067 sec
 * total energy  :  -304.5026977 Eh     change       -0.7798972E-04 Eh
   gradient norm :     0.0063921 Eh/α   predicted    -0.5642112E-04 ( -27.66%)
   displ. norm   :     0.3517321 α      lambda       -0.1127070E-03
   maximum displ.:     0.1382418 α      in ANC's #11, #13, #15, ...

........................................................................
.............................. CYCLE   74 ..............................
........................................................................

 iter      E             dE          RMSdq      gap      omega  full diag
   1   -307.8166448 -0.307817E+03  0.424E-02    0.64       0.0  T
   2   -307.8166492 -0.439437E-05  0.251E-02    0.64       1.0  T
   3   -307.8166035  0.456478E-04  0.137E-02    0.64       1.0  T
   4   -307.8166463 -0.427599E-04  0.496E-03    0.64       1.5  T
   5   -307.8166524 -0.614936E-05  0.198E-03    0.64       3.9  T
   6   -307.8166532 -0.803993E-06  0.100E-03    0.64       7.6  T
   7   -307.8166533 -0.958943E-07  0.624E-04    0.64      12.2  T
   8   -307.8166534 -0.626999E-07  0.306E-04    0.64      25.0  T
     SCC iter.                  ...        0 min,  0.456 sec
     gradient                   ...        0 min,  0.064 sec
 * total energy  :  -304.5027852 Eh     change       -0.8753004E-04 Eh
   gradient norm :     0.0056441 Eh/α   predicted    -0.6333348E-04 ( -27.64%)
   displ. norm   :     0.3568768 α      lambda       -0.1245036E-03
   maximum displ.:     0.1388053 α      in ANC's #11, #13, #2, ...

........................................................................
.............................. CYCLE   75 ..............................
........................................................................

 iter      E             dE          RMSdq      gap      omega  full diag
   1   -307.8178307 -0.307818E+03  0.429E-02    0.65       0.0  T
   2   -307.8178339 -0.320199E-05  0.253E-02    0.64       1.0  T
   3   -307.8177684  0.655203E-04  0.160E-02    0.65       1.0  T
   4   -307.8178285 -0.600788E-04  0.585E-03    0.65       1.3  T
   5   -307.8178380 -0.953984E-05  0.175E-03    0.65       4.4  T
   6   -307.8178386 -0.596034E-06  0.927E-04    0.65       8.2  T
   7   -307.8178387 -0.614751E-07  0.575E-04    0.65      13.3  T
     SCC iter.                  ...        0 min,  0.395 sec
     gradient                   ...        0 min,  0.066 sec
 * total energy  :  -304.5028844 Eh     change       -0.9920076E-04 Eh
   gradient norm :     0.0043052 Eh/α   predicted    -0.7018218E-04 ( -29.25%)
   displ. norm   :     0.4444413 α      lambda       -0.1447132E-03
   maximum displ.:     0.1705265 α      in ANC's #11, #13, #2, ...

........................................................................
.............................. CYCLE   76 ..............................
........................................................................

 iter      E             dE          RMSdq      gap      omega  full diag
   1   -307.8182801 -0.307818E+03  0.534E-02    0.65       0.0  T
   2   -307.8182853 -0.526399E-05  0.314E-02    0.65       1.0  T
   3   -307.8182112  0.740887E-04  0.172E-02    0.65       1.0  T
   4   -307.8182789 -0.676434E-04  0.656E-03    0.65       1.2  T
   5   -307.8182906 -0.116851E-04  0.212E-03    0.65       3.6  T
   6   -307.8182914 -0.821477E-06  0.117E-03    0.65       6.5  T
   7   -307.8182915 -0.112292E-06  0.726E-04    0.65      10.5  T
   8   -307.8182916 -0.792168E-07  0.346E-04    0.65      22.0  T
     SCC iter.                  ...        0 min,  0.447 sec
     gradient                   ...        0 min,  0.061 sec
 * total energy  :  -304.5030035 Eh     change       -0.1191147E-03 Eh
   gradient norm :     0.0047625 Eh/α   predicted    -0.8665094E-04 ( -27.25%)
   displ. norm   :     0.4172394 α      lambda       -0.2274330E-03
   maximum displ.:     0.1693378 α      in ANC's #2, #10, #13, ...

........................................................................
.............................. CYCLE   77 ..............................
........................................................................

 iter      E             dE          RMSdq      gap      omega  full diag
   1   -307.8242089 -0.307824E+03  0.592E-02    0.65       0.0  T
   2   -307.8242182 -0.932362E-05  0.354E-02    0.65       1.0  T
   3   -307.8240580  0.160205E-03  0.253E-02    0.65       1.0  T
   4   -307.8241838 -0.125782E-03  0.122E-02    0.65       1.0  T
   5   -307.8242290 -0.451694E-04  0.265E-03    0.65       2.9  T
   6   -307.8242304 -0.138583E-05  0.123E-03    0.65       6.2  T
   7   -307.8242304 -0.909711E-07  0.712E-04    0.65      10.7  T
   8   -307.8242305 -0.618212E-07  0.302E-04    0.65      25.2  T
     SCC iter.                  ...        0 min,  0.448 sec
     gradient                   ...        0 min,  0.061 sec
 * total energy  :  -304.5030732 Eh     change       -0.6964305E-04 Eh
   gradient norm :     0.0112340 Eh/α   predicted    -0.1335188E-03 (  91.72%)
   displ. norm   :     0.5814106 α      lambda       -0.2973763E-03
   maximum displ.:     0.2212774 α      in ANC's #2, #11, #13, ...

........................................................................
.............................. CYCLE   78 ..............................
........................................................................

 iter      E             dE          RMSdq      gap      omega  full diag
   1   -307.8181098 -0.307818E+03  0.722E-02    0.65       0.0  T
   2   -307.8181333 -0.234365E-04  0.426E-02    0.65       1.0  T
   3   -307.8180696  0.636350E-04  0.189E-02    0.65       1.0  T
   4   -307.8181300 -0.604109E-04  0.749E-03    0.65       1.0  T
   5   -307.8181432 -0.131783E-04  0.297E-03    0.65       2.6  T
   6   -307.8181447 -0.143225E-05  0.173E-03    0.65       4.4  T
   7   -307.8181449 -0.293296E-06  0.102E-03    0.65       7.5  T
   8   -307.8181451 -0.166654E-06  0.489E-04    0.65      15.6  T
   9   -307.8181452 -0.526292E-07  0.227E-04    0.65      33.5  T
     SCC iter.                  ...        0 min,  0.523 sec
     gradient                   ...        0 min,  0.063 sec
 * total energy  :  -304.5031919 Eh     change       -0.1187119E-03 Eh
   gradient norm :     0.0105752 Eh/α   predicted    -0.1989676E-03 (  67.61%)
   displ. norm   :     0.1168035 α      lambda       -0.1093165E-03
   maximum displ.:     0.0462692 α      in ANC's #11, #13, #15, ...

........................................................................
.............................. CYCLE   79 ..............................
........................................................................

 iter      E             dE          RMSdq      gap      omega  full diag
   1   -307.8200191 -0.307820E+03  0.171E-02    0.65       0.0  T
   2   -307.8200222 -0.308140E-05  0.102E-02    0.65       1.0  T
   3   -307.8200162  0.604636E-05  0.622E-03    0.65       1.2  T
   4   -307.8200194 -0.322858E-05  0.371E-03    0.65       2.1  T
   5   -307.8200232 -0.382333E-05  0.990E-04    0.65       7.7  T
   6   -307.8200234 -0.184989E-06  0.571E-04    0.65      13.3  T
   7   -307.8200235 -0.569512E-07  0.309E-04    0.65      24.6  T
     SCC iter.                  ...        0 min,  0.388 sec
     gradient                   ...        0 min,  0.060 sec
 * total energy  :  -304.5032573 Eh     change       -0.6543426E-04 Eh
   gradient norm :     0.0027585 Eh/α   predicted    -0.5540404E-04 ( -15.33%)
   displ. norm   :     0.2406064 α      lambda       -0.8704823E-04
   maximum displ.:     0.1051281 α      in ANC's #2, #10, #13, ...

........................................................................
.............................. CYCLE   80 ..............................
........................................................................

 iter      E             dE          RMSdq      gap      omega  full diag
   1   -307.8206343 -0.307821E+03  0.307E-02    0.65       0.0  T
   2   -307.8206360 -0.171886E-05  0.183E-02    0.65       1.0  T
   3   -307.8206012  0.348204E-04  0.111E-02    0.65       1.0  T
   4   -307.8206334 -0.321636E-04  0.395E-03    0.65       1.9  T
   5   -307.8206378 -0.448520E-05  0.163E-03    0.65       4.7  T
   6   -307.8206384 -0.583922E-06  0.739E-04    0.65      10.3  T
   7   -307.8206385 -0.608708E-07  0.465E-04    0.65      16.4  T
     SCC iter.                  ...        0 min,  0.464 sec
     gradient                   ...        0 min,  0.070 sec
 * total energy  :  -304.5033300 Eh     change       -0.7266968E-04 Eh
   gradient norm :     0.0031698 Eh/α   predicted    -0.4604585E-04 ( -36.64%)
   displ. norm   :     0.4171638 α      lambda       -0.1540249E-03
   maximum displ.:     0.1823339 α      in ANC's #2, #10, #9, ...

........................................................................
.............................. CYCLE   81 ..............................
........................................................................

 iter      E             dE          RMSdq      gap      omega  full diag
   1   -307.8214892 -0.307821E+03  0.554E-02    0.65       0.0  T
   2   -307.8214924 -0.313426E-05  0.330E-02    0.65       1.0  T
   3   -307.8213752  0.117172E-03  0.212E-02    0.65       1.0  T
   4   -307.8214924 -0.117204E-03  0.542E-03    0.65       1.4  T
   5   -307.8215006 -0.819507E-05  0.219E-03    0.65       3.5  T
   6   -307.8215014 -0.786529E-06  0.125E-03    0.65       6.1  T
   7   -307.8215014 -0.510796E-07  0.969E-04    0.65       7.9  T
   8   -307.8215016 -0.191670E-06  0.362E-04    0.65      21.1  T
     SCC iter.                  ...        0 min,  0.434 sec
     gradient                   ...        0 min,  0.064 sec
 * total energy  :  -304.5034474 Eh     change       -0.1174326E-03 Eh
   gradient norm :     0.0034963 Eh/α   predicted    -0.9041645E-04 ( -23.01%)
   displ. norm   :     0.4924182 α      lambda       -0.1290010E-03
   maximum displ.:     0.2189973 α      in ANC's #2, #10, #9, ...

........................................................................
.............................. CYCLE   82 ..............................
........................................................................

 iter      E             dE          RMSdq      gap      omega  full diag
   1   -307.8196567 -0.307820E+03  0.616E-02    0.65       0.0  T
   2   -307.8196641 -0.739760E-05  0.365E-02    0.66       1.0  T
   3   -307.8195585  0.105544E-03  0.207E-02    0.65       1.0  T
   4   -307.8196598 -0.101309E-03  0.655E-03    0.66       1.2  T
   5   -307.8196718 -0.119812E-04  0.266E-03    0.66       2.9  T
   6   -307.8196733 -0.142270E-05  0.141E-03    0.66       5.4  T
   7   -307.8196734 -0.102230E-06  0.105E-03    0.66       7.3  T
   8   -307.8196736 -0.201633E-06  0.434E-04    0.66      17.6  T
   9   -307.8196736 -0.432167E-07  0.139E-04    0.66      54.7  T
     SCC iter.                  ...        0 min,  0.510 sec
     gradient                   ...        0 min,  0.064 sec
 * total energy  :  -304.5035335 Eh     change       -0.8606415E-04 Eh
   gradient norm :     0.0055212 Eh/α   predicted    -0.8014130E-04 (  -6.88%)
   displ. norm   :     0.3204591 α      lambda       -0.1213953E-03
   maximum displ.:     0.1369100 α      in ANC's #10, #2, #16, ...

........................................................................
.............................. CYCLE   83 ..............................
........................................................................

 iter      E             dE          RMSdq      gap      omega  full diag
   1   -307.8213972 -0.307821E+03  0.398E-02    0.66       0.0  T
   2   -307.8213994 -0.219463E-05  0.236E-02    0.66       1.0  T
   3   -307.8213309  0.685643E-04  0.176E-02    0.66       1.0  T
   4   -307.8213992 -0.682845E-04  0.478E-03    0.66       1.6  T
   5   -307.8214049 -0.574205E-05  0.182E-03    0.66       4.2  T
   6   -307.8214056 -0.683557E-06  0.102E-03    0.66       7.5  T
   7   -307.8214057 -0.957700E-07  0.640E-04    0.66      11.9  T
   8   -307.8214058 -0.843842E-07  0.275E-04    0.66      27.7  T
     SCC iter.                  ...        0 min,  0.469 sec
     gradient                   ...        0 min,  0.063 sec
 * total energy  :  -304.5036174 Eh     change       -0.8393211E-04 Eh
   gradient norm :     0.0042325 Eh/α   predicted    -0.6693377E-04 ( -20.25%)
   displ. norm   :     0.3330269 α      lambda       -0.1037449E-03
   maximum displ.:     0.1535302 α      in ANC's #2, #10, #9, ...

........................................................................
.............................. CYCLE   84 ..............................
........................................................................

 iter      E             dE          RMSdq      gap      omega  full diag
   1   -307.8215079 -0.307822E+03  0.355E-02    0.66       0.0  T
   2   -307.8215098 -0.186323E-05  0.209E-02    0.66       1.0  T
   3   -307.8214799  0.298634E-04  0.115E-02    0.66       1.0  T
   4   -307.8215101 -0.301947E-04  0.303E-03    0.66       2.5  T
   5   -307.8215120 -0.184180E-05  0.156E-03    0.66       4.9  T
   6   -307.8215125 -0.499649E-06  0.841E-04    0.66       9.1  T
   7   -307.8215125 -0.662629E-07  0.488E-04    0.66      15.6  T
     SCC iter.                  ...        0 min,  0.431 sec
     gradient                   ...        0 min,  0.062 sec
 * total energy  :  -304.5037013 Eh     change       -0.8389231E-04 Eh
   gradient norm :     0.0030579 Eh/α   predicted    -0.5762645E-04 ( -31.31%)
   displ. norm   :     0.3429174 α      lambda       -0.1313579E-03
   maximum displ.:     0.1621590 α      in ANC's #2, #10, #4, ...

........................................................................
.............................. CYCLE   85 ..............................
........................................................................

 iter      E             dE          RMSdq      gap      omega  full diag
   1   -307.8227897 -0.307823E+03  0.335E-02    0.66       0.0  T
   2   -307.8227916 -0.187923E-05  0.200E-02    0.66       1.0  T
   3   -307.8227493  0.422689E-04  0.127E-02    0.66       1.0  T
   4   -307.8227875 -0.381897E-04  0.486E-03    0.66       1.6  T
   5   -307.8227941 -0.660903E-05  0.173E-03    0.66       4.4  T
   6   -307.8227948 -0.698810E-06  0.740E-04    0.66      10.3  T
   7   -307.8227949 -0.451289E-07  0.416E-04    0.66      18.4  T
     SCC iter.                  ...        0 min,  0.382 sec
     gradient                   ...        0 min,  0.066 sec
 * total energy  :  -304.5037977 Eh     change       -0.9634558E-04 Eh
   gradient norm :     0.0032649 Eh/α   predicted    -0.7340551E-04 ( -23.81%)
   displ. norm   :     0.4182901 α      lambda       -0.1038771E-03
   maximum displ.:     0.2072356 α      in ANC's #2, #10, #9, ...

........................................................................
.............................. CYCLE   86 ..............................
........................................................................

 iter      E             dE          RMSdq      gap      omega  full diag
   1   -307.8212285 -0.307821E+03  0.400E-02    0.67       0.0  T
   2   -307.8212307 -0.219261E-05  0.237E-02    0.67       1.0  T
   3   -307.8211692  0.615001E-04  0.146E-02    0.67       1.0  T
   4   -307.8212255 -0.563240E-04  0.548E-03    0.67       1.4  T
   5   -307.8212343 -0.883573E-05  0.181E-03    0.67       4.2  T
   6   -307.8212349 -0.607243E-06  0.950E-04    0.67       8.0  T
   7   -307.8212350 -0.717789E-07  0.585E-04    0.67      13.0  T
     SCC iter.                  ...        0 min,  0.420 sec
     gradient                   ...        0 min,  0.079 sec
 * total energy  :  -304.5038757 Eh     change       -0.7803637E-04 Eh
   gradient norm :     0.0064239 Eh/α   predicted    -0.6103104E-04 ( -21.79%)
   displ. norm   :     0.3648250 α      lambda       -0.1390962E-03
   maximum displ.:     0.1693192 α      in ANC's #2, #7, #4, ...

........................................................................
.............................. CYCLE   87 ..............................
........................................................................

 iter      E             dE          RMSdq      gap      omega  full diag
   1   -307.8221781 -0.307822E+03  0.392E-02    0.67       0.0  T
   2   -307.8221768  0.124716E-05  0.240E-02    0.67       1.0  T
   3   -307.8220358  0.140990E-03  0.223E-02    0.67       1.0  T
   4   -307.8221718 -0.135998E-03  0.719E-03    0.67       1.1  T
   5   -307.8221867 -0.148374E-04  0.234E-03    0.67       3.3  T
   6   -307.8221878 -0.115881E-05  0.108E-03    0.67       7.0  T
   7   -307.8221880 -0.160004E-06  0.607E-04    0.67      12.6  T
   8   -307.8221881 -0.632648E-07  0.221E-04    0.67      34.5  T
     SCC iter.                  ...        0 min,  0.470 sec
     gradient                   ...        0 min,  0.064 sec
 * total energy  :  -304.5039739 Eh     change       -0.9821799E-04 Eh
   gradient norm :     0.0053543 Eh/α   predicted    -0.7880571E-04 ( -19.76%)
   displ. norm   :     0.4497245 α      lambda       -0.1447658E-03
   maximum displ.:     0.2280769 α      in ANC's #2, #10, #4, ...

........................................................................
.............................. CYCLE   88 ..............................
........................................................................

 iter      E             dE          RMSdq      gap      omega  full diag
   1   -307.8207886 -0.307821E+03  0.430E-02    0.68       0.0  T
   2   -307.8207890 -0.442007E-06  0.257E-02    0.68       1.0  T
   3   -307.8206792  0.109760E-03  0.195E-02    0.68       1.0  T
   4   -307.8207847 -0.105485E-03  0.609E-03    0.68       1.3  T
   5   -307.8207956 -0.109093E-04  0.216E-03    0.68       3.5  T
   6   -307.8207964 -0.796660E-06  0.116E-03    0.68       6.6  T
   7   -307.8207966 -0.151806E-06  0.665E-04    0.68      11.5  T
   8   -307.8207967 -0.835698E-07  0.236E-04    0.68      32.2  T
     SCC iter.                  ...        0 min,  0.474 sec
     gradient                   ...        0 min,  0.075 sec
 * total energy  :  -304.5040938 Eh     change       -0.1198918E-03 Eh
   gradient norm :     0.0060349 Eh/α   predicted    -0.8702319E-04 ( -27.42%)
   displ. norm   :     0.4407634 α      lambda       -0.1866298E-03
   maximum displ.:     0.2200236 α      in ANC's #2, #7, #4, ...

........................................................................
.............................. CYCLE   89 ..............................
........................................................................

 iter      E             dE          RMSdq      gap      omega  full diag
   1   -307.8207699 -0.307821E+03  0.460E-02    0.68       0.0  T
   2   -307.8207709 -0.970212E-06  0.274E-02    0.68       1.0  T
   3   -307.8206675  0.103430E-03  0.207E-02    0.68       1.0  T
   4   -307.8207697 -0.102232E-03  0.552E-03    0.68       1.4  T
   5   -307.8207788 -0.907059E-05  0.218E-03    0.68       3.5  T
   6   -307.8207797 -0.877875E-06  0.114E-03    0.68       6.7  T
   7   -307.8207797 -0.730049E-07  0.823E-04    0.68       9.3  T
   8   -307.8207799 -0.154444E-06  0.252E-04    0.68      30.3  T
     SCC iter.                  ...        0 min,  0.451 sec
     gradient                   ...        0 min,  0.062 sec
 * total energy  :  -304.5042354 Eh     change       -0.1416013E-03 Eh
   gradient norm :     0.0047780 Eh/α   predicted    -0.1114493E-03 ( -21.29%)
   displ. norm   :     0.4732436 α      lambda       -0.1346322E-03
   maximum displ.:     0.2446727 α      in ANC's #2, #4, #7, ...

........................................................................
.............................. CYCLE   90 ..............................
........................................................................

 iter      E             dE          RMSdq      gap      omega  full diag
   1   -307.8196508 -0.307820E+03  0.445E-02    0.69       0.0  T
   2   -307.8196520 -0.121190E-05  0.264E-02    0.69       1.0  T
   3   -307.8195836  0.684110E-04  0.171E-02    0.69       1.0  T
   4   -307.8196525 -0.689059E-04  0.418E-03    0.69       1.8  T
   5   -307.8196568 -0.424745E-05  0.180E-03    0.69       4.2  T
   6   -307.8196573 -0.526976E-06  0.107E-03    0.69       7.1  T
   7   -307.8196574 -0.670004E-07  0.703E-04    0.69      10.9  T
   8   -307.8196575 -0.125129E-06  0.253E-04    0.69      30.1  T
     SCC iter.                  ...        0 min,  0.483 sec
     gradient                   ...        0 min,  0.061 sec
 * total energy  :  -304.5043413 Eh     change       -0.1059088E-03 Eh
   gradient norm :     0.0057093 Eh/α   predicted    -0.8239556E-04 ( -22.20%)
   displ. norm   :     0.4187158 α      lambda       -0.1300712E-03
   maximum displ.:     0.2156706 α      in ANC's #2, #7, #4, ...

........................................................................
.............................. CYCLE   91 ..............................
........................................................................

 iter      E             dE          RMSdq      gap      omega  full diag
   1   -307.8207636 -0.307821E+03  0.393E-02    0.69       0.0  T
   2   -307.8207628  0.791203E-06  0.235E-02    0.69       1.0  T
   3   -307.8206635  0.993213E-04  0.200E-02    0.69       1.0  T
   4   -307.8207616 -0.980609E-04  0.499E-03    0.69       1.5  T
   5   -307.8207683 -0.674843E-05  0.165E-03    0.69       4.6  T
   6   -307.8207688 -0.487414E-06  0.931E-04    0.69       8.2  T
   7   -307.8207689 -0.589305E-07  0.560E-04    0.69      13.6  T
     SCC iter.                  ...        0 min,  0.379 sec
     gradient                   ...        0 min,  0.066 sec
 * total energy  :  -304.5044429 Eh     change       -0.1015458E-03 Eh
   gradient norm :     0.0048785 Eh/α   predicted    -0.7644355E-04 ( -24.72%)
   displ. norm   :     0.5310492 α      lambda       -0.1439522E-03
   maximum displ.:     0.2855452 α      in ANC's #2, #4, #7, ...

........................................................................
.............................. CYCLE   92 ..............................
........................................................................

 iter      E             dE          RMSdq      gap      omega  full diag
   1   -307.8202233 -0.307820E+03  0.468E-02    0.69       0.0  T
   2   -307.8202251 -0.176906E-05  0.280E-02    0.70       1.0  T
   3   -307.8200913  0.133827E-03  0.220E-02    0.69       1.0  T
   4   -307.8202180 -0.126760E-03  0.694E-03    0.69       1.1  T
   5   -307.8202316 -0.135660E-04  0.202E-03    0.69       3.8  T
   6   -307.8202324 -0.818663E-06  0.989E-04    0.69       7.7  T
   7   -307.8202325 -0.506951E-07  0.582E-04    0.69      13.1  T
     SCC iter.                  ...        0 min,  0.417 sec
     gradient                   ...        0 min,  0.063 sec
 * total energy  :  -304.5045612 Eh     change       -0.1183053E-03 Eh
   gradient norm :     0.0052219 Eh/α   predicted    -0.9227881E-04 ( -22.00%)
   displ. norm   :     0.4978458 α      lambda       -0.1749304E-03
   maximum displ.:     0.2676065 α      in ANC's #2, #4, #7, ...
 * RMSD in coord.:     0.5537933 α      energy gain  -0.2151258E-02 Eh

generating ANC from exact Hessian ...
Using Lindh-Hessian (1995)
 Shifting diagonal of input Hessian by   1.006896496224194E-002
 Lowest  eigenvalues of input Hessian
    0.010000    0.010011    0.010018    0.000000    0.000000    0.010058
    0.000000    0.000000    0.000000    0.000000    0.010090    0.010120
    0.010227    0.010315    0.010368    0.010513    0.010584    0.010612
 Highest eigenvalues
    2.187801    2.266241    2.325603    2.383267    2.406315    2.554444
 

........................................................................
.............................. CYCLE   93 ..............................
........................................................................

 iter      E             dE          RMSdq      gap      omega  full diag
   1   -307.8224506 -0.307822E+03  0.438E-02    0.69       0.0  T
   2   -307.8224496  0.101953E-05  0.265E-02    0.70       1.0  T
   3   -307.8222581  0.191415E-03  0.257E-02    0.69       1.0  T
   4   -307.8224485 -0.190313E-03  0.614E-03    0.69       1.2  T
   5   -307.8224588 -0.102986E-04  0.173E-03    0.70       4.4  T
   6   -307.8224592 -0.484440E-06  0.871E-04    0.70       8.8  T
   7   -307.8224593 -0.449781E-07  0.471E-04    0.70      16.2  T
     SCC iter.                  ...        0 min,  0.419 sec
     gradient                   ...        0 min,  0.063 sec
 * total energy  :  -304.5046980 Eh     change       -0.1367902E-03 Eh
   gradient norm :     0.0044792 Eh/α   predicted     0.0000000E+00 (-100.00%)
   displ. norm   :     0.0513695 α      lambda       -0.6302200E-04
   maximum displ.:     0.0182201 α      in ANC's #4, #1, #2, ...

........................................................................
.............................. CYCLE   94 ..............................
........................................................................

 iter      E             dE          RMSdq      gap      omega  full diag
   1   -307.8228797 -0.307823E+03  0.108E-02    0.69       0.0  T
   2   -307.8228799 -0.266102E-06  0.643E-03    0.69       1.2  T
   3   -307.8228754  0.452884E-05  0.463E-03    0.69       1.6  T
   4   -307.8228793 -0.390895E-05  0.188E-03    0.69       4.1  T
   5   -307.8228803 -0.950520E-06  0.624E-04    0.69      12.2  T
   6   -307.8228804 -0.100870E-06  0.240E-04    0.69      31.8  T
     SCC iter.                  ...        0 min,  0.346 sec
     gradient                   ...        0 min,  0.061 sec
 * total energy  :  -304.5047531 Eh     change       -0.5510181E-04 Eh
   gradient norm :     0.0027909 Eh/α   predicted    -0.3223399E-04 ( -41.50%)
   displ. norm   :     0.2003815 α      lambda       -0.1714795E-03
   maximum displ.:     0.0741115 α      in ANC's #4, #1, #2, ...

........................................................................
.............................. CYCLE   95 ..............................
........................................................................

 iter      E             dE          RMSdq      gap      omega  full diag
   1   -307.8233102 -0.307823E+03  0.371E-02    0.69       0.0  T
   2   -307.8233124 -0.222633E-05  0.220E-02    0.69       1.0  T
   3   -307.8232456  0.668327E-04  0.178E-02    0.69       1.0  T
   4   -307.8233063 -0.607418E-04  0.646E-03    0.69       1.2  T
   5   -307.8233175 -0.111864E-04  0.215E-03    0.69       3.5  T
   6   -307.8233187 -0.117309E-05  0.923E-04    0.69       8.3  T
   7   -307.8233187 -0.601758E-07  0.582E-04    0.69      13.1  T
   8   -307.8233188 -0.627311E-07  0.256E-04    0.69      29.8  T
     SCC iter.                  ...        0 min,  0.582 sec
     gradient                   ...        0 min,  0.072 sec
 * total energy  :  -304.5048624 Eh     change       -0.1093410E-03 Eh
   gradient norm :     0.0032044 Eh/α   predicted    -0.8918330E-04 ( -18.44%)
   displ. norm   :     0.1459068 α      lambda       -0.6314417E-04
   maximum displ.:     0.0588768 α      in ANC's #4, #1, #7, ...

........................................................................
.............................. CYCLE   96 ..............................
........................................................................

 iter      E             dE          RMSdq      gap      omega  full diag
   1   -307.8230896 -0.307823E+03  0.222E-02    0.69       0.0  T
   2   -307.8230900 -0.385175E-06  0.131E-02    0.69       1.0  T
   3   -307.8230601  0.299267E-04  0.118E-02    0.69       1.0  T
   4   -307.8230885 -0.284251E-04  0.385E-03    0.69       2.0  T
   5   -307.8230924 -0.389219E-05  0.132E-03    0.69       5.8  T
   6   -307.8230928 -0.425137E-06  0.618E-04    0.69      12.3  T
   7   -307.8230929 -0.433488E-07  0.355E-04    0.69      21.5  T
     SCC iter.                  ...        0 min,  0.413 sec
     gradient                   ...        0 min,  0.062 sec
 * total energy  :  -304.5049135 Eh     change       -0.5115214E-04 Eh
   gradient norm :     0.0040666 Eh/α   predicted    -0.3224519E-04 ( -36.96%)
   displ. norm   :     0.2636150 α      lambda       -0.1083967E-03
   maximum displ.:     0.1094559 α      in ANC's #4, #1, #7, ...

........................................................................
.............................. CYCLE   97 ..............................
........................................................................

 iter      E             dE          RMSdq      gap      omega  full diag
   1   -307.8225475 -0.307823E+03  0.344E-02    0.70       0.0  T
   2   -307.8225482 -0.716367E-06  0.203E-02    0.69       1.0  T
   3   -307.8224710  0.772661E-04  0.190E-02    0.69       1.0  T
   4   -307.8225458 -0.748489E-04  0.588E-03    0.69       1.3  T
   5   -307.8225546 -0.882128E-05  0.212E-03    0.69       3.6  T
   6   -307.8225557 -0.108263E-05  0.106E-03    0.69       7.2  T
   7   -307.8225559 -0.171141E-06  0.554E-04    0.69      13.8  T
   8   -307.8225559 -0.444782E-07  0.246E-04    0.69      31.0  T
     SCC iter.                  ...        0 min,  0.475 sec
     gradient                   ...        0 min,  0.063 sec
 * total energy  :  -304.5049993 Eh     change       -0.8571145E-04 Eh
   gradient norm :     0.0040685 Eh/α   predicted    -0.5796914E-04 ( -32.37%)
   displ. norm   :     0.3249334 α      lambda       -0.1188552E-03
   maximum displ.:     0.1398994 α      in ANC's #4, #1, #7, ...

........................................................................
.............................. CYCLE   98 ..............................
........................................................................

 iter      E             dE          RMSdq      gap      omega  full diag
   1   -307.8220122 -0.307822E+03  0.362E-02    0.70       0.0  T
   2   -307.8220132 -0.101937E-05  0.214E-02    0.70       1.0  T
   3   -307.8219277  0.854894E-04  0.198E-02    0.70       1.0  T
   4   -307.8220107 -0.829794E-04  0.609E-03    0.70       1.3  T
   5   -307.8220200 -0.927918E-05  0.226E-03    0.70       3.4  T
   6   -307.8220212 -0.120804E-05  0.114E-03    0.70       6.7  T
   7   -307.8220214 -0.196736E-06  0.600E-04    0.70      12.7  T
   8   -307.8220215 -0.548318E-07  0.259E-04    0.70      29.4  T
     SCC iter.                  ...        0 min,  0.437 sec
     gradient                   ...        0 min,  0.061 sec
 * total energy  :  -304.5050920 Eh     change       -0.9275144E-04 Eh
   gradient norm :     0.0037342 Eh/α   predicted    -0.6570605E-04 ( -29.16%)
   displ. norm   :     0.3308332 α      lambda       -0.1121933E-03
   maximum displ.:     0.1475394 α      in ANC's #4, #1, #7, ...

........................................................................
.............................. CYCLE   99 ..............................
........................................................................

 iter      E             dE          RMSdq      gap      omega  full diag
   1   -307.8221337 -0.307822E+03  0.313E-02    0.70       0.0  T
   2   -307.8221350 -0.128225E-05  0.186E-02    0.70       1.0  T
   3   -307.8220801  0.549147E-04  0.154E-02    0.70       1.0  T
   4   -307.8221332 -0.530779E-04  0.481E-03    0.70       1.6  T
   5   -307.8221389 -0.568885E-05  0.186E-03    0.70       4.1  T
   6   -307.8221396 -0.758171E-06  0.968E-04    0.70       7.9  T
   7   -307.8221398 -0.134588E-06  0.524E-04    0.70      14.6  T
     SCC iter.                  ...        0 min,  0.407 sec
     gradient                   ...        0 min,  0.061 sec
 * total energy  :  -304.5051824 Eh     change       -0.9035648E-04 Eh
   gradient norm :     0.0035196 Eh/α   predicted    -0.6226758E-04 ( -31.09%)
   displ. norm   :     0.3538002 α      lambda       -0.1181383E-03
   maximum displ.:     0.1616900 α      in ANC's #4, #1, #7, ...

........................................................................
.............................. CYCLE  100 ..............................
........................................................................

 iter      E             dE          RMSdq      gap      omega  full diag
   1   -307.8227965 -0.307823E+03  0.298E-02    0.70       0.0  T
   2   -307.8227982 -0.177752E-05  0.179E-02    0.70       1.0  T
   3   -307.8227688  0.293905E-04  0.110E-02    0.70       1.0  T
   4   -307.8227967 -0.278553E-04  0.376E-03    0.70       2.0  T
   5   -307.8228004 -0.367848E-05  0.131E-03    0.70       5.8  T
   6   -307.8228006 -0.235311E-06  0.794E-04    0.70       9.6  T
   7   -307.8228007 -0.469823E-07  0.529E-04    0.70      14.4  T
     SCC iter.                  ...        0 min,  0.405 sec
     gradient                   ...        0 min,  0.068 sec
 * total energy  :  -304.5052804 Eh     change       -0.9804051E-04 Eh
   gradient norm :     0.0036765 Eh/α   predicted    -0.6646409E-04 ( -32.21%)
   displ. norm   :     0.4080742 α      lambda       -0.1333352E-03
   maximum displ.:     0.1891160 α      in ANC's #4, #1, #7, ...

........................................................................
.............................. CYCLE  101 ..............................
........................................................................

 iter      E             dE          RMSdq      gap      omega  full diag
   1   -307.8236094 -0.307824E+03  0.331E-02    0.70       0.0  T
   2   -307.8236116 -0.223014E-05  0.198E-02    0.70       1.0  T
   3   -307.8235906  0.209794E-04  0.952E-03    0.70       1.0  T
   4   -307.8236090 -0.183317E-04  0.395E-03    0.70       1.9  T
   5   -307.8236129 -0.390233E-05  0.157E-03    0.70       4.8  T
   6   -307.8236134 -0.511443E-06  0.815E-04    0.70       9.4  T
   7   -307.8236134 -0.617069E-07  0.476E-04    0.70      16.0  T
     SCC iter.                  ...        0 min,  0.449 sec
     gradient                   ...        0 min,  0.067 sec
 * total energy  :  -304.5053935 Eh     change       -0.1130800E-03 Eh
   gradient norm :     0.0039453 Eh/α   predicted    -0.7777827E-04 ( -31.22%)
   displ. norm   :     0.4707176 α      lambda       -0.1534100E-03
   maximum displ.:     0.2199142 α      in ANC's #4, #1, #7, ...

........................................................................
.............................. CYCLE  102 ..............................
........................................................................

 iter      E             dE          RMSdq      gap      omega  full diag
   1   -307.8243258 -0.307824E+03  0.383E-02    0.70       0.0  T
   2   -307.8243277 -0.186689E-05  0.229E-02    0.70       1.0  T
   3   -307.8242832  0.445510E-04  0.136E-02    0.70       1.0  T
   4   -307.8243221 -0.388998E-04  0.538E-03    0.70       1.4  T
   5   -307.8243299 -0.785509E-05  0.169E-03    0.70       4.5  T
   6   -307.8243305 -0.574154E-06  0.791E-04    0.70       9.6  T
   7   -307.8243305 -0.339247E-07  0.439E-04    0.70      17.3  T
     SCC iter.                  ...        0 min,  0.427 sec
     gradient                   ...        0 min,  0.064 sec
 * total energy  :  -304.5055268 Eh     change       -0.1333247E-03 Eh
   gradient norm :     0.0042105 Eh/α   predicted    -0.9371369E-04 ( -29.71%)
   displ. norm   :     0.5380050 α      lambda       -0.1814932E-03
   maximum displ.:     0.2522307 α      in ANC's #4, #1, #7, ...

........................................................................
.............................. CYCLE  103 ..............................
........................................................................

 iter      E             dE          RMSdq      gap      omega  full diag
   1   -307.8247969 -0.307825E+03  0.444E-02    0.70       0.0  T
   2   -307.8247971 -0.190173E-06  0.266E-02    0.69       1.0  T
   3   -307.8246906  0.106480E-03  0.205E-02    0.70       1.0  T
   4   -307.8247934 -0.102814E-03  0.576E-03    0.70       1.3  T
   5   -307.8248022 -0.878908E-05  0.190E-03    0.70       4.0  T
   6   -307.8248029 -0.683662E-06  0.104E-03    0.70       7.3  T
   7   -307.8248030 -0.865070E-07  0.632E-04    0.70      12.1  T
   8   -307.8248031 -0.100751E-06  0.194E-04    0.70      39.4  T
     SCC iter.                  ...        0 min,  0.537 sec
     gradient                   ...        0 min,  0.075 sec
 * total energy  :  -304.5056874 Eh     change       -0.1605767E-03 Eh
   gradient norm :     0.0043218 Eh/α   predicted    -0.1170169E-03 ( -27.13%)
   displ. norm   :     0.6009391 α      lambda       -0.2133787E-03
   maximum displ.:     0.2815123 α      in ANC's #4, #1, #7, ...

........................................................................
.............................. CYCLE  104 ..............................
........................................................................

 iter      E             dE          RMSdq      gap      omega  full diag
   1   -307.8249059 -0.307825E+03  0.498E-02    0.70       0.0  T
   2   -307.8249049  0.998775E-06  0.298E-02    0.69       1.0  T
   3   -307.8247505  0.154386E-03  0.247E-02    0.70       1.0  T
   4   -307.8249026 -0.152069E-03  0.630E-03    0.70       1.2  T
   5   -307.8249129 -0.103124E-04  0.212E-03    0.70       3.6  T
   6   -307.8249138 -0.862808E-06  0.124E-03    0.70       6.1  T
   7   -307.8249139 -0.187950E-06  0.693E-04    0.70      11.0  T
   8   -307.8249141 -0.114612E-06  0.193E-04    0.70      39.4  T
     SCC iter.                  ...        0 min,  0.561 sec
     gradient                   ...        0 min,  0.065 sec
 * total energy  :  -304.5058768 Eh     change       -0.1894434E-03 Eh
   gradient norm :     0.0042232 Eh/α   predicted    -0.1452209E-03 ( -23.34%)
   displ. norm   :     0.6399740 α      lambda       -0.2366046E-03
   maximum displ.:     0.2982779 α      in ANC's #4, #1, #7, ...

........................................................................
.............................. CYCLE  105 ..............................
........................................................................

 iter      E             dE          RMSdq      gap      omega  full diag
   1   -307.8247295 -0.307825E+03  0.524E-02    0.70       0.0  T
   2   -307.8247290  0.438519E-06  0.314E-02    0.70       1.0  T
   3   -307.8245734  0.155582E-03  0.250E-02    0.70       1.0  T
   4   -307.8247277 -0.154311E-03  0.634E-03    0.70       1.2  T
   5   -307.8247378 -0.100099E-04  0.231E-03    0.70       3.3  T
   6   -307.8247388 -0.104564E-05  0.136E-03    0.70       5.6  T
   7   -307.8247391 -0.261583E-06  0.726E-04    0.70      10.5  T
   8   -307.8247392 -0.121066E-06  0.223E-04    0.70      34.2  T
     SCC iter.                  ...        0 min,  0.535 sec
     gradient                   ...        0 min,  0.064 sec
 * total energy  :  -304.5060860 Eh     change       -0.2091949E-03 Eh
   gradient norm :     0.0042904 Eh/α   predicted    -0.1667624E-03 ( -20.28%)
   displ. norm   :     0.6592953 α      lambda       -0.2492252E-03
   maximum displ.:     0.3047993 α      in ANC's #1, #4, #7, ...

........................................................................
.............................. CYCLE  106 ..............................
........................................................................

 iter      E             dE          RMSdq      gap      omega  full diag
   1   -307.8242285 -0.307824E+03  0.519E-02    0.70       0.0  T
   2   -307.8242302 -0.168475E-05  0.311E-02    0.70       1.0  T
   3   -307.8241154  0.114752E-03  0.216E-02    0.70       1.0  T
   4   -307.8242303 -0.114876E-03  0.540E-03    0.70       1.4  T
   5   -307.8242378 -0.755042E-05  0.192E-03    0.70       4.0  T
   6   -307.8242385 -0.608867E-06  0.114E-03    0.70       6.7  T
   7   -307.8242385 -0.201738E-07  0.838E-04    0.70       9.1  T
   8   -307.8242387 -0.187410E-06  0.281E-04    0.70      27.1  T
     SCC iter.                  ...        0 min,  0.519 sec
     gradient                   ...        0 min,  0.070 sec
 * total energy  :  -304.5063058 Eh     change       -0.2198146E-03 Eh
   gradient norm :     0.0046897 Eh/α   predicted    -0.1787865E-03 ( -18.66%)
   displ. norm   :     0.6653067 α      lambda       -0.2581952E-03
   maximum displ.:     0.3133132 α      in ANC's #1, #4, #2, ...

........................................................................
.............................. CYCLE  107 ..............................
........................................................................

 iter      E             dE          RMSdq      gap      omega  full diag
   1   -307.8239216 -0.307824E+03  0.508E-02    0.71       0.0  T
   2   -307.8239243 -0.274895E-05  0.305E-02    0.71       1.0  T
   3   -307.8238198  0.104567E-03  0.200E-02    0.71       1.0  T
   4   -307.8239187 -0.989564E-04  0.635E-03    0.71       1.2  T
   5   -307.8239301 -0.113383E-04  0.267E-03    0.71       2.9  T
   6   -307.8239316 -0.158028E-05  0.117E-03    0.71       6.5  T
   7   -307.8239317 -0.110580E-06  0.768E-04    0.71       9.9  T
   8   -307.8239319 -0.122811E-06  0.283E-04    0.71      26.9  T
     SCC iter.                  ...        0 min,  0.505 sec
     gradient                   ...        0 min,  0.064 sec
 * total energy  :  -304.5065326 Eh     change       -0.2267327E-03 Eh
   gradient norm :     0.0050007 Eh/α   predicted    -0.1862446E-03 ( -17.86%)
   displ. norm   :     0.6718939 α      lambda       -0.2632212E-03
   maximum displ.:     0.3216317 α      in ANC's #1, #4, #2, ...

........................................................................
.............................. CYCLE  108 ..............................
........................................................................

 iter      E             dE          RMSdq      gap      omega  full diag
   1   -307.8230735 -0.307823E+03  0.496E-02    0.72       0.0  T
   2   -307.8230744 -0.927459E-06  0.297E-02    0.72       1.0  T
   3   -307.8229018  0.172616E-03  0.249E-02    0.72       1.0  T
   4   -307.8230649 -0.163091E-03  0.802E-03    0.72       1.0  T
   5   -307.8230832 -0.182592E-04  0.259E-03    0.72       2.9  T
   6   -307.8230847 -0.147259E-05  0.101E-03    0.72       7.6  T
   7   -307.8230847 -0.325849E-07  0.640E-04    0.72      11.9  T
   8   -307.8230848 -0.728915E-07  0.278E-04    0.72      27.5  T
     SCC iter.                  ...        0 min,  0.446 sec
     gradient                   ...        0 min,  0.063 sec
 * total energy  :  -304.5067620 Eh     change       -0.2293769E-03 Eh
   gradient norm :     0.0047320 Eh/α   predicted    -0.1910314E-03 ( -16.72%)
   displ. norm   :     0.6583535 α      lambda       -0.2620048E-03
   maximum displ.:     0.3214148 α      in ANC's #1, #4, #2, ...

........................................................................
.............................. CYCLE  109 ..............................
........................................................................

 iter      E             dE          RMSdq      gap      omega  full diag
   1   -307.8239616 -0.307824E+03  0.487E-02    0.73       0.0  T
   2   -307.8239592  0.237456E-05  0.292E-02    0.73       1.0  T
   3   -307.8237283  0.230928E-03  0.292E-02    0.73       1.0  T
   4   -307.8239560 -0.227755E-03  0.771E-03    0.73       1.0  T
   5   -307.8239720 -0.159801E-04  0.248E-03    0.73       3.1  T
   6   -307.8239734 -0.139880E-05  0.956E-04    0.73       8.0  T
   7   -307.8239735 -0.554448E-07  0.482E-04    0.73      15.8  T
   8   -307.8239735 -0.362961E-07  0.169E-04    0.73      45.2  T
     SCC iter.                  ...        0 min,  0.478 sec
     gradient                   ...        0 min,  0.058 sec
 * total energy  :  -304.5069806 Eh     change       -0.2186532E-03 Eh
   gradient norm :     0.0051944 Eh/α   predicted    -0.1877904E-03 ( -14.11%)
   displ. norm   :     0.6671365 α      lambda       -0.2531740E-03
   maximum displ.:     0.3277054 α      in ANC's #1, #4, #2, ...

........................................................................
.............................. CYCLE  110 ..............................
........................................................................

 iter      E             dE          RMSdq      gap      omega  full diag
   1   -307.8221212 -0.307822E+03  0.497E-02    0.73       0.0  T
   2   -307.8221178  0.338115E-05  0.296E-02    0.73       1.0  T
   3   -307.8218566  0.261261E-03  0.323E-02    0.73       1.0  T
   4   -307.8221182 -0.261670E-03  0.822E-03    0.73       1.0  T
   5   -307.8221352 -0.169812E-04  0.297E-03    0.73       2.6  T
   6   -307.8221374 -0.219884E-05  0.115E-03    0.73       6.6  T
   7   -307.8221375 -0.630652E-07  0.748E-04    0.73      10.2  T
   8   -307.8221376 -0.109072E-06  0.332E-04    0.73      23.0  T
     SCC iter.                  ...        0 min,  0.438 sec
     gradient                   ...        0 min,  0.060 sec
 * total energy  :  -304.5071813 Eh     change       -0.2006915E-03 Eh
   gradient norm :     0.0048682 Eh/α   predicted    -0.1829315E-03 (  -8.85%)
   displ. norm   :     0.6136634 α      lambda       -0.2241374E-03
   maximum displ.:     0.3070874 α      in ANC's #1, #2, #4, ...

........................................................................
.............................. CYCLE  111 ..............................
........................................................................

 iter      E             dE          RMSdq      gap      omega  full diag
   1   -307.8235046 -0.307824E+03  0.430E-02    0.73       0.0  T
   2   -307.8235033  0.135026E-05  0.257E-02    0.73       1.0  T
   3   -307.8233346  0.168691E-03  0.255E-02    0.73       1.0  T
   4   -307.8235014 -0.166866E-03  0.671E-03    0.73       1.1  T
   5   -307.8235129 -0.114968E-04  0.233E-03    0.73       3.3  T
   6   -307.8235142 -0.128752E-05  0.969E-04    0.73       7.9  T
   7   -307.8235142 -0.218704E-07  0.645E-04    0.73      11.8  T
   8   -307.8235143 -0.101587E-06  0.241E-04    0.73      31.6  T
     SCC iter.                  ...        0 min,  0.538 sec
     gradient                   ...        0 min,  0.070 sec
 * total energy  :  -304.5073702 Eh     change       -0.1888745E-03 Eh
   gradient norm :     0.0047796 Eh/α   predicted    -0.1542767E-03 ( -18.32%)
   displ. norm   :     0.6166034 α      lambda       -0.2191808E-03
   maximum displ.:     0.3115872 α      in ANC's #1, #2, #4, ...

........................................................................
.............................. CYCLE  112 ..............................
........................................................................

 iter      E             dE          RMSdq      gap      omega  full diag
   1   -307.8243359 -0.307824E+03  0.433E-02    0.73       0.0  T
   2   -307.8243384 -0.252922E-05  0.257E-02    0.73       1.0  T
   3   -307.8242440  0.943394E-04  0.196E-02    0.73       1.0  T
   4   -307.8243318 -0.877138E-04  0.671E-03    0.73       1.1  T
   5   -307.8243433 -0.114992E-04  0.246E-03    0.73       3.1  T
   6   -307.8243447 -0.147038E-05  0.104E-03    0.73       7.3  T
   7   -307.8243448 -0.747321E-07  0.664E-04    0.73      11.5  T
   8   -307.8243449 -0.105468E-06  0.242E-04    0.73      31.5  T
     SCC iter.                  ...        0 min,  0.561 sec
     gradient                   ...        0 min,  0.072 sec
 * total energy  :  -304.5075642 Eh     change       -0.1940564E-03 Eh
   gradient norm :     0.0048204 Eh/α   predicted    -0.1512636E-03 ( -22.05%)
   displ. norm   :     0.6279381 α      lambda       -0.2366938E-03
   maximum displ.:     0.3227276 α      in ANC's #1, #2, #4, ...

........................................................................
.............................. CYCLE  113 ..............................
........................................................................

 iter      E             dE          RMSdq      gap      omega  full diag
   1   -307.8255666 -0.307826E+03  0.457E-02    0.73       0.0  T
   2   -307.8255725 -0.584681E-05  0.271E-02    0.73       1.0  T
   3   -307.8255318  0.406112E-04  0.139E-02    0.73       1.0  T
   4   -307.8255653 -0.334632E-04  0.612E-03    0.73       1.2  T
   5   -307.8255752 -0.990698E-05  0.221E-03    0.73       3.4  T
   6   -307.8255762 -0.986418E-06  0.107E-03    0.73       7.1  T
   7   -307.8255762 -0.517524E-07  0.763E-04    0.73      10.0  T
   8   -307.8255764 -0.158512E-06  0.239E-04    0.73      31.9  T
     SCC iter.                  ...        0 min,  0.733 sec
     gradient                   ...        0 min,  0.065 sec
 * total energy  :  -304.5077711 Eh     change       -0.2068665E-03 Eh
   gradient norm :     0.0041038 Eh/α   predicted    -0.1650184E-03 ( -20.23%)
   displ. norm   :     0.6606957 α      lambda       -0.2306311E-03
   maximum displ.:     0.3442330 α      in ANC's #1, #2, #4, ...

........................................................................
.............................. CYCLE  114 ..............................
........................................................................

 iter      E             dE          RMSdq      gap      omega  full diag
   1   -307.8258536 -0.307826E+03  0.491E-02    0.73       0.0  T
   2   -307.8258603 -0.678376E-05  0.292E-02    0.73       1.0  T
   3   -307.8258248  0.355518E-04  0.132E-02    0.72       1.0  T
   4   -307.8258534 -0.286560E-04  0.576E-03    0.72       1.3  T
   5   -307.8258631 -0.964255E-05  0.208E-03    0.72       3.7  T
   6   -307.8258640 -0.911596E-06  0.101E-03    0.72       7.5  T
   7   -307.8258640  0.218300E-07  0.849E-04    0.72       9.0  T
   8   -307.8258642 -0.189471E-06  0.231E-04    0.72      33.0  T
     SCC iter.                  ...        0 min,  0.769 sec
     gradient                   ...        0 min,  0.059 sec
 * total energy  :  -304.5079740 Eh     change       -0.2028646E-03 Eh
   gradient norm :     0.0036836 Eh/α   predicted    -0.1656566E-03 ( -18.34%)
   displ. norm   :     0.6680020 α      lambda       -0.2188685E-03
   maximum displ.:     0.3524732 α      in ANC's #1, #2, #5, ...

........................................................................
.............................. CYCLE  115 ..............................
........................................................................

 iter      E             dE          RMSdq      gap      omega  full diag
   1   -307.8261334 -0.307826E+03  0.489E-02    0.73       0.0  T
   2   -307.8261399 -0.655256E-05  0.291E-02    0.73       1.0  T
   3   -307.8261066  0.333803E-04  0.130E-02    0.72       1.0  T
   4   -307.8261335 -0.269694E-04  0.570E-03    0.72       1.3  T
   5   -307.8261424 -0.881679E-05  0.215E-03    0.72       3.5  T
   6   -307.8261433 -0.992149E-06  0.107E-03    0.72       7.1  T
   7   -307.8261434 -0.397678E-07  0.802E-04    0.72       9.5  T
   8   -307.8261435 -0.156051E-06  0.238E-04    0.72      32.0  T
     SCC iter.                  ...        0 min,  0.772 sec
     gradient                   ...        0 min,  0.060 sec
 * total energy  :  -304.5081705 Eh     change       -0.1965801E-03 Eh
   gradient norm :     0.0039016 Eh/α   predicted    -0.1582787E-03 ( -19.48%)
   displ. norm   :     0.6835665 α      lambda       -0.2198842E-03
   maximum displ.:     0.3631967 α      in ANC's #1, #2, #5, ...

........................................................................
.............................. CYCLE  116 ..............................
........................................................................

 iter      E             dE          RMSdq      gap      omega  full diag
   1   -307.8258406 -0.307826E+03  0.503E-02    0.73       0.0  T
   2   -307.8258467 -0.602594E-05  0.300E-02    0.73       1.0  T
   3   -307.8258068  0.398364E-04  0.137E-02    0.72       1.0  T
   4   -307.8258384 -0.315627E-04  0.622E-03    0.73       1.2  T
   5   -307.8258489 -0.105396E-04  0.236E-03    0.73       3.2  T
   6   -307.8258502 -0.125841E-05  0.111E-03    0.73       6.9  T
   7   -307.8258503 -0.791574E-07  0.735E-04    0.73      10.4  T
   8   -307.8258504 -0.118562E-06  0.245E-04    0.73      31.2  T
     SCC iter.                  ...        0 min,  0.796 sec
     gradient                   ...        0 min,  0.060 sec
 * total energy  :  -304.5083709 Eh     change       -0.2003697E-03 Eh
   gradient norm :     0.0039965 Eh/α   predicted    -0.1613175E-03 ( -19.49%)
   displ. norm   :     0.7050840 α      lambda       -0.2265677E-03
   maximum displ.:     0.3770852 α      in ANC's #1, #2, #5, ...

........................................................................
.............................. CYCLE  117 ..............................
........................................................................

 iter      E             dE          RMSdq      gap      omega  full diag
   1   -307.8262650 -0.307826E+03  0.515E-02    0.73       0.0  T
   2   -307.8262709 -0.590537E-05  0.308E-02    0.73       1.0  T
   3   -307.8262378  0.331394E-04  0.125E-02    0.73       1.0  T
   4   -307.8262649 -0.270790E-04  0.556E-03    0.73       1.4  T
   5   -307.8262729 -0.807158E-05  0.216E-03    0.73       3.5  T
   6   -307.8262739 -0.100008E-05  0.110E-03    0.73       6.9  T
   7   -307.8262740 -0.825903E-07  0.745E-04    0.73      10.2  T
   8   -307.8262742 -0.123769E-06  0.240E-04    0.73      31.8  T
     SCC iter.                  ...        0 min,  0.790 sec
     gradient                   ...        0 min,  0.061 sec
 * total energy  :  -304.5085769 Eh     change       -0.2059774E-03 Eh
   gradient norm :     0.0038891 Eh/α   predicted    -0.1696078E-03 ( -17.66%)
   displ. norm   :     0.7374853 α      lambda       -0.2274114E-03
   maximum displ.:     0.3965585 α      in ANC's #1, #2, #5, ...

........................................................................
.............................. CYCLE  118 ..............................
........................................................................

 iter      E             dE          RMSdq      gap      omega  full diag
   1   -307.8257700 -0.307826E+03  0.543E-02    0.73       0.0  T
   2   -307.8257759 -0.591366E-05  0.324E-02    0.73       1.0  T
   3   -307.8257458  0.301070E-04  0.115E-02    0.73       1.0  T
   4   -307.8257685 -0.227568E-04  0.569E-03    0.73       1.3  T
   5   -307.8257775 -0.900404E-05  0.218E-03    0.73       3.5  T
   6   -307.8257785 -0.101368E-05  0.108E-03    0.73       7.0  T
   7   -307.8257786 -0.641346E-07  0.748E-04    0.73      10.2  T
   8   -307.8257787 -0.132590E-06  0.219E-04    0.73      34.8  T
     SCC iter.                  ...        0 min,  0.713 sec
     gradient                   ...        0 min,  0.066 sec
 * total energy  :  -304.5087835 Eh     change       -0.2066034E-03 Eh
   gradient norm :     0.0035446 Eh/α   predicted    -0.1755570E-03 ( -15.03%)
   displ. norm   :     0.7466731 α      lambda       -0.2254779E-03
   maximum displ.:     0.4030735 α      in ANC's #1, #2, #5, ...

........................................................................
.............................. CYCLE  119 ..............................
........................................................................

 iter      E             dE          RMSdq      gap      omega  full diag
   1   -307.8267803 -0.307827E+03  0.555E-02    0.74       0.0  T
   2   -307.8267861 -0.584100E-05  0.331E-02    0.73       1.0  T
   3   -307.8267663  0.198643E-04  0.949E-03    0.73       1.0  T
   4   -307.8267821 -0.158359E-04  0.451E-03    0.73       1.7  T
   5   -307.8267873 -0.522595E-05  0.205E-03    0.73       3.7  T
   6   -307.8267882 -0.910752E-06  0.103E-03    0.73       7.4  T
   7   -307.8267883 -0.551518E-07  0.709E-04    0.73      10.8  T
   8   -307.8267884 -0.130163E-06  0.205E-04    0.73      37.3  T
     SCC iter.                  ...        0 min,  0.813 sec
     gradient                   ...        0 min,  0.059 sec
 * total energy  :  -304.5089875 Eh     change       -0.2040075E-03 Eh
   gradient norm :     0.0036090 Eh/α   predicted    -0.1755994E-03 ( -13.93%)
   displ. norm   :     0.7699619 α      lambda       -0.2287159E-03
   maximum displ.:     0.4178991 α      in ANC's #1, #2, #5, ...

........................................................................
.............................. CYCLE  120 ..............................
........................................................................

 iter      E             dE          RMSdq      gap      omega  full diag
   1   -307.8265271 -0.307827E+03  0.580E-02    0.74       0.0  T
   2   -307.8265331 -0.606084E-05  0.345E-02    0.73       1.0  T
   3   -307.8265160  0.170674E-04  0.935E-03    0.73       1.0  T
   4   -307.8265329 -0.168235E-04  0.339E-03    0.73       2.2  T
   5   -307.8265349 -0.198671E-05  0.164E-03    0.73       4.7  T
   6   -307.8265350 -0.156355E-06  0.128E-03    0.73       6.0  T
   7   -307.8265354 -0.337999E-06  0.542E-04    0.73      14.1  T
   8   -307.8265354 -0.634239E-07  0.163E-04    0.73      46.8  T
     SCC iter.                  ...        0 min,  0.710 sec
     gradient                   ...        0 min,  0.065 sec
 * total energy  :  -304.5091952 Eh     change       -0.2076665E-03 Eh
   gradient norm :     0.0039067 Eh/α   predicted    -0.1821644E-03 ( -12.28%)
   displ. norm   :     0.7534439 α      lambda       -0.2316514E-03
   maximum displ.:     0.4108200 α      in ANC's #1, #2, #5, ...
 * RMSD in coord.:     1.0408565 α      energy gain  -0.4634000E-02 Eh

generating ANC from exact Hessian ...
Using Lindh-Hessian (1995)
 Shifting diagonal of input Hessian by   1.006765993648227E-002
 Lowest  eigenvalues of input Hessian
    0.010000    0.010019    0.010031    0.000000    0.000000    0.010055
    0.000000    0.000000    0.000000    0.000000    0.010113    0.010146
    0.010202    0.010266    0.010373    0.010473    0.010540    0.010595
 Highest eigenvalues
    2.189365    2.261965    2.318124    2.392194    2.405364    2.545367
 

........................................................................
.............................. CYCLE  121 ..............................
........................................................................

 iter      E             dE          RMSdq      gap      omega  full diag
   1   -307.8274664 -0.307827E+03  0.594E-02    0.73       0.0  T
   2   -307.8274724 -0.598465E-05  0.352E-02    0.73       1.0  T
   3   -307.8274475  0.248589E-04  0.110E-02    0.73       1.0  T
   4   -307.8274713 -0.237787E-04  0.401E-03    0.73       1.9  T
   5   -307.8274745 -0.323552E-05  0.167E-03    0.73       4.6  T
   6   -307.8274748 -0.279615E-06  0.111E-03    0.73       6.8  T
   7   -307.8274750 -0.195676E-06  0.652E-04    0.73      11.7  T
   8   -307.8274751 -0.955343E-07  0.243E-04    0.73      31.3  T
     SCC iter.                  ...        0 min,  0.712 sec
     gradient                   ...        0 min,  0.065 sec
 * total energy  :  -304.5094040 Eh     change       -0.2087888E-03 Eh
   gradient norm :     0.0040254 Eh/α   predicted     0.0000000E+00 (-100.00%)
   displ. norm   :     0.0485999 α      lambda       -0.4656329E-04
   maximum displ.:     0.0213239 α      in ANC's #6, #2, #5, ...

........................................................................
.............................. CYCLE  122 ..............................
........................................................................

 iter      E             dE          RMSdq      gap      omega  full diag
   1   -307.8279766 -0.307828E+03  0.931E-03    0.73       0.0  T
   2   -307.8279767 -0.961024E-07  0.571E-03    0.73       1.3  T
   3   -307.8279700  0.670138E-05  0.487E-03    0.73       1.6  T
   4   -307.8279759 -0.595294E-05  0.201E-03    0.73       3.8  T
   5   -307.8279771 -0.118709E-05  0.560E-04    0.73      13.6  T
   6   -307.8279772 -0.755761E-07  0.238E-04    0.73      32.0  T
   7   -307.8279772 -0.895403E-08  0.139E-04    0.73      54.9  T
     SCC iter.                  ...        0 min,  0.712 sec
     gradient                   ...        0 min,  0.065 sec
 * total energy  :  -304.5094488 Eh     change       -0.4483198E-04 Eh
   gradient norm :     0.0025713 Eh/α   predicted    -0.2518072E-04 ( -43.83%)
   displ. norm   :     0.2347601 α      lambda       -0.1805819E-03
   maximum displ.:     0.1022513 α      in ANC's #6, #2, #5, ...

........................................................................
.............................. CYCLE  123 ..............................
........................................................................

 iter      E             dE          RMSdq      gap      omega  full diag
   1   -307.8287726 -0.307829E+03  0.420E-02    0.72       0.0  T
   2   -307.8287731 -0.569279E-06  0.257E-02    0.73       1.0  T
   3   -307.8286281  0.145023E-03  0.222E-02    0.73       1.0  T
   4   -307.8287613 -0.133248E-03  0.829E-03    0.73       1.0  T
   5   -307.8287815 -0.201822E-04  0.225E-03    0.73       3.4  T
   6   -307.8287827 -0.117306E-05  0.103E-03    0.73       7.4  T
   7   -307.8287829 -0.170113E-06  0.583E-04    0.73      13.1  T
   8   -307.8287829 -0.524366E-07  0.247E-04    0.73      30.8  T
     SCC iter.                  ...        0 min,  0.657 sec
     gradient                   ...        0 min,  0.065 sec
 * total energy  :  -304.5095692 Eh     change       -0.1203804E-03 Eh
   gradient norm :     0.0033963 Eh/α   predicted    -0.9526854E-04 ( -20.86%)
   displ. norm   :     0.1928116 α      lambda       -0.7704154E-04
   maximum displ.:     0.0865242 α      in ANC's #6, #2, #5, ...

........................................................................
.............................. CYCLE  124 ..............................
........................................................................

 iter      E             dE          RMSdq      gap      omega  full diag
   1   -307.8285842 -0.307829E+03  0.313E-02    0.73       0.0  T
   2   -307.8285835  0.710972E-06  0.191E-02    0.73       1.0  T
   3   -307.8284953  0.881406E-04  0.170E-02    0.73       1.0  T
   4   -307.8285804 -0.850540E-04  0.507E-03    0.73       1.5  T
   5   -307.8285877 -0.732305E-05  0.139E-03    0.73       5.5  T
   6   -307.8285881 -0.420624E-06  0.680E-04    0.73      11.2  T
   7   -307.8285882 -0.593749E-07  0.394E-04    0.73      19.4  T
     SCC iter.                  ...        0 min,  0.477 sec
     gradient                   ...        0 min,  0.070 sec
 * total energy  :  -304.5096319 Eh     change       -0.6271948E-04 Eh
   gradient norm :     0.0048380 Eh/α   predicted    -0.4039463E-04 ( -35.59%)
   displ. norm   :     0.2980964 α      lambda       -0.1170202E-03
   maximum displ.:     0.1337868 α      in ANC's #6, #2, #5, ...

........................................................................
.............................. CYCLE  125 ..............................
........................................................................

 iter      E             dE          RMSdq      gap      omega  full diag
   1   -307.8278450 -0.307828E+03  0.454E-02    0.73       0.0  T
   2   -307.8278438  0.116399E-05  0.274E-02    0.73       1.0  T
   3   -307.8276897  0.154105E-03  0.223E-02    0.73       1.0  T
   4   -307.8278393 -0.149617E-03  0.622E-03    0.73       1.2  T
   5   -307.8278503 -0.110264E-04  0.167E-03    0.73       4.6  T
   6   -307.8278508 -0.506957E-06  0.919E-04    0.73       8.3  T
   7   -307.8278509 -0.976717E-07  0.526E-04    0.73      14.5  T
     SCC iter.                  ...        0 min,  0.408 sec
     gradient                   ...        0 min,  0.063 sec
 * total energy  :  -304.5097317 Eh     change       -0.9978303E-04 Eh
   gradient norm :     0.0051132 Eh/α   predicted    -0.6371023E-04 ( -36.15%)
   displ. norm   :     0.4503785 α      lambda       -0.1812582E-03
   maximum displ.:     0.2031774 α      in ANC's #6, #2, #5, ...

........................................................................
.............................. CYCLE  126 ..............................
........................................................................

 iter      E             dE          RMSdq      gap      omega  full diag
   1   -307.8264289 -0.307826E+03  0.655E-02    0.73       0.0  T
   2   -307.8264278  0.113673E-05  0.393E-02    0.73       1.0  T
   3   -307.8261883  0.239529E-03  0.278E-02    0.74       1.0  T
   4   -307.8264203 -0.232004E-03  0.772E-03    0.74       1.0  T
   5   -307.8264373 -0.170254E-04  0.214E-03    0.74       3.6  T
   6   -307.8264380 -0.697818E-06  0.125E-03    0.74       6.1  T
   7   -307.8264381 -0.158853E-06  0.711E-04    0.74      10.7  T
   8   -307.8264382 -0.110508E-06  0.272E-04    0.74      28.0  T
     SCC iter.                  ...        0 min,  0.521 sec
     gradient                   ...        0 min,  0.064 sec
 * total energy  :  -304.5098832 Eh     change       -0.1515724E-03 Eh
   gradient norm :     0.0046204 Eh/α   predicted    -0.1090358E-03 ( -28.06%)
   displ. norm   :     0.5117043 α      lambda       -0.2015378E-03
   maximum displ.:     0.2340295 α      in ANC's #6, #2, #5, ...

........................................................................
.............................. CYCLE  127 ..............................
........................................................................

 iter      E             dE          RMSdq      gap      omega  full diag
   1   -307.8253116 -0.307825E+03  0.710E-02    0.74       0.0  T
   2   -307.8253129 -0.125824E-05  0.423E-02    0.74       1.0  T
   3   -307.8251718  0.141062E-03  0.217E-02    0.74       1.0  T
   4   -307.8253043 -0.132478E-03  0.703E-03    0.74       1.1  T
   5   -307.8253186 -0.143438E-04  0.223E-03    0.74       3.4  T
   6   -307.8253194 -0.760130E-06  0.125E-03    0.74       6.1  T
   7   -307.8253195 -0.118944E-06  0.718E-04    0.74      10.6  T
   8   -307.8253196 -0.123413E-06  0.282E-04    0.74      27.0  T
     SCC iter.                  ...        0 min,  0.458 sec
     gradient                   ...        0 min,  0.065 sec
 * total energy  :  -304.5100493 Eh     change       -0.1660327E-03 Eh
   gradient norm :     0.0050069 Eh/α   predicted    -0.1271811E-03 ( -23.40%)
   displ. norm   :     0.4990564 α      lambda       -0.2068192E-03
   maximum displ.:     0.2332753 α      in ANC's #6, #2, #5, ...

........................................................................
.............................. CYCLE  128 ..............................
........................................................................

 iter      E             dE          RMSdq      gap      omega  full diag
   1   -307.8257054 -0.307826E+03  0.656E-02    0.74       0.0  T
   2   -307.8257079 -0.253415E-05  0.388E-02    0.74       1.0  T
   3   -307.8256676  0.403743E-04  0.132E-02    0.75       1.0  T
   4   -307.8257079 -0.403104E-04  0.341E-03    0.75       2.2  T
   5   -307.8257100 -0.216931E-05  0.204E-03    0.75       3.7  T
   6   -307.8257108 -0.773072E-06  0.108E-03    0.75       7.1  T
   7   -307.8257109 -0.103596E-06  0.670E-04    0.75      11.4  T
   8   -307.8257110 -0.106886E-06  0.256E-04    0.75      29.8  T
     SCC iter.                  ...        0 min,  0.529 sec
     gradient                   ...        0 min,  0.061 sec
 * total energy  :  -304.5102218 Eh     change       -0.1724962E-03 Eh
   gradient norm :     0.0060101 Eh/α   predicted    -0.1292212E-03 ( -25.09%)
   displ. norm   :     0.5204241 α      lambda       -0.2297999E-03
   maximum displ.:     0.2486708 α      in ANC's #6, #2, #5, ...

........................................................................
.............................. CYCLE  129 ..............................
........................................................................

 iter      E             dE          RMSdq      gap      omega  full diag
   1   -307.8271294 -0.307827E+03  0.656E-02    0.74       0.0  T
   2   -307.8271315 -0.207977E-05  0.387E-02    0.74       1.0  T
   3   -307.8270462  0.852995E-04  0.187E-02    0.75       1.0  T
   4   -307.8271276 -0.814348E-04  0.537E-03    0.75       1.4  T
   5   -307.8271346 -0.696623E-05  0.243E-03    0.75       3.1  T
   6   -307.8271358 -0.127555E-05  0.110E-03    0.75       7.0  T
   7   -307.8271359 -0.627898E-07  0.558E-04    0.75      13.7  T
   8   -307.8271360 -0.674235E-07  0.247E-04    0.75      30.8  T
     SCC iter.                  ...        0 min,  0.506 sec
     gradient                   ...        0 min,  0.066 sec
 * total energy  :  -304.5104173 Eh     change       -0.1955003E-03 Eh
   gradient norm :     0.0065419 Eh/α   predicted    -0.1460205E-03 ( -25.31%)
   displ. norm   :     0.5965223 α      lambda       -0.2679142E-03
   maximum displ.:     0.2894065 α      in ANC's #6, #2, #5, ...

........................................................................
.............................. CYCLE  130 ..............................
........................................................................

 iter      E             dE          RMSdq      gap      omega  full diag
   1   -307.8281434 -0.307828E+03  0.744E-02    0.74       0.0  T
   2   -307.8281444 -0.989056E-06  0.439E-02    0.74       1.0  T
   3   -307.8279243  0.220104E-03  0.286E-02    0.74       1.0  T
   4   -307.8281398 -0.215446E-03  0.700E-03    0.74       1.1  T
   5   -307.8281523 -0.125480E-04  0.291E-03    0.74       2.6  T
   6   -307.8281541 -0.177294E-05  0.120E-03    0.74       6.3  T
   7   -307.8281541 -0.491141E-07  0.589E-04    0.74      12.9  T
   8   -307.8281542 -0.630429E-07  0.281E-04    0.74      27.1  T
     SCC iter.                  ...        0 min,  0.547 sec
     gradient                   ...        0 min,  0.068 sec
 * total energy  :  -304.5106526 Eh     change       -0.2353683E-03 Eh
   gradient norm :     0.0061277 Eh/α   predicted    -0.1816261E-03 ( -22.83%)
   displ. norm   :     0.6404928 α      lambda       -0.3200867E-03
   maximum displ.:     0.3164825 α      in ANC's #6, #2, #5, ...

........................................................................
.............................. CYCLE  131 ..............................
........................................................................

 iter      E             dE          RMSdq      gap      omega  full diag
   1   -307.8299906 -0.307830E+03  0.806E-02    0.73       0.0  T
   2   -307.8299893  0.127836E-05  0.479E-02    0.73       1.0  T
   3   -307.8295553  0.434012E-03  0.390E-02    0.73       1.0  T
   4   -307.8299837 -0.428432E-03  0.926E-03    0.73       1.0  T
   5   -307.8300065 -0.227586E-04  0.347E-03    0.73       2.2  T
   6   -307.8300089 -0.247229E-05  0.137E-03    0.73       5.6  T
   7   -307.8300090 -0.917051E-07  0.619E-04    0.73      12.3  T
   8   -307.8300091 -0.512992E-07  0.222E-04    0.73      34.3  T
     SCC iter.                  ...        0 min,  0.493 sec
     gradient                   ...        0 min,  0.070 sec
 * total energy  :  -304.5109286 Eh     change       -0.2759250E-03 Eh
   gradient norm :     0.0048246 Eh/α   predicted    -0.2256980E-03 ( -18.20%)
   displ. norm   :     0.7315277 α      lambda       -0.3269168E-03
   maximum displ.:     0.3617882 α      in ANC's #6, #2, #5, ...

........................................................................
.............................. CYCLE  132 ..............................
........................................................................

 iter      E             dE          RMSdq      gap      omega  full diag
   1   -307.8279387 -0.307828E+03  0.933E-02    0.72       0.0  T
   2   -307.8279403 -0.158695E-05  0.553E-02    0.72       1.0  T
   3   -307.8275273  0.412968E-03  0.375E-02    0.72       1.0  T
   4   -307.8279299 -0.402551E-03  0.964E-03    0.72       1.0  T
   5   -307.8279551 -0.252085E-04  0.350E-03    0.72       2.2  T
   6   -307.8279575 -0.239279E-05  0.150E-03    0.72       5.1  T
   7   -307.8279576 -0.104884E-06  0.739E-04    0.72      10.3  T
   8   -307.8279576 -0.862237E-07  0.264E-04    0.72      28.8  T
     SCC iter.                  ...        0 min,  0.532 sec
     gradient                   ...        0 min,  0.066 sec
 * total energy  :  -304.5112070 Eh     change       -0.2784026E-03 Eh
   gradient norm :     0.0053978 Eh/α   predicted    -0.2509300E-03 (  -9.87%)
   displ. norm   :     0.6109230 α      lambda       -0.3992936E-03
   maximum displ.:     0.3050003 α      in ANC's #6, #2, #5, ...

........................................................................
.............................. CYCLE  133 ..............................
........................................................................

 iter      E             dE          RMSdq      gap      omega  full diag
   1   -307.8349072 -0.307835E+03  0.897E-02    0.71       0.0  T
   2   -307.8349052  0.200946E-05  0.544E-02    0.71       1.0  T
   3   -307.8341773  0.727942E-03  0.504E-02    0.71       1.0  T
   4   -307.8348691 -0.691763E-03  0.163E-02    0.71       1.0  T
   5   -307.8349456 -0.765196E-04  0.471E-03    0.71       1.6  T
   6   -307.8349505 -0.487809E-05  0.196E-03    0.71       3.9  T
   7   -307.8349507 -0.221031E-06  0.136E-03    0.71       5.6  T
   8   -307.8349511 -0.393185E-06  0.486E-04    0.71      15.7  T
   9   -307.8349511 -0.550152E-07  0.187E-04    0.71      40.8  T
     SCC iter.                  ...        0 min,  0.542 sec
     gradient                   ...        0 min,  0.063 sec
 * total energy  :  -304.5114062 Eh     change       -0.1992403E-03 Eh
   gradient norm :     0.0089069 Eh/α   predicted    -0.2742234E-03 (  37.63%)
   displ. norm   :     0.6602324 α      lambda       -0.3573232E-03
   maximum displ.:     0.3264117 α      in ANC's #6, #2, #5, ...

........................................................................
.............................. CYCLE  134 ..............................
........................................................................

 iter      E             dE          RMSdq      gap      omega  full diag
   1   -307.8273112 -0.307827E+03  0.841E-02    0.71       0.0  T
   2   -307.8273154 -0.417591E-05  0.498E-02    0.71       1.0  T
   3   -307.8272624  0.529250E-04  0.138E-02    0.71       1.0  T
   4   -307.8273064 -0.439258E-04  0.627E-03    0.71       1.2  T
   5   -307.8273176 -0.112667E-04  0.235E-03    0.71       3.2  T
   6   -307.8273184 -0.764252E-06  0.132E-03    0.71       5.8  T
   7   -307.8273186 -0.201541E-06  0.698E-04    0.71      10.9  T
   8   -307.8273187 -0.109407E-06  0.224E-04    0.71      34.0  T
     SCC iter.                  ...        0 min,  0.493 sec
     gradient                   ...        0 min,  0.062 sec
 * total energy  :  -304.5116606 Eh     change       -0.2544067E-03 Eh
   gradient norm :     0.0084716 Eh/α   predicted    -0.2565509E-03 (   0.84%)
   displ. norm   :     0.4748041 α      lambda       -0.2414986E-03
   maximum displ.:     0.2436939 α      in ANC's #6, #2, #5, ...

........................................................................
.............................. CYCLE  135 ..............................
........................................................................

 iter      E             dE          RMSdq      gap      omega  full diag
   1   -307.8251008 -0.307825E+03  0.563E-02    0.71       0.0  T
   2   -307.8251025 -0.173749E-05  0.336E-02    0.72       1.0  T
   3   -307.8250455  0.569578E-04  0.145E-02    0.71       1.0  T
   4   -307.8251006 -0.550687E-04  0.441E-03    0.71       1.7  T
   5   -307.8251052 -0.457825E-05  0.175E-03    0.72       4.4  T
   6   -307.8251056 -0.411018E-06  0.112E-03    0.72       6.8  T
   7   -307.8251058 -0.157712E-06  0.649E-04    0.72      11.8  T
   8   -307.8251059 -0.112969E-06  0.190E-04    0.72      40.2  T
     SCC iter.                  ...        0 min,  0.440 sec
     gradient                   ...        0 min,  0.064 sec
 * total energy  :  -304.5118702 Eh     change       -0.2095939E-03 Eh
   gradient norm :     0.0079378 Eh/α   predicted    -0.1479720E-03 ( -29.40%)
   displ. norm   :     0.4651997 α      lambda       -0.4744561E-03
   maximum displ.:     0.2394572 α      in ANC's #6, #2, #5, ...

........................................................................
.............................. CYCLE  136 ..............................
........................................................................

 iter      E             dE          RMSdq      gap      omega  full diag
   1   -307.8292168 -0.307829E+03  0.619E-02    0.73       0.0  T
   2   -307.8292088  0.808049E-05  0.382E-02    0.73       1.0  T
   3   -307.8288114  0.397334E-03  0.402E-02    0.73       1.0  T
   4   -307.8292021 -0.390633E-03  0.119E-02    0.73       1.0  T
   5   -307.8292401 -0.380669E-04  0.381E-03    0.73       2.0  T
   6   -307.8292436 -0.350201E-05  0.148E-03    0.73       5.1  T
   7   -307.8292439 -0.253111E-06  0.883E-04    0.73       8.6  T
   8   -307.8292440 -0.128800E-06  0.403E-04    0.73      18.9  T
     SCC iter.                  ...        0 min,  0.481 sec
     gradient                   ...        0 min,  0.064 sec
 * total energy  :  -304.5121627 Eh     change       -0.2924542E-03 Eh
   gradient norm :     0.0059177 Eh/α   predicted    -0.2885679E-03 (  -1.33%)
   displ. norm   :     0.7561007 α      lambda       -0.2996438E-03
   maximum displ.:     0.3943032 α      in ANC's #6, #2, #5, ...

........................................................................
.............................. CYCLE  137 ..............................
........................................................................

 iter      E             dE          RMSdq      gap      omega  full diag
   1   -307.8276157 -0.307828E+03  0.862E-02    0.73       0.0  T
   2   -307.8276206 -0.486884E-05  0.514E-02    0.73       1.0  T
   3   -307.8274664  0.154240E-03  0.228E-02    0.73       1.0  T
   4   -307.8276085 -0.142187E-03  0.798E-03    0.73       1.0  T
   5   -307.8276269 -0.183811E-04  0.329E-03    0.73       2.3  T
   6   -307.8276288 -0.184203E-05  0.166E-03    0.73       4.6  T
   7   -307.8276290 -0.247935E-06  0.108E-03    0.73       7.1  T
   8   -307.8276293 -0.286697E-06  0.260E-04    0.73      29.3  T
   9   -307.8276293 -0.117934E-07  0.128E-04    0.73      59.8  T
     SCC iter.                  ...        0 min,  0.495 sec
     gradient                   ...        0 min,  0.066 sec
 * total energy  :  -304.5124277 Eh     change       -0.2650546E-03 Eh
   gradient norm :     0.0061051 Eh/α   predicted    -0.2354807E-03 ( -11.16%)
   displ. norm   :     0.7289696 α      lambda       -0.3396634E-03
   maximum displ.:     0.3860699 α      in ANC's #6, #2, #5, ...

........................................................................
.............................. CYCLE  138 ..............................
........................................................................

 iter      E             dE          RMSdq      gap      omega  full diag
   1   -307.8295213 -0.307830E+03  0.771E-02    0.72       0.0  T
   2   -307.8295266 -0.526372E-05  0.460E-02    0.73       1.0  T
   3   -307.8294208  0.105829E-03  0.196E-02    0.73       1.0  T
   4   -307.8295181 -0.972738E-04  0.693E-03    0.73       1.1  T
   5   -307.8295313 -0.132733E-04  0.306E-03    0.73       2.5  T
   6   -307.8295331 -0.173592E-05  0.150E-03    0.73       5.1  T
   7   -307.8295332 -0.140255E-06  0.104E-03    0.73       7.3  T
   8   -307.8295335 -0.274608E-06  0.270E-04    0.73      28.2  T
   9   -307.8295335 -0.135771E-07  0.124E-04    0.73      61.3  T
     SCC iter.                  ...        0 min,  0.559 sec
     gradient                   ...        0 min,  0.062 sec
 * total energy  :  -304.5127252 Eh     change       -0.2975142E-03 Eh
   gradient norm :     0.0046341 Eh/α   predicted    -0.2600868E-03 ( -12.58%)
   displ. norm   :     0.7267508 α      lambda       -0.3557199E-03
   maximum displ.:     0.3903664 α      in ANC's #6, #2, #5, ...

........................................................................
.............................. CYCLE  139 ..............................
........................................................................

 iter      E             dE          RMSdq      gap      omega  full diag
   1   -307.8329076 -0.307833E+03  0.716E-02    0.72       0.0  T
   2   -307.8329120 -0.440365E-05  0.427E-02    0.72       1.0  T
   3   -307.8328625  0.495040E-04  0.147E-02    0.72       1.0  T
   4   -307.8329079 -0.453766E-04  0.558E-03    0.72       1.4  T
   5   -307.8329139 -0.602310E-05  0.263E-03    0.72       2.9  T
   6   -307.8329153 -0.143503E-05  0.133E-03    0.72       5.7  T
   7   -307.8329155 -0.182325E-06  0.697E-04    0.72      10.9  T
   8   -307.8329156 -0.112314E-06  0.262E-04    0.72      29.0  T
     SCC iter.                  ...        0 min,  0.464 sec
     gradient                   ...        0 min,  0.064 sec
 * total energy  :  -304.5130243 Eh     change       -0.2990528E-03 Eh
   gradient norm :     0.0051000 Eh/α   predicted    -0.2718006E-03 (  -9.11%)
   displ. norm   :     0.7854946 α      lambda       -0.3771977E-03
   maximum displ.:     0.4254834 α      in ANC's #6, #2, #5, ...

........................................................................
.............................. CYCLE  140 ..............................
........................................................................

 iter      E             dE          RMSdq      gap      omega  full diag
   1   -307.8338995 -0.307834E+03  0.795E-02    0.72       0.0  T
   2   -307.8339033 -0.375995E-05  0.474E-02    0.72       1.0  T
   3   -307.8338028  0.100502E-03  0.194E-02    0.73       1.0  T
   4   -307.8338939 -0.911147E-04  0.708E-03    0.72       1.1  T
   5   -307.8339071 -0.132129E-04  0.265E-03    0.72       2.9  T
   6   -307.8339083 -0.119258E-05  0.126E-03    0.72       6.0  T
   7   -307.8339084 -0.126204E-06  0.618E-04    0.72      12.3  T
   8   -307.8339085 -0.595961E-07  0.265E-04    0.72      28.7  T
     SCC iter.                  ...        0 min,  0.522 sec
     gradient                   ...        0 min,  0.065 sec
 * total energy  :  -304.5133171 Eh     change       -0.2927760E-03 Eh
   gradient norm :     0.0070035 Eh/α   predicted    -0.3049650E-03 (   4.16%)
   displ. norm   :     0.7711411 α      lambda       -0.3377050E-03
   maximum displ.:     0.4192969 α      in ANC's #6, #2, #5, ...

........................................................................
.............................. CYCLE  141 ..............................
........................................................................

 iter      E             dE          RMSdq      gap      omega  full diag
   1   -307.8306202 -0.307831E+03  0.795E-02    0.72       0.0  T
   2   -307.8306236 -0.339539E-05  0.474E-02    0.72       1.0  T
   3   -307.8305354  0.882234E-04  0.177E-02    0.73       1.0  T
   4   -307.8306140 -0.786189E-04  0.689E-03    0.73       1.1  T
   5   -307.8306270 -0.130314E-04  0.239E-03    0.73       3.2  T
   6   -307.8306279 -0.809952E-06  0.122E-03    0.73       6.3  T
   7   -307.8306280 -0.106517E-06  0.641E-04    0.73      11.9  T
   8   -307.8306281 -0.856008E-07  0.269E-04    0.73      28.3  T
     SCC iter.                  ...        0 min,  0.612 sec
     gradient                   ...        0 min,  0.065 sec
 * total energy  :  -304.5135947 Eh     change       -0.2776109E-03 Eh
   gradient norm :     0.0066767 Eh/α   predicted    -0.2692648E-03 (  -3.01%)
   displ. norm   :     0.6108155 α      lambda       -0.3843804E-03
   maximum displ.:     0.3219709 α      in ANC's #6, #5, #2, ...

........................................................................
.............................. CYCLE  142 ..............................
........................................................................

 iter      E             dE          RMSdq      gap      omega  full diag
   1   -307.8371554 -0.307837E+03  0.793E-02    0.73       0.0  T
   2   -307.8371579 -0.256187E-05  0.482E-02    0.73       1.0  T
   3   -307.8367305  0.427383E-03  0.395E-02    0.73       1.0  T
   4   -307.8371159 -0.385387E-03  0.151E-02    0.73       1.0  T
   5   -307.8371860 -0.701011E-04  0.406E-03    0.73       1.9  T
   6   -307.8371893 -0.324717E-05  0.202E-03    0.73       3.8  T
   7   -307.8371898 -0.566919E-06  0.114E-03    0.73       6.7  T
   8   -307.8371901 -0.237640E-06  0.426E-04    0.73      17.9  T
   9   -307.8371901 -0.365074E-07  0.149E-04    0.73      51.3  T
     SCC iter.                  ...        0 min,  0.926 sec
     gradient                   ...        0 min,  0.072 sec
 * total energy  :  -304.5137941 Eh     change       -0.1994510E-03 Eh
   gradient norm :     0.0078875 Eh/α   predicted    -0.2639016E-03 (  32.31%)
   displ. norm   :     0.7056617 α      lambda       -0.3530788E-03
   maximum displ.:     0.3806798 α      in ANC's #6, #2, #5, ...

........................................................................
.............................. CYCLE  143 ..............................
........................................................................

 iter      E             dE          RMSdq      gap      omega  full diag
   1   -307.8286728 -0.307829E+03  0.746E-02    0.73       0.0  T
   2   -307.8286768 -0.403034E-05  0.442E-02    0.73       1.0  T
   3   -307.8286482  0.286086E-04  0.105E-02    0.73       1.0  T
   4   -307.8286696 -0.214008E-04  0.556E-03    0.73       1.4  T
   5   -307.8286782 -0.863858E-05  0.212E-03    0.73       3.6  T
   6   -307.8286788 -0.595820E-06  0.119E-03    0.73       6.4  T
   7   -307.8286790 -0.215865E-06  0.535E-04    0.73      14.3  T
   8   -307.8286791 -0.592115E-07  0.217E-04    0.73      35.1  T
     SCC iter.                  ...        0 min,  0.804 sec
     gradient                   ...        0 min,  0.065 sec
 * total energy  :  -304.5140269 Eh     change       -0.2327587E-03 Eh
   gradient norm :     0.0079195 Eh/α   predicted    -0.2644539E-03 (  13.62%)
   displ. norm   :     0.4909569 α      lambda       -0.3205020E-03
   maximum displ.:     0.2647950 α      in ANC's #6, #5, #2, ...

........................................................................
.............................. CYCLE  144 ..............................
........................................................................

 iter      E             dE          RMSdq      gap      omega  full diag
   1   -307.8276344 -0.307828E+03  0.517E-02    0.73       0.0  T
   2   -307.8276366 -0.225478E-05  0.305E-02    0.73       1.0  T
   3   -307.8275718  0.648272E-04  0.159E-02    0.73       1.0  T
   4   -307.8276312 -0.593696E-04  0.546E-03    0.73       1.4  T
   5   -307.8276392 -0.801987E-05  0.191E-03    0.73       4.0  T
   6   -307.8276400 -0.765391E-06  0.964E-04    0.73       7.9  T
   7   -307.8276401 -0.985867E-07  0.448E-04    0.73      17.0  T
     SCC iter.                  ...        0 min,  0.621 sec
     gradient                   ...        0 min,  0.067 sec
 * total energy  :  -304.5141733 Eh     change       -0.1463801E-03 Eh
   gradient norm :     0.0112537 Eh/α   predicted    -0.1988786E-03 (  35.86%)
   displ. norm   :     0.4474405 α      lambda       -0.2801093E-03
   maximum displ.:     0.2424636 α      in ANC's #6, #5, #2, ...

........................................................................
.............................. CYCLE  145 ..............................
........................................................................

 iter      E             dE          RMSdq      gap      omega  full diag
   1   -307.8282964 -0.307828E+03  0.462E-02    0.73       0.0  T
   2   -307.8282981 -0.174307E-05  0.273E-02    0.73       1.0  T
   3   -307.8282414  0.567358E-04  0.153E-02    0.73       1.0  T
   4   -307.8282972 -0.558270E-04  0.399E-03    0.73       1.9  T
   5   -307.8283011 -0.391187E-05  0.175E-03    0.73       4.4  T
   6   -307.8283016 -0.477558E-06  0.107E-03    0.73       7.1  T
   7   -307.8283018 -0.157185E-06  0.582E-04    0.73      13.1  T
   8   -307.8283019 -0.778326E-07  0.229E-04    0.73      33.2  T
     SCC iter.                  ...        0 min,  0.701 sec
     gradient                   ...        0 min,  0.071 sec
 * total energy  :  -304.5143582 Eh     change       -0.1849711E-03 Eh
   gradient norm :     0.0074264 Eh/α   predicted    -0.1680974E-03 (  -9.12%)
   displ. norm   :     0.4629760 α      lambda       -0.3213990E-03
   maximum displ.:     0.2377862 α      in ANC's #6, #5, #2, ...

........................................................................
.............................. CYCLE  146 ..............................
........................................................................

 iter      E             dE          RMSdq      gap      omega  full diag
   1   -307.8345153 -0.307835E+03  0.532E-02    0.73       0.0  T
   2   -307.8345177 -0.245135E-05  0.314E-02    0.73       1.0  T
   3   -307.8344159  0.101776E-03  0.213E-02    0.74       1.0  T
   4   -307.8345154 -0.994930E-04  0.590E-03    0.74       1.3  T
   5   -307.8345246 -0.920421E-05  0.221E-03    0.73       3.4  T
   6   -307.8345255 -0.872907E-06  0.131E-03    0.73       5.8  T
   7   -307.8345257 -0.227160E-06  0.704E-04    0.73      10.8  T
   8   -307.8345258 -0.101555E-06  0.315E-04    0.73      24.2  T
     SCC iter.                  ...        0 min,  0.662 sec
     gradient                   ...        0 min,  0.062 sec
 * total energy  :  -304.5145154 Eh     change       -0.1571870E-03 Eh
   gradient norm :     0.0077153 Eh/α   predicted    -0.1951451E-03 (  24.15%)
   displ. norm   :     0.6035634 α      lambda       -0.2073211E-03
   maximum displ.:     0.3263482 α      in ANC's #6, #5, #2, ...

........................................................................
.............................. CYCLE  147 ..............................
........................................................................

 iter      E             dE          RMSdq      gap      omega  full diag
   1   -307.8320621 -0.307832E+03  0.581E-02    0.73       0.0  T
   2   -307.8320641 -0.201704E-05  0.343E-02    0.73       1.0  T
   3   -307.8320106  0.534546E-04  0.142E-02    0.74       1.0  T
   4   -307.8320609 -0.503197E-04  0.449E-03    0.74       1.7  T
   5   -307.8320659 -0.492159E-05  0.197E-03    0.74       3.9  T
   6   -307.8320666 -0.738570E-06  0.100E-03    0.74       7.6  T
   7   -307.8320667 -0.770150E-07  0.497E-04    0.74      15.3  T
   8   -307.8320667 -0.573536E-07  0.218E-04    0.74      35.0  T
     SCC iter.                  ...        0 min,  0.757 sec
     gradient                   ...        0 min,  0.064 sec
 * total energy  :  -304.5146703 Eh     change       -0.1549168E-03 Eh
   gradient norm :     0.0053668 Eh/α   predicted    -0.1414259E-03 (  -8.71%)
   displ. norm   :     0.4591730 α      lambda       -0.1955490E-03
   maximum displ.:     0.2346855 α      in ANC's #6, #5, #2, ...

........................................................................
.............................. CYCLE  148 ..............................
........................................................................

 iter      E             dE          RMSdq      gap      omega  full diag
   1   -307.8352929 -0.307835E+03  0.512E-02    0.73       0.0  T
   2   -307.8352880  0.497129E-05  0.305E-02    0.73       1.0  T
   3   -307.8350091  0.278879E-03  0.317E-02    0.73       1.0  T
   4   -307.8352889 -0.279805E-03  0.714E-03    0.73       1.1  T
   5   -307.8353026 -0.137321E-04  0.211E-03    0.73       3.6  T
   6   -307.8353036 -0.952671E-06  0.924E-04    0.73       8.3  T
   7   -307.8353036 -0.515052E-07  0.456E-04    0.73      16.7  T
     SCC iter.                  ...        0 min,  0.599 sec
     gradient                   ...        0 min,  0.075 sec
 * total energy  :  -304.5147873 Eh     change       -0.1169757E-03 Eh
   gradient norm :     0.0054646 Eh/α   predicted    -0.1183920E-03 (   1.21%)
   displ. norm   :     0.5660552 α      lambda       -0.1332274E-03
   maximum displ.:     0.2975175 α      in ANC's #6, #5, #2, ...

........................................................................
.............................. CYCLE  149 ..............................
........................................................................

 iter      E             dE          RMSdq      gap      omega  full diag
   1   -307.8328377 -0.307833E+03  0.566E-02    0.73       0.0  T
   2   -307.8328391 -0.141030E-05  0.335E-02    0.73       1.0  T
   3   -307.8327365  0.102572E-03  0.192E-02    0.73       1.0  T
   4   -307.8328366 -0.100027E-03  0.489E-03    0.73       1.6  T
   5   -307.8328426 -0.601618E-05  0.202E-03    0.73       3.8  T
   6   -307.8328434 -0.777695E-06  0.997E-04    0.73       7.7  T
   7   -307.8328434 -0.663888E-07  0.502E-04    0.73      15.2  T
     SCC iter.                  ...        0 min,  0.600 sec
     gradient                   ...        0 min,  0.066 sec
 * total energy  :  -304.5148833 Eh     change       -0.9595653E-04 Eh
   gradient norm :     0.0045417 Eh/α   predicted    -0.8795926E-04 (  -8.33%)
   displ. norm   :     0.3647582 α      lambda       -0.1597955E-03
   maximum displ.:     0.1745764 α      in ANC's #11, #6, #2, ...

........................................................................
.............................. CYCLE  150 ..............................
........................................................................

 iter      E             dE          RMSdq      gap      omega  full diag
   1   -307.8378508 -0.307838E+03  0.435E-02    0.73       0.0  T
   2   -307.8378470  0.379897E-05  0.261E-02    0.73       1.0  T
   3   -307.8376221  0.224955E-03  0.275E-02    0.73       1.0  T
   4   -307.8378508 -0.228720E-03  0.508E-03    0.73       1.5  T
   5   -307.8378575 -0.671552E-05  0.157E-03    0.73       4.9  T
   6   -307.8378580 -0.455927E-06  0.757E-04    0.73      10.1  T
   7   -307.8378580 -0.465099E-07  0.365E-04    0.73      20.9  T
     SCC iter.                  ...        0 min,  0.392 sec
     gradient                   ...        0 min,  0.068 sec
 * total energy  :  -304.5149659 Eh     change       -0.8261246E-04 Eh
   gradient norm :     0.0060364 Eh/α   predicted    -0.9053087E-04 (   9.58%)
   displ. norm   :     0.3921779 α      lambda       -0.1328433E-03
   maximum displ.:     0.1813501 α      in ANC's #6, #2, #11, ...
 * RMSD in coord.:     1.1023477 α      energy gain  -0.5770714E-02 Eh

generating ANC from exact Hessian ...
Using Lindh-Hessian (1995)
 Shifting diagonal of input Hessian by   1.006436284650573E-002
 Lowest  eigenvalues of input Hessian
    0.010000    0.010021    0.000000    0.000000    0.000000    0.000000
    0.000000    0.000000    0.010102    0.010120    0.010151    0.010220
    0.010230    0.010351    0.010459    0.010470    0.010592    0.010689
 Highest eigenvalues
    2.188442    2.258941    2.320783    2.393433    2.399402    2.544227
 

........................................................................
.............................. CYCLE  151 ..............................
........................................................................

 iter      E             dE          RMSdq      gap      omega  full diag
   1   -307.8349077 -0.307835E+03  0.452E-02    0.73       0.0  T
   2   -307.8349063  0.138513E-05  0.269E-02    0.73       1.0  T
   3   -307.8347528  0.153485E-03  0.220E-02    0.73       1.0  T
   4   -307.8349072 -0.154443E-03  0.431E-03    0.73       1.8  T
   5   -307.8349121 -0.483334E-05  0.145E-03    0.73       5.3  T
   6   -307.8349124 -0.308826E-06  0.770E-04    0.73       9.9  T
   7   -307.8349124 -0.443834E-07  0.494E-04    0.73      15.4  T
     SCC iter.                  ...        0 min,  0.391 sec
     gradient                   ...        0 min,  0.067 sec
 * total energy  :  -304.5150496 Eh     change       -0.8372722E-04 Eh
   gradient norm :     0.0056436 Eh/α   predicted     0.0000000E+00 (-100.00%)
   displ. norm   :     0.0473727 α      lambda       -0.7046145E-04
   maximum displ.:     0.0190702 α      in ANC's #11, #18, #14, ...

........................................................................
.............................. CYCLE  152 ..............................
........................................................................

 iter      E             dE          RMSdq      gap      omega  full diag
   1   -307.8356810 -0.307836E+03  0.106E-02    0.73       0.0  T
   2   -307.8356808  0.224029E-06  0.640E-03    0.73       1.2  T
   3   -307.8356695  0.113704E-04  0.688E-03    0.73       1.1  T
   4   -307.8356808 -0.113875E-04  0.175E-03    0.73       4.3  T
   5   -307.8356817 -0.809925E-06  0.638E-04    0.73      11.9  T
   6   -307.8356818 -0.101904E-06  0.264E-04    0.73      28.9  T
     SCC iter.                  ...        0 min,  0.349 sec
     gradient                   ...        0 min,  0.072 sec
 * total energy  :  -304.5151059 Eh     change       -0.5632364E-04 Eh
   gradient norm :     0.0027647 Eh/α   predicted    -0.3578392E-04 ( -36.47%)
   displ. norm   :     0.1318654 α      lambda       -0.1051173E-03
   maximum displ.:     0.0562646 α      in ANC's #11, #18, #14, ...

........................................................................
.............................. CYCLE  153 ..............................
........................................................................

 iter      E             dE          RMSdq      gap      omega  full diag
   1   -307.8362680 -0.307836E+03  0.254E-02    0.73       0.0  T
   2   -307.8362662  0.170549E-05  0.154E-02    0.73       1.0  T
   3   -307.8361970  0.692438E-04  0.167E-02    0.73       1.0  T
   4   -307.8362664 -0.693771E-04  0.414E-03    0.73       1.8  T
   5   -307.8362711 -0.474540E-05  0.124E-03    0.73       6.1  T
   6   -307.8362715 -0.339278E-06  0.606E-04    0.73      12.6  T
   7   -307.8362715 -0.476481E-07  0.317E-04    0.73      24.0  T
     SCC iter.                  ...        0 min,  0.403 sec
     gradient                   ...        0 min,  0.062 sec
 * total energy  :  -304.5151768 Eh     change       -0.7085271E-04 Eh
   gradient norm :     0.0031802 Eh/α   predicted    -0.5347376E-04 ( -24.53%)
   displ. norm   :     0.1383153 α      lambda       -0.6123812E-04
   maximum displ.:     0.0599079 α      in ANC's #11, #18, #6, ...

........................................................................
.............................. CYCLE  154 ..............................
........................................................................

 iter      E             dE          RMSdq      gap      omega  full diag
   1   -307.8359436 -0.307836E+03  0.247E-02    0.73       0.0  T
   2   -307.8359419  0.170079E-05  0.148E-02    0.73       1.0  T
   3   -307.8358770  0.649753E-04  0.159E-02    0.73       1.0  T
   4   -307.8359427 -0.657383E-04  0.338E-03    0.73       2.3  T
   5   -307.8359459 -0.318015E-05  0.953E-04    0.73       8.0  T
   6   -307.8359461 -0.171699E-06  0.576E-04    0.73      13.2  T
   7   -307.8359461 -0.482691E-07  0.284E-04    0.73      26.9  T
     SCC iter.                  ...        0 min,  0.407 sec
     gradient                   ...        0 min,  0.060 sec
 * total energy  :  -304.5152262 Eh     change       -0.4940501E-04 Eh
   gradient norm :     0.0043758 Eh/α   predicted    -0.3120618E-04 ( -36.84%)
   displ. norm   :     0.2540987 α      lambda       -0.1006319E-03
   maximum displ.:     0.1091419 α      in ANC's #11, #18, #6, ...

........................................................................
.............................. CYCLE  155 ..............................
........................................................................

 iter      E             dE          RMSdq      gap      omega  full diag
   1   -307.8347751 -0.307835E+03  0.432E-02    0.73       0.0  T
   2   -307.8347709  0.419683E-05  0.258E-02    0.73       1.0  T
   3   -307.8345915  0.179428E-03  0.260E-02    0.73       1.0  T
   4   -307.8347729 -0.181432E-03  0.523E-03    0.73       1.5  T
   5   -307.8347805 -0.762971E-05  0.142E-03    0.73       5.4  T
   6   -307.8347808 -0.323628E-06  0.947E-04    0.73       8.1  T
   7   -307.8347810 -0.123431E-06  0.468E-04    0.73      16.3  T
     SCC iter.                  ...        0 min,  0.403 sec
     gradient                   ...        0 min,  0.062 sec
 * total energy  :  -304.5153030 Eh     change       -0.7683641E-04 Eh
   gradient norm :     0.0046495 Eh/α   predicted    -0.5356634E-04 ( -30.29%)
   displ. norm   :     0.2857396 α      lambda       -0.9426614E-04
   maximum displ.:     0.1241742 α      in ANC's #11, #18, #6, ...

........................................................................
.............................. CYCLE  156 ..............................
........................................................................

 iter      E             dE          RMSdq      gap      omega  full diag
   1   -307.8335786 -0.307834E+03  0.462E-02    0.73       0.0  T
   2   -307.8335760  0.257531E-05  0.275E-02    0.73       1.0  T
   3   -307.8334171  0.158923E-03  0.242E-02    0.73       1.0  T
   4   -307.8335768 -0.159778E-03  0.493E-03    0.73       1.5  T
   5   -307.8335834 -0.657744E-05  0.146E-03    0.73       5.2  T
   6   -307.8335838 -0.386641E-06  0.948E-04    0.73       8.0  T
   7   -307.8335839 -0.122632E-06  0.471E-04    0.73      16.2  T
     SCC iter.                  ...        0 min,  0.383 sec
     gradient                   ...        0 min,  0.060 sec
 * total energy  :  -304.5153745 Eh     change       -0.7146880E-04 Eh
   gradient norm :     0.0042690 Eh/α   predicted    -0.5098485E-04 ( -28.66%)
   displ. norm   :     0.2866192 α      lambda       -0.8934053E-04
   maximum displ.:     0.1266324 α      in ANC's #11, #6, #18, ...

........................................................................
.............................. CYCLE  157 ..............................
........................................................................

 iter      E             dE          RMSdq      gap      omega  full diag
   1   -307.8332145 -0.307833E+03  0.438E-02    0.73       0.0  T
   2   -307.8332146 -0.134381E-06  0.259E-02    0.73       1.0  T
   3   -307.8331363  0.783097E-04  0.169E-02    0.73       1.0  T
   4   -307.8332135 -0.771709E-04  0.421E-03    0.73       1.8  T
   5   -307.8332180 -0.454492E-05  0.145E-03    0.73       5.3  T
   6   -307.8332185 -0.459276E-06  0.826E-04    0.73       9.2  T
   7   -307.8332186 -0.960198E-07  0.420E-04    0.73      18.2  T
     SCC iter.                  ...        0 min,  0.384 sec
     gradient                   ...        0 min,  0.061 sec
 * total energy  :  -304.5154444 Eh     change       -0.6992934E-04 Eh
   gradient norm :     0.0038074 Eh/α   predicted    -0.4837104E-04 ( -30.83%)
   displ. norm   :     0.3110512 α      lambda       -0.1012968E-03
   maximum displ.:     0.1392312 α      in ANC's #11, #6, #4, ...

........................................................................
.............................. CYCLE  158 ..............................
........................................................................

 iter      E             dE          RMSdq      gap      omega  full diag
   1   -307.8337876 -0.307834E+03  0.455E-02    0.73       0.0  T
   2   -307.8337895 -0.188544E-05  0.269E-02    0.73       1.0  T
   3   -307.8337571  0.323221E-04  0.109E-02    0.73       1.0  T
   4   -307.8337884 -0.312495E-04  0.329E-03    0.73       2.3  T
   5   -307.8337914 -0.305969E-05  0.110E-03    0.73       6.9  T
