      -----------------------------------------------------------      
     |                   =====================                   |     
     |                           x T B                           |     
     |                   =====================                   |     
     |                         S. Grimme                         |     
     |          Mulliken Center for Theoretical Chemistry        |     
     |                    University of Bonn                     |     
      -----------------------------------------------------------      

   * xtb version 6.7.1pre (5071a88) compiled by 'Marcel@Raven' on 2024-07-23

   xtb is free software: you can redistribute it and/or modify it under
   the terms of the GNU Lesser General Public License as published by
   the Free Software Foundation, either version 3 of the License, or
   (at your option) any later version.
   
   xtb is distributed in the hope that it will be useful,
   but WITHOUT ANY WARRANTY; without even the implied warranty of
   MERCHANTABILITY or FITNESS FOR A PARTICULAR PURPOSE.  See the
   GNU Lesser General Public License for more details.
   
   Cite this work as:
   * C. Bannwarth, E. Caldeweyher, S. Ehlert, A. Hansen, P. Pracht,
     J. Seibert, S. Spicher, S. Grimme, WIREs Comput. Mol. Sci., 2020, 11,
     e01493. DOI: 10.1002/wcms.1493
   
   for GFN2-xTB:
   * C. Bannwarth, S. Ehlert and S. Grimme., J. Chem. Theory Comput., 2019,
     15, 1652-1671. DOI: 10.1021/acs.jctc.8b01176
   for GFN1-xTB:
   * S. Grimme, C. Bannwarth, P. Shushkov, J. Chem. Theory Comput., 2017,
     13, 1989-2009. DOI: 10.1021/acs.jctc.7b00118
   for GFN0-xTB:
   * P. Pracht, E. Caldeweyher, S. Ehlert, S. Grimme, ChemRxiv, 2019, preprint.
     DOI: 10.26434/chemrxiv.8326202.v1
   for GFN-FF:
   * S. Spicher and S. Grimme, Angew. Chem. Int. Ed., 2020, 59, 15665-15673.
     DOI: 10.1002/anie.202004239
   
   for ALPB and GBSA implicit solvation:
   * S. Ehlert, M. Stahn, S. Spicher, S. Grimme, J. Chem. Theory Comput.,
     2021, 17, 4250-4261. DOI: 10.1021/acs.jctc.1c00471
   
   for ddCOSMO and CPCM-X implicit solvation:
   * M. Stahn, S. Ehlert, S. Grimme, J. Phys. Chem. A,
     2023, XX, XXXX-XXXX. DOI: 10.1021/acs.jpca.3c04382
   
   for DFT-D4:
   * E. Caldeweyher, C. Bannwarth and S. Grimme, J. Chem. Phys., 2017,
     147, 034112. DOI: 10.1063/1.4993215
   * E. Caldeweyher, S. Ehlert, A. Hansen, H. Neugebauer, S. Spicher,
     C. Bannwarth and S. Grimme, J. Chem. Phys., 2019, 150, 154122.
     DOI: 10.1063/1.5090222
   * E. Caldeweyher, J.-M. Mewes, S. Ehlert and S. Grimme, Phys. Chem. Chem. Phys.
     2020, 22, 8499-8512. DOI: 10.1039/D0CP00502A
   
   for sTDA-xTB:
   * S. Grimme and C. Bannwarth, J. Chem. Phys., 2016, 145, 054103.
     DOI: 10.1063/1.4959605
   
   in the mass-spec context:
   * V. Asgeirsson, C. Bauer and S. Grimme, Chem. Sci., 2017, 8, 4879.
     DOI: 10.1039/c7sc00601b
   * J. Koopman and S. Grimme, ACS Omega 2019, 4, 12, 15120-15133.
     DOI: 10.1021/acsomega.9b02011
   
   for metadynamics refer to:
   * S. Grimme, J. Chem. Theory Comput., 2019, 155, 2847-2862
     DOI: 10.1021/acs.jctc.9b00143
   
   for SPH calculations refer to:
   * S. Spicher and S. Grimme, J. Chem. Theory Comput., 2021, 17, 1701-1714
     DOI: 10.1021/acs.jctc.0c01306
   
   for ONIOM refer to:
   * C. Plett, A. Katbashev, S. Ehlert, S. Grimme, M. Bursch,
     Phys. Chem. Chem. Phys., 2023, 25, 17860-17868. DOI: 10.1039/D3CP02178E
   
   for DIPRO refer to:
   * J. Kohn, N. Gildemeister, S. Grimme, D. Fazzi, A. Hansen,
     J. Chem. Phys., 2023, just accepted.
   
   for PTB refer to:
   * S. Grimme, M. Mueller, A. Hansen, J. Chem. Phys., 2023, 158, 124111.
     DOI: 10.1063/5.0137838
   
   with help from (in alphabetical order)
   P. Atkinson, C. Bannwarth, F. Bohle, G. Brandenburg, E. Caldeweyher
   M. Checinski, S. Dohm, S. Ehlert, S. Ehrlich, I. Gerasimov, C. Hölzer
   A. Katbashev, J. Kohn, J. Koopman, C. Lavigne, S. Lehtola, F. März, M. Müller,
   F. Musil, H. Neugebauer, J. Pisarek, C. Plett, P. Pracht, F. Pultar,
   J. Seibert, P. Shushkov, S. Spicher, M. Stahn, M. Steiner, T. Strunk,
   J. Stückrath, T. Rose, and J. Unsleber
   
 * started run on 2026/08/31 at 18:31:40.211     
   ID    Z sym.   atoms
    1    6 C      1-4, 6, 9-16, 18, 21-23, 25-27, 29, 31-36, 38, 40-51
    2    8 O      5, 7, 17, 19, 20, 24, 28, 30, 37, 39
    3    7 N      8
    4    1 H      52-100

           -------------------------------------------------
          |                Calculation Setup                |
           -------------------------------------------------

          program call               : "c:\Users\Andre\Proyectos doctorado\kras-pancreatic-gC3N4-ai\tools\xtb\xtb-6.7.1\bin\xtb.exe" "c:\Users\Andre\Proyectos doctorado\nano-qsar-ai-therapeutics\calculations\tnbc\Cabazitaxel\Cabazitaxel_drug.xyz" --gfn 2 --sp --chrg 0 --uhf 0 --iterations 500 --norestart
          coordinate file            : c:\Users\Andre\Proyectos doctorado\nano-qsar-ai-therapeutics\calculations\tnbc\Cabazitaxel\Cabazitaxel_drug.xyz
          omp threads                :                    16


           -------------------------------------------------
          |                 G F N 2 - x T B                 |
           -------------------------------------------------

        Reference                      10.1021/acs.jctc.8b01176
      * Hamiltonian:
        H0-scaling (s, p, d)           1.850000    2.230000    2.230000
        zeta-weighting                 0.500000
      * Dispersion:
        s8                             2.700000
        a1                             0.520000
        a2                             5.000000
        s9                             5.000000
      * Repulsion:
        kExp                           1.500000    1.000000
        rExp                           1.000000
      * Coulomb:
        alpha                          2.000000
        third order                    shell-resolved
        anisotropic                    true
        a3                             3.000000
        a5                             4.000000
        cn-shift                       1.200000
        cn-exp                         4.000000
        max-rad                        5.000000


          ...................................................
          :                      SETUP                      :
          :.................................................:
          :  # basis functions                 253          :
          :  # atomic orbitals                 253          :
          :  # shells                          151          :
          :  # electrons                       274          :
          :  max. iterations                   500          :
          :  Hamiltonian                  GFN2-xTB          :
          :  restarted?                      false          :
          :  GBSA solvation                  false          :
          :  PC potential                    false          :
          :  electronic temp.          300.0000000     K    :
          :  accuracy                    1.0000000          :
          :  -> integral cutoff          0.2500000E+02      :
          :  -> integral neglect         0.1000000E-07      :
          :  -> SCF convergence          0.1000000E-05 Eh   :
          :  -> wf. convergence          0.1000000E-03 e    :
          :  Broyden damping             0.4000000          :
          :  net charge                          0          :
          :  unpaired electrons                  0          :
          ...................................................

 iter      E             dE          RMSdq      gap      omega  full diag
   1   -155.7257385 -0.155726E+03  0.407E+00    1.11       0.0  T
   2   -155.7160401  0.969837E-02  0.280E+00    0.81       1.0  T
   3   -155.7466625 -0.306224E-01  0.223E+00    2.32       1.0  T
   4   -156.0088443 -0.262182E+00  0.798E-01    0.80       1.0  T
   5   -156.0236589 -0.148147E-01  0.305E-01    0.71       1.0  T
   6   -156.0268599 -0.320100E-02  0.123E-01    0.65       1.0  T
   7   -156.0262765  0.583449E-03  0.138E-01    0.69       1.0  T
   8   -156.0275924 -0.131595E-02  0.301E-02    0.65       1.0  T
   9   -156.0276443 -0.518380E-04  0.155E-02    0.65       1.0  T
  10   -156.0276576 -0.133117E-04  0.570E-03    0.65       1.8  T
  11   -156.0276593 -0.173040E-05  0.145E-03    0.66       6.9  T
  12   -156.0276594 -0.103113E-06  0.457E-04    0.66      21.9  T
  13   -156.0276594 -0.804931E-09  0.317E-04    0.66      31.6  T

   *** convergence criteria satisfied after 13 iterations ***

         #    Occupation            Energy/Eh            Energy/eV
      -------------------------------------------------------------
         1        2.0000           -0.7513019             -20.4440
       ...           ...                  ...                  ...
       131        2.0000           -0.4187977             -11.3961
       132        2.0000           -0.4040715             -10.9953
       133        2.0000           -0.4009490             -10.9104
       134        2.0000           -0.3959879             -10.7754
       135        2.0000           -0.3920915             -10.6694
       136        2.0000           -0.3915170             -10.6537
       137        2.0000           -0.3502736              -9.5314 (HOMO)
       138        0.0000           -0.3261892              -8.8761 (LUMO)
       139                         -0.2845478              -7.7429
       140                         -0.2606259              -7.0920
       141                         -0.2494225              -6.7871
       142                         -0.2406456              -6.5483
       ...                                ...                  ...
       253                          0.6606004              17.9759
      -------------------------------------------------------------
                  HL-Gap            0.0240844 Eh            0.6554 eV
             Fermi-level           -0.3382314 Eh           -9.2037 eV

 SCC (total)                   0 d,  0 h,  0 min,  0.128 sec
 SCC setup                      ...        0 min,  0.000 sec (  0.000%)
 Dispersion                     ...        0 min,  0.003 sec (  2.344%)
 classical contributions        ...        0 min,  0.000 sec (  0.000%)
 integral evaluation            ...        0 min,  0.005 sec (  3.906%)
 iterations                     ...        0 min,  0.103 sec ( 80.469%)
 molecular gradient             ...        0 min,  0.016 sec ( 12.500%)
 printout                       ...        0 min,  0.001 sec (  0.781%)

         :::::::::::::::::::::::::::::::::::::::::::::::::::::
         ::                     SUMMARY                     ::
         :::::::::::::::::::::::::::::::::::::::::::::::::::::
         :: total energy            -154.213068477120 Eh    ::
         :: gradient norm              0.144461574815 Eh/a0 ::
         :: HOMO-LUMO gap              0.655370102701 eV    ::
         ::.................................................::
         :: SCC energy              -156.022809073876 Eh    ::
         :: -> isotropic ES            0.247351061182 Eh    ::
         :: -> anisotropic ES          0.008333545964 Eh    ::
         :: -> anisotropic XC          0.042164453977 Eh    ::
         :: -> dispersion             -0.127581919642 Eh    ::
         :: repulsion energy           1.809740596756 Eh    ::
         :: add. restraining           0.000000000000 Eh    ::
         :: total charge              -0.000000000000 e     ::
         :::::::::::::::::::::::::::::::::::::::::::::::::::::

           -------------------------------------------------
          |                Property Printout                |
           -------------------------------------------------

    * Orbital Energies and Occupations

         #    Occupation            Energy/Eh            Energy/eV
      -------------------------------------------------------------
         1        2.0000           -0.7513019             -20.4440
       ...           ...                  ...                  ...
       125        2.0000           -0.4267552             -11.6126
       126        2.0000           -0.4261118             -11.5951
       127        2.0000           -0.4235699             -11.5259
       128        2.0000           -0.4220468             -11.4845
       129        2.0000           -0.4212069             -11.4616
       130        2.0000           -0.4191837             -11.4066
       131        2.0000           -0.4187977             -11.3961
       132        2.0000           -0.4040715             -10.9953
       133        2.0000           -0.4009490             -10.9104
       134        2.0000           -0.3959879             -10.7754
       135        2.0000           -0.3920915             -10.6694
       136        2.0000           -0.3915170             -10.6537
       137        2.0000           -0.3502736              -9.5314 (HOMO)
       138        0.0000           -0.3261892              -8.8761 (LUMO)
       139                         -0.2845478              -7.7429
       140                         -0.2606259              -7.0920
       141                         -0.2494225              -6.7871
       142                         -0.2406456              -6.5483
       143                         -0.2264005              -6.1607
       144                         -0.2240667              -6.0972
       145                         -0.2078338              -5.6554
       146                         -0.1887208              -5.1354
       147                         -0.1129683              -3.0740
       148                         -0.1012881              -2.7562
       ...                                ...                  ...
       253                          0.6606004              17.9759
      -------------------------------------------------------------
                  HL-Gap            0.0240844 Eh            0.6554 eV
             Fermi-level           -0.3382314 Eh           -9.2037 eV

     #   Z          covCN         q      C6AA      α(0)
     1   6 C        3.755    -0.116    22.780     6.805
     2   6 C        3.778     0.162    18.013     6.047
     3   6 C        3.753    -0.116    22.787     6.807
     4   6 C        3.753    -0.116    22.774     6.805
     5   8 O        1.707    -0.316    19.269     5.927
     6   6 C        2.634     0.405    20.169     7.346
     7   8 O        0.857    -0.468    23.079     6.441
     8   7 N        2.688    -0.204    25.436     7.490
     9   6 C        3.789     0.035    20.002     6.370
    10   6 C        2.959    -0.002    28.079     8.692
    11   6 C        2.916    -0.036    28.894     8.815
    12   6 C        2.910    -0.029    28.713     8.787
    13   6 C        2.912    -0.030    28.759     8.794
    14   6 C        2.910    -0.029    28.733     8.790
    15   6 C        2.914    -0.033    28.816     8.802
    16   6 C        3.720     0.080    19.361     6.284
    17   8 O        1.649    -0.439    21.620     6.277
    18   6 C        2.706     0.340    21.215     7.539
    19   8 O        0.856    -0.410    21.890     6.273
    20   8 O        1.702    -0.247    18.097     5.744
    21   6 C        3.765     0.120    18.662     6.157
    22   6 C        3.846    -0.061    21.630     6.616
    23   6 C        3.775     0.137    18.395     6.111
    24   8 O        1.651    -0.454    21.926     6.321
    25   6 C        3.024     0.041    27.052     8.531
    26   6 C        2.966    -0.083    30.075     8.995
    27   6 C        2.899     0.208    23.608     7.967
    28   8 O        0.856    -0.399    21.653     6.239
    29   6 C        3.759     0.092    19.108     6.232
    30   8 O        1.698    -0.312    19.213     5.918
    31   6 C        3.645     0.038    20.263     6.470
    32   6 C        3.961     0.001    20.494     6.432
    33   6 C        3.749    -0.108    22.631     6.785
    34   6 C        3.842    -0.044    21.333     6.570
    35   6 C        3.811    -0.071    21.855     6.654
    36   6 C        3.763     0.109    18.841     6.187
    37   8 O        1.703    -0.277    18.597     5.822
    38   6 C        2.719     0.348    21.082     7.516
    39   8 O        0.856    -0.408    21.848     6.267
    40   6 C        2.965    -0.018    28.450     8.749
    41   6 C        2.913    -0.023    28.589     8.768
    42   6 C        2.910    -0.027    28.676     8.781
    43   6 C        2.912    -0.020    28.516     8.756
    44   6 C        2.911    -0.025    28.627     8.773
    45   6 C        2.916    -0.018    28.463     8.749
    46   6 C        3.929     0.032    19.975     6.352
    47   6 C        3.754    -0.107    22.601     6.779
    48   6 C        3.869     0.005    20.453     6.431
    49   6 C        3.757    -0.109    22.639     6.784
    50   6 C        3.757    -0.106    22.570     6.774
    51   6 C        3.823    -0.076    21.934     6.665
    52   1 H        0.924     0.047     2.358     2.402
    53   1 H        0.924     0.049     2.336     2.390
    54   1 H        0.924     0.047     2.358     2.401
    55   1 H        0.924     0.043     2.413     2.429
    56   1 H        0.924     0.064     2.154     2.295
    57   1 H        0.924     0.042     2.418     2.432
    58   1 H        0.924     0.040     2.450     2.448
    59   1 H        0.924     0.042     2.419     2.432
    60   1 H        0.924     0.065     2.146     2.291
    61   1 H        0.860     0.187     1.175     1.698
    62   1 H        0.923     0.100     1.781     2.087
    63   1 H        0.925     0.039     2.459     2.452
    64   1 H        0.925     0.036     2.501     2.473
    65   1 H        0.925     0.033     2.547     2.496
    66   1 H        0.925     0.035     2.520     2.482
    67   1 H        0.925     0.047     2.358     2.401
    68   1 H        0.924     0.082     1.957     2.188
    69   1 H        0.803     0.323     0.655     1.271
    70   1 H        0.924     0.048     2.345     2.395
    71   1 H        0.924     0.071     2.077     2.254
    72   1 H        0.924     0.051     2.312     2.378
    73   1 H        0.803     0.315     0.677     1.292
    74   1 H        0.924     0.042     2.422     2.433
    75   1 H        0.924     0.033     2.539     2.492
    76   1 H        0.924     0.057     2.240     2.340
    77   1 H        0.924     0.048     2.340     2.392
    78   1 H        0.924     0.048     2.346     2.395
    79   1 H        0.924     0.038     2.478     2.462
    80   1 H        0.924     0.070     2.088     2.260
    81   1 H        0.923     0.051     2.309     2.376
    82   1 H        0.923     0.042     2.425     2.435
    83   1 H        0.925     0.053     2.286     2.364
    84   1 H        0.923     0.061     2.192     2.315
    85   1 H        0.925     0.043     2.404     2.425
    86   1 H        0.925     0.045     2.385     2.415
    87   1 H        0.925     0.045     2.384     2.415
    88   1 H        0.925     0.046     2.367     2.406
    89   1 H        0.925     0.061     2.183     2.310
    90   1 H        0.924     0.057     2.230     2.335
    91   1 H        0.924     0.051     2.314     2.379
    92   1 H        0.924     0.050     2.323     2.384
    93   1 H        0.924     0.055     2.257     2.349
    94   1 H        0.924     0.043     2.413     2.429
    95   1 H        0.924     0.033     2.540     2.492
    96   1 H        0.925     0.042     2.428     2.437
    97   1 H        0.924     0.034     2.524     2.485
    98   1 H        0.924     0.056     2.244     2.343
    99   1 H        0.924     0.079     1.994     2.208
   100   1 H        0.924     0.096     1.821     2.110

 Mol. C6AA /au·bohr⁶  :      99982.077065
 Mol. C8AA /au·bohr⁸  :    2308553.189510
 Mol. α(0) /au        :        478.559503


Wiberg/Mayer (AO) data.
largest (>0.10) Wiberg bond orders for each atom

 ---------------------------------------------------------------------------
     #   Z sym  total        # sym  WBO       # sym  WBO       # sym  WBO
 ---------------------------------------------------------------------------
     1   6 C    3.993 --     2 C    0.993    53 H    0.985    52 H    0.985
                            54 H    0.984
     2   6 C    3.921 --     3 C    0.995     4 C    0.995     1 C    0.993
                             5 O    0.908
     3   6 C    3.992 --     2 C    0.995    57 H    0.985    55 H    0.984
                            56 H    0.981
     4   6 C    3.992 --     2 C    0.995    59 H    0.984    58 H    0.983
                            60 H    0.981
     5   8 O    2.232 --     6 C    1.065     2 C    0.908     7 O    0.133
     6   6 C    3.940 --     7 O    1.634     8 N    1.196     5 O    1.065
     7   8 O    1.971 --     6 C    1.634     8 N    0.162     5 O    0.133
     8   7 N    3.390 --     6 C    1.196     9 C    0.986    61 H    0.929
                             7 O    0.162
     9   6 C    3.959 --     8 N    0.986    10 C    0.980    62 H    0.946
                            16 C    0.942
    10   6 C    3.985 --    15 C    1.418    11 C    1.409     9 C    0.980
                            13 C    0.110
    11   6 C    3.989 --    12 C    1.446    10 C    1.409    63 H    0.969
                            14 C    0.112
    12   6 C    3.991 --    11 C    1.446    13 C    1.437    64 H    0.971
                            15 C    0.111
    13   6 C    3.990 --    14 C    1.441    12 C    1.437    65 H    0.971
                            10 C    0.110
    14   6 C    3.991 --    13 C    1.441    15 C    1.440    66 H    0.971
                            11 C    0.112
    15   6 C    3.990 --    14 C    1.440    10 C    1.418    67 H    0.966
                            12 C    0.111
    16   6 C    3.966 --    17 O    1.006    18 C    0.947     9 C    0.942
                            68 H    0.938
    17   8 O    1.956 --    16 C    1.006    69 H    0.861
    18   6 C    3.913 --    19 O    1.745    20 O    1.135    16 C    0.947
    19   8 O    2.035 --    18 C    1.745    20 O    0.171
    20   8 O    2.317 --    18 C    1.135    21 C    0.931    19 O    0.171
    21   6 C    3.931 --    51 C    0.992    22 C    0.987    70 H    0.963
                            20 O    0.931
    22   6 C    3.992 --    21 C    0.987    72 H    0.964    71 H    0.963
                            23 C    0.962
    23   6 C    3.946 --    25 C    0.990    22 C    0.962    24 O    0.958
                            48 C    0.937
    24   8 O    1.968 --    23 C    0.958    73 H    0.877
    25   6 C    3.963 --    26 C    1.635    51 C    1.033    23 C    0.990
    26   6 C    3.893 --    25 C    1.635    27 C    1.076    46 C    0.922
    27   6 C    3.920 --    28 O    1.753    26 C    1.076    29 C    0.948
    28   8 O    2.052 --    27 C    1.753
    29   6 C    3.957 --    32 C    0.971    30 O    0.967    27 C    0.948
                            74 H    0.943
    30   8 O    2.069 --    31 C    0.986    29 C    0.967
    31   6 C    3.946 --    30 O    0.986    76 H    0.979    77 H    0.979
                            75 H    0.978
    32   6 C    3.982 --    33 C    0.989    29 C    0.971    34 C    0.959
                            46 C    0.937
    33   6 C    3.988 --    32 C    0.989    79 H    0.983    78 H    0.982
                            80 H    0.978
    34   6 C    3.984 --    35 C    0.995    81 H    0.968    48 C    0.967
                            32 C    0.959
    35   6 C    3.992 --    34 C    0.995    36 C    0.985    82 H    0.977
                            83 H    0.962
    36   6 C    3.926 --    35 C    0.985    46 C    0.958    84 H    0.955
                            37 O    0.938
    37   8 O    2.297 --    38 C    1.104    36 C    0.938    39 O    0.168
    38   6 C    3.916 --    39 O    1.731    37 O    1.104    40 C    1.003
    39   8 O    2.039 --    38 C    1.731    37 O    0.168
    40   6 C    3.986 --    45 C    1.388    41 C    1.386    38 C    1.003
                            43 C    0.101
    41   6 C    3.990 --    42 C    1.451    40 C    1.386    85 H    0.967
                            44 C    0.109
    42   6 C    3.991 --    41 C    1.451    43 C    1.433    86 H    0.970
                            45 C    0.108
    43   6 C    3.989 --    44 C    1.436    42 C    1.433    87 H    0.970
                            40 C    0.101
    44   6 C    3.990 --    45 C    1.448    43 C    1.436    88 H    0.970
                            41 C    0.109
    45   6 C    3.986 --    44 C    1.448    40 C    1.388    89 H    0.966
                            42 C    0.108
    46   6 C    3.976 --    47 C    1.000    36 C    0.958    32 C    0.937
                            26 C    0.922
    47   6 C    3.990 --    46 C    1.000    90 H    0.981    92 H    0.981
                            91 H    0.979
    48   6 C    3.980 --    50 C    0.998    49 C    0.993    34 C    0.967
                            23 C    0.937
    49   6 C    3.991 --    48 C    0.993    94 H    0.983    93 H    0.980
                            95 H    0.980
    50   6 C    3.992 --    48 C    0.998    97 H    0.983    98 H    0.980
                            96 H    0.978
    51   6 C    3.992 --    25 C    1.033    21 C    0.992    99 H    0.941
                           100 H    0.935
    52   1 H    0.997 --     1 C    0.985
    53   1 H    0.998 --     1 C    0.985
    54   1 H    0.998 --     1 C    0.984
    55   1 H    0.998 --     3 C    0.984
    56   1 H    0.996 --     3 C    0.981
    57   1 H    0.998 --     3 C    0.985
    58   1 H    0.998 --     4 C    0.983
    59   1 H    0.998 --     4 C    0.984
    60   1 H    0.996 --     4 C    0.981
    61   1 H    0.965 --     8 N    0.929
    62   1 H    0.989 --     9 C    0.946
    63   1 H    0.998 --    11 C    0.969
    64   1 H    0.998 --    12 C    0.971
    65   1 H    0.998 --    13 C    0.971
    66   1 H    0.998 --    14 C    0.971
    67   1 H    0.998 --    15 C    0.966
    68   1 H    0.993 --    16 C    0.938
    69   1 H    0.895 --    17 O    0.861
    70   1 H    0.997 --    21 C    0.963
    71   1 H    0.994 --    22 C    0.963
    72   1 H    0.997 --    22 C    0.964
    73   1 H    0.901 --    24 O    0.877
    74   1 H    0.997 --    29 C    0.943
    75   1 H    0.999 --    31 C    0.978
    76   1 H    0.996 --    31 C    0.979
    77   1 H    0.998 --    31 C    0.979
    78   1 H    0.996 --    33 C    0.982
    79   1 H    0.998 --    33 C    0.983
    80   1 H    0.995 --    33 C    0.978
    81   1 H    0.997 --    34 C    0.968
    82   1 H    0.998 --    35 C    0.977
    83   1 H    0.997 --    35 C    0.962
    84   1 H    0.996 --    36 C    0.955
    85   1 H    0.998 --    41 C    0.967
    86   1 H    0.997 --    42 C    0.970
    87   1 H    0.998 --    43 C    0.970
    88   1 H    0.997 --    44 C    0.970
    89   1 H    0.996 --    45 C    0.966
    90   1 H    0.997 --    47 C    0.981
    91   1 H    0.997 --    47 C    0.979
    92   1 H    0.997 --    47 C    0.981
    93   1 H    0.997 --    49 C    0.980
    94   1 H    0.998 --    49 C    0.983
    95   1 H    0.999 --    49 C    0.980
    96   1 H    0.998 --    50 C    0.978
    97   1 H    0.998 --    50 C    0.983
    98   1 H    0.996 --    50 C    0.980
    99   1 H    0.992 --    51 C    0.941
   100   1 H    0.990 --    51 C    0.935
 ---------------------------------------------------------------------------

Topologies differ in total number of bonds
Writing topology from bond orders to xtbtopo.mol

molecular dipole:
                 x           y           z       tot (Debye)
 q only:        0.765       1.533      -0.972
   full:        0.965       1.880      -1.088       6.042
molecular quadrupole (traceless):
                xx          xy          yy          xz          yz          zz
 q only:      -22.503     -10.815       6.956       1.151      19.614      15.547
  q+dip:      -29.079     -12.744       6.899       4.060      22.540      22.179
   full:      -29.891     -13.619       9.241       3.235      21.293      20.650


           -------------------------------------------------
          | TOTAL ENERGY             -154.213068477120 Eh   |
          | GRADIENT NORM               0.144461574815 Eh/α |
          | HOMO-LUMO GAP               0.655370102701 eV   |
           -------------------------------------------------

------------------------------------------------------------------------
 * finished run on 2026/08/31 at 18:31:40.383     
------------------------------------------------------------------------
 total:
 * wall-time:     0 d,  0 h,  0 min,  0.170 sec
 *  cpu-time:     0 d,  0 h,  0 min,  2.266 sec
 * ratio c/w:    13.327 speedup
 SCF:
 * wall-time:     0 d,  0 h,  0 min,  0.129 sec
 *  cpu-time:     0 d,  0 h,  0 min,  1.891 sec
 * ratio c/w:    14.656 speedup

normal termination of xtb
