      -----------------------------------------------------------      
     |                   =====================                   |     
     |                           x T B                           |     
     |                   =====================                   |     
     |                         S. Grimme                         |     
     |          Mulliken Center for Theoretical Chemistry        |     
     |                    University of Bonn                     |     
      -----------------------------------------------------------      

   * xtb version 6.7.1pre (5071a88) compiled by 'Marcel@Raven' on 2024-07-23

   xtb is free software: you can redistribute it and/or modify it under
   the terms of the GNU Lesser General Public License as published by
   the Free Software Foundation, either version 3 of the License, or
   (at your option) any later version.
   
   xtb is distributed in the hope that it will be useful,
   but WITHOUT ANY WARRANTY; without even the implied warranty of
   MERCHANTABILITY or FITNESS FOR A PARTICULAR PURPOSE.  See the
   GNU Lesser General Public License for more details.
   
   Cite this work as:
   * C. Bannwarth, E. Caldeweyher, S. Ehlert, A. Hansen, P. Pracht,
     J. Seibert, S. Spicher, S. Grimme, WIREs Comput. Mol. Sci., 2020, 11,
     e01493. DOI: 10.1002/wcms.1493
   
   for GFN2-xTB:
   * C. Bannwarth, S. Ehlert and S. Grimme., J. Chem. Theory Comput., 2019,
     15, 1652-1671. DOI: 10.1021/acs.jctc.8b01176
   for GFN1-xTB:
   * S. Grimme, C. Bannwarth, P. Shushkov, J. Chem. Theory Comput., 2017,
     13, 1989-2009. DOI: 10.1021/acs.jctc.7b00118
   for GFN0-xTB:
   * P. Pracht, E. Caldeweyher, S. Ehlert, S. Grimme, ChemRxiv, 2019, preprint.
     DOI: 10.26434/chemrxiv.8326202.v1
   for GFN-FF:
   * S. Spicher and S. Grimme, Angew. Chem. Int. Ed., 2020, 59, 15665-15673.
     DOI: 10.1002/anie.202004239
   
   for ALPB and GBSA implicit solvation:
   * S. Ehlert, M. Stahn, S. Spicher, S. Grimme, J. Chem. Theory Comput.,
     2021, 17, 4250-4261. DOI: 10.1021/acs.jctc.1c00471
   
   for ddCOSMO and CPCM-X implicit solvation:
   * M. Stahn, S. Ehlert, S. Grimme, J. Phys. Chem. A,
     2023, XX, XXXX-XXXX. DOI: 10.1021/acs.jpca.3c04382
   
   for DFT-D4:
   * E. Caldeweyher, C. Bannwarth and S. Grimme, J. Chem. Phys., 2017,
     147, 034112. DOI: 10.1063/1.4993215
   * E. Caldeweyher, S. Ehlert, A. Hansen, H. Neugebauer, S. Spicher,
     C. Bannwarth and S. Grimme, J. Chem. Phys., 2019, 150, 154122.
     DOI: 10.1063/1.5090222
   * E. Caldeweyher, J.-M. Mewes, S. Ehlert and S. Grimme, Phys. Chem. Chem. Phys.
     2020, 22, 8499-8512. DOI: 10.1039/D0CP00502A
   
   for sTDA-xTB:
   * S. Grimme and C. Bannwarth, J. Chem. Phys., 2016, 145, 054103.
     DOI: 10.1063/1.4959605
   
   in the mass-spec context:
   * V. Asgeirsson, C. Bauer and S. Grimme, Chem. Sci., 2017, 8, 4879.
     DOI: 10.1039/c7sc00601b
   * J. Koopman and S. Grimme, ACS Omega 2019, 4, 12, 15120-15133.
     DOI: 10.1021/acsomega.9b02011
   
   for metadynamics refer to:
   * S. Grimme, J. Chem. Theory Comput., 2019, 155, 2847-2862
     DOI: 10.1021/acs.jctc.9b00143
   
   for SPH calculations refer to:
   * S. Spicher and S. Grimme, J. Chem. Theory Comput., 2021, 17, 1701-1714
     DOI: 10.1021/acs.jctc.0c01306
   
   for ONIOM refer to:
   * C. Plett, A. Katbashev, S. Ehlert, S. Grimme, M. Bursch,
     Phys. Chem. Chem. Phys., 2023, 25, 17860-17868. DOI: 10.1039/D3CP02178E
   
   for DIPRO refer to:
   * J. Kohn, N. Gildemeister, S. Grimme, D. Fazzi, A. Hansen,
     J. Chem. Phys., 2023, just accepted.
   
   for PTB refer to:
   * S. Grimme, M. Mueller, A. Hansen, J. Chem. Phys., 2023, 158, 124111.
     DOI: 10.1063/5.0137838
   
   with help from (in alphabetical order)
   P. Atkinson, C. Bannwarth, F. Bohle, G. Brandenburg, E. Caldeweyher
   M. Checinski, S. Dohm, S. Ehlert, S. Ehrlich, I. Gerasimov, C. Hölzer
   A. Katbashev, J. Kohn, J. Koopman, C. Lavigne, S. Lehtola, F. März, M. Müller,
   F. Musil, H. Neugebauer, J. Pisarek, C. Plett, P. Pracht, F. Pultar,
   J. Seibert, P. Shushkov, S. Spicher, M. Stahn, M. Steiner, T. Strunk,
   J. Stückrath, T. Rose, and J. Unsleber
   
 * started run on 2026/08/31 at 18:33:06.946     
   ID    Z sym.   atoms
    1    6 C      1-4, 6, 9-16, 18, 21-23, 25-27, 29, 31-36, 38, 40-51
    2    8 O      5, 7, 17, 19, 20, 24, 28, 30, 37, 39
    3    7 N      8, 137-172
    4    1 H      52-100
    5    5 B      101-136

           -------------------------------------------------
          |                Calculation Setup                |
           -------------------------------------------------

          program call               : "c:\Users\Andre\Proyectos doctorado\kras-pancreatic-gC3N4-ai\tools\xtb\xtb-6.7.1\bin\xtb.exe" "c:\Users\Andre\Proyectos doctorado\nano-qsar-ai-therapeutics\calculations\tnbc\Cabazitaxel\Cabazitaxel_B36N36_complex.xyz" --gfn 2 --sp --chrg 0 --uhf 0 --iterations 500 --norestart
          coordinate file            : c:\Users\Andre\Proyectos doctorado\nano-qsar-ai-therapeutics\calculations\tnbc\Cabazitaxel\Cabazitaxel_B36N36_complex.xyz
          omp threads                :                    16


molecular fragmentation (1/2 indicates fragments):
111111111111111111111111111111111111111111111111111111111111111111111111
111111111111111111111111111111111111111111211211111111111111111111111111
1111112212111111111111111111
# atoms in fragment 1/2:   167     5
 fragment masses (1/2) :     1533.62       63.64
CMA distance (Bohr)    :   7.475
constraining FC (au)   :  0.0500

           -------------------------------------------------
          |                 G F N 2 - x T B                 |
           -------------------------------------------------

        Reference                      10.1021/acs.jctc.8b01176
      * Hamiltonian:
        H0-scaling (s, p, d)           1.850000    2.230000    2.230000
        zeta-weighting                 0.500000
      * Dispersion:
        s8                             2.700000
        a1                             0.520000
        a2                             5.000000
        s9                             5.000000
      * Repulsion:
        kExp                           1.500000    1.000000
        rExp                           1.000000
      * Coulomb:
        alpha                          2.000000
        third order                    shell-resolved
        anisotropic                    true
        a3                             3.000000
        a5                             4.000000
        cn-shift                       1.200000
        cn-exp                         4.000000
        max-rad                        5.000000


          ...................................................
          :                      SETUP                      :
          :.................................................:
          :  # basis functions                 541          :
          :  # atomic orbitals                 541          :
          :  # shells                          295          :
          :  # electrons                       562          :
          :  max. iterations                   500          :
          :  Hamiltonian                  GFN2-xTB          :
          :  restarted?                      false          :
          :  GBSA solvation                  false          :
          :  PC potential                    false          :
          :  electronic temp.          300.0000000     K    :
          :  accuracy                    1.0000000          :
          :  -> integral cutoff          0.2500000E+02      :
          :  -> integral neglect         0.1000000E-07      :
          :  -> SCF convergence          0.1000000E-05 Eh   :
          :  -> wf. convergence          0.1000000E-03 e    :
          :  Broyden damping             0.4000000          :
          :  net charge                          0          :
          :  unpaired electrons                  0          :
          ...................................................

 iter      E             dE          RMSdq      gap      omega  full diag
   1   -273.3782650 -0.273378E+03  0.127E+01    0.19       0.0  T
   2   -130.1119477  0.143266E+03  0.136E+01    0.08       1.0  T
   3    -58.6376210  0.714743E+02  0.117E+01    0.02       1.0  T
   4    361.8396941  0.420477E+03  0.154E+01    0.09       1.0  T
   5     10.4470025 -0.351393E+03  0.119E+01    0.19       1.0  T
   6   -227.8504209 -0.238297E+03  0.798E+00    0.28       1.0  T
   7   -281.4089644 -0.535585E+02  0.511E+00    0.27       1.0  T
   8   -289.9043226 -0.849536E+01  0.413E+00    0.01       1.0  T
   9   -290.0458323 -0.141510E+00  0.362E+00    0.24       1.0  T
  10   -292.1045262 -0.205869E+01  0.278E+00    0.14       1.0  T
  11   -292.4768174 -0.372291E+00  0.224E+00    0.44       1.0  T
  12   -292.8063323 -0.329515E+00  0.179E+00    0.10       1.0  T
  13   -293.7210339 -0.914702E+00  0.133E+00    0.08       1.0  T
  14   -293.6582859  0.627480E-01  0.124E+00    0.12       1.0  T
  15   -294.2995607 -0.641275E+00  0.888E-01    0.10       1.0  T
  16   -294.2983064  0.125432E-02  0.805E-01    0.07       1.0  T
  17   -294.2483088  0.499976E-01  0.690E-01    0.08       1.0  T
  18   -294.1251423  0.123167E+00  0.824E-01    0.10       1.0  T
  19   -294.2177272 -0.925850E-01  0.566E-01    0.14       1.0  T
  20   -294.4055848 -0.187858E+00  0.403E-01    0.07       1.0  T
  21   -294.4139678 -0.838304E-02  0.412E-01    0.04       1.0  T
  22   -294.4100715  0.389631E-02  0.365E-01    0.08       1.0  T
  23   -294.4299371 -0.198657E-01  0.284E-01    0.05       1.0  T
  24   -294.4440909 -0.141537E-01  0.218E-01    0.06       1.0  T
  25   -294.4573001 -0.132092E-01  0.125E-01    0.03       1.0  T
  26   -294.4524430  0.485710E-02  0.139E-01    0.05       1.0  T
  27   -294.4607125 -0.826954E-02  0.918E-02    0.02       1.0  T
  28   -294.4611116 -0.399104E-03  0.852E-02    0.02       1.0  T
  29   -294.4611576 -0.459709E-04  0.705E-02    0.02       1.0  T
  30   -294.4618927 -0.735141E-03  0.573E-02    0.02       1.0  T
  31   -294.4621959 -0.303206E-03  0.456E-02    0.02       1.0  T
  32   -294.4622899 -0.940161E-04  0.367E-02    0.02       1.0  T
  33   -294.4627054 -0.415432E-03  0.134E-02    0.02       1.0  T
  34   -294.4627182 -0.128064E-04  0.114E-02    0.02       1.0  T
  35   -294.4627357 -0.175535E-04  0.816E-03    0.02       1.0  T
  36   -294.4627443 -0.857116E-05  0.629E-03    0.02       1.2  T
  37   -294.4627572 -0.129065E-04  0.373E-03    0.02       2.0  T
  38   -294.4627594 -0.220520E-05  0.292E-03    0.02       2.6  T
  39   -294.4627629 -0.350536E-05  0.112E-03    0.02       6.8  T
  40   -294.4627631 -0.145950E-06  0.855E-04    0.02       8.9  T
  41   -294.4627634 -0.316133E-06  0.259E-04    0.02      29.4  T

   *** convergence criteria satisfied after 41 iterations ***

         #    Occupation            Energy/Eh            Energy/eV
      -------------------------------------------------------------
         1        2.0000           -1.0775277             -29.3210
       ...           ...                  ...                  ...
       275        2.0000           -0.1948626              -5.3025
       276        2.0000           -0.1929871              -5.2514
       277        2.0000           -0.1834886              -4.9930
       278        1.9999           -0.1806455              -4.9156
       279        1.9415           -0.1739156              -4.7325
       280        1.8485           -0.1729660              -4.7066
       281        1.3217           -0.1712229              -4.6592 (HOMO)
       282        0.8867           -0.1703730              -4.6361 (LUMO)
       283        0.0016           -0.1638055              -4.4574
       284        0.0000           -0.1601257              -4.3572
       285        0.0000           -0.1580631              -4.3011
       286                         -0.1493037              -4.0628
       ...                                ...                  ...
       541                         32.9888443             897.6721
      -------------------------------------------------------------
                  HL-Gap            0.0008499 Eh            0.0231 eV
             Fermi-level           -0.1705891 Eh           -4.6420 eV

 SCC (total)                   0 d,  0 h,  0 min,  1.998 sec
 SCC setup                      ...        0 min,  0.001 sec (  0.050%)
 Dispersion                     ...        0 min,  0.007 sec (  0.350%)
 classical contributions        ...        0 min,  0.000 sec (  0.000%)
 integral evaluation            ...        0 min,  0.024 sec (  1.201%)
 iterations                     ...        0 min,  1.891 sec ( 94.645%)
 molecular gradient             ...        0 min,  0.071 sec (  3.554%)
 printout                       ...        0 min,  0.004 sec (  0.200%)

         :::::::::::::::::::::::::::::::::::::::::::::::::::::
         ::                     SUMMARY                     ::
         :::::::::::::::::::::::::::::::::::::::::::::::::::::
         :: total energy             -51.463680044317 Eh    ::
         :: gradient norm            176.186831374221 Eh/a0 ::
         :: HOMO-LUMO gap              0.023127303589 eV    ::
         ::.................................................::
         :: SCC energy              -294.400649511240 Eh    ::
         :: -> isotropic ES            1.377261229571 Eh    ::
         :: -> anisotropic ES          0.276240846004 Eh    ::
         :: -> anisotropic XC          0.283923208154 Eh    ::
         :: -> dispersion             -0.482460548525 Eh    ::
         :: repulsion energy         242.936969466923 Eh    ::
         :: add. restraining           0.000000000000 Eh    ::
         :: total charge               0.000000000001 e     ::
         :::::::::::::::::::::::::::::::::::::::::::::::::::::

           -------------------------------------------------
          |                Property Printout                |
           -------------------------------------------------

    * Orbital Energies and Occupations

         #    Occupation            Energy/Eh            Energy/eV
      -------------------------------------------------------------
         1        2.0000           -1.0775277             -29.3210
       ...           ...                  ...                  ...
       269        2.0000           -0.2366746              -6.4402
       270        2.0000           -0.2261861              -6.1548
       271        2.0000           -0.2215553              -6.0288
       272        2.0000           -0.2198972              -5.9837
       273        2.0000           -0.2159051              -5.8751
       274        2.0000           -0.2045602              -5.5664
       275        2.0000           -0.1948626              -5.3025
       276        2.0000           -0.1929871              -5.2514
       277        2.0000           -0.1834886              -4.9930
       278        1.9999           -0.1806455              -4.9156
       279        1.9415           -0.1739156              -4.7325
       280        1.8485           -0.1729660              -4.7066
       281        1.3217           -0.1712229              -4.6592 (HOMO)
       282        0.8867           -0.1703730              -4.6361 (LUMO)
       283        0.0016           -0.1638055              -4.4574
       284        0.0000           -0.1601257              -4.3572
       285        0.0000           -0.1580631              -4.3011
       286                         -0.1493037              -4.0628
       287                         -0.1373842              -3.7384
       288                         -0.1338412              -3.6420
       289                         -0.1291301              -3.5138
       290                         -0.1200253              -3.2661
       291                         -0.1157073              -3.1486
       292                         -0.1119915              -3.0474
       ...                                ...                  ...
       541                         32.9888443             897.6721
      -------------------------------------------------------------
                  HL-Gap            0.0008499 Eh            0.0231 eV
             Fermi-level           -0.1705891 Eh           -4.6420 eV

     #   Z          covCN         q      C6AA      α(0)
     1   6 C        5.777    -0.404    29.200     7.674
     2   6 C        7.341    -0.156    23.424     6.873
     3   6 C        3.756    -0.122    22.883     6.820
     4   6 C        5.596    -0.019    20.832     6.482
     5   8 O        6.692     0.568     8.866     4.022
     6   6 C        5.014    -0.026    20.940     6.499
     7   8 O        1.946    -0.678    27.052     7.024
     8   7 N        8.011    -0.413    30.709     8.230
     9   6 C        7.518     0.261    16.542     5.776
    10   6 C        4.756    -0.228    24.946     7.093
    11   6 C        2.917    -0.150    31.865     9.257
    12   6 C        2.910    -0.055    29.354     8.884
    13   6 C        2.912    -0.105    30.657     9.079
    14   6 C        2.910    -0.048    29.188     8.859
    15   6 C        3.499    -0.235    27.214     7.744
    16   6 C        8.323    -0.304    26.674     7.335
    17   8 O        4.332     0.614     8.531     3.945
    18   6 C        3.698     0.043    20.020     6.400
    19   8 O        2.303    -0.526    23.389     6.532
    20   8 O        2.794    -0.288    18.743     5.847
    21   6 C        4.190     0.015    20.236     6.389
    22   6 C        3.846    -0.150    23.368     6.876
    23   6 C        3.775     0.079    19.289     6.258
    24   8 O        1.652    -0.645    26.251     6.916
    25   6 C        4.363    -0.390    28.823     7.625
    26   6 C        7.582    -0.108    22.457     6.730
    27   6 C        8.435    -0.277    26.046     7.248
    28   8 O        3.486     0.171    12.432     4.762
    29   6 C        8.081     0.111    18.684     6.139
    30   8 O        1.769    -0.489    22.618     6.422
    31   6 C        3.645    -0.010    21.100     6.602
    32   6 C        9.091    -0.189    24.102     6.972
    33   6 C        4.996    -0.204    24.414     7.017
    34   6 C        5.948    -0.303    26.655     7.332
    35   6 C        8.594    -0.261    25.676     7.196
    36   6 C        9.043    -0.103    22.359     6.715
    37   8 O        6.070     0.229    11.824     4.644
    38   6 C        6.394     0.232    16.932     5.844
    39   8 O        0.874    -0.681    28.177     7.117
    40   6 C        4.990    -0.109    22.491     6.735
    41   6 C        6.511    -0.209    24.524     7.033
    42   6 C        4.123    -0.205    24.444     7.022
    43   6 C        2.912    -0.083    30.070     8.992
    44   6 C        2.911    -0.100    30.506     9.057
    45   6 C        2.917    -0.136    31.475     9.200
    46   6 C        9.291     0.083    19.113     6.209
    47   6 C        6.497    -0.193    24.193     6.985
    48   6 C        4.455    -0.082    21.967     6.656
    49   6 C        4.896    -0.482    31.376     7.955
    50   6 C        8.113    -0.326    27.209     7.408
    51   6 C        6.501    -0.355    27.920     7.504
    52   1 H        0.924    -0.010     3.240     2.815
    53   1 H        0.924    -0.019     3.420     2.892
    54   1 H        2.740     0.354     0.564     1.173
    55   1 H        0.924     0.033     2.550     2.497
    56   1 H        0.924     0.053     2.282     2.363
    57   1 H        0.924     0.014     2.821     2.627
    58   1 H        2.015     0.013     2.823     2.623
    59   1 H        0.924    -0.033     3.695     3.006
    60   1 H        1.317     0.062     2.164     2.297
    61   1 H        3.300     0.578     0.254     0.787
    62   1 H        2.693     0.329     0.625     1.234
    63   1 H        0.925    -0.099     5.511     3.671
    64   1 H        0.925    -0.019     3.406     2.886
    65   1 H        0.925    -0.020     3.431     2.897
    66   1 H        0.925     0.000     3.057     2.734
    67   1 H        1.006     0.070     2.074     2.250
    68   1 H        0.930     0.029     2.599     2.521
    69   1 H        1.834     0.209     1.045     1.596
    70   1 H        1.457     0.151     1.377     1.832
    71   1 H        0.924     0.066     2.125     2.280
    72   1 H        0.924     0.013     2.839     2.635
    73   1 H        1.172     0.305     0.690     1.296
    74   1 H        4.046     0.453     0.389     0.973
    75   1 H        0.924     0.034     2.527     2.486
    76   1 H        0.924     0.086     1.921     2.167
    77   1 H        0.924     0.033     2.540     2.492
    78   1 H        0.924     0.032     2.559     2.502
    79   1 H        0.928    -0.007     3.178     2.788
    80   1 H        0.924     0.048     2.341     2.393
    81   1 H        0.943     0.077     2.003     2.213
    82   1 H        3.150     0.304     0.692     1.299
    83   1 H        2.722     0.286     0.746     1.349
    84   1 H        2.573     0.235     0.932     1.507
    85   1 H        3.341     0.437     0.411     1.001
    86   1 H        0.971     0.029     2.593     2.516
    87   1 H        0.925    -0.012     3.271     2.828
    88   1 H        0.925    -0.009     3.210     2.802
    89   1 H        0.925    -0.008     3.207     2.801
    90   1 H        0.933     0.015     2.805     2.619
    91   1 H        0.924    -0.054     4.202     3.206
    92   1 H        0.974     0.069     2.089     2.259
    93   1 H        0.924     0.089     1.893     2.152
    94   1 H        2.740     0.483     0.350     0.923
    95   1 H        0.924     0.095     1.827     2.114
    96   1 H        0.926     0.047     2.363     2.404
    97   1 H        3.672     0.673     0.189     0.679
    98   1 H        2.755     0.329     0.624     1.233
    99   1 H        2.731     0.302     0.696     1.303
   100   1 H        2.734     0.464     0.374     0.954
   101   5 B        8.995     0.186    19.594     7.132
   102   5 B        5.975     0.049    21.858     7.533
   103   5 B        7.327     0.019    22.386     7.623
   104   5 B        6.001     0.080    21.304     7.437
   105   5 B        9.332     0.341    17.390     6.719
   106   5 B        7.967     0.272    18.328     6.898
   107   5 B       10.376     0.226    18.994     7.022
   108   5 B        9.106    -0.089    24.490     7.974
   109   5 B        7.568    -0.451    33.721     9.357
   110   5 B        9.404     0.027    22.247     7.600
   111   5 B        5.200     0.025    22.282     7.606
   112   5 B        7.003     0.005    22.650     7.668
   113   5 B        4.078    -0.009    22.912     7.712
   114   5 B        2.621     0.204    18.711     7.317
   115   5 B        1.850     0.015    43.955    13.964
   116   5 B        3.034     0.218    17.950     7.067
   117   5 B        3.724     0.006    22.515     7.668
   118   5 B        1.850     0.024    43.657    13.917
   119   5 B        1.883     0.028    43.403    13.872
   120   5 B        3.266     0.306    16.766     6.829
   121   5 B        4.591     0.131    20.454     7.287
   122   5 B        3.166     0.098    19.732     7.409
   123   5 B        3.738     0.048    21.783     7.537
   124   5 B        4.584     0.532    15.106     6.262
   125   5 B        8.228     0.280    18.215     6.877
   126   5 B        6.346     0.228    18.962     7.016
   127   5 B        6.445     0.598    14.417     6.118
   128   5 B        4.397     0.267    18.397     6.911
   129   5 B        9.544     0.530    15.127     6.267
   130   5 B        7.936     0.324    17.618     6.763
   131   5 B        6.811    -0.117    25.081     8.069
   132   5 B        6.114     0.211    19.215     7.063
   133   5 B        8.213     0.191    19.508     7.117
   134   5 B        4.490     0.104    20.896     7.365
   135   5 B        5.692     0.158    20.024     7.210
   136   5 B        8.633     0.201    19.357     7.089
   137   7 N        7.410     0.167    18.437     6.377
   138   7 N        4.396    -0.100    23.195     7.153
   139   7 N        6.135    -0.117    23.533     7.205
   140   7 N        4.647    -0.231    26.049     7.580
   141   7 N        7.751    -0.020    21.637     6.909
   142   7 N        4.718    -0.362    29.319     8.042
   143   7 N        8.911     0.571    13.249     5.406
   144   7 N        8.003     0.416    15.012     5.755
   145   7 N        7.348     1.036     9.282     4.525
   146   7 N        7.923     0.087    19.728     6.597
   147   7 N        5.052     0.010    21.070     6.817
   148   7 N        6.462    -0.048    22.157     6.991
   149   7 N        3.544     0.129    19.042     6.481
   150   7 N        1.331    -0.318    26.826     7.380
   151   7 N        0.932    -0.011    21.364     6.674
   152   7 N        0.940    -0.255    26.443     7.421
   153   7 N        1.989    -0.185    25.777     7.530
   154   7 N        0.932    -0.037    21.860     6.751
   155   7 N        0.932    -0.215    25.574     7.302
   156   7 N        1.218    -0.483    31.125     7.928
   157   7 N        1.624    -0.385    30.535     8.140
   158   7 N        2.081    -0.201    26.040     7.570
   159   7 N        1.867    -0.217    26.582     7.642
   160   7 N        2.720    -0.283    27.286     7.758
   161   7 N        5.390    -0.664    38.847     9.257
   162   7 N        4.487    -0.468    32.317     8.443
   163   7 N        5.893    -0.317    28.139     7.879
   164   7 N        3.977    -0.414    30.755     8.237
   165   7 N        8.757    -0.335    28.601     7.943
   166   7 N        6.711    -0.278    27.168     7.741
   167   7 N        6.509     0.133    18.979     6.470
   168   7 N        4.642    -0.422    30.968     8.265
   169   7 N        7.860    -0.200    25.343     7.477
   170   7 N        4.689    -0.374    29.639     8.086
   171   7 N        5.134    -0.567    35.454     8.844
   172   7 N        7.424     0.521    13.794     5.516

 Mol. C6AA /au·bohr⁶  :     430951.181785
 Mol. C8AA /au·bohr⁸  :   11540939.448000
 Mol. α(0) /au        :       1004.176798


Wiberg/Mayer (AO) data.
largest (>0.10) Wiberg bond orders for each atom

 ---------------------------------------------------------------------------
     #   Z sym  total        # sym  WBO       # sym  WBO       # sym  WBO
 ---------------------------------------------------------------------------
     1   6 C    3.689 --    52 H    0.969    53 H    0.969     2 C    0.803
                            54 H    0.596
     2   6 C    3.756 --     3 C    0.964     1 C    0.803     4 C    0.548
                           169 N    0.544   145 N    0.423
     3   6 C    3.985 --    56 H    0.978    57 H    0.974    55 H    0.974
                             2 C    0.964
     4   6 C    3.848 --    59 H    0.845    60 H    0.839    58 H    0.623
                             2 C    0.548   169 N    0.535   133 B    0.254
     5   8 O    3.340 --   145 N    1.842     6 C    0.654   109 B    0.275
                           171 N    0.124
     6   6 C    3.460 --     7 O    1.175     8 N    0.996     5 O    0.654
                           145 N    0.112
     7   8 O    1.714 --     6 C    1.175
     8   7 N    3.195 --     6 C    0.996   136 B    0.628   172 N    0.293
                            10 C    0.244    61 H    0.186   148 N    0.169
     9   6 C    3.921 --   172 N    1.524   146 N    0.853   136 B    0.315
                            16 C    0.298    10 C    0.281   110 B    0.163
                            62 H    0.108
    10   6 C    3.598 --    11 C    1.136    15 C    1.026   172 N    0.505
                             9 C    0.281     8 N    0.244
    11   6 C    3.844 --    12 C    1.448    10 C    1.136    63 H    0.959
    12   6 C    3.909 --    11 C    1.448    13 C    1.338    64 H    0.972
    13   6 C    3.873 --    14 C    1.345    12 C    1.338    65 H    0.973
    14   6 C    3.949 --    15 C    1.489    13 C    1.345    66 H    0.972
    15   6 C    3.851 --    14 C    1.489    10 C    1.026    67 H    0.917
    16   6 C    3.698 --    18 C    0.911    68 H    0.871     9 C    0.298
                           136 B    0.270   110 B    0.253   124 B    0.174
                            17 O    0.164   160 N    0.136   172 N    0.136
    17   8 O    3.247 --   124 B    1.672   160 N    0.799    69 H    0.279
                            16 C    0.164   110 B    0.109
    18   6 C    3.477 --    19 O    1.160    16 C    0.911    20 O    0.854
    19   8 O    1.923 --    18 C    1.160   114 B    0.267
    20   8 O    2.358 --    21 C    0.893    18 C    0.854   120 B    0.324
    21   6 C    3.896 --    22 C    0.973    51 C    0.959    20 O    0.893
                            70 H    0.842
    22   6 C    3.979 --    21 C    0.973    23 C    0.965    71 H    0.955
                            72 H    0.940
    23   6 C    3.908 --    25 C    0.983    22 C    0.965    24 O    0.892
                            48 C    0.871
    24   8 O    1.838 --    23 C    0.892    73 H    0.647
    25   6 C    3.426 --    23 C    0.983    26 C    0.971    51 C    0.913
    26   6 C    3.849 --    25 C    0.971   130 B    0.873    27 C    0.603
                           107 B    0.581   166 N    0.325
    27   6 C    3.463 --    28 O    0.691   101 B    0.635    26 C    0.603
                            29 C    0.364   127 B    0.204   107 B    0.146
    28   8 O    2.666 --   127 B    1.040   163 N    0.789    27 C    0.691
    29   6 C    3.783 --   137 N    1.314    30 O    0.752   101 B    0.406
                            27 C    0.364    32 C    0.344
    30   8 O    1.961 --    31 C    0.923    29 C    0.752
    31   6 C    3.937 --    75 H    0.979    77 H    0.978    76 H    0.972
                            30 O    0.923
    32   6 C    3.680 --    33 C    0.721   107 B    0.561   129 B    0.374
                            29 C    0.344   143 N    0.341    34 C    0.324
                           165 N    0.116    46 C    0.101   137 N    0.100
    33   6 C    3.943 --    80 H    0.975    78 H    0.969    79 H    0.953
                            32 C    0.721
    34   6 C    3.837 --    81 H    0.881    48 C    0.862    35 C    0.484
                           129 B    0.345    32 C    0.324   125 B    0.183
    35   6 C    3.859 --   105 B    0.965    82 H    0.495    34 C    0.484
                            83 H    0.460   141 N    0.336   129 B    0.276
                           121 B    0.259    84 H    0.110
    36   6 C    3.545 --   141 N    0.827   165 N    0.546    37 O    0.412
                            46 C    0.334   105 B    0.278   129 B    0.271
                            84 H    0.207
    37   8 O    2.757 --   167 N    0.869    36 C    0.412   131 B    0.397
                            38 C    0.334   144 N    0.289   108 B    0.136
    38   6 C    3.762 --    39 O    1.274    40 C    0.638   167 N    0.595
                           144 N    0.441    37 O    0.334   131 B    0.130
    39   8 O    1.596 --    38 C    1.274
    40   6 C    3.651 --    45 C    1.156    41 C    0.889    38 C    0.638
                           144 N    0.485
    41   6 C    3.236 --    42 C    0.998    40 C    0.889    85 H    0.350
                           149 N    0.321   113 B    0.161   108 B    0.147
                           144 N    0.141
    42   6 C    3.624 --    43 C    1.402    41 C    0.998    86 H    0.892
    43   6 C    3.896 --    42 C    1.402    44 C    1.355    87 H    0.972
    44   6 C    3.849 --    45 C    1.357    43 C    1.355    88 H    0.971
    45   6 C    3.699 --    44 C    1.357    40 C    1.156    89 H    0.966
    46   6 C    3.498 --   143 N    1.682   107 B    0.388    36 C    0.334
                           165 N    0.280    47 C    0.143   129 B    0.104
                            32 C    0.101
    47   6 C    3.928 --    90 H    0.897    92 H    0.888    91 H    0.879
                           166 N    0.322   143 N    0.220   107 B    0.152
                            46 C    0.143
    48   6 C    3.919 --    49 C    0.954    50 C    0.912    23 C    0.871
                            34 C    0.862
    49   6 C    3.847 --    48 C    0.954    95 H    0.938    93 H    0.899
                            94 H    0.336   117 B    0.292   153 N    0.220
    50   6 C    3.736 --    48 C    0.912    96 H    0.895   103 B    0.576
                            98 H    0.539   126 B    0.142   139 N    0.104
                           125 B    0.104
    51   6 C    3.902 --    21 C    0.959    25 C    0.913    99 H    0.489
                           100 H    0.364   123 B    0.277   168 N    0.201
                           159 N    0.201   106 B    0.198   132 B    0.131
    52   1 H    0.997 --     1 C    0.969
    53   1 H    0.997 --     1 C    0.969
    54   1 H    0.874 --     1 C    0.596   158 N    0.176
    55   1 H    0.995 --     3 C    0.974
    56   1 H    0.997 --     3 C    0.978
    57   1 H    0.998 --     3 C    0.974
    58   1 H    0.996 --     4 C    0.623   133 B    0.233
    59   1 H    0.978 --     4 C    0.845
    60   1 H    0.988 --     4 C    0.839
    61   1 H    0.665 --   112 B    0.204     8 N    0.186   148 N    0.163
    62   1 H    0.889 --   146 N    0.575     9 C    0.108
    63   1 H    0.990 --    11 C    0.959
    64   1 H    0.998 --    12 C    0.972
    65   1 H    0.999 --    13 C    0.973
    66   1 H    0.999 --    14 C    0.972
    67   1 H    0.994 --    15 C    0.917
    68   1 H    0.988 --    16 C    0.871
    69   1 H    0.953 --   160 N    0.310    17 O    0.279   110 B    0.141
    70   1 H    0.976 --    21 C    0.842
    71   1 H    0.995 --    22 C    0.955
    72   1 H    0.998 --    22 C    0.940
    73   1 H    0.889 --    24 O    0.647   104 B    0.108
    74   1 H    0.792 --   137 N    0.531
    75   1 H    0.998 --    31 C    0.979
    76   1 H    0.990 --    31 C    0.972
    77   1 H    0.999 --    31 C    0.978
    78   1 H    0.998 --    33 C    0.969
    79   1 H    0.998 --    33 C    0.953
    80   1 H    0.994 --    33 C    0.975
    81   1 H    0.991 --    34 C    0.881
    82   1 H    0.866 --    35 C    0.495
    83   1 H    0.909 --    35 C    0.460   121 B    0.158
    84   1 H    0.919 --   141 N    0.291    36 C    0.207    35 C    0.110
    85   1 H    0.803 --    41 C    0.350   113 B    0.186   149 N    0.103
    86   1 H    0.996 --    42 C    0.892
    87   1 H    0.999 --    43 C    0.972
    88   1 H    0.999 --    44 C    0.971
    89   1 H    0.998 --    45 C    0.966
    90   1 H    0.994 --    47 C    0.897
    91   1 H    0.990 --    47 C    0.879
    92   1 H    0.986 --    47 C    0.888
    93   1 H    0.989 --    49 C    0.899
    94   1 H    0.767 --    49 C    0.336   117 B    0.267   153 N    0.148
    95   1 H    0.990 --    49 C    0.938
    96   1 H    0.995 --    50 C    0.895
    97   1 H    0.545 --   139 N    0.369   103 B    0.140
    98   1 H    0.887 --    50 C    0.539   126 B    0.196
    99   1 H    0.907 --    51 C    0.489   132 B    0.320
   100   1 H    0.784 --    51 C    0.364   123 B    0.268   159 N    0.124
   101   5 B    3.273 --   137 N    1.395    27 C    0.635    29 C    0.406
                           125 B    0.124   107 B    0.105
   102   5 B    3.678 --   138 N    3.104   111 B    0.196   128 B    0.133
   103   5 B    3.599 --   139 N    2.488    50 C    0.576   117 B    0.145
                            97 H    0.140
   104   5 B    3.637 --   140 N    3.027   119 B    0.176   128 B    0.124
                            73 H    0.108
   105   5 B    3.398 --   141 N    1.676    35 C    0.965    36 C    0.278
                           131 B    0.109
   106   5 B    3.558 --   142 N    3.135    51 C    0.198
   107   5 B    3.422 --   143 N    1.181    26 C    0.581    32 C    0.561
                            46 C    0.388    47 C    0.152    27 C    0.146
                           101 B    0.105
   108   5 B    3.377 --   144 N    2.055   113 B    0.238    41 C    0.147
                            37 O    0.136   131 B    0.108
   109   5 B    3.016 --   145 N    1.267   122 B    0.343   135 B    0.301
                             5 O    0.275   133 B    0.263
   110   5 B    3.156 --   146 N    1.794   134 B    0.256    16 C    0.253
                             9 C    0.163    69 H    0.141    17 O    0.109
   111   5 B    3.700 --   147 N    3.024   133 B    0.201   102 B    0.196
                           134 B    0.111
   112   5 B    3.553 --   148 N    2.429   136 B    0.221    61 H    0.204
                           135 B    0.178   114 B    0.149
   113   5 B    3.603 --   149 N    2.797   108 B    0.238    85 H    0.186
                            41 C    0.161
   114   5 B    3.586 --   150 N    3.111    19 O    0.267   112 B    0.149
   115   5 B    3.714 --   151 N    3.572   118 B    0.135
   116   5 B    3.595 --   152 N    3.379
   117   5 B    3.695 --   153 N    2.945    49 C    0.292    94 H    0.267
                           103 B    0.145
   118   5 B    3.709 --   154 N    3.554   115 B    0.135
   119   5 B    3.682 --   155 N    3.365   104 B    0.176
   120   5 B    3.495 --   156 N    3.092    20 O    0.324
   121   5 B    3.563 --   157 N    2.972    35 C    0.259    83 H    0.158
   122   5 B    3.640 --   158 N    3.065   109 B    0.343
   123   5 B    3.671 --   159 N    3.035    51 C    0.277   100 H    0.268
   124   5 B    3.353 --    17 O    1.672   160 N    1.423    16 C    0.174
   125   5 B    3.509 --   161 N    2.725    34 C    0.183   101 B    0.124
                            50 C    0.104
   126   5 B    3.477 --   162 N    2.810    98 H    0.196    50 C    0.142
   127   5 B    3.287 --   163 N    1.763    28 O    1.040    27 C    0.204
   128   5 B    3.426 --   164 N    2.982   102 B    0.133   104 B    0.124
   129   5 B    3.291 --   165 N    1.676    32 C    0.374    34 C    0.345
                            35 C    0.276    36 C    0.271    46 C    0.104
   130   5 B    3.410 --   166 N    2.274    26 C    0.873
   131   5 B    2.694 --   167 N    1.675    37 O    0.397    38 C    0.130
                           105 B    0.109   108 B    0.108
   132   5 B    3.559 --   168 N    2.902    99 H    0.320    51 C    0.131
   133   5 B    3.128 --   169 N    1.713   109 B    0.263     4 C    0.254
                            58 H    0.233   111 B    0.201
   134   5 B    3.548 --   170 N    2.852   110 B    0.256   111 B    0.111
   135   5 B    3.478 --   171 N    2.587   109 B    0.301   112 B    0.178
   136   5 B    3.017 --   172 N    0.950     8 N    0.628     9 C    0.315
                            16 C    0.270   112 B    0.221
   137   7 N    3.641 --   101 B    1.395    29 C    1.314    74 H    0.531
                            32 C    0.100
   138   7 N    3.591 --   102 B    3.104   164 N    0.107
   139   7 N    3.306 --   103 B    2.488    97 H    0.369    50 C    0.104
   140   7 N    3.475 --   104 B    3.027   164 N    0.107
   141   7 N    3.560 --   105 B    1.676    36 C    0.827    35 C    0.336
                            84 H    0.291
   142   7 N    3.459 --   106 B    3.135
   143   7 N    3.797 --    46 C    1.682   107 B    1.181    32 C    0.341
                            47 C    0.220
   144   7 N    3.736 --   108 B    2.055    40 C    0.485    38 C    0.441
                            37 O    0.289    41 C    0.141
   145   7 N    3.846 --     5 O    1.842   109 B    1.267     2 C    0.423
                             6 C    0.112
   146   7 N    3.556 --   110 B    1.794     9 C    0.853    62 H    0.575
   147   7 N    3.683 --   111 B    3.024
   148   7 N    3.531 --   112 B    2.429     8 N    0.169    61 H    0.163
   149   7 N    3.690 --   113 B    2.797    41 C    0.321    85 H    0.103
   150   7 N    3.415 --   114 B    3.111
   151   7 N    3.708 --   115 B    3.572   154 N    0.125
   152   7 N    3.552 --   116 B    3.379
   153   7 N    3.461 --   117 B    2.945    49 C    0.220    94 H    0.148
   154   7 N    3.692 --   118 B    3.554   151 N    0.125
   155   7 N    3.524 --   119 B    3.365
   156   7 N    3.258 --   120 B    3.092
   157   7 N    3.203 --   121 B    2.972
   158   7 N    3.497 --   122 B    3.065    54 H    0.176
   159   7 N    3.450 --   123 B    3.035    51 C    0.201   100 H    0.124
   160   7 N    2.980 --   124 B    1.423    17 O    0.799    69 H    0.310
                            16 C    0.136
   161   7 N    3.121 --   125 B    2.725
   162   7 N    3.193 --   126 B    2.810
   163   7 N    2.905 --   127 B    1.763    28 O    0.789
   164   7 N    3.363 --   128 B    2.982   140 N    0.107   138 N    0.107
   165   7 N    3.198 --   129 B    1.676    36 C    0.546    46 C    0.280
                            32 C    0.116
   166   7 N    3.421 --   130 B    2.274    26 C    0.325    47 C    0.322
   167   7 N    3.428 --   131 B    1.675    37 O    0.869    38 C    0.595
   168   7 N    3.340 --   132 B    2.902    51 C    0.201
   169   7 N    3.310 --   133 B    1.713     2 C    0.544     4 C    0.535
   170   7 N    3.392 --   134 B    2.852
   171   7 N    3.146 --   135 B    2.587     5 O    0.124
   172   7 N    3.723 --     9 C    1.524   136 B    0.950    10 C    0.505
                             8 N    0.293    16 C    0.136
 ---------------------------------------------------------------------------

Topologies differ in total number of bonds
Writing topology from bond orders to xtbtopo.mol

molecular dipole:
                 x           y           z       tot (Debye)
 q only:        2.520       5.729       8.622
   full:        0.897       3.336      11.574      30.700
molecular quadrupole (traceless):
                xx          xy          yy          xz          yz          zz
 q only:     -113.194      12.563     107.359      21.343     -56.784       5.835
  q+dip:        5.974      28.202      36.801      48.410     -65.022     -42.776
   full:       -4.672      22.777      46.703      44.934     -62.752     -42.031


           -------------------------------------------------
          | TOTAL ENERGY              -51.463680044317 Eh   |
          | GRADIENT NORM             176.186831374221 Eh/α |
          | HOMO-LUMO GAP               0.023127303589 eV   |
           -------------------------------------------------

------------------------------------------------------------------------
 * finished run on 2026/08/31 at 18:33:09.030     
------------------------------------------------------------------------
 total:
 * wall-time:     0 d,  0 h,  0 min,  2.083 sec
 *  cpu-time:     0 d,  0 h,  0 min, 26.000 sec
 * ratio c/w:    12.482 speedup
 SCF:
 * wall-time:     0 d,  0 h,  0 min,  2.000 sec
 *  cpu-time:     0 d,  0 h,  0 min, 25.109 sec
 * ratio c/w:    12.555 speedup

normal termination of xtb
