      -----------------------------------------------------------      
     |                   =====================                   |     
     |                           x T B                           |     
     |                   =====================                   |     
     |                         S. Grimme                         |     
     |          Mulliken Center for Theoretical Chemistry        |     
     |                    University of Bonn                     |     
      -----------------------------------------------------------      

   * xtb version 6.7.1pre (5071a88) compiled by 'Marcel@Raven' on 2024-07-23

   xtb is free software: you can redistribute it and/or modify it under
   the terms of the GNU Lesser General Public License as published by
   the Free Software Foundation, either version 3 of the License, or
   (at your option) any later version.
   
   xtb is distributed in the hope that it will be useful,
   but WITHOUT ANY WARRANTY; without even the implied warranty of
   MERCHANTABILITY or FITNESS FOR A PARTICULAR PURPOSE.  See the
   GNU Lesser General Public License for more details.
   
   Cite this work as:
   * C. Bannwarth, E. Caldeweyher, S. Ehlert, A. Hansen, P. Pracht,
     J. Seibert, S. Spicher, S. Grimme, WIREs Comput. Mol. Sci., 2020, 11,
     e01493. DOI: 10.1002/wcms.1493
   
   for GFN2-xTB:
   * C. Bannwarth, S. Ehlert and S. Grimme., J. Chem. Theory Comput., 2019,
     15, 1652-1671. DOI: 10.1021/acs.jctc.8b01176
   for GFN1-xTB:
   * S. Grimme, C. Bannwarth, P. Shushkov, J. Chem. Theory Comput., 2017,
     13, 1989-2009. DOI: 10.1021/acs.jctc.7b00118
   for GFN0-xTB:
   * P. Pracht, E. Caldeweyher, S. Ehlert, S. Grimme, ChemRxiv, 2019, preprint.
     DOI: 10.26434/chemrxiv.8326202.v1
   for GFN-FF:
   * S. Spicher and S. Grimme, Angew. Chem. Int. Ed., 2020, 59, 15665-15673.
     DOI: 10.1002/anie.202004239
   
   for ALPB and GBSA implicit solvation:
   * S. Ehlert, M. Stahn, S. Spicher, S. Grimme, J. Chem. Theory Comput.,
     2021, 17, 4250-4261. DOI: 10.1021/acs.jctc.1c00471
   
   for ddCOSMO and CPCM-X implicit solvation:
   * M. Stahn, S. Ehlert, S. Grimme, J. Phys. Chem. A,
     2023, XX, XXXX-XXXX. DOI: 10.1021/acs.jpca.3c04382
   
   for DFT-D4:
   * E. Caldeweyher, C. Bannwarth and S. Grimme, J. Chem. Phys., 2017,
     147, 034112. DOI: 10.1063/1.4993215
   * E. Caldeweyher, S. Ehlert, A. Hansen, H. Neugebauer, S. Spicher,
     C. Bannwarth and S. Grimme, J. Chem. Phys., 2019, 150, 154122.
     DOI: 10.1063/1.5090222
   * E. Caldeweyher, J.-M. Mewes, S. Ehlert and S. Grimme, Phys. Chem. Chem. Phys.
     2020, 22, 8499-8512. DOI: 10.1039/D0CP00502A
   
   for sTDA-xTB:
   * S. Grimme and C. Bannwarth, J. Chem. Phys., 2016, 145, 054103.
     DOI: 10.1063/1.4959605
   
   in the mass-spec context:
   * V. Asgeirsson, C. Bauer and S. Grimme, Chem. Sci., 2017, 8, 4879.
     DOI: 10.1039/c7sc00601b
   * J. Koopman and S. Grimme, ACS Omega 2019, 4, 12, 15120-15133.
     DOI: 10.1021/acsomega.9b02011
   
   for metadynamics refer to:
   * S. Grimme, J. Chem. Theory Comput., 2019, 155, 2847-2862
     DOI: 10.1021/acs.jctc.9b00143
   
   for SPH calculations refer to:
   * S. Spicher and S. Grimme, J. Chem. Theory Comput., 2021, 17, 1701-1714
     DOI: 10.1021/acs.jctc.0c01306
   
   for ONIOM refer to:
   * C. Plett, A. Katbashev, S. Ehlert, S. Grimme, M. Bursch,
     Phys. Chem. Chem. Phys., 2023, 25, 17860-17868. DOI: 10.1039/D3CP02178E
   
   for DIPRO refer to:
   * J. Kohn, N. Gildemeister, S. Grimme, D. Fazzi, A. Hansen,
     J. Chem. Phys., 2023, just accepted.
   
   for PTB refer to:
   * S. Grimme, M. Mueller, A. Hansen, J. Chem. Phys., 2023, 158, 124111.
     DOI: 10.1063/5.0137838
   
   with help from (in alphabetical order)
   P. Atkinson, C. Bannwarth, F. Bohle, G. Brandenburg, E. Caldeweyher
   M. Checinski, S. Dohm, S. Ehlert, S. Ehrlich, I. Gerasimov, C. Hölzer
   A. Katbashev, J. Kohn, J. Koopman, C. Lavigne, S. Lehtola, F. März, M. Müller,
   F. Musil, H. Neugebauer, J. Pisarek, C. Plett, P. Pracht, F. Pultar,
   J. Seibert, P. Shushkov, S. Spicher, M. Stahn, M. Steiner, T. Strunk,
   J. Stückrath, T. Rose, and J. Unsleber
   
 * started run on 2026/08/31 at 22:21:43.608     
   ID    Z sym.   atoms
    1    6 C      1-4, 6, 9-16, 18, 21-23, 25-27, 29, 31-36, 38, 40-51
    2    8 O      5, 7, 17, 19, 20, 24, 28, 30, 37, 39
    3    7 N      8, 102, 104, 106, 108, 110, 112, 114, 116, 118, 120, 122,
                  124, 126, 128, 130, 132, 134, 136, 138, 140, 142, 144, 146,
                  148, 150, 152, 154, 156, 158, 160, 162, 164, 166, 168, 170,
                  172
    4    1 H      52-100
    5    5 B      101, 103, 105, 107, 109, 111, 113, 115, 117, 119, 121, 123,
                  125, 127, 129, 131, 133, 135, 137, 139, 141, 143, 145, 147,
                  149, 151, 153, 155, 157, 159, 161, 163, 165, 167, 169, 171

           -------------------------------------------------
          |                Calculation Setup                |
           -------------------------------------------------

          program call               : "c:\Users\Andre\Proyectos doctorado\kras-pancreatic-gC3N4-ai\tools\xtb\xtb-6.7.1\bin\xtb.exe" "c:\Users\Andre\Proyectos doctorado\nano-qsar-ai-therapeutics\calculations\tnbc\Cabazitaxel\Cabazitaxel_B36N36_clean_complex.xyz" --gfn 2 --sp --chrg 0 --uhf 0 --etemp 300 --iterations 500 --norestart
          coordinate file            : c:\Users\Andre\Proyectos doctorado\nano-qsar-ai-therapeutics\calculations\tnbc\Cabazitaxel\Cabazitaxel_B36N36_clean_complex.xyz
          omp threads                :                    16


molecular fragmentation (1/2 indicates fragments):
111111111111111111111111111111111111111111111111111111111111111111111111
111111111111111111111111111122222222222222222222222222222222222222222222
2222222222222222222222222222
# atoms in fragment 1/2:   100    72
 fragment masses (1/2) :      703.82      893.44
CMA distance (Bohr)    :  26.348
constraining FC (au)   :  0.0500

           -------------------------------------------------
          |                 G F N 2 - x T B                 |
           -------------------------------------------------

        Reference                      10.1021/acs.jctc.8b01176
      * Hamiltonian:
        H0-scaling (s, p, d)           1.850000    2.230000    2.230000
        zeta-weighting                 0.500000
      * Dispersion:
        s8                             2.700000
        a1                             0.520000
        a2                             5.000000
        s9                             5.000000
      * Repulsion:
        kExp                           1.500000    1.000000
        rExp                           1.000000
      * Coulomb:
        alpha                          2.000000
        third order                    shell-resolved
        anisotropic                    true
        a3                             3.000000
        a5                             4.000000
        cn-shift                       1.200000
        cn-exp                         4.000000
        max-rad                        5.000000


          ...................................................
          :                      SETUP                      :
          :.................................................:
          :  # basis functions                 541          :
          :  # atomic orbitals                 541          :
          :  # shells                          295          :
          :  # electrons                       562          :
          :  max. iterations                   500          :
          :  Hamiltonian                  GFN2-xTB          :
          :  restarted?                      false          :
          :  GBSA solvation                  false          :
          :  PC potential                    false          :
          :  electronic temp.          300.0000000     K    :
          :  accuracy                    1.0000000          :
          :  -> integral cutoff          0.2500000E+02      :
          :  -> integral neglect         0.1000000E-07      :
          :  -> SCF convergence          0.1000000E-05 Eh   :
          :  -> wf. convergence          0.1000000E-03 e    :
          :  Broyden damping             0.4000000          :
          :  net charge                          0          :
          :  unpaired electrons                  0          :
          ...................................................

 iter      E             dE          RMSdq      gap      omega  full diag
   1   -306.5155908 -0.306516E+03  0.950E+00    0.10       0.0  T
   2   -306.0150307  0.500560E+00  0.575E+00    0.15       1.0  T
   3   -142.2493605  0.163766E+03  0.110E+01    0.05       1.0  T
   4   -147.1260233 -0.487666E+01  0.823E+00    0.08       1.0  T
   5   -169.2634247 -0.221374E+02  0.999E+00    0.00       1.0  T
   6   -217.8363967 -0.485730E+02  0.734E+00    0.07       1.0  T
   7   -252.7026473 -0.348663E+02  0.636E+00    0.05       1.0  T
   8   -279.1079418 -0.264053E+02  0.471E+00    0.13       1.0  T
   9   -290.2254443 -0.111175E+02  0.386E+00    0.02       1.0  T
  10   -302.8888351 -0.126634E+02  0.244E+00    0.27       1.0  T
  11   -306.4379129 -0.354908E+01  0.184E+00    0.38       1.0  T
  12   -307.1612455 -0.723333E+00  0.161E+00    0.00       1.0  T
  13   -307.4605999 -0.299354E+00  0.146E+00    0.09       1.0  T
  14   -307.5746354 -0.114035E+00  0.136E+00    0.58       1.0  T
  15   -307.5780086 -0.337318E-02  0.127E+00    0.34       1.0  T
  16   -306.7331508  0.844858E+00  0.151E+00    0.29       1.0  T
  17   -307.5705616 -0.837411E+00  0.110E+00    0.22       1.0  T
  18   -306.5962851  0.974277E+00  0.130E+00    0.28       1.0  T
  19   -306.9341729 -0.337888E+00  0.102E+00    0.02       1.0  T
  20   -306.9454228 -0.112499E-01  0.977E-01    0.05       1.0  T
  21   -306.9518935 -0.647072E-02  0.904E-01    0.05       1.0  T
  22   -306.9169718  0.349217E-01  0.926E-01    0.06       1.0  T
  23   -307.4048923 -0.487921E+00  0.522E-01    0.01       1.0  T
  24   -307.5653727 -0.160480E+00  0.717E-01    0.29       1.0  T
  25   -307.5818545 -0.164817E-01  0.556E-01    0.11       1.0  T
  26   -307.2075204  0.374334E+00  0.708E-01    0.04       1.0  T
  27   -307.5851214 -0.377601E+00  0.533E-01    0.55       1.0  T
  28   -307.5965451 -0.114236E-01  0.430E-01    0.69       1.0  T
  29   -307.6009779 -0.443283E-02  0.364E-01    0.67       1.0  T
  30   -307.6082186 -0.724071E-02  0.243E-01    0.53       1.0  T
  31   -307.6101794 -0.196078E-02  0.195E-01    0.50       1.0  T
  32   -307.6111749 -0.995511E-03  0.174E-01    0.54       1.0  T
  33   -307.6121677 -0.992812E-03  0.148E-01    0.54       1.0  T
  34   -307.6129949 -0.827235E-03  0.129E-01    0.59       1.0  T
  35   -307.6135033 -0.508338E-03  0.116E-01    0.62       1.0  T
  36   -307.6140053 -0.502031E-03  0.103E-01    0.66       1.0  T
  37   -307.6142919 -0.286584E-03  0.952E-02    0.67       1.0  T
  38   -307.6145947 -0.302845E-03  0.906E-02    0.66       1.0  T
  39   -307.6151299 -0.535179E-03  0.760E-02    0.55       1.0  T
  40   -307.6153283 -0.198356E-03  0.697E-02    0.51       1.0  T
  41   -307.6155143 -0.186031E-03  0.637E-02    0.46       1.0  T
  42   -307.6159259 -0.411583E-03  0.506E-02    0.35       1.0  T
  43   -307.6171021 -0.117620E-02  0.232E-02    0.16       1.0  T
  44   -307.6170860  0.161119E-04  0.140E-02    0.20       1.0  T
  45   -307.5998788  0.172072E-01  0.183E-01    0.08       1.0  T
  46   -307.6171992 -0.173205E-01  0.563E-03    0.18       1.4  T
  47   -307.6168195  0.379698E-03  0.306E-02    0.15       1.0  T
  48   -307.6170718 -0.252223E-03  0.193E-02    0.16       1.0  T
  49   -307.6171024 -0.306428E-04  0.167E-02    0.16       1.0  T
  50   -307.6170347  0.677300E-04  0.198E-02    0.16       1.0  T
  51   -307.6170797 -0.450164E-04  0.168E-02    0.16       1.0  T
  52   -307.6171966 -0.116931E-03  0.716E-03    0.17       1.1  T
  53   -307.6172145 -0.178577E-04  0.400E-03    0.17       1.9  T
  54   -307.6172180 -0.347186E-05  0.291E-03    0.17       2.6  T
  55   -307.6172210 -0.305195E-05  0.140E-03    0.17       5.5  T
  56   -307.6172192  0.176878E-05  0.236E-03    0.17       3.2  T
  57   -307.6172205 -0.121971E-05  0.168E-03    0.17       4.5  T
  58   -307.6172215 -0.103813E-05  0.713E-04    0.18      10.7  T
  59   -307.6172212  0.306209E-06  0.104E-03    0.18       7.3  T
  60   -307.6172215 -0.304318E-06  0.686E-04    0.18      11.1  T
  61   -307.6172216 -0.601686E-07  0.571E-04    0.18      13.4  T

   *** convergence criteria satisfied after 61 iterations ***

         #    Occupation            Energy/Eh            Energy/eV
      -------------------------------------------------------------
         1        2.0000           -0.7410945             -20.1662
       ...           ...                  ...                  ...
       275        2.0000           -0.3346639              -9.1067
       276        2.0000           -0.3324936              -9.0476
       277        2.0000           -0.3310867              -9.0093
       278        2.0000           -0.3283009              -8.9335
       279        1.9995           -0.3230093              -8.7895
       280        1.9946           -0.3207345              -8.7276
       281        1.9374           -0.3183721              -8.6633 (HOMO)
       282        0.0684           -0.3119376              -8.4883 (LUMO)
       283                         -0.2904514              -7.9036
       284                         -0.2828769              -7.6975
       285                         -0.2750913              -7.4856
       286                         -0.2714588              -7.3868
       ...                                ...                  ...
       541                          0.9765517              26.5733
      -------------------------------------------------------------
                  HL-Gap            0.0064345 Eh            0.1751 eV
             Fermi-level           -0.3151110 Eh           -8.5746 eV

 SCC (total)                   0 d,  0 h,  0 min,  5.588 sec
 SCC setup                      ...        0 min,  0.005 sec (  0.089%)
 Dispersion                     ...        0 min,  0.014 sec (  0.251%)
 classical contributions        ...        0 min,  0.001 sec (  0.018%)
 integral evaluation            ...        0 min,  0.026 sec (  0.465%)
 iterations                     ...        0 min,  5.470 sec ( 97.888%)
 molecular gradient             ...        0 min,  0.066 sec (  1.181%)
 printout                       ...        0 min,  0.006 sec (  0.107%)

         :::::::::::::::::::::::::::::::::::::::::::::::::::::
         ::                     SUMMARY                     ::
         :::::::::::::::::::::::::::::::::::::::::::::::::::::
         :: total energy            -304.422648469486 Eh    ::
         :: gradient norm              0.144762362006 Eh/a0 ::
         :: HOMO-LUMO gap              0.175092211418 eV    ::
         ::.................................................::
         :: SCC energy              -307.598405823147 Eh    ::
         :: -> isotropic ES            0.873835846822 Eh    ::
         :: -> anisotropic ES         -0.020237944723 Eh    ::
         :: -> anisotropic XC          0.103823401486 Eh    ::
         :: -> dispersion             -0.271868347540 Eh    ::
         :: repulsion energy           3.175757353661 Eh    ::
         :: add. restraining           0.000000000000 Eh    ::
         :: total charge               0.000000000000 e     ::
         :::::::::::::::::::::::::::::::::::::::::::::::::::::

           -------------------------------------------------
          |                Property Printout                |
           -------------------------------------------------

    * Orbital Energies and Occupations

         #    Occupation            Energy/Eh            Energy/eV
      -------------------------------------------------------------
         1        2.0000           -0.7410945             -20.1662
       ...           ...                  ...                  ...
       269        2.0000           -0.3464812              -9.4282
       270        2.0000           -0.3420487              -9.3076
       271        2.0000           -0.3398941              -9.2490
       272        2.0000           -0.3384841              -9.2106
       273        2.0000           -0.3364049              -9.1540
       274        2.0000           -0.3363377              -9.1522
       275        2.0000           -0.3346639              -9.1067
       276        2.0000           -0.3324936              -9.0476
       277        2.0000           -0.3310867              -9.0093
       278        2.0000           -0.3283009              -8.9335
       279        1.9995           -0.3230093              -8.7895
       280        1.9946           -0.3207345              -8.7276
       281        1.9374           -0.3183721              -8.6633 (HOMO)
       282        0.0684           -0.3119376              -8.4883 (LUMO)
       283                         -0.2904514              -7.9036
       284                         -0.2828769              -7.6975
       285                         -0.2750913              -7.4856
       286                         -0.2714588              -7.3868
       287                         -0.2597960              -7.0694
       288                         -0.2527048              -6.8764
       289                         -0.2511307              -6.8336
       290                         -0.2420059              -6.5853
       291                         -0.2398884              -6.5277
       292                         -0.2385271              -6.4907
       ...                                ...                  ...
       541                          0.9765517              26.5733
      -------------------------------------------------------------
                  HL-Gap            0.0064345 Eh            0.1751 eV
             Fermi-level           -0.3151110 Eh           -8.5746 eV

     #   Z          covCN         q      C6AA      α(0)
     1   6 C        3.755    -0.117    22.799     6.808
     2   6 C        3.778     0.162    18.014     6.047
     3   6 C        3.753    -0.117    22.799     6.809
     4   6 C        3.753    -0.116    22.785     6.807
     5   8 O        1.707    -0.315    19.263     5.926
     6   6 C        2.634     0.405    20.174     7.347
     7   8 O        0.857    -0.469    23.106     6.445
     8   7 N        2.688    -0.204    25.428     7.489
     9   6 C        3.789     0.034    20.009     6.371
    10   6 C        2.959    -0.002    28.082     8.692
    11   6 C        2.916    -0.037    28.915     8.818
    12   6 C        2.910    -0.030    28.738     8.790
    13   6 C        2.912    -0.031    28.784     8.797
    14   6 C        2.910    -0.030    28.757     8.793
    15   6 C        2.914    -0.033    28.832     8.805
    16   6 C        3.720     0.079    19.368     6.286
    17   8 O        1.649    -0.440    21.640     6.280
    18   6 C        2.706     0.340    21.230     7.542
    19   8 O        0.856    -0.410    21.878     6.271
    20   8 O        1.702    -0.247    18.092     5.743
    21   6 C        3.765     0.119    18.675     6.159
    22   6 C        3.846    -0.061    21.643     6.618
    23   6 C        3.775     0.136    18.404     6.112
    24   8 O        1.651    -0.456    21.971     6.327
    25   6 C        3.024     0.035    27.184     8.552
    26   6 C        2.966    -0.089    30.216     9.016
    27   6 C        2.899     0.205    23.659     7.975
    28   8 O        0.856    -0.407    21.816     6.262
    29   6 C        3.759     0.092    19.108     6.232
    30   8 O        1.698    -0.314    19.238     5.922
    31   6 C        3.645     0.039    20.253     6.468
    32   6 C        3.961     0.001    20.497     6.433
    33   6 C        3.749    -0.108    22.627     6.784
    34   6 C        3.842    -0.043    21.320     6.568
    35   6 C        3.811    -0.071    21.854     6.654
    36   6 C        3.763     0.108    18.843     6.188
    37   8 O        1.703    -0.276    18.579     5.820
    38   6 C        2.719     0.348    21.089     7.517
    39   8 O        0.856    -0.411    21.896     6.274
    40   6 C        2.965    -0.018    28.461     8.751
    41   6 C        2.913    -0.024    28.607     8.771
    42   6 C        2.910    -0.029    28.720     8.788
    43   6 C        2.912    -0.023    28.575     8.765
    44   6 C        2.911    -0.027    28.676     8.781
    45   6 C        2.916    -0.020    28.497     8.754
    46   6 C        3.929     0.030    20.003     6.356
    47   6 C        3.754    -0.107    22.596     6.778
    48   6 C        3.869     0.005    20.450     6.430
    49   6 C        3.757    -0.109    22.645     6.785
    50   6 C        3.757    -0.105    22.563     6.772
    51   6 C        3.823    -0.077    21.945     6.666
    52   1 H        0.924     0.046     2.366     2.405
    53   1 H        0.924     0.049     2.332     2.388
    54   1 H        0.924     0.048     2.345     2.395
    55   1 H        0.924     0.042     2.421     2.433
    56   1 H        0.924     0.064     2.154     2.295
    57   1 H        0.924     0.043     2.415     2.430
    58   1 H        0.924     0.041     2.436     2.441
    59   1 H        0.924     0.042     2.428     2.437
    60   1 H        0.924     0.065     2.145     2.291
    61   1 H        0.860     0.189     1.167     1.692
    62   1 H        0.923     0.100     1.784     2.089
    63   1 H        0.925     0.039     2.467     2.456
    64   1 H        0.925     0.035     2.514     2.480
    65   1 H        0.925     0.033     2.544     2.494
    66   1 H        0.925     0.038     2.480     2.463
    67   1 H        0.925     0.049     2.328     2.386
    68   1 H        0.924     0.082     1.962     2.191
    69   1 H        0.803     0.324     0.652     1.269
    70   1 H        0.924     0.048     2.345     2.395
    71   1 H        0.924     0.069     2.099     2.265
    72   1 H        0.924     0.050     2.319     2.381
    73   1 H        0.803     0.315     0.678     1.293
    74   1 H        0.924     0.039     2.459     2.452
    75   1 H        0.924     0.032     2.555     2.500
    76   1 H        0.924     0.054     2.265     2.354
    77   1 H        0.924     0.048     2.341     2.393
    78   1 H        0.924     0.046     2.373     2.409
    79   1 H        0.924     0.036     2.499     2.472
    80   1 H        0.924     0.068     2.105     2.269
    81   1 H        0.923     0.049     2.334     2.389
    82   1 H        0.923     0.040     2.449     2.447
    83   1 H        0.925     0.053     2.289     2.366
    84   1 H        0.923     0.059     2.215     2.328
    85   1 H        0.925     0.045     2.382     2.414
    86   1 H        0.925     0.051     2.312     2.378
    87   1 H        0.925     0.048     2.341     2.393
    88   1 H        0.925     0.045     2.379     2.412
    89   1 H        0.925     0.060     2.196     2.317
    90   1 H        0.924     0.056     2.244     2.343
    91   1 H        0.924     0.048     2.343     2.394
    92   1 H        0.924     0.049     2.337     2.391
    93   1 H        0.924     0.054     2.266     2.354
    94   1 H        0.924     0.041     2.436     2.441
    95   1 H        0.924     0.033     2.542     2.493
    96   1 H        0.925     0.042     2.420     2.433
    97   1 H        0.924     0.033     2.547     2.496
    98   1 H        0.924     0.055     2.261     2.352
    99   1 H        0.924     0.076     2.019     2.222
   100   1 H        0.924     0.093     1.851     2.127
   101   5 B        2.781     0.077    20.180     7.511
   102   7 N        2.774    -0.227    25.952     7.566
   103   5 B        2.788     0.092    19.931     7.463
   104   7 N        2.524    -0.313    28.097     7.872
   105   5 B        2.779     0.083    20.081     7.493
   106   7 N        2.655    -0.268    26.933     7.708
   107   5 B        2.849     0.242    17.658     7.017
   108   7 N        2.529    -0.271    27.055     7.725
   109   5 B        3.195     0.151    18.918     7.254
   110   7 N        2.979    -0.109    23.370     7.180
   111   5 B        2.644     0.373    16.317     6.812
   112   7 N        2.669    -0.211    25.602     7.515
   113   5 B        3.181     0.024    20.966     7.637
   114   7 N        2.888    -0.221    25.803     7.544
   115   5 B        3.009     0.210    18.069     7.091
   116   7 N        2.660    -0.162    24.510     7.353
   117   5 B        2.906     0.319    16.614     6.802
   118   7 N        3.156    -0.081    22.810     7.093
   119   5 B        2.779     0.094    19.902     7.459
   120   7 N        3.037    -0.125    23.704     7.231
   121   5 B        2.758     0.090    19.999     7.483
   122   7 N        2.634    -0.308    27.926     7.848
   123   5 B        3.040     0.227    17.816     7.040
   124   7 N        2.981     0.002    21.215     6.841
   125   5 B        2.582     0.326    17.308     7.087
   126   7 N        2.596    -0.358    29.241     8.031
   127   5 B        3.287     0.340    16.337     6.741
   128   7 N        2.784    -0.252    26.535     7.651
   129   5 B        2.559     0.320    17.598     7.185
   130   7 N        2.579    -0.366    29.468     8.062
   131   5 B        2.530     0.301    18.225     7.377
   132   7 N        2.665    -0.204    25.432     7.490
   133   5 B        2.698     0.196    18.501     7.218
   134   7 N        2.844    -0.166    24.587     7.364
   135   5 B        2.758     0.083    20.123     7.506
   136   7 N        2.672    -0.173    24.747     7.388
   137   5 B        2.877     0.111    19.564     7.383
   138   7 N        2.663    -0.142    24.084     7.289
   139   5 B        2.594     0.311    17.394     7.087
   140   7 N        2.519    -0.353    29.131     8.016
   141   5 B        2.684     0.184    18.715     7.267
   142   7 N        3.008    -0.126    23.725     7.234
   143   5 B        2.677     0.210    18.357     7.201
   144   7 N        2.716    -0.247    26.425     7.635
   145   5 B        2.647     0.164    19.168     7.381
   146   7 N        2.825    -0.205    25.442     7.491
   147   5 B        3.321     0.231    17.772     7.030
   148   7 N        2.531    -0.285    27.377     7.771
   149   5 B        2.950     0.038    20.745     7.599
   150   7 N        2.783    -0.183    24.966     7.421
   151   5 B        2.796     0.085    20.030     7.480
   152   7 N        2.673    -0.154    24.342     7.328
   153   5 B        3.021     0.210    18.055     7.088
   154   7 N        3.272     0.017    20.956     6.799
   155   5 B        2.869     0.306    16.801     6.843
   156   7 N        3.154    -0.112    23.447     7.192
   157   5 B        3.263     0.320    16.584     6.792
   158   7 N        2.833    -0.060    22.399     7.029
   159   5 B        3.303     0.231    17.760     7.028
   160   7 N        2.656    -0.181    24.931     7.416
   161   5 B        2.838     0.113    19.555     7.385
   162   7 N        2.834    -0.223    25.858     7.552
   163   5 B        2.863     0.253    17.504     6.985
   164   7 N        2.654    -0.228    25.996     7.572
   165   5 B        3.011     0.115    19.469     7.360
   166   7 N        3.153    -0.085    22.892     7.106
   167   5 B        2.674     0.203    18.479     7.228
   168   7 N        2.696    -0.228    25.991     7.572
   169   5 B        2.585     0.369    16.726     6.963
   170   7 N        2.881    -0.180    24.886     7.409
   171   5 B        2.825     0.107    19.661     7.407
   172   7 N        2.827    -0.252    26.532     7.650

 Mol. C6AA /au·bohr⁶  :     423988.049693
 Mol. C8AA /au·bohr⁸  :   11164738.497282
 Mol. α(0) /au        :       1007.474971


Wiberg/Mayer (AO) data.
largest (>0.10) Wiberg bond orders for each atom

 ---------------------------------------------------------------------------
     #   Z sym  total        # sym  WBO       # sym  WBO       # sym  WBO
 ---------------------------------------------------------------------------
     1   6 C    3.993 --     2 C    0.993    53 H    0.985    52 H    0.985
                            54 H    0.984
     2   6 C    3.922 --     4 C    0.995     3 C    0.995     1 C    0.993
                             5 O    0.908
     3   6 C    3.992 --     2 C    0.995    57 H    0.985    55 H    0.984
                            56 H    0.981
     4   6 C    3.992 --     2 C    0.995    59 H    0.984    58 H    0.983
                            60 H    0.981
     5   8 O    2.232 --     6 C    1.064     2 C    0.908     7 O    0.133
     6   6 C    3.940 --     7 O    1.633     8 N    1.198     5 O    1.064
     7   8 O    1.970 --     6 C    1.633     8 N    0.163     5 O    0.133
     8   7 N    3.392 --     6 C    1.198     9 C    0.986    61 H    0.928
                             7 O    0.163
     9   6 C    3.959 --     8 N    0.986    10 C    0.980    62 H    0.946
                            16 C    0.942
    10   6 C    3.985 --    15 C    1.419    11 C    1.409     9 C    0.980
                            13 C    0.110
    11   6 C    3.989 --    12 C    1.446    10 C    1.409    63 H    0.969
                            14 C    0.113
    12   6 C    3.991 --    11 C    1.446    13 C    1.437    64 H    0.971
                            15 C    0.111
    13   6 C    3.990 --    14 C    1.441    12 C    1.437    65 H    0.971
                            10 C    0.110
    14   6 C    3.991 --    13 C    1.441    15 C    1.440    66 H    0.971
                            11 C    0.113
    15   6 C    3.990 --    14 C    1.440    10 C    1.419    67 H    0.965
                            12 C    0.111
    16   6 C    3.966 --    17 O    1.006    18 C    0.947     9 C    0.942
                            68 H    0.938
    17   8 O    1.955 --    16 C    1.006    69 H    0.860
    18   6 C    3.914 --    19 O    1.745    20 O    1.137    16 C    0.947
    19   8 O    2.035 --    18 C    1.745    20 O    0.172
    20   8 O    2.318 --    18 C    1.137    21 C    0.930    19 O    0.172
    21   6 C    3.930 --    51 C    0.992    22 C    0.987    70 H    0.963
                            20 O    0.930
    22   6 C    3.991 --    21 C    0.987    72 H    0.964    23 C    0.964
                            71 H    0.963
    23   6 C    3.943 --    25 C    0.988    22 C    0.964    24 O    0.957
                            48 C    0.938
    24   8 O    1.965 --    23 C    0.957    73 H    0.877
    25   6 C    3.907 --    26 C    1.606    51 C    1.030    23 C    0.988
    26   6 C    3.869 --    25 C    1.606    27 C    1.085    46 C    0.921
    27   6 C    3.911 --    28 O    1.742    26 C    1.085    29 C    0.948
    28   8 O    2.034 --    27 C    1.742
    29   6 C    3.956 --    32 C    0.971    30 O    0.966    27 C    0.948
                            74 H    0.944
    30   8 O    2.068 --    31 C    0.987    29 C    0.966
    31   6 C    3.947 --    30 O    0.987    76 H    0.980    77 H    0.979
                            75 H    0.978
    32   6 C    3.981 --    33 C    0.990    29 C    0.971    34 C    0.959
                            46 C    0.938
    33   6 C    3.988 --    32 C    0.990    79 H    0.983    78 H    0.982
                            80 H    0.978
    34   6 C    3.984 --    35 C    0.995    81 H    0.968    48 C    0.967
                            32 C    0.959
    35   6 C    3.992 --    34 C    0.995    36 C    0.985    82 H    0.977
                            83 H    0.963
    36   6 C    3.925 --    35 C    0.985    46 C    0.958    84 H    0.956
                            37 O    0.938
    37   8 O    2.299 --    38 C    1.106    36 C    0.938    39 O    0.168
    38   6 C    3.916 --    39 O    1.728    37 O    1.106    40 C    1.004
    39   8 O    2.036 --    38 C    1.728    37 O    0.168
    40   6 C    3.986 --    45 C    1.388    41 C    1.386    38 C    1.004
                            43 C    0.101
    41   6 C    3.990 --    42 C    1.452    40 C    1.386    85 H    0.967
                            44 C    0.109
    42   6 C    3.990 --    41 C    1.452    43 C    1.433    86 H    0.969
                            45 C    0.108
    43   6 C    3.989 --    44 C    1.436    42 C    1.433    87 H    0.970
                            40 C    0.101
    44   6 C    3.990 --    45 C    1.449    43 C    1.436    88 H    0.970
                            41 C    0.109
    45   6 C    3.986 --    44 C    1.449    40 C    1.388    89 H    0.967
                            42 C    0.108
    46   6 C    3.967 --    47 C    1.000    36 C    0.958    32 C    0.938
                            26 C    0.921
    47   6 C    3.991 --    46 C    1.000    92 H    0.981    90 H    0.981
                            91 H    0.979
    48   6 C    3.980 --    50 C    0.998    49 C    0.993    34 C    0.967
                            23 C    0.938
    49   6 C    3.992 --    48 C    0.993    94 H    0.984    93 H    0.980
                            95 H    0.980
    50   6 C    3.992 --    48 C    0.998    97 H    0.983    98 H    0.981
                            96 H    0.978
    51   6 C    3.991 --    25 C    1.030    21 C    0.992    99 H    0.942
                           100 H    0.937
    52   1 H    0.997 --     1 C    0.985
    53   1 H    0.998 --     1 C    0.985
    54   1 H    0.998 --     1 C    0.984
    55   1 H    0.998 --     3 C    0.984
    56   1 H    0.996 --     3 C    0.981
    57   1 H    0.998 --     3 C    0.985
    58   1 H    0.998 --     4 C    0.983
    59   1 H    0.998 --     4 C    0.984
    60   1 H    0.996 --     4 C    0.981
    61   1 H    0.964 --     8 N    0.928
    62   1 H    0.989 --     9 C    0.946
    63   1 H    0.998 --    11 C    0.969
    64   1 H    0.998 --    12 C    0.971
    65   1 H    0.998 --    13 C    0.971
    66   1 H    0.998 --    14 C    0.971
    67   1 H    0.998 --    15 C    0.965
    68   1 H    0.993 --    16 C    0.938
    69   1 H    0.895 --    17 O    0.860
    70   1 H    0.997 --    21 C    0.963
    71   1 H    0.994 --    22 C    0.963
    72   1 H    0.997 --    22 C    0.964
    73   1 H    0.901 --    24 O    0.877
    74   1 H    0.997 --    29 C    0.944
    75   1 H    0.999 --    31 C    0.978
    76   1 H    0.996 --    31 C    0.980
    77   1 H    0.998 --    31 C    0.979
    78   1 H    0.996 --    33 C    0.982
    79   1 H    0.998 --    33 C    0.983
    80   1 H    0.995 --    33 C    0.978
    81   1 H    0.997 --    34 C    0.968
    82   1 H    0.998 --    35 C    0.977
    83   1 H    0.997 --    35 C    0.963
    84   1 H    0.996 --    36 C    0.956
    85   1 H    0.998 --    41 C    0.967
    86   1 H    0.997 --    42 C    0.969
    87   1 H    0.997 --    43 C    0.970
    88   1 H    0.997 --    44 C    0.970
    89   1 H    0.996 --    45 C    0.967
    90   1 H    0.997 --    47 C    0.981
    91   1 H    0.997 --    47 C    0.979
    92   1 H    0.997 --    47 C    0.981
    93   1 H    0.997 --    49 C    0.980
    94   1 H    0.998 --    49 C    0.984
    95   1 H    0.999 --    49 C    0.980
    96   1 H    0.998 --    50 C    0.978
    97   1 H    0.998 --    50 C    0.983
    98   1 H    0.997 --    50 C    0.981
    99   1 H    0.991 --    51 C    0.942
   100   1 H    0.988 --    51 C    0.937
   101   5 B    3.474 --   170 N    1.280   153 B    1.000   147 B    0.969
   102   7 N    3.397 --   147 B    1.142   160 N    1.007   159 B    0.999
   103   5 B    3.465 --   148 N    1.277   171 B    0.978   159 B    0.959
   104   7 N    3.530 --   163 B    1.152   161 B    1.150   131 B    1.018
   105   5 B    3.465 --   138 N    1.242   167 B    0.995   141 B    0.990
   106   7 N    3.265 --   127 B    1.200   169 B    0.968   164 N    0.888
   107   5 B    3.407 --   140 N    1.178   114 N    1.031   123 B    0.964
   108   7 N    3.569 --   121 B    1.276   109 B    1.159   165 B    0.973
   109   5 B    3.392 --   108 N    1.159   151 B    0.932   149 B    0.639
                           113 B    0.293
   110   7 N    3.323 --   115 B    1.113   154 N    1.044   166 N    0.945
   111   5 B    3.432 --   112 N    1.187   122 N    1.126   150 N    0.962
   112   7 N    3.447 --   111 B    1.187   139 B    1.087   152 N    0.967
   113   5 B    3.452 --   149 B    1.284   165 B    1.002   163 B    0.626
                           109 B    0.293
   114   7 N    3.426 --   117 B    1.235   107 B    1.031   128 N    0.930
   115   5 B    3.390 --   110 N    1.113   134 N    1.039   161 B    1.005
   116   7 N    3.510 --   119 B    1.206   139 B    1.123   136 N    0.999
   117   5 B    3.513 --   114 N    1.235   142 N    1.068   162 N    1.003
   118   7 N    3.341 --   167 B    1.139   170 N    0.990   120 N    0.983
   119   5 B    3.413 --   116 N    1.206   137 B    1.008   151 B    0.926
   120   7 N    3.317 --   155 B    1.130   118 N    0.983   124 N    0.974
   121   5 B    3.463 --   108 N    1.276   135 B    0.978   145 B    0.932
   122   7 N    3.219 --   111 B    1.126   125 B    1.069   150 N    0.792
   123   5 B    3.367 --   136 N    1.153   128 N    0.989   107 B    0.964
   124   7 N    3.094 --   142 N    1.014   120 N    0.974   168 N    0.938
   125   5 B    3.510 --   162 N    1.244   122 N    1.069   140 N    0.989
   126   7 N    3.434 --   131 B    1.200   159 B    1.062   147 B    0.927
   127   5 B    3.481 --   106 N    1.200   144 N    1.042   130 N    0.981
   128   7 N    3.280 --   133 B    1.170   123 B    0.989   114 N    0.930
   129   5 B    3.523 --   164 N    1.214   168 N    1.118   156 N    1.033
   130   7 N    3.432 --   143 B    1.221   157 B    0.993   127 B    0.981
   131   5 B    3.519 --   126 N    1.200   172 N    1.099   104 N    1.018
   132   7 N    3.443 --   169 B    1.262   143 B    0.997   158 N    0.990
   133   5 B    3.443 --   128 N    1.170   160 N    1.121   171 B    0.922
   134   7 N    3.470 --   135 B    1.260   115 B    1.039   166 N    0.984
   135   5 B    3.420 --   134 N    1.260   121 B    0.978   143 B    0.959
   136   7 N    3.512 --   171 B    1.171   123 B    1.153   116 N    0.999
   137   5 B    3.346 --   149 B    1.008   119 B    1.008   148 N    0.963
   138   7 N    3.510 --   105 B    1.242   141 B    1.093   144 N    1.037
   139   5 B    3.516 --   116 N    1.123   140 N    1.103   112 N    1.087
   140   7 N    3.478 --   107 B    1.178   139 B    1.103   125 B    0.989
   141   5 B    3.464 --   146 N    1.179   138 N    1.093   105 B    0.990
   142   7 N    3.257 --   117 B    1.068   124 N    1.014   156 N    0.976
   143   5 B    3.391 --   130 N    1.221   132 N    0.997   135 B    0.959
   144   7 N    3.373 --   127 B    1.042   138 N    1.037   157 B    0.985
   145   5 B    3.454 --   158 N    1.191   152 N    1.079   121 B    0.932
   146   7 N    3.407 --   141 B    1.179   153 B    1.073   154 N    0.959
   147   5 B    3.363 --   102 N    1.142   101 B    0.969   126 N    0.927
                           159 B    0.127
   148   7 N    3.562 --   103 B    1.277   163 B    1.105   137 B    0.963
   149   5 B    3.364 --   113 B    1.284   137 B    1.008   109 B    0.639
                           163 B    0.186
   150   7 N    2.987 --   158 N    1.045   111 B    0.962   122 N    0.792
   151   5 B    3.455 --   152 N    1.267   109 B    0.932   119 B    0.926
   152   7 N    3.482 --   151 B    1.267   145 B    1.079   112 N    0.967
   153   5 B    3.444 --   172 N    1.131   146 N    1.073   101 B    1.000
   154   7 N    3.187 --   110 N    1.044   146 N    0.959   172 N    0.951
   155   5 B    3.520 --   160 N    1.166   120 N    1.130   170 N    0.996
   156   7 N    3.215 --   129 B    1.033   162 N    0.984   142 N    0.976
   157   5 B    3.507 --   166 N    1.265   130 N    0.993   144 N    0.985
   158   7 N    3.441 --   145 B    1.191   150 N    1.045   132 N    0.990
   159   5 B    3.326 --   126 N    1.062   102 N    0.999   103 B    0.959
                           147 B    0.127
   160   7 N    3.489 --   155 B    1.166   133 B    1.121   102 N    1.007
   161   5 B    3.384 --   104 N    1.150   115 B    1.005   165 B    1.001
   162   7 N    3.446 --   125 B    1.244   117 B    1.003   156 N    0.984
   163   5 B    3.444 --   104 N    1.152   148 N    1.105   113 B    0.626
                           149 B    0.186   165 B    0.120
   164   7 N    3.334 --   129 B    1.214   169 B    1.035   106 N    0.888
   165   5 B    3.331 --   113 B    1.002   161 B    1.001   108 N    0.973
                           163 B    0.120
   166   7 N    3.440 --   157 B    1.265   134 N    0.984   110 N    0.945
   167   5 B    3.444 --   118 N    1.139   168 N    1.117   105 B    0.995
   168   7 N    3.387 --   129 B    1.118   167 B    1.117   124 N    0.938
   169   5 B    3.439 --   132 N    1.262   164 N    1.035   106 N    0.968
   170   7 N    3.473 --   101 B    1.280   155 B    0.996   118 N    0.990
   171   5 B    3.359 --   136 N    1.171   103 B    0.978   133 B    0.922
   172   7 N    3.419 --   153 B    1.131   131 B    1.099   154 N    0.951
 ---------------------------------------------------------------------------

Topologies differ in total number of bonds
Writing topology from bond orders to xtbtopo.mol

molecular dipole:
                 x           y           z       tot (Debye)
 q only:        2.269       3.607      -7.094
   full:        0.809       3.156      -5.056      15.287
molecular quadrupole (traceless):
                xx          xy          yy          xz          yz          zz
 q only:       16.997     -12.863      70.275      25.426      69.417     -87.271
  q+dip:       22.565     -14.582      85.755      35.157      95.465    -108.320
   full:       27.040     -14.559      86.181      38.220      94.333    -113.221


           -------------------------------------------------
          | TOTAL ENERGY             -304.422648469486 Eh   |
          | GRADIENT NORM               0.144762362006 Eh/α |
          | HOMO-LUMO GAP               0.175092211418 eV   |
           -------------------------------------------------

------------------------------------------------------------------------
 * finished run on 2026/08/31 at 22:21:49.299     
------------------------------------------------------------------------
 total:
 * wall-time:     0 d,  0 h,  0 min,  5.689 sec
 *  cpu-time:     0 d,  0 h,  0 min, 44.328 sec
 * ratio c/w:     7.792 speedup
 SCF:
 * wall-time:     0 d,  0 h,  0 min,  5.590 sec
 *  cpu-time:     0 d,  0 h,  0 min, 43.734 sec
 * ratio c/w:     7.824 speedup

normal termination of xtb
