      -----------------------------------------------------------      
     |                   =====================                   |     
     |                           x T B                           |     
     |                   =====================                   |     
     |                         S. Grimme                         |     
     |          Mulliken Center for Theoretical Chemistry        |     
     |                    University of Bonn                     |     
      -----------------------------------------------------------      

   * xtb version 6.7.1pre (5071a88) compiled by 'Marcel@Raven' on 2024-07-23

   xtb is free software: you can redistribute it and/or modify it under
   the terms of the GNU Lesser General Public License as published by
   the Free Software Foundation, either version 3 of the License, or
   (at your option) any later version.
   
   xtb is distributed in the hope that it will be useful,
   but WITHOUT ANY WARRANTY; without even the implied warranty of
   MERCHANTABILITY or FITNESS FOR A PARTICULAR PURPOSE.  See the
   GNU Lesser General Public License for more details.
   
   Cite this work as:
   * C. Bannwarth, E. Caldeweyher, S. Ehlert, A. Hansen, P. Pracht,
     J. Seibert, S. Spicher, S. Grimme, WIREs Comput. Mol. Sci., 2020, 11,
     e01493. DOI: 10.1002/wcms.1493
   
   for GFN2-xTB:
   * C. Bannwarth, S. Ehlert and S. Grimme., J. Chem. Theory Comput., 2019,
     15, 1652-1671. DOI: 10.1021/acs.jctc.8b01176
   for GFN1-xTB:
   * S. Grimme, C. Bannwarth, P. Shushkov, J. Chem. Theory Comput., 2017,
     13, 1989-2009. DOI: 10.1021/acs.jctc.7b00118
   for GFN0-xTB:
   * P. Pracht, E. Caldeweyher, S. Ehlert, S. Grimme, ChemRxiv, 2019, preprint.
     DOI: 10.26434/chemrxiv.8326202.v1
   for GFN-FF:
   * S. Spicher and S. Grimme, Angew. Chem. Int. Ed., 2020, 59, 15665-15673.
     DOI: 10.1002/anie.202004239
   
   for ALPB and GBSA implicit solvation:
   * S. Ehlert, M. Stahn, S. Spicher, S. Grimme, J. Chem. Theory Comput.,
     2021, 17, 4250-4261. DOI: 10.1021/acs.jctc.1c00471
   
   for ddCOSMO and CPCM-X implicit solvation:
   * M. Stahn, S. Ehlert, S. Grimme, J. Phys. Chem. A,
     2023, XX, XXXX-XXXX. DOI: 10.1021/acs.jpca.3c04382
   
   for DFT-D4:
   * E. Caldeweyher, C. Bannwarth and S. Grimme, J. Chem. Phys., 2017,
     147, 034112. DOI: 10.1063/1.4993215
   * E. Caldeweyher, S. Ehlert, A. Hansen, H. Neugebauer, S. Spicher,
     C. Bannwarth and S. Grimme, J. Chem. Phys., 2019, 150, 154122.
     DOI: 10.1063/1.5090222
   * E. Caldeweyher, J.-M. Mewes, S. Ehlert and S. Grimme, Phys. Chem. Chem. Phys.
     2020, 22, 8499-8512. DOI: 10.1039/D0CP00502A
   
   for sTDA-xTB:
   * S. Grimme and C. Bannwarth, J. Chem. Phys., 2016, 145, 054103.
     DOI: 10.1063/1.4959605
   
   in the mass-spec context:
   * V. Asgeirsson, C. Bauer and S. Grimme, Chem. Sci., 2017, 8, 4879.
     DOI: 10.1039/c7sc00601b
   * J. Koopman and S. Grimme, ACS Omega 2019, 4, 12, 15120-15133.
     DOI: 10.1021/acsomega.9b02011
   
   for metadynamics refer to:
   * S. Grimme, J. Chem. Theory Comput., 2019, 155, 2847-2862
     DOI: 10.1021/acs.jctc.9b00143
   
   for SPH calculations refer to:
   * S. Spicher and S. Grimme, J. Chem. Theory Comput., 2021, 17, 1701-1714
     DOI: 10.1021/acs.jctc.0c01306
   
   for ONIOM refer to:
   * C. Plett, A. Katbashev, S. Ehlert, S. Grimme, M. Bursch,
     Phys. Chem. Chem. Phys., 2023, 25, 17860-17868. DOI: 10.1039/D3CP02178E
   
   for DIPRO refer to:
   * J. Kohn, N. Gildemeister, S. Grimme, D. Fazzi, A. Hansen,
     J. Chem. Phys., 2023, just accepted.
   
   for PTB refer to:
   * S. Grimme, M. Mueller, A. Hansen, J. Chem. Phys., 2023, 158, 124111.
     DOI: 10.1063/5.0137838
   
   with help from (in alphabetical order)
   P. Atkinson, C. Bannwarth, F. Bohle, G. Brandenburg, E. Caldeweyher
   M. Checinski, S. Dohm, S. Ehlert, S. Ehrlich, I. Gerasimov, C. Hölzer
   A. Katbashev, J. Kohn, J. Koopman, C. Lavigne, S. Lehtola, F. März, M. Müller,
   F. Musil, H. Neugebauer, J. Pisarek, C. Plett, P. Pracht, F. Pultar,
   J. Seibert, P. Shushkov, S. Spicher, M. Stahn, M. Steiner, T. Strunk,
   J. Stückrath, T. Rose, and J. Unsleber
   
 * started run on 2026/08/31 at 21:13:09.069     
   ID    Z sym.   atoms
    1    7 N      1, 2, 13, 15, 17, 19, 21, 23, 25, 27, 29, 31, 33, 35, 37,
                  39, 41, 43, 45, 47, 49, 51, 53, 55, 57, 59, 61, 63, 65, 67,
                  69, 71, 73, 75, 77, 79, 81, 83
    2   17 Cl     3, 5
    3   78 Pt     4
    4    1 H      6-11
    5    5 B      12, 14, 16, 18, 20, 22, 24, 26, 28, 30, 32, 34, 36, 38, 40,
                  42, 44, 46, 48, 50, 52, 54, 56, 58, 60, 62, 64, 66, 68, 70,
                  72, 74, 76, 78, 80, 82

           -------------------------------------------------
          |                Calculation Setup                |
           -------------------------------------------------

          program call               : "c:\Users\Andre\Proyectos doctorado\kras-pancreatic-gC3N4-ai\tools\xtb\xtb-6.7.1\bin\xtb.exe" "c:\Users\Andre\Proyectos doctorado\nano-qsar-ai-therapeutics\calculations\tnbc\Cisplatin\Cisplatin_B36N36_phys_complex.xyz" --gfn 2 --sp --chrg 0 --uhf 0 --etemp 300 --iterations 500 --norestart
          coordinate file            : c:\Users\Andre\Proyectos doctorado\nano-qsar-ai-therapeutics\calculations\tnbc\Cisplatin\Cisplatin_B36N36_phys_complex.xyz
          omp threads                :                    16


molecular fragmentation (1/2 indicates fragments):
111111111112222222222222222222222222222222222222222222222222222222222222
22222222222
# atoms in fragment 1/2:    11    72
 fragment masses (1/2) :      300.05      893.44
CMA distance (Bohr)    :  16.063
constraining FC (au)   :  0.0500

           -------------------------------------------------
          |                 G F N 2 - x T B                 |
           -------------------------------------------------

        Reference                      10.1021/acs.jctc.8b01176
      * Hamiltonian:
        H0-scaling (s, p, d)           1.850000    2.230000    2.230000
        zeta-weighting                 0.500000
      * Dispersion:
        s8                             2.700000
        a1                             0.520000
        a2                             5.000000
        s9                             5.000000
      * Repulsion:
        kExp                           1.500000    1.000000
        rExp                           1.000000
      * Coulomb:
        alpha                          2.000000
        third order                    shell-resolved
        anisotropic                    true
        a3                             3.000000
        a5                             4.000000
        cn-shift                       1.200000
        cn-exp                         4.000000
        max-rad                        5.000000


          ...................................................
          :                      SETUP                      :
          :.................................................:
          :  # basis functions                 332          :
          :  # atomic orbitals                 329          :
          :  # shells                          163          :
          :  # electrons                       328          :
          :  max. iterations                   500          :
          :  Hamiltonian                  GFN2-xTB          :
          :  restarted?                      false          :
          :  GBSA solvation                  false          :
          :  PC potential                    false          :
          :  electronic temp.          300.0000000     K    :
          :  accuracy                    1.0000000          :
          :  -> integral cutoff          0.2500000E+02      :
          :  -> integral neglect         0.1000000E-07      :
          :  -> SCF convergence          0.1000000E-05 Eh   :
          :  -> wf. convergence          0.1000000E-03 e    :
          :  Broyden damping             0.4000000          :
          :  net charge                          0          :
          :  unpaired electrons                  0          :
          ...................................................

 iter      E             dE          RMSdq      gap      omega  full diag
   1   -163.3601883 -0.163360E+03  0.318E+01    0.52       0.0  T
   2   -166.8228483 -0.346266E+01  0.186E+01    0.15       1.0  T
   3   -124.7129592  0.421099E+02  0.213E+01    0.04       1.0  T
   4    -31.2229253  0.934900E+02  0.186E+01    0.12       1.0  T
   5    -88.7869531 -0.575640E+02  0.182E+01    0.05       1.0  T
   6   -147.5531665 -0.587662E+02  0.140E+01    0.19       1.0  T
   7   -124.1644018  0.233888E+02  0.139E+01    0.04       1.0  T
   8   -152.5234700 -0.283591E+02  0.107E+01    0.18       1.0  T
   9   -153.2213407 -0.697871E+00  0.941E+00    0.13       1.0  T
  10   -158.1873325 -0.496599E+01  0.810E+00    0.17       1.0  T
  11   -160.0834611 -0.189613E+01  0.738E+00    0.09       1.0  T
  12   -162.8304681 -0.274701E+01  0.691E+00    0.09       1.0  T
  13   -162.3216440  0.508824E+00  0.679E+00    0.10       1.0  T
  14   -162.0848078  0.236836E+00  0.658E+00    0.34       1.0  T
  15   -168.4559837 -0.637118E+01  0.551E+00    0.09       1.0  T
  16   -167.6678349  0.788149E+00  0.476E+00    0.06       1.0  T
  17   -169.7281469 -0.206031E+01  0.464E+00    0.08       1.0  T
  18   -171.1318519 -0.140370E+01  0.419E+00    0.11       1.0  T
  19   -171.2204251 -0.885732E-01  0.427E+00    0.61       1.0  T
  20   -171.2165508  0.387432E-02  0.422E+00    0.63       1.0  T
  21   -169.3881741  0.182838E+01  0.431E+00    0.12       1.0  T
  22   -171.5134752 -0.212530E+01  0.303E+00    0.16       1.0  T
  23   -171.3082681  0.205207E+00  0.284E+00    0.07       1.0  T
  24   -171.7373487 -0.429081E+00  0.251E+00    0.11       1.0  T
  25   -171.8277218 -0.903731E-01  0.238E+00    0.08       1.0  T
  26   -171.8044984  0.232233E-01  0.239E+00    0.09       1.0  T
  27   -172.1485211 -0.344023E+00  0.239E+00    0.49       1.0  T
  28   -172.1688994 -0.203784E-01  0.218E+00    0.30       1.0  T
  29   -172.1848778 -0.159784E-01  0.184E+00    0.14       1.0  T
  30   -171.8688664  0.316011E+00  0.145E+00    0.10       1.0  T
  31   -172.1903529 -0.321486E+00  0.114E+00    0.02       1.0  T
  32   -172.2122985 -0.219456E-01  0.138E+00    0.10       1.0  T
  33   -172.2239086 -0.116101E-01  0.111E+00    0.05       1.0  T
  34   -172.2232207  0.687871E-03  0.122E+00    0.15       1.0  T
  35   -172.2196091  0.361163E-02  0.123E+00    0.17       1.0  T
  36   -172.2299913 -0.103823E-01  0.110E+00    0.16       1.0  T
  37   -172.2524350 -0.224436E-01  0.670E-01    0.06       1.0  T
  38   -172.2533068 -0.871869E-03  0.629E-01    0.06       1.0  T
  39   -172.2546846 -0.137773E-02  0.634E-01    0.06       1.0  T
  40   -172.2485989  0.608569E-02  0.451E-01    0.04       1.0  T
  41   -172.2629295 -0.143307E-01  0.566E-01    0.11       1.0  T
  42   -172.2631443 -0.214749E-03  0.561E-01    0.10       1.0  T
  43   -172.2700897 -0.694544E-02  0.391E-01    0.10       1.0  T
  44   -172.2703817 -0.292000E-03  0.379E-01    0.10       1.0  T
  45   -172.2720839 -0.170218E-02  0.322E-01    0.09       1.0  T
  46   -172.2725831 -0.499241E-03  0.280E-01    0.09       1.0  T
  47   -172.2742003 -0.161717E-02  0.193E-01    0.09       1.0  T
  48   -172.2742544 -0.540738E-04  0.185E-01    0.09       1.0  T
  49   -172.2747231 -0.468759E-03  0.144E-01    0.09       1.0  T
  50   -172.2744434  0.279730E-03  0.103E-01    0.08       1.0  T
  51   -172.2751765 -0.733045E-03  0.818E-02    0.08       1.0  T
  52   -172.2753402 -0.163724E-03  0.710E-02    0.09       1.0  T
  53   -172.2758599 -0.519754E-03  0.410E-02    0.09       1.0  T
  54   -172.2758965 -0.365515E-04  0.354E-02    0.10       1.0  T
  55   -172.2759535 -0.570037E-04  0.209E-02    0.10       1.0  T
  56   -172.2759300  0.235130E-04  0.248E-02    0.09       1.0  T
  57   -172.2759916 -0.616396E-04  0.833E-03    0.10       1.3  T
  58   -172.2759917 -0.866410E-07  0.860E-03    0.10       1.3  T
  59   -172.2759916  0.998445E-07  0.865E-03    0.10       1.3  T
  60   -172.2759959 -0.425986E-05  0.555E-03    0.10       2.0  T
  61   -172.2759972 -0.132652E-05  0.419E-03    0.10       2.6  T
  62   -172.2759978 -0.628244E-06  0.317E-03    0.10       3.5  T
  63   -172.2759970  0.835193E-06  0.375E-03    0.10       2.9  T
  64   -172.2759977 -0.716268E-06  0.242E-03    0.10       4.5  T
  65   -172.2759981 -0.356469E-06  0.114E-03    0.10       9.6  T
  66   -172.2759982 -0.987791E-07  0.590E-04    0.10      18.6  T
  67   -172.2759982 -0.621495E-08  0.529E-04    0.10      20.8  T

   *** convergence criteria satisfied after 67 iterations ***

         #    Occupation            Energy/Eh            Energy/eV
      -------------------------------------------------------------
         1        2.0000           -1.4024492             -38.1626
       ...           ...                  ...                  ...
       158        2.0000           -0.3147136              -8.5638
       159        2.0000           -0.3115592              -8.4780
       160        2.0000           -0.3097073              -8.4276
       161        2.0000           -0.3072019              -8.3594
       162        2.0000           -0.3048593              -8.2956
       163        2.0000           -0.2981276              -8.1125
       164        1.7392           -0.2701049              -7.3499 (HOMO)
       165        0.2591           -0.2664925              -7.2516 (LUMO)
       166        0.0018           -0.2616341              -7.1194
       167                         -0.2517455              -6.8503
       168                         -0.2512860              -6.8378
       169                         -0.2461134              -6.6971
       ...                                ...                  ...
       329                       1776.7934777           48349.0115
      -------------------------------------------------------------
                  HL-Gap            0.0036124 Eh            0.0983 eV
             Fermi-level           -0.2683024 Eh           -7.3009 eV

 SCC (total)                   0 d,  0 h,  0 min,  1.444 sec
 SCC setup                      ...        0 min,  0.000 sec (  0.000%)
 Dispersion                     ...        0 min,  0.002 sec (  0.138%)
 classical contributions        ...        0 min,  0.000 sec (  0.000%)
 integral evaluation            ...        0 min,  0.008 sec (  0.554%)
 iterations                     ...        0 min,  1.412 sec ( 97.784%)
 molecular gradient             ...        0 min,  0.020 sec (  1.385%)
 printout                       ...        0 min,  0.002 sec (  0.139%)

         :::::::::::::::::::::::::::::::::::::::::::::::::::::
         ::                     SUMMARY                     ::
         :::::::::::::::::::::::::::::::::::::::::::::::::::::
         :: total energy             500.661571002961 Eh    ::
         :: gradient norm           7921.009332785979 Eh/a0 ::
         :: HOMO-LUMO gap              0.098299038185 eV    ::
         ::.................................................::
         :: SCC energy              -172.260780049544 Eh    ::
         :: -> isotropic ES            1.072916328277 Eh    ::
         :: -> anisotropic ES          0.080829249960 Eh    ::
         :: -> anisotropic XC         -0.511684156800 Eh    ::
         :: -> dispersion             -0.157817655423 Eh    ::
         :: repulsion energy         672.922351052505 Eh    ::
         :: add. restraining           0.000000000000 Eh    ::
         :: total charge               0.000000000001 e     ::
         :::::::::::::::::::::::::::::::::::::::::::::::::::::

           -------------------------------------------------
          |                Property Printout                |
           -------------------------------------------------

    * Orbital Energies and Occupations

         #    Occupation            Energy/Eh            Energy/eV
      -------------------------------------------------------------
         1        2.0000           -1.4024492             -38.1626
       ...           ...                  ...                  ...
       152        2.0000           -0.3283154              -8.9339
       153        2.0000           -0.3275216              -8.9123
       154        2.0000           -0.3207852              -8.7290
       155        2.0000           -0.3204215              -8.7191
       156        2.0000           -0.3189465              -8.6790
       157        2.0000           -0.3163138              -8.6073
       158        2.0000           -0.3147136              -8.5638
       159        2.0000           -0.3115592              -8.4780
       160        2.0000           -0.3097073              -8.4276
       161        2.0000           -0.3072019              -8.3594
       162        2.0000           -0.3048593              -8.2956
       163        2.0000           -0.2981276              -8.1125
       164        1.7392           -0.2701049              -7.3499 (HOMO)
       165        0.2591           -0.2664925              -7.2516 (LUMO)
       166        0.0018           -0.2616341              -7.1194
       167                         -0.2517455              -6.8503
       168                         -0.2512860              -6.8378
       169                         -0.2461134              -6.6971
       170                         -0.2342546              -6.3744
       171                         -0.2293598              -6.2412
       172                         -0.2200845              -5.9888
       173                         -0.2154397              -5.8624
       174                         -0.2119467              -5.7674
       175                         -0.2000673              -5.4441
       ...                                ...                  ...
       329                       1776.7934777           48349.0115
      -------------------------------------------------------------
                  HL-Gap            0.0036124 Eh            0.0983 eV
             Fermi-level           -0.2683024 Eh           -7.3009 eV

     #   Z          covCN         q      C6AA      α(0)
     1   7 N        8.877     0.831    10.824     4.886
     2   7 N        8.885     0.879    10.436     4.798
     3  17 Cl       4.389    -0.972   134.623    17.751
     4  78 Pt       8.781    -1.515   577.281    42.124
     5  17 Cl       4.720    -0.707   123.635    17.011
     6   1 H        3.928     0.327     0.629     1.238
     7   1 H        4.431     0.084     1.925     2.166
     8   1 H        4.429     0.478     0.356     0.931
     9   1 H        4.503     0.332     0.618     1.227
    10   1 H        4.223     0.294     0.720     1.325
    11   1 H        3.678     0.208     1.051     1.601
    12   5 B        2.781     0.076    20.203     7.515
    13   7 N        2.774    -0.227    25.966     7.568
    14   5 B        2.788     0.087    20.007     7.477
    15   7 N        2.524    -0.318    28.219     7.889
    16   5 B        2.779     0.069    20.320     7.537
    17   7 N        2.655    -0.282    27.271     7.756
    18   5 B        2.849     0.241    17.671     7.019
    19   7 N        2.529    -0.273    27.089     7.730
    20   5 B        3.195     0.141    19.063     7.282
    21   7 N        2.979    -0.116    23.530     7.204
    22   5 B        2.644     0.372    16.333     6.815
    23   7 N        2.669    -0.213    25.636     7.520
    24   5 B        3.181     0.016    21.098     7.661
    25   7 N        2.888    -0.209    25.533     7.505
    26   5 B        3.009     0.211    18.051     7.087
    27   7 N        2.660    -0.165    24.565     7.361
    28   5 B        2.906     0.323    16.567     6.792
    29   7 N        3.156    -0.109    23.384     7.182
    30   5 B        2.779     0.090    19.970     7.472
    31   7 N        3.037    -0.138    23.985     7.274
    32   5 B        2.758     0.083    20.111     7.503
    33   7 N        2.634    -0.313    28.050     7.866
    34   5 B        3.040     0.225    17.849     7.047
    35   7 N        2.981    -0.038    21.979     6.963
    36   5 B        2.582     0.326    17.303     7.086
    37   7 N        2.596    -0.364    29.396     8.052
    38   5 B        3.287     0.342    16.306     6.734
    39   7 N        2.784    -0.243    26.334     7.622
    40   5 B        2.559     0.329    17.475     7.160
    41   7 N        2.579    -0.377    29.743     8.100
    42   5 B        2.530     0.303    18.204     7.373
    43   7 N        2.665    -0.208    25.520     7.503
    44   5 B        2.698     0.197    18.494     7.217
    45   7 N        2.844    -0.172    24.713     7.383
    46   5 B        2.758     0.081    20.156     7.512
    47   7 N        2.672    -0.172    24.725     7.385
    48   5 B        2.877     0.107    19.630     7.396
    49   7 N        2.663    -0.155    24.346     7.328
    50   5 B        2.594     0.310    17.408     7.090
    51   7 N        2.519    -0.352    29.103     8.012
    52   5 B        2.684     0.184    18.712     7.267
    53   7 N        3.008    -0.129    23.787     7.244
    54   5 B        2.677     0.212    18.326     7.195
    55   7 N        2.716    -0.258    26.698     7.674
    56   5 B        2.647     0.162    19.196     7.386
    57   7 N        2.825    -0.215    25.674     7.526
    58   5 B        3.321     0.228    17.802     7.036
    59   7 N        2.531    -0.285    27.391     7.772
    60   5 B        2.950     0.035    20.793     7.608
    61   7 N        2.783    -0.190    25.112     7.443
    62   5 B        2.796     0.079    20.135     7.500
    63   7 N        2.673    -0.159    24.450     7.344
    64   5 B        3.021     0.210    18.055     7.088
    65   7 N        3.272     0.014    21.003     6.807
    66   5 B        2.869     0.317    16.649     6.812
    67   7 N        3.154    -0.120    23.595     7.214
    68   5 B        3.263     0.323    16.552     6.785
    69   7 N        2.833    -0.067    22.539     7.051
    70   5 B        3.303     0.231    17.758     7.027
    71   7 N        2.656    -0.183    24.974     7.422
    72   5 B        2.838     0.110    19.602     7.394
    73   7 N        2.834    -0.220    25.795     7.543
    74   5 B        2.863     0.251    17.525     6.989
    75   7 N        2.654    -0.242    26.328     7.621
    76   5 B        3.011     0.110    19.561     7.378
    77   7 N        3.153    -0.090    22.982     7.120
    78   5 B        2.674     0.202    18.489     7.229
    79   7 N        2.696    -0.274    27.075     7.728
    80   5 B        2.585     0.376    16.634     6.944
    81   7 N        2.881    -0.188    25.074     7.437
    82   5 B        2.825     0.105    19.688     7.412
    83   7 N        2.827    -0.255    26.612     7.662

 Mol. C6AA /au·bohr⁶  :     155331.141558
 Mol. C8AA /au·bohr⁸  :    5134419.362792
 Mol. α(0) /au        :        624.692765


Wiberg/Mayer (AO) data.
largest (>0.10) Wiberg bond orders for each atom

 ---------------------------------------------------------------------------
     #   Z sym  total        # sym  WBO       # sym  WBO       # sym  WBO
 ---------------------------------------------------------------------------
     1   7 N    3.995 --     2 N    4.291
     2   7 N    4.000 --     1 N    4.291
     3  17 Cl   1.709 --     8 H    0.487    10 H    0.479     4 Pt   0.398
                             5 Cl   0.217     6 H    0.117
     4  78 Pt   1.209 --     5 Cl   0.875     3 Cl   0.398    11 H    0.234
                             6 H    0.116
     5  17 Cl   1.894 --     4 Pt   0.875     7 H    0.360     9 H    0.346
                             3 Cl   0.217    11 H    0.123     6 H    0.101
     6   1 H    0.860 --    11 H    0.498     3 Cl   0.117     4 Pt   0.116
                             5 Cl   0.101
     7   1 H    0.994 --     9 H    0.563     5 Cl   0.360
     8   1 H    0.764 --     3 Cl   0.487    10 H    0.297
     9   1 H    0.890 --     7 H    0.563     5 Cl   0.346
    10   1 H    0.866 --     3 Cl   0.479     8 H    0.297
    11   1 H    0.941 --     6 H    0.498     4 Pt   0.234     5 Cl   0.123
    12   5 B    3.472 --    81 N    1.274    64 B    1.002    58 B    0.967
    13   7 N    3.401 --    58 B    1.152    71 N    1.008    70 B    0.991
    14   5 B    3.468 --    59 N    1.281    82 B    0.982    70 B    0.963
    15   7 N    3.526 --    72 B    1.152    74 B    1.141    42 B    1.027
    16   5 B    3.471 --    49 N    1.239    78 B    0.995    52 B    0.991
    17   7 N    3.252 --    38 B    1.197    80 B    0.961    75 N    0.887
    18   5 B    3.402 --    51 N    1.180    25 N    1.027    34 B    0.965
    19   7 N    3.568 --    32 B    1.282    20 B    1.148    76 B    0.977
    20   5 B    3.344 --    19 N    1.148    62 B    0.934    60 B    0.635
                            24 B    0.286
    21   7 N    3.307 --    26 B    1.098    65 N    1.043    77 N    0.945
    22   5 B    3.429 --    23 N    1.194    33 N    1.118    61 N    0.959
    23   7 N    3.444 --    22 B    1.194    50 B    1.086    63 N    0.965
    24   5 B    3.450 --    60 B    1.284    76 B    1.008    74 B    0.634
                            20 B    0.286
    25   7 N    3.443 --    28 B    1.251    18 B    1.027    39 N    0.934
    26   5 B    3.375 --    21 N    1.098    45 N    1.046    72 B    1.004
    27   7 N    3.495 --    30 B    1.190    50 B    1.130    47 N    0.997
    28   5 B    3.509 --    25 N    1.251    53 N    1.044    73 N    1.009
    29   7 N    3.333 --    78 B    1.146    31 N    0.980    81 N    0.980
    30   5 B    3.394 --    27 N    1.190    48 B    1.008    62 B    0.931
    31   7 N    3.292 --    66 B    1.108    29 N    0.980    35 N    0.970
    32   5 B    3.453 --    19 N    1.282    46 B    0.980    56 B    0.934
    33   7 N    3.215 --    22 B    1.118    36 B    1.075    61 N    0.791
    34   5 B    3.364 --    47 N    1.160    39 N    0.983    18 B    0.965
    35   7 N    3.099 --    53 N    1.012    31 N    0.970    79 N    0.931
    36   5 B    3.508 --    73 N    1.234    33 N    1.075    51 N    0.994
    37   7 N    3.431 --    42 B    1.203    70 B    1.054    58 B    0.930
    38   5 B    3.478 --    17 N    1.197    55 N    1.037    41 N    0.987
    39   7 N    3.296 --    44 B    1.186    34 B    0.983    25 N    0.934
    40   5 B    3.517 --    75 N    1.215    79 N    1.096    67 N    1.044
    41   7 N    3.422 --    54 B    1.205    68 B    0.994    38 B    0.987
    42   5 B    3.517 --    37 N    1.203    83 N    1.087    15 N    1.027
    43   7 N    3.449 --    80 B    1.273    54 B    0.999    69 N    0.988
    44   5 B    3.433 --    39 N    1.186    71 N    1.103    82 B    0.922
    45   7 N    3.456 --    46 B    1.246    26 B    1.046    77 N    0.981
    46   5 B    3.403 --    45 N    1.246    32 B    0.980    54 B    0.958
    47   7 N    3.512 --    82 B    1.168    34 B    1.160    27 N    0.997
    48   5 B    3.334 --    30 B    1.008    60 B    1.006    59 N    0.959
    49   7 N    3.504 --    16 B    1.239    52 B    1.087    55 N    1.037
    50   5 B    3.514 --    27 N    1.130    51 N    1.097    23 N    1.086
    51   7 N    3.479 --    18 B    1.180    50 B    1.097    36 B    0.994
    52   5 B    3.466 --    57 N    1.184    49 N    1.087    16 B    0.991
    53   7 N    3.248 --    28 B    1.044    35 N    1.012    67 N    0.976
    54   5 B    3.376 --    41 N    1.205    43 N    0.999    46 B    0.958
    55   7 N    3.362 --    49 N    1.037    38 B    1.037    68 B    0.974
    56   5 B    3.435 --    69 N    1.169    63 N    1.092    32 B    0.934
    57   7 N    3.403 --    52 B    1.184    64 B    1.064    65 N    0.960
    58   5 B    3.371 --    13 N    1.152    12 B    0.967    37 N    0.930
                            70 B    0.126
    59   7 N    3.560 --    14 B    1.281    74 B    1.106    48 B    0.959
    60   5 B    3.357 --    24 B    1.284    48 B    1.006    20 B    0.635
                            74 B    0.183
    61   7 N    2.978 --    69 N    1.046    22 B    0.959    33 N    0.791
    62   5 B    3.416 --    63 N    1.242    20 B    0.934    30 B    0.931
    63   7 N    3.463 --    62 B    1.242    56 B    1.092    23 N    0.965
    64   5 B    3.445 --    83 N    1.140    57 N    1.064    12 B    1.002
    65   7 N    3.185 --    21 N    1.043    57 N    0.960    83 N    0.951
    66   5 B    3.513 --    71 N    1.180    31 N    1.108    81 N    0.999
    67   7 N    3.222 --    40 B    1.044    73 N    0.981    53 N    0.976
    68   5 B    3.506 --    77 N    1.274    41 N    0.994    55 N    0.974
    69   7 N    3.412 --    56 B    1.169    61 N    1.046    43 N    0.988
    70   5 B    3.313 --    37 N    1.054    13 N    0.991    14 B    0.963
                            58 B    0.126
    71   7 N    3.490 --    66 B    1.180    44 B    1.103    13 N    1.008
    72   5 B    3.386 --    15 N    1.152    26 B    1.004    76 B    1.002
    73   7 N    3.439 --    36 B    1.234    28 B    1.009    67 N    0.981
    74   5 B    3.434 --    15 N    1.141    59 N    1.106    24 B    0.634
                            60 B    0.183    76 B    0.124
    75   7 N    3.325 --    40 B    1.215    80 B    1.023    17 N    0.887
    76   5 B    3.333 --    24 B    1.008    72 B    1.002    19 N    0.977
                            74 B    0.124
    77   7 N    3.442 --    68 B    1.274    45 N    0.981    21 N    0.945
    78   5 B    3.448 --    29 N    1.146    79 N    1.103    16 B    0.995
    79   7 N    3.352 --    78 B    1.103    40 B    1.096    35 N    0.931
    80   5 B    3.436 --    43 N    1.273    75 N    1.023    17 N    0.961
    81   7 N    3.460 --    12 B    1.274    66 B    0.999    29 N    0.980
    82   5 B    3.356 --    47 N    1.168    14 B    0.982    44 B    0.922
    83   7 N    3.417 --    64 B    1.140    42 B    1.087    65 N    0.951
 ---------------------------------------------------------------------------

Topologies differ in total number of bonds
Writing topology from bond orders to xtbtopo.mol

molecular dipole:
                 x           y           z       tot (Debye)
 q only:        2.218       0.604      -0.096
   full:        0.466      -7.528       3.163      20.787
molecular quadrupole (traceless):
                xx          xy          yy          xz          yz          zz
 q only:      -64.277      -9.917     -31.162      15.515     -60.566      95.438
  q+dip:      -86.652     -18.108     -48.015      10.355    -222.166     134.667
   full:      -79.657     -16.863     -48.067      14.173    -222.511     127.724


           -------------------------------------------------
          | TOTAL ENERGY              500.661571002961 Eh   |
          | GRADIENT NORM            7921.009332785979 Eh/α |
          | HOMO-LUMO GAP               0.098299038185 eV   |
           -------------------------------------------------

------------------------------------------------------------------------
 * finished run on 2026/08/31 at 21:13:10.564     
------------------------------------------------------------------------
 total:
 * wall-time:     0 d,  0 h,  0 min,  1.493 sec
 *  cpu-time:     0 d,  0 h,  0 min, 14.047 sec
 * ratio c/w:     9.408 speedup
 SCF:
 * wall-time:     0 d,  0 h,  0 min,  1.446 sec
 *  cpu-time:     0 d,  0 h,  0 min, 13.547 sec
 * ratio c/w:     9.369 speedup

normal termination of xtb
