11
Cisplatin - ETKDG+MMFF conformer
N      0.008508     -0.009384      0.282149
N      0.000164      0.014828      0.253842
Cl     -1.688279     -0.730913      0.000000
Pt     -0.015213      0.944843      0.000000
Cl      1.703492      0.492474      0.000000
H     -0.060188      0.968597     -0.091913
H      0.886550     -0.450234     -0.097578
H     -0.834869     -0.508979     -0.092657
H      0.972749     -0.165353     -0.084275
H     -0.596786     -0.781318     -0.081908
H     -0.376127      0.931842     -0.087659
