      -----------------------------------------------------------      
     |                   =====================                   |     
     |                           x T B                           |     
     |                   =====================                   |     
     |                         S. Grimme                         |     
     |          Mulliken Center for Theoretical Chemistry        |     
     |                    University of Bonn                     |     
      -----------------------------------------------------------      

   * xtb version 6.7.1pre (5071a88) compiled by 'Marcel@Raven' on 2024-07-23

   xtb is free software: you can redistribute it and/or modify it under
   the terms of the GNU Lesser General Public License as published by
   the Free Software Foundation, either version 3 of the License, or
   (at your option) any later version.
   
   xtb is distributed in the hope that it will be useful,
   but WITHOUT ANY WARRANTY; without even the implied warranty of
   MERCHANTABILITY or FITNESS FOR A PARTICULAR PURPOSE.  See the
   GNU Lesser General Public License for more details.
   
   Cite this work as:
   * C. Bannwarth, E. Caldeweyher, S. Ehlert, A. Hansen, P. Pracht,
     J. Seibert, S. Spicher, S. Grimme, WIREs Comput. Mol. Sci., 2020, 11,
     e01493. DOI: 10.1002/wcms.1493
   
   for GFN2-xTB:
   * C. Bannwarth, S. Ehlert and S. Grimme., J. Chem. Theory Comput., 2019,
     15, 1652-1671. DOI: 10.1021/acs.jctc.8b01176
   for GFN1-xTB:
   * S. Grimme, C. Bannwarth, P. Shushkov, J. Chem. Theory Comput., 2017,
     13, 1989-2009. DOI: 10.1021/acs.jctc.7b00118
   for GFN0-xTB:
   * P. Pracht, E. Caldeweyher, S. Ehlert, S. Grimme, ChemRxiv, 2019, preprint.
     DOI: 10.26434/chemrxiv.8326202.v1
   for GFN-FF:
   * S. Spicher and S. Grimme, Angew. Chem. Int. Ed., 2020, 59, 15665-15673.
     DOI: 10.1002/anie.202004239
   
   for ALPB and GBSA implicit solvation:
   * S. Ehlert, M. Stahn, S. Spicher, S. Grimme, J. Chem. Theory Comput.,
     2021, 17, 4250-4261. DOI: 10.1021/acs.jctc.1c00471
   
   for ddCOSMO and CPCM-X implicit solvation:
   * M. Stahn, S. Ehlert, S. Grimme, J. Phys. Chem. A,
     2023, XX, XXXX-XXXX. DOI: 10.1021/acs.jpca.3c04382
   
   for DFT-D4:
   * E. Caldeweyher, C. Bannwarth and S. Grimme, J. Chem. Phys., 2017,
     147, 034112. DOI: 10.1063/1.4993215
   * E. Caldeweyher, S. Ehlert, A. Hansen, H. Neugebauer, S. Spicher,
     C. Bannwarth and S. Grimme, J. Chem. Phys., 2019, 150, 154122.
     DOI: 10.1063/1.5090222
   * E. Caldeweyher, J.-M. Mewes, S. Ehlert and S. Grimme, Phys. Chem. Chem. Phys.
     2020, 22, 8499-8512. DOI: 10.1039/D0CP00502A
   
   for sTDA-xTB:
   * S. Grimme and C. Bannwarth, J. Chem. Phys., 2016, 145, 054103.
     DOI: 10.1063/1.4959605
   
   in the mass-spec context:
   * V. Asgeirsson, C. Bauer and S. Grimme, Chem. Sci., 2017, 8, 4879.
     DOI: 10.1039/c7sc00601b
   * J. Koopman and S. Grimme, ACS Omega 2019, 4, 12, 15120-15133.
     DOI: 10.1021/acsomega.9b02011
   
   for metadynamics refer to:
   * S. Grimme, J. Chem. Theory Comput., 2019, 155, 2847-2862
     DOI: 10.1021/acs.jctc.9b00143
   
   for SPH calculations refer to:
   * S. Spicher and S. Grimme, J. Chem. Theory Comput., 2021, 17, 1701-1714
     DOI: 10.1021/acs.jctc.0c01306
   
   for ONIOM refer to:
   * C. Plett, A. Katbashev, S. Ehlert, S. Grimme, M. Bursch,
     Phys. Chem. Chem. Phys., 2023, 25, 17860-17868. DOI: 10.1039/D3CP02178E
   
   for DIPRO refer to:
   * J. Kohn, N. Gildemeister, S. Grimme, D. Fazzi, A. Hansen,
     J. Chem. Phys., 2023, just accepted.
   
   for PTB refer to:
   * S. Grimme, M. Mueller, A. Hansen, J. Chem. Phys., 2023, 158, 124111.
     DOI: 10.1063/5.0137838
   
   with help from (in alphabetical order)
   P. Atkinson, C. Bannwarth, F. Bohle, G. Brandenburg, E. Caldeweyher
   M. Checinski, S. Dohm, S. Ehlert, S. Ehrlich, I. Gerasimov, C. Hölzer
   A. Katbashev, J. Kohn, J. Koopman, C. Lavigne, S. Lehtola, F. März, M. Müller,
   F. Musil, H. Neugebauer, J. Pisarek, C. Plett, P. Pracht, F. Pultar,
   J. Seibert, P. Shushkov, S. Spicher, M. Stahn, M. Steiner, T. Strunk,
   J. Stückrath, T. Rose, and J. Unsleber
   
 * started run on 2026/08/31 at 18:25:35.826     
   ID    Z sym.   atoms
    1    7 N      1, 2, 62-97
    2    8 O      3, 5, 11, 12
    3    6 C      4, 6-10
    4   78 Pt     13
    5    1 H      14-25
    6    5 B      26-61

           -------------------------------------------------
          |                Calculation Setup                |
           -------------------------------------------------

          program call               : "c:\Users\Andre\Proyectos doctorado\kras-pancreatic-gC3N4-ai\tools\xtb\xtb-6.7.1\bin\xtb.exe" "c:\Users\Andre\Proyectos doctorado\nano-qsar-ai-therapeutics\calculations\tnbc\Carboplatin\Carboplatin_B36N36_complex.xyz" --gfn 2 --sp --chrg 0 --uhf 0 --iterations 500 --norestart
          coordinate file            : c:\Users\Andre\Proyectos doctorado\nano-qsar-ai-therapeutics\calculations\tnbc\Carboplatin\Carboplatin_B36N36_complex.xyz
          omp threads                :                    16


molecular fragmentation (1/2 indicates fragments):
111111111111111111111111111111111111111221212111111111111111111111111111
1112212121111111111111111
# atoms in fragment 1/2:    89     8
 fragment masses (1/2) :     1165.42       99.27
CMA distance (Bohr)    :   7.124
constraining FC (au)   :  0.0500

           -------------------------------------------------
          |                 G F N 2 - x T B                 |
           -------------------------------------------------

        Reference                      10.1021/acs.jctc.8b01176
      * Hamiltonian:
        H0-scaling (s, p, d)           1.850000    2.230000    2.230000
        zeta-weighting                 0.500000
      * Dispersion:
        s8                             2.700000
        a1                             0.520000
        a2                             5.000000
        s9                             5.000000
      * Repulsion:
        kExp                           1.500000    1.000000
        rExp                           1.000000
      * Coulomb:
        alpha                          2.000000
        third order                    shell-resolved
        anisotropic                    true
        a3                             3.000000
        a5                             4.000000
        cn-shift                       1.200000
        cn-exp                         4.000000
        max-rad                        5.000000


          ...................................................
          :                      SETUP                      :
          :.................................................:
          :  # basis functions                 358          :
          :  # atomic orbitals                 357          :
          :  # shells                          183          :
          :  # electrons                       368          :
          :  max. iterations                   500          :
          :  Hamiltonian                  GFN2-xTB          :
          :  restarted?                      false          :
          :  GBSA solvation                  false          :
          :  PC potential                    false          :
          :  electronic temp.          300.0000000     K    :
          :  accuracy                    1.0000000          :
          :  -> integral cutoff          0.2500000E+02      :
          :  -> integral neglect         0.1000000E-07      :
          :  -> SCF convergence          0.1000000E-05 Eh   :
          :  -> wf. convergence          0.1000000E-03 e    :
          :  Broyden damping             0.4000000          :
          :  net charge                          0          :
          :  unpaired electrons                  0          :
          ...................................................

 iter      E             dE          RMSdq      gap      omega  full diag
   1   -188.1017839 -0.188102E+03  0.164E+01    0.13       0.0  T
   2   -189.4359854 -0.133420E+01  0.107E+01    0.25       1.0  T
   3   -157.4962065  0.319398E+02  0.103E+01    0.25       1.0  T
   4   -172.6973946 -0.152012E+02  0.702E+00    0.14       1.0  T
   5   -178.9566575 -0.625926E+01  0.530E+00    0.02       1.0  T
   6   -189.8486282 -0.108920E+02  0.330E+00    0.04       1.0  T
   7   -191.3574233 -0.150880E+01  0.280E+00    0.14       1.0  T
   8   -193.4875280 -0.213010E+01  0.200E+00    0.15       1.0  T
   9   -194.3750086 -0.887481E+00  0.139E+00    0.19       1.0  T
  10   -194.3799356 -0.492693E-02  0.128E+00    0.15       1.0  T
  11   -194.2629048  0.117031E+00  0.108E+00    0.22       1.0  T
  12   -194.4296130 -0.166708E+00  0.700E-01    0.10       1.0  T
  13   -194.4911326 -0.615196E-01  0.480E-01    0.11       1.0  T
  14   -194.5185456 -0.274130E-01  0.316E-01    0.06       1.0  T
  15   -194.5389168 -0.203712E-01  0.193E-01    0.09       1.0  T
  16   -194.5421335 -0.321666E-02  0.153E-01    0.07       1.0  T
  17   -194.5407803  0.135319E-02  0.153E-01    0.08       1.0  T
  18   -194.5397997  0.980581E-03  0.122E-01    0.05       1.0  T
  19   -194.5431232 -0.332351E-02  0.832E-02    0.08       1.0  T
  20   -194.5410021  0.212110E-02  0.103E-01    0.08       1.0  T
  21   -194.5432264 -0.222427E-02  0.612E-02    0.08       1.0  T
  22   -194.5437232 -0.496791E-03  0.381E-02    0.08       1.0  T
  23   -194.5439096 -0.186388E-03  0.181E-02    0.07       1.0  T
  24   -194.5439915 -0.819145E-04  0.756E-03    0.07       1.3  T
  25   -194.5439885  0.293428E-05  0.948E-03    0.07       1.1  T
  26   -194.5439999 -0.113985E-04  0.573E-03    0.07       1.8  T
  27   -194.5440061 -0.614691E-05  0.203E-03    0.07       5.0  T
  28   -194.5440066 -0.535054E-06  0.952E-04    0.07      10.7  T
  29   -194.5440068 -0.213524E-06  0.654E-04    0.07      15.5  T

   *** convergence criteria satisfied after 29 iterations ***

         #    Occupation            Energy/Eh            Energy/eV
      -------------------------------------------------------------
         1        2.0000           -1.8230451             -49.6076
       ...           ...                  ...                  ...
       178        2.0000           -0.2276715              -6.1953
       179        2.0000           -0.2268400              -6.1726
       180        2.0000           -0.2166323              -5.8949
       181        2.0000           -0.2020051              -5.4968
       182        2.0000           -0.1972866              -5.3684
       183        1.9974           -0.1833884              -4.9903
       184        1.5577           -0.1782806              -4.8513 (HOMO)
       185        0.3466           -0.1756000              -4.7783 (LUMO)
       186        0.0983           -0.1742698              -4.7421
       187        0.0000           -0.1635241              -4.4497
       188                         -0.1574692              -4.2850
       189                         -0.1491020              -4.0573
       ...                                ...                  ...
       357                       3811.4437449          103714.6633
      -------------------------------------------------------------
                  HL-Gap            0.0026806 Eh            0.0729 eV
             Fermi-level           -0.1770844 Eh           -4.8187 eV

 SCC (total)                   0 d,  0 h,  0 min,  0.591 sec
 SCC setup                      ...        0 min,  0.001 sec (  0.169%)
 Dispersion                     ...        0 min,  0.003 sec (  0.508%)
 classical contributions        ...        0 min,  0.000 sec (  0.000%)
 integral evaluation            ...        0 min,  0.012 sec (  2.030%)
 iterations                     ...        0 min,  0.548 sec ( 92.724%)
 molecular gradient             ...        0 min,  0.025 sec (  4.230%)
 printout                       ...        0 min,  0.002 sec (  0.338%)

         :::::::::::::::::::::::::::::::::::::::::::::::::::::
         ::                     SUMMARY                     ::
         :::::::::::::::::::::::::::::::::::::::::::::::::::::
         :: total energy             574.196901475113 Eh    ::
         :: gradient norm          14106.755472881410 Eh/a0 ::
         :: HOMO-LUMO gap              0.072943254229 eV    ::
         ::.................................................::
         :: SCC energy              -194.512992153682 Eh    ::
         :: -> isotropic ES            2.186260409820 Eh    ::
         :: -> anisotropic ES          0.051128409396 Eh    ::
         :: -> anisotropic XC          0.378421142372 Eh    ::
         :: -> dispersion             -0.293325433603 Eh    ::
         :: repulsion energy         768.709893628795 Eh    ::
         :: add. restraining           0.000000000000 Eh    ::
         :: total charge               0.000000000000 e     ::
         :::::::::::::::::::::::::::::::::::::::::::::::::::::

           -------------------------------------------------
          |                Property Printout                |
           -------------------------------------------------

    * Orbital Energies and Occupations

         #    Occupation            Energy/Eh            Energy/eV
      -------------------------------------------------------------
         1        2.0000           -1.8230451             -49.6076
       ...           ...                  ...                  ...
       172        2.0000           -0.2712231              -7.3804
       173        2.0000           -0.2607910              -7.0965
       174        2.0000           -0.2504251              -6.8144
       175        2.0000           -0.2493880              -6.7862
       176        2.0000           -0.2463545              -6.7036
       177        2.0000           -0.2373974              -6.4599
       178        2.0000           -0.2276715              -6.1953
       179        2.0000           -0.2268400              -6.1726
       180        2.0000           -0.2166323              -5.8949
       181        2.0000           -0.2020051              -5.4968
       182        2.0000           -0.1972866              -5.3684
       183        1.9974           -0.1833884              -4.9903
       184        1.5577           -0.1782806              -4.8513 (HOMO)
       185        0.3466           -0.1756000              -4.7783 (LUMO)
       186        0.0983           -0.1742698              -4.7421
       187        0.0000           -0.1635241              -4.4497
       188                         -0.1574692              -4.2850
       189                         -0.1491020              -4.0573
       190                         -0.1384120              -3.7664
       191                         -0.1354223              -3.6850
       192                         -0.1282113              -3.4888
       193                         -0.1240398              -3.3753
       194                         -0.1162074              -3.1622
       195                         -0.1130326              -3.0758
       ...                                ...                  ...
       357                       3811.4437449          103714.6633
      -------------------------------------------------------------
                  HL-Gap            0.0026806 Eh            0.0729 eV
             Fermi-level           -0.1770844 Eh           -4.8187 eV

     #   Z          covCN         q      C6AA      α(0)
     1   7 N       10.877     1.759     5.585     3.510
     2   7 N       10.900     1.842     5.286     3.415
     3   8 O        4.718     0.292    11.200     4.520
     4   6 C        5.189    -0.529    32.768     8.130
     5   8 O        5.153    -1.003    37.150     8.232
     6   6 C       11.397    -0.144    23.176     6.837
     7   6 C        7.568    -0.694    38.336     8.793
     8   6 C        6.012    -0.331    27.335     7.425
     9   6 C        8.003    -0.972    50.497    10.092
    10   6 C        6.191    -0.839    44.171     9.439
    11   8 O        1.470    -0.651    26.609     6.954
    12   8 O        3.154    -0.520    23.268     6.515
    13  78 Pt       9.591     1.437   238.777    27.091
    14   1 H        4.916    -0.007     3.169     2.779
    15   1 H        5.010     0.114     1.652     2.007
    16   1 H        4.977     0.515     0.313     0.873
    17   1 H        4.772     0.513     0.315     0.876
    18   1 H        5.213     0.075     2.021     2.219
    19   1 H        5.048     0.096     1.811     2.101
    20   1 H        0.923     0.161     1.322     1.798
    21   1 H        0.922     0.176     1.231     1.735
    22   1 H        0.959     0.158     1.338     1.808
    23   1 H        0.920     0.187     1.168     1.690
    24   1 H        0.922     0.273     0.795     1.394
    25   1 H        0.923     0.078     2.001     2.212
    26   5 B        6.041    -0.043    23.562     7.821
    27   5 B        5.102     0.038    22.048     7.566
    28   5 B        5.102     0.047    21.889     7.538
    29   5 B        5.102     0.014    22.478     7.639
    30   5 B        5.493     0.199    19.385     7.094
    31   5 B        7.465     0.317    17.707     6.780
    32   5 B        6.387    -0.400    32.186     9.141
    33   5 B        5.102     0.023    22.318     7.612
    34   5 B        5.102     0.067    21.542     7.478
    35   5 B        5.208     0.086    21.200     7.419
    36   5 B        5.103     0.053    21.781     7.520
    37   5 B        5.160     0.101    20.947     7.374
    38   5 B        1.850     0.058    42.446    13.722
    39   5 B        1.852     0.084    41.560    13.578
    40   5 B        1.850     0.087    41.474    13.564
    41   5 B        1.850     0.067    42.149    13.674
    42   5 B        1.853     0.070    42.030    13.654
    43   5 B        1.851     0.091    41.324    13.540
    44   5 B        1.850    -0.045    46.212    14.318
    45   5 B        1.850     0.059    42.408    13.716
    46   5 B        2.461     0.254    20.323     8.023
    47   5 B        1.850     0.031    43.402    13.876
    48   5 B        3.220     0.163    18.737     7.219
    49   5 B        1.850     0.011    44.118    13.990
    50   5 B        4.412     0.260    18.497     6.930
    51   5 B        4.397     0.221    19.064     7.035
    52   5 B        4.703     0.167    19.892     7.186
    53   5 B        4.397     0.226    18.994     7.022
    54   5 B        6.084     0.388    16.788     6.602
    55   5 B        5.585    -0.046    23.628     7.832
    56   5 B        4.397     0.311    17.783     6.795
    57   5 B        5.549     0.330    17.540     6.748
    58   5 B        4.397     0.236    18.845     6.995
    59   5 B        4.397     0.261    18.477     6.926
    60   5 B        4.398     0.284    18.165     6.867
    61   5 B        4.449     0.281    18.206     6.875
    62   7 N        4.752    -0.033    21.879     6.947
    63   7 N        4.372    -0.024    21.705     6.920
    64   7 N        4.372    -0.015    21.544     6.894
    65   7 N        4.372    -0.030    21.809     6.936
    66   7 N        4.374    -0.142    24.058     7.285
    67   7 N        5.913     0.033    20.667     6.752
    68   7 N        5.246     0.220    17.638     6.238
    69   7 N        4.372    -0.005    21.355     6.863
    70   7 N        4.372    -0.031    21.835     6.940
    71   7 N        4.372    -0.037    21.943     6.957
    72   7 N        4.372    -0.040    22.001     6.967
    73   7 N        4.372    -0.052    22.243     7.005
    74   7 N        0.932    -0.157    24.289     7.116
    75   7 N        0.932    -0.166    24.482     7.145
    76   7 N        0.932    -0.114    23.376     6.981
    77   7 N        0.932    -0.108    23.256     6.964
    78   7 N        0.932    -0.141    23.938     7.065
    79   7 N        0.932    -0.094    22.966     6.920
    80   7 N        0.932    -0.086    22.819     6.898
    81   7 N        0.932    -0.105    23.189     6.954
    82   7 N        0.958    -0.331    28.209     7.654
    83   7 N        0.932    -0.109    23.287     6.968
    84   7 N        1.113    -0.299    26.592     7.355
    85   7 N        0.932    -0.107    23.245     6.962
    86   7 N        3.977    -0.368    29.473     8.063
    87   7 N        3.977    -0.317    28.146     7.880
    88   7 N        3.978    -0.306    27.854     7.839
    89   7 N        3.977    -0.312    28.021     7.862
    90   7 N        4.539    -0.434    31.307     8.310
    91   7 N        4.847    -0.356    29.165     8.021
    92   7 N        3.977    -0.405    30.476     8.199
    93   7 N        4.353    -0.524    34.052     8.667
    94   7 N        3.977    -0.321    28.245     7.893
    95   7 N        3.977    -0.324    28.316     7.903
    96   7 N        3.977    -0.342    28.793     7.970
    97   7 N        3.977    -0.350    28.999     7.998

 Mol. C6AA /au·bohr⁶  :     201228.101341
 Mol. C8AA /au·bohr⁸  :    6189265.332446
 Mol. α(0) /au        :        724.402486


Wiberg/Mayer (AO) data.
largest (>0.10) Wiberg bond orders for each atom

 ---------------------------------------------------------------------------
     #   Z sym  total        # sym  WBO       # sym  WBO       # sym  WBO
 ---------------------------------------------------------------------------
     1   7 N    3.819 --     2 N    2.583     6 C    0.997     7 C    0.101
     2   7 N    3.794 --     1 N    2.583     6 C    1.090
     3   8 O    2.944 --    31 B    0.928     4 C    0.765    67 N    0.620
                            57 B    0.235    48 B    0.173
     4   6 C    2.694 --     3 O    0.765     5 O    0.691    13 Pt   0.555
                            31 B    0.147    67 N    0.121
     5   8 O    1.490 --     4 C    0.691     6 C    0.223    17 H    0.103
     6   6 C    3.700 --     2 N    1.090     1 N    0.997     7 C    0.449
                             9 C    0.252     5 O    0.223    10 C    0.220
                            16 H    0.165    17 H    0.119
     7   6 C    3.782 --     8 C    0.957    21 H    0.884    20 H    0.872
                             6 C    0.449     1 N    0.101
     8   6 C    3.751 --     7 C    0.957    23 H    0.861    22 H    0.828
                             9 C    0.468
     9   6 C    2.618 --    24 H    0.657    25 H    0.512     8 C    0.468
                             6 C    0.252
    10   6 C    2.888 --    11 O    1.102    12 O    0.805     6 C    0.220
    11   8 O    1.613 --    10 C    1.102    46 B    0.167
    12   8 O    2.135 --    10 C    0.805    13 Pt   0.422    54 B    0.354
                            90 N    0.106    32 B    0.103
    13  78 Pt   2.957 --     4 C    0.555    55 B    0.466    12 O    0.422
                            32 B    0.249    68 N    0.203    26 B    0.176
                            91 N    0.147
    14   1 H    0.999 --    18 H    0.924
    15   1 H    0.985 --    19 H    0.797
    16   1 H    0.695 --    17 H    0.226     6 C    0.165
    17   1 H    0.699 --    16 H    0.226     6 C    0.119     5 O    0.103
    18   1 H    0.994 --    14 H    0.924
    19   1 H    0.990 --    15 H    0.797
    20   1 H    0.964 --     7 C    0.872
    21   1 H    0.967 --     7 C    0.884
    22   1 H    0.969 --     8 C    0.828
    23   1 H    0.960 --     8 C    0.861
    24   1 H    0.911 --     9 C    0.657
    25   1 H    0.988 --     9 C    0.512
    26   5 B    3.712 --    62 N    3.055    32 B    0.177    13 Pt   0.176
                            50 B    0.134    52 B    0.118
    27   5 B    3.670 --    63 N    2.981    36 B    0.217    51 B    0.160
                            53 B    0.146
    28   5 B    3.631 --    64 N    3.059    42 B    0.169    51 B    0.156
                            50 B    0.155
    29   5 B    3.660 --    65 N    2.993    44 B    0.187    52 B    0.159
                            53 B    0.156
    30   5 B    3.617 --    66 N    3.139    56 B    0.129    46 B    0.117
    31   5 B    3.489 --    67 N    2.313     3 O    0.928     4 C    0.147
    32   5 B    3.863 --    68 N    3.024    13 Pt   0.249    26 B    0.177
                            55 B    0.143    12 O    0.103
    33   5 B    3.697 --    69 N    3.183    38 B    0.177    56 B    0.141
                            57 B    0.130
    34   5 B    3.627 --    70 N    3.025    47 B    0.178    58 B    0.153
                            60 B    0.152
    35   5 B    3.630 --    71 N    3.088    49 B    0.169    59 B    0.139
                            61 B    0.118
    36   5 B    3.664 --    72 N    2.957    27 B    0.217    58 B    0.156
                            59 B    0.150
    37   5 B    3.609 --    73 N    3.048    39 B    0.161    60 B    0.142
                            61 B    0.141
    38   5 B    3.680 --    74 N    3.448    33 B    0.177
    39   5 B    3.677 --    75 N    3.443    37 B    0.161
    40   5 B    3.675 --    76 N    3.534    43 B    0.126
    41   5 B    3.676 --    77 N    3.509    45 B    0.140
    42   5 B    3.684 --    78 N    3.450    28 B    0.169
    43   5 B    3.673 --    79 N    3.519    40 B    0.126
    44   5 B    3.744 --    80 N    3.464    29 B    0.187
    45   5 B    3.672 --    81 N    3.510    41 B    0.140
    46   5 B    3.578 --    82 N    3.291    11 O    0.167    30 B    0.117
    47   5 B    3.705 --    83 N    3.464    34 B    0.178
    48   5 B    3.552 --    84 N    3.292     3 O    0.173
    49   5 B    3.707 --    85 N    3.462    35 B    0.169
    50   5 B    3.485 --    86 N    2.943    28 B    0.155    26 B    0.134
    51   5 B    3.494 --    87 N    2.840    27 B    0.160    28 B    0.156
    52   5 B    3.551 --    88 N    2.951    29 B    0.159    26 B    0.118
    53   5 B    3.506 --    89 N    2.851    29 B    0.156    27 B    0.146
    54   5 B    3.407 --    90 N    2.790    12 O    0.354
    55   5 B    3.617 --    91 N    2.693    13 Pt   0.466    32 B    0.143
    56   5 B    3.460 --    92 N    3.006    33 B    0.141    30 B    0.129
    57   5 B    3.448 --    93 N    2.922     3 O    0.235    33 B    0.130
    58   5 B    3.493 --    94 N    2.834    36 B    0.156    34 B    0.153
    59   5 B    3.487 --    95 N    2.916    36 B    0.150    35 B    0.139
    60   5 B    3.465 --    96 N    2.898    34 B    0.152    37 B    0.142
    61   5 B    3.464 --    97 N    2.900    37 B    0.141    35 B    0.118
    62   7 N    3.617 --    26 B    3.055    88 N    0.115    86 N    0.104
    63   7 N    3.631 --    27 B    2.981    87 N    0.143    89 N    0.130
    64   7 N    3.632 --    28 B    3.059    87 N    0.147    86 N    0.132
    65   7 N    3.628 --    29 B    2.993    89 N    0.142    88 N    0.124
    66   7 N    3.624 --    30 B    3.139    92 N    0.103
    67   7 N    3.389 --    31 B    2.313     3 O    0.620    91 N    0.149
                             4 C    0.121
    68   7 N    3.795 --    32 B    3.024    13 Pt   0.203    91 N    0.130
    69   7 N    3.674 --    33 B    3.183    92 N    0.151
    70   7 N    3.622 --    34 B    3.025    94 N    0.143    96 N    0.135
    71   7 N    3.630 --    35 B    3.088    97 N    0.132    95 N    0.131
    72   7 N    3.614 --    36 B    2.957    94 N    0.147    95 N    0.128
    73   7 N    3.612 --    37 B    3.048    96 N    0.137    97 N    0.131
    74   7 N    3.600 --    38 B    3.448
    75   7 N    3.605 --    39 B    3.443
    76   7 N    3.651 --    40 B    3.534    79 N    0.116
    77   7 N    3.635 --    41 B    3.509    81 N    0.109
    78   7 N    3.622 --    42 B    3.450
    79   7 N    3.667 --    43 B    3.519    76 N    0.116
    80   7 N    3.643 --    44 B    3.464
    81   7 N    3.634 --    45 B    3.510    77 N    0.109
    82   7 N    3.498 --    46 B    3.291
    83   7 N    3.637 --    47 B    3.464
    84   7 N    3.400 --    48 B    3.292
    85   7 N    3.626 --    49 B    3.462
    86   7 N    3.311 --    50 B    2.943    64 N    0.132    62 N    0.104
    87   7 N    3.365 --    51 B    2.840    64 N    0.147    63 N    0.143
    88   7 N    3.376 --    52 B    2.951    65 N    0.124    62 N    0.115
    89   7 N    3.368 --    53 B    2.851    65 N    0.142    63 N    0.130
    90   7 N    3.272 --    54 B    2.790    12 O    0.106
    91   7 N    3.357 --    55 B    2.693    67 N    0.149    13 Pt   0.147
                            68 N    0.130
    92   7 N    3.409 --    56 B    3.006    69 N    0.151    66 N    0.103
    93   7 N    3.235 --    57 B    2.922
    94   7 N    3.368 --    58 B    2.834    72 N    0.147    70 N    0.143
    95   7 N    3.373 --    59 B    2.916    71 N    0.131    72 N    0.128
    96   7 N    3.335 --    60 B    2.898    73 N    0.137    70 N    0.135
    97   7 N    3.325 --    61 B    2.900    71 N    0.132    73 N    0.131
 ---------------------------------------------------------------------------

Topologies differ in total number of bonds
Writing topology from bond orders to xtbtopo.mol

molecular dipole:
                 x           y           z       tot (Debye)
 q only:        0.317      -3.266      -0.164
   full:        3.055      -1.976       1.096       9.659
molecular quadrupole (traceless):
                xx          xy          yy          xz          yz          zz
 q only:       -2.877     -20.799       1.140      12.863      -3.990       1.736
  q+dip:       46.835     -15.111     -54.743      26.835       6.444       7.908
   full:       35.116     -15.573     -39.431      30.178       7.082       4.315


           -------------------------------------------------
          | TOTAL ENERGY              574.196901475113 Eh   |
          | GRADIENT NORM           14106.755472881410 Eh/α |
          | HOMO-LUMO GAP               0.072943254229 eV   |
           -------------------------------------------------

------------------------------------------------------------------------
 * finished run on 2026/08/31 at 18:25:36.468     
------------------------------------------------------------------------
 total:
 * wall-time:     0 d,  0 h,  0 min,  0.641 sec
 *  cpu-time:     0 d,  0 h,  0 min,  7.547 sec
 * ratio c/w:    11.774 speedup
 SCF:
 * wall-time:     0 d,  0 h,  0 min,  0.592 sec
 *  cpu-time:     0 d,  0 h,  0 min,  6.953 sec
 * ratio c/w:    11.745 speedup

normal termination of xtb
