      -----------------------------------------------------------      
     |                   =====================                   |     
     |                           x T B                           |     
     |                   =====================                   |     
     |                         S. Grimme                         |     
     |          Mulliken Center for Theoretical Chemistry        |     
     |                    University of Bonn                     |     
      -----------------------------------------------------------      

   * xtb version 6.7.1pre (5071a88) compiled by 'Marcel@Raven' on 2024-07-23

   xtb is free software: you can redistribute it and/or modify it under
   the terms of the GNU Lesser General Public License as published by
   the Free Software Foundation, either version 3 of the License, or
   (at your option) any later version.
   
   xtb is distributed in the hope that it will be useful,
   but WITHOUT ANY WARRANTY; without even the implied warranty of
   MERCHANTABILITY or FITNESS FOR A PARTICULAR PURPOSE.  See the
   GNU Lesser General Public License for more details.
   
   Cite this work as:
   * C. Bannwarth, E. Caldeweyher, S. Ehlert, A. Hansen, P. Pracht,
     J. Seibert, S. Spicher, S. Grimme, WIREs Comput. Mol. Sci., 2020, 11,
     e01493. DOI: 10.1002/wcms.1493
   
   for GFN2-xTB:
   * C. Bannwarth, S. Ehlert and S. Grimme., J. Chem. Theory Comput., 2019,
     15, 1652-1671. DOI: 10.1021/acs.jctc.8b01176
   for GFN1-xTB:
   * S. Grimme, C. Bannwarth, P. Shushkov, J. Chem. Theory Comput., 2017,
     13, 1989-2009. DOI: 10.1021/acs.jctc.7b00118
   for GFN0-xTB:
   * P. Pracht, E. Caldeweyher, S. Ehlert, S. Grimme, ChemRxiv, 2019, preprint.
     DOI: 10.26434/chemrxiv.8326202.v1
   for GFN-FF:
   * S. Spicher and S. Grimme, Angew. Chem. Int. Ed., 2020, 59, 15665-15673.
     DOI: 10.1002/anie.202004239
   
   for ALPB and GBSA implicit solvation:
   * S. Ehlert, M. Stahn, S. Spicher, S. Grimme, J. Chem. Theory Comput.,
     2021, 17, 4250-4261. DOI: 10.1021/acs.jctc.1c00471
   
   for ddCOSMO and CPCM-X implicit solvation:
   * M. Stahn, S. Ehlert, S. Grimme, J. Phys. Chem. A,
     2023, XX, XXXX-XXXX. DOI: 10.1021/acs.jpca.3c04382
   
   for DFT-D4:
   * E. Caldeweyher, C. Bannwarth and S. Grimme, J. Chem. Phys., 2017,
     147, 034112. DOI: 10.1063/1.4993215
   * E. Caldeweyher, S. Ehlert, A. Hansen, H. Neugebauer, S. Spicher,
     C. Bannwarth and S. Grimme, J. Chem. Phys., 2019, 150, 154122.
     DOI: 10.1063/1.5090222
   * E. Caldeweyher, J.-M. Mewes, S. Ehlert and S. Grimme, Phys. Chem. Chem. Phys.
     2020, 22, 8499-8512. DOI: 10.1039/D0CP00502A
   
   for sTDA-xTB:
   * S. Grimme and C. Bannwarth, J. Chem. Phys., 2016, 145, 054103.
     DOI: 10.1063/1.4959605
   
   in the mass-spec context:
   * V. Asgeirsson, C. Bauer and S. Grimme, Chem. Sci., 2017, 8, 4879.
     DOI: 10.1039/c7sc00601b
   * J. Koopman and S. Grimme, ACS Omega 2019, 4, 12, 15120-15133.
     DOI: 10.1021/acsomega.9b02011
   
   for metadynamics refer to:
   * S. Grimme, J. Chem. Theory Comput., 2019, 155, 2847-2862
     DOI: 10.1021/acs.jctc.9b00143
   
   for SPH calculations refer to:
   * S. Spicher and S. Grimme, J. Chem. Theory Comput., 2021, 17, 1701-1714
     DOI: 10.1021/acs.jctc.0c01306
   
   for ONIOM refer to:
   * C. Plett, A. Katbashev, S. Ehlert, S. Grimme, M. Bursch,
     Phys. Chem. Chem. Phys., 2023, 25, 17860-17868. DOI: 10.1039/D3CP02178E
   
   for DIPRO refer to:
   * J. Kohn, N. Gildemeister, S. Grimme, D. Fazzi, A. Hansen,
     J. Chem. Phys., 2023, just accepted.
   
   for PTB refer to:
   * S. Grimme, M. Mueller, A. Hansen, J. Chem. Phys., 2023, 158, 124111.
     DOI: 10.1063/5.0137838
   
   with help from (in alphabetical order)
   P. Atkinson, C. Bannwarth, F. Bohle, G. Brandenburg, E. Caldeweyher
   M. Checinski, S. Dohm, S. Ehlert, S. Ehrlich, I. Gerasimov, C. Hölzer
   A. Katbashev, J. Kohn, J. Koopman, C. Lavigne, S. Lehtola, F. März, M. Müller,
   F. Musil, H. Neugebauer, J. Pisarek, C. Plett, P. Pracht, F. Pultar,
   J. Seibert, P. Shushkov, S. Spicher, M. Stahn, M. Steiner, T. Strunk,
   J. Stückrath, T. Rose, and J. Unsleber
   
 * started run on 2026/08/31 at 21:13:10.601     
   ID    Z sym.   atoms
    1    7 N      1, 2, 27, 29, 31, 33, 35, 37, 39, 41, 43, 45, 47, 49, 51,
                  53, 55, 57, 59, 61, 63, 65, 67, 69, 71, 73, 75, 77, 79, 81,
                  83, 85, 87, 89, 91, 93, 95, 97
    2    8 O      3, 5, 11, 12
    3    6 C      4, 6-10
    4   78 Pt     13
    5    1 H      14-25
    6    5 B      26, 28, 30, 32, 34, 36, 38, 40, 42, 44, 46, 48, 50, 52, 54,
                  56, 58, 60, 62, 64, 66, 68, 70, 72, 74, 76, 78, 80, 82, 84,
                  86, 88, 90, 92, 94, 96

           -------------------------------------------------
          |                Calculation Setup                |
           -------------------------------------------------

          program call               : "c:\Users\Andre\Proyectos doctorado\kras-pancreatic-gC3N4-ai\tools\xtb\xtb-6.7.1\bin\xtb.exe" "c:\Users\Andre\Proyectos doctorado\nano-qsar-ai-therapeutics\calculations\tnbc\Carboplatin\Carboplatin_B36N36_phys_complex.xyz" --gfn 2 --sp --chrg 0 --uhf 0 --etemp 300 --iterations 500 --norestart
          coordinate file            : c:\Users\Andre\Proyectos doctorado\nano-qsar-ai-therapeutics\calculations\tnbc\Carboplatin\Carboplatin_B36N36_phys_complex.xyz
          omp threads                :                    16


molecular fragmentation (1/2 indicates fragments):
111111111111111111111111122222222222222222222222222222222222222222222222
2222222222222222222222222
# atoms in fragment 1/2:    25    72
 fragment masses (1/2) :      371.26      893.44
CMA distance (Bohr)    :  21.641
constraining FC (au)   :  0.0500

           -------------------------------------------------
          |                 G F N 2 - x T B                 |
           -------------------------------------------------

        Reference                      10.1021/acs.jctc.8b01176
      * Hamiltonian:
        H0-scaling (s, p, d)           1.850000    2.230000    2.230000
        zeta-weighting                 0.500000
      * Dispersion:
        s8                             2.700000
        a1                             0.520000
        a2                             5.000000
        s9                             5.000000
      * Repulsion:
        kExp                           1.500000    1.000000
        rExp                           1.000000
      * Coulomb:
        alpha                          2.000000
        third order                    shell-resolved
        anisotropic                    true
        a3                             3.000000
        a5                             4.000000
        cn-shift                       1.200000
        cn-exp                         4.000000
        max-rad                        5.000000


          ...................................................
          :                      SETUP                      :
          :.................................................:
          :  # basis functions                 358          :
          :  # atomic orbitals                 357          :
          :  # shells                          183          :
          :  # electrons                       368          :
          :  max. iterations                   500          :
          :  Hamiltonian                  GFN2-xTB          :
          :  restarted?                      false          :
          :  GBSA solvation                  false          :
          :  PC potential                    false          :
          :  electronic temp.          300.0000000     K    :
          :  accuracy                    1.0000000          :
          :  -> integral cutoff          0.2500000E+02      :
          :  -> integral neglect         0.1000000E-07      :
          :  -> SCF convergence          0.1000000E-05 Eh   :
          :  -> wf. convergence          0.1000000E-03 e    :
          :  Broyden damping             0.4000000          :
          :  net charge                          0          :
          :  unpaired electrons                  0          :
          ...................................................

 iter      E             dE          RMSdq      gap      omega  full diag
   1   -178.9760421 -0.178976E+03  0.132E+01    0.01       0.0  T
   2     11.5767386  0.190553E+03  0.209E+01    0.22       1.0  T
   3    -90.6549194 -0.102232E+03  0.163E+01    0.10       1.0  T
   4   -155.0267251 -0.643718E+02  0.115E+01    0.30       1.0  T
   5   -136.5406034  0.184861E+02  0.107E+01    0.06       1.0  T
   6   -181.6909367 -0.451503E+02  0.743E+00    0.23       1.0  T
   7   -188.9523804 -0.726144E+01  0.592E+00    0.10       1.0  T
   8   -186.0462729  0.290611E+01  0.505E+00    0.47       1.0  T
   9   -189.5923899 -0.354612E+01  0.469E+00    0.07       1.0  T
  10   -190.5972219 -0.100483E+01  0.442E+00    0.24       1.0  T
  11   -190.2402089  0.357013E+00  0.412E+00    0.34       1.0  T
  12   -190.5529680 -0.312759E+00  0.351E+00    0.12       1.0  T
  13   -191.1898025 -0.636834E+00  0.237E+00    0.06       1.0  T
  14   -191.2337577 -0.439552E-01  0.198E+00    0.05       1.0  T
  15   -191.4015756 -0.167818E+00  0.181E+00    0.38       1.0  T
  16   -191.3967214  0.485422E-02  0.191E+00    0.41       1.0  T
  17   -191.4144142 -0.176929E-01  0.147E+00    0.04       1.0  T
  18   -191.4736277 -0.592135E-01  0.119E+00    0.09       1.0  T
  19   -191.2272908  0.246337E+00  0.118E+00    0.07       1.0  T
  20   -191.4707155 -0.243425E+00  0.986E-01    0.25       1.0  T
  21   -191.4808027 -0.100872E-01  0.757E-01    0.26       1.0  T
  22   -191.4937736 -0.129709E-01  0.588E-01    0.23       1.0  T
  23   -191.5019645 -0.819093E-02  0.492E-01    0.17       1.0  T
  24   -191.5125674 -0.106029E-01  0.400E-01    0.13       1.0  T
  25   -191.5172087 -0.464124E-02  0.329E-01    0.11       1.0  T
  26   -191.5202822 -0.307357E-02  0.270E-01    0.10       1.0  T
  27   -191.5176051  0.267708E-02  0.242E-01    0.13       1.0  T
  28   -191.5219475 -0.434235E-02  0.139E-01    0.06       1.0  T
  29   -191.5253998 -0.345229E-02  0.864E-02    0.07       1.0  T
  30   -191.5257404 -0.340572E-03  0.709E-02    0.08       1.0  T
  31   -191.5257557 -0.153231E-04  0.455E-02    0.07       1.0  T
  32   -191.5258178 -0.620853E-04  0.463E-02    0.08       1.0  T
  33   -191.5259195 -0.101724E-03  0.357E-02    0.08       1.0  T
  34   -191.5259324 -0.129236E-04  0.248E-02    0.07       1.0  T
  35   -191.5259641 -0.317162E-04  0.139E-02    0.08       1.0  T
  36   -191.5259691 -0.492587E-05  0.105E-02    0.08       1.0  T
  37   -191.5259701 -0.100361E-05  0.864E-03    0.08       1.2  T
  38   -191.5259719 -0.186895E-05  0.661E-03    0.08       1.5  T
  39   -191.5259746 -0.262741E-05  0.448E-03    0.08       2.3  T
  40   -191.5259758 -0.123628E-05  0.311E-03    0.08       3.3  T
  41   -191.5259765 -0.741050E-06  0.203E-03    0.08       5.0  T
  42   -191.5259767 -0.146152E-06  0.156E-03    0.08       6.5  T
  43   -191.5259767 -0.407072E-07  0.132E-03    0.08       7.7  T
  44   -191.5259767  0.137670E-07  0.122E-03    0.08       8.3  T
  45   -191.5259767  0.341135E-07  0.115E-03    0.08       8.9  T
  46   -191.5259767 -0.741718E-07  0.835E-04    0.08      12.2  T
  47   -191.5259768 -0.840401E-07  0.359E-04    0.08      28.3  T

   *** convergence criteria satisfied after 47 iterations ***

         #    Occupation            Energy/Eh            Energy/eV
      -------------------------------------------------------------
         1        2.0000           -1.8990463             -51.6757
       ...           ...                  ...                  ...
       178        2.0000           -0.2999144              -8.1611
       179        2.0000           -0.2977399              -8.1019
       180        2.0000           -0.2955290              -8.0418
       181        2.0000           -0.2880134              -7.8372
       182        2.0000           -0.2823466              -7.6830
       183        2.0000           -0.2767472              -7.5307
       184        1.6255           -0.2598755              -7.0716 (HOMO)
       185        0.3703           -0.2570730              -6.9953 (LUMO)
       186        0.0040           -0.2525746              -6.8729
       187        0.0001           -0.2493643              -6.7855
       188                         -0.2414215              -6.5694
       189                         -0.2348044              -6.3894
       ...                                ...                  ...
       357                       3809.4904747          103661.5122
      -------------------------------------------------------------
                  HL-Gap            0.0028025 Eh            0.0763 eV
             Fermi-level           -0.2584807 Eh           -7.0336 eV

 SCC (total)                   0 d,  0 h,  0 min,  1.153 sec
 SCC setup                      ...        0 min,  0.001 sec (  0.087%)
 Dispersion                     ...        0 min,  0.002 sec (  0.173%)
 classical contributions        ...        0 min,  0.000 sec (  0.000%)
 integral evaluation            ...        0 min,  0.010 sec (  0.867%)
 iterations                     ...        0 min,  1.116 sec ( 96.791%)
 molecular gradient             ...        0 min,  0.022 sec (  1.908%)
 printout                       ...        0 min,  0.002 sec (  0.173%)

         :::::::::::::::::::::::::::::::::::::::::::::::::::::
         ::                     SUMMARY                     ::
         :::::::::::::::::::::::::::::::::::::::::::::::::::::
         :: total energy             361.664901910674 Eh    ::
         :: gradient norm          14105.793976209066 Eh/a0 ::
         :: HOMO-LUMO gap              0.076259566424 eV    ::
         ::.................................................::
         :: SCC energy              -191.511254347402 Eh    ::
         :: -> isotropic ES            2.456747234948 Eh    ::
         :: -> anisotropic ES          0.016669898396 Eh    ::
         :: -> anisotropic XC          0.113854258083 Eh    ::
         :: -> dispersion             -0.177943066773 Eh    ::
         :: repulsion energy         553.176156258076 Eh    ::
         :: add. restraining           0.000000000000 Eh    ::
         :: total charge               0.000000000000 e     ::
         :::::::::::::::::::::::::::::::::::::::::::::::::::::

           -------------------------------------------------
          |                Property Printout                |
           -------------------------------------------------

    * Orbital Energies and Occupations

         #    Occupation            Energy/Eh            Energy/eV
      -------------------------------------------------------------
         1        2.0000           -1.8990463             -51.6757
       ...           ...                  ...                  ...
       172        2.0000           -0.3160207              -8.5994
       173        2.0000           -0.3105804              -8.4513
       174        2.0000           -0.3088650              -8.4046
       175        2.0000           -0.3066823              -8.3453
       176        2.0000           -0.3043960              -8.2830
       177        2.0000           -0.3008727              -8.1872
       178        2.0000           -0.2999144              -8.1611
       179        2.0000           -0.2977399              -8.1019
       180        2.0000           -0.2955290              -8.0418
       181        2.0000           -0.2880134              -7.8372
       182        2.0000           -0.2823466              -7.6830
       183        2.0000           -0.2767472              -7.5307
       184        1.6255           -0.2598755              -7.0716 (HOMO)
       185        0.3703           -0.2570730              -6.9953 (LUMO)
       186        0.0040           -0.2525746              -6.8729
       187        0.0001           -0.2493643              -6.7855
       188                         -0.2414215              -6.5694
       189                         -0.2348044              -6.3894
       190                         -0.2321296              -6.3166
       191                         -0.2229556              -6.0669
       192                         -0.2168090              -5.8997
       193                         -0.2133372              -5.8052
       194                         -0.2079708              -5.6592
       195                         -0.2026823              -5.5153
       ...                                ...                  ...
       357                       3809.4904747          103661.5122
      -------------------------------------------------------------
                  HL-Gap            0.0028025 Eh            0.0763 eV
             Fermi-level           -0.2584807 Eh           -7.0336 eV

     #   Z          covCN         q      C6AA      α(0)
     1   7 N       10.877     1.742     5.650     3.530
     2   7 N       10.900     1.820     5.363     3.440
     3   8 O        0.873    -0.410    21.883     6.272
     4   6 C        2.700    -0.024    28.578     8.750
     5   8 O        5.153    -0.910    33.870     7.860
     6   6 C       11.397    -0.106    22.418     6.724
     7   6 C        7.566    -0.598    34.971     8.398
     8   6 C        5.833    -0.251    25.446     7.164
     9   6 C        8.003    -0.843    44.357     9.459
    10   6 C        6.160    -0.621    35.750     8.491
    11   8 O        0.856    -0.715    29.113     7.234
    12   8 O        1.671    -0.451    21.860     6.312
    13  78 Pt       1.930    -0.351   382.521    36.852
    14   1 H        4.916     0.001     3.019     2.713
    15   1 H        5.010     0.099     1.782     2.084
    16   1 H        4.977     0.553     0.275     0.819
    17   1 H        4.772     0.544     0.284     0.831
    18   1 H        5.213     0.067     2.108     2.266
    19   1 H        5.048     0.085     1.920     2.163
    20   1 H        0.923     0.117     1.634     1.999
    21   1 H        0.922     0.145     1.425     1.867
    22   1 H        0.923     0.092     1.862     2.134
    23   1 H        0.919     0.135     1.496     1.913
    24   1 H        0.922     0.268     0.810     1.408
    25   1 H        0.923    -0.013     3.291     2.837
    26   5 B        2.781     0.076    20.206     7.516
    27   7 N        2.774    -0.232    26.071     7.583
    28   5 B        2.788     0.083    20.071     7.489
    29   7 N        2.524    -0.319    28.249     7.893
    30   5 B        2.779     0.077    20.189     7.513
    31   7 N        2.655    -0.282    27.272     7.756
    32   5 B        2.849     0.237    17.724     7.030
    33   7 N        2.529    -0.274    27.125     7.735
    34   5 B        3.195     0.137    19.124     7.293
    35   7 N        2.979    -0.117    23.538     7.206
    36   5 B        2.644     0.371    16.347     6.818
    37   7 N        2.669    -0.218    25.752     7.537
    38   5 B        3.181     0.013    21.147     7.669
    39   7 N        2.888    -0.232    26.069     7.583
    40   5 B        3.009     0.209    18.077     7.092
    41   7 N        2.660    -0.170    24.673     7.377
    42   5 B        2.906     0.322    16.585     6.796
    43   7 N        3.156    -0.089    22.976     7.119
    44   5 B        2.779     0.089    19.993     7.477
    45   7 N        3.037    -0.137    23.959     7.270
    46   5 B        2.758     0.081    20.141     7.509
    47   7 N        2.634    -0.324    28.330     7.905
    48   5 B        3.040     0.220    17.917     7.060
    49   7 N        2.981    -0.025    21.733     6.924
    50   5 B        2.582     0.327    17.287     7.083
    51   7 N        2.596    -0.366    29.449     8.059
    52   5 B        3.287     0.340    16.337     6.741
    53   7 N        2.784    -0.260    26.740     7.680
    54   5 B        2.559     0.320    17.599     7.186
    55   7 N        2.579    -0.376    29.734     8.098
    56   5 B        2.530     0.302    18.207     7.373
    57   7 N        2.665    -0.208    25.524     7.503
    58   5 B        2.698     0.196    18.501     7.218
    59   7 N        2.844    -0.173    24.731     7.386
    60   5 B        2.758     0.079    20.185     7.517
    61   7 N        2.672    -0.177    24.830     7.401
    62   5 B        2.877     0.104    19.676     7.404
    63   7 N        2.663    -0.149    24.236     7.312
    64   5 B        2.594     0.312    17.387     7.085
    65   7 N        2.519    -0.361    29.342     8.044
    66   5 B        2.684     0.184    18.720     7.268
    67   7 N        3.008    -0.148    24.201     7.306
    68   5 B        2.677     0.210    18.358     7.201
    69   7 N        2.716    -0.257    26.664     7.669
    70   5 B        2.647     0.162    19.195     7.386
    71   7 N        2.825    -0.211    25.595     7.514
    72   5 B        3.321     0.228    17.803     7.036
    73   7 N        2.531    -0.287    27.434     7.779
    74   5 B        2.950     0.031    20.853     7.619
    75   7 N        2.783    -0.194    25.212     7.457
    76   5 B        2.796     0.076    20.184     7.509
    77   7 N        2.673    -0.163    24.522     7.355
    78   5 B        3.021     0.210    18.058     7.088
    79   7 N        3.272     0.013    21.026     6.810
    80   5 B        2.869     0.309    16.757     6.834
    81   7 N        3.154    -0.129    23.785     7.243
    82   5 B        3.263     0.320    16.579     6.791
    83   7 N        2.833    -0.069    22.576     7.057
    84   5 B        3.303     0.229    17.785     7.033
    85   7 N        2.656    -0.189    25.092     7.440
    86   5 B        2.838     0.109    19.615     7.396
    87   7 N        2.834    -0.232    26.081     7.585
    88   5 B        2.863     0.251    17.529     6.990
    89   7 N        2.654    -0.240    26.280     7.614
    90   5 B        3.011     0.108    19.589     7.383
    91   7 N        3.153    -0.089    22.972     7.119
    92   5 B        2.674     0.200    18.520     7.236
    93   7 N        2.696    -0.245    26.394     7.630
    94   5 B        2.585     0.371    16.696     6.957
    95   7 N        2.881    -0.185    25.007     7.427
    96   5 B        2.825     0.102    19.732     7.420
    97   7 N        2.827    -0.255    26.617     7.662

 Mol. C6AA /au·bohr⁶  :     183629.215086
 Mol. C8AA /au·bohr⁸  :    5615565.995615
 Mol. α(0) /au        :        673.576143


Wiberg/Mayer (AO) data.
largest (>0.10) Wiberg bond orders for each atom

 ---------------------------------------------------------------------------
     #   Z sym  total        # sym  WBO       # sym  WBO       # sym  WBO
 ---------------------------------------------------------------------------
     1   7 N    3.828 --     2 N    2.612     6 C    0.990     7 C    0.100
     2   7 N    3.805 --     1 N    2.612     6 C    1.085
     3   8 O    1.981 --     4 C    1.548    13 Pt   0.247
     4   6 C    3.309 --     3 O    1.548    13 Pt   0.902     5 O    0.592
     5   8 O    1.654 --     4 C    0.592     6 C    0.260    17 H    0.182
                            10 C    0.104
     6   6 C    3.675 --     2 N    1.085     1 N    0.990     7 C    0.461
                             9 C    0.261     5 O    0.260    16 H    0.166
                            10 C    0.155    17 H    0.116
     7   6 C    3.876 --     8 C    0.973    21 H    0.931    20 H    0.910
                             6 C    0.461     1 N    0.100
     8   6 C    3.825 --     7 C    0.973    22 H    0.971    23 H    0.937
                             9 C    0.474    10 C    0.145    25 H    0.120
     9   6 C    2.592 --    24 H    0.808    25 H    0.563     8 C    0.474
                             6 C    0.261
    10   6 C    3.067 --    11 O    1.152    12 O    0.946     6 C    0.155
                            13 Pt   0.145     8 C    0.145     5 O    0.104
    11   8 O    1.455 --    10 C    1.152
    12   8 O    2.085 --    10 C    0.946    13 Pt   0.865
    13  78 Pt   2.383 --     4 C    0.902    12 O    0.865     3 O    0.247
                            10 C    0.145
    14   1 H    1.000 --    18 H    0.924
    15   1 H    0.990 --    19 H    0.821
    16   1 H    0.693 --    17 H    0.194     6 C    0.166
    17   1 H    0.703 --    16 H    0.194     5 O    0.182     6 C    0.116
    18   1 H    0.996 --    14 H    0.924
    19   1 H    0.993 --    15 H    0.821
    20   1 H    0.981 --     7 C    0.910
    21   1 H    0.979 --     7 C    0.931
    22   1 H    0.991 --     8 C    0.971
    23   1 H    0.980 --     8 C    0.937
    24   1 H    0.922 --     9 C    0.808
    25   1 H    0.938 --     9 C    0.563     8 C    0.120
    26   5 B    3.473 --    95 N    1.276    78 B    1.001    72 B    0.968
    27   7 N    3.393 --    72 B    1.149    85 N    1.006    84 B    0.990
    28   5 B    3.462 --    73 N    1.277    96 B    0.984    84 B    0.964
    29   7 N    3.525 --    86 B    1.152    88 B    1.140    56 B    1.027
    30   5 B    3.468 --    63 N    1.241    92 B    0.995    66 B    0.991
    31   7 N    3.250 --    52 B    1.193    94 B    0.962    89 N    0.887
    32   5 B    3.397 --    65 N    1.180    39 N    1.020    48 B    0.965
    33   7 N    3.567 --    46 B    1.283    34 B    1.144    90 B    0.979
    34   5 B    3.333 --    33 N    1.144    76 B    0.934    74 B    0.636
                            38 B    0.285
    35   7 N    3.308 --    40 B    1.099    79 N    1.043    91 N    0.945
    36   5 B    3.428 --    37 N    1.197    47 N    1.113    75 N    0.959
    37   7 N    3.441 --    36 B    1.197    64 B    1.085    77 N    0.963
    38   5 B    3.449 --    74 B    1.286    90 B    1.009    88 B    0.634
                            34 B    0.285
    39   7 N    3.421 --    42 B    1.245    32 B    1.020    53 N    0.928
    40   5 B    3.375 --    35 N    1.099    59 N    1.045    86 B    1.004
    41   7 N    3.489 --    44 B    1.181    64 B    1.135    61 N    0.996
    42   5 B    3.512 --    39 N    1.245    67 N    1.053    87 N    1.007
    43   7 N    3.347 --    92 B    1.150    95 N    0.986    45 N    0.981
    44   5 B    3.385 --    41 N    1.181    62 B    1.008    76 B    0.934
    45   7 N    3.306 --    80 B    1.121    43 N    0.981    49 N    0.972
    46   5 B    3.452 --    33 N    1.283    60 B    0.980    70 B    0.934
    47   7 N    3.207 --    36 B    1.113    50 B    1.075    75 N    0.787
    48   5 B    3.360 --    61 N    1.166    53 N    0.980    32 B    0.965
    49   7 N    3.084 --    67 N    1.011    45 N    0.972    93 N    0.936
    50   5 B    3.506 --    87 N    1.231    47 N    1.075    65 N    0.994
    51   7 N    3.428 --    56 B    1.201    84 B    1.052    72 B    0.932
    52   5 B    3.479 --    31 N    1.193    69 N    1.041    55 N    0.987
    53   7 N    3.272 --    58 B    1.170    48 B    0.980    39 N    0.928
    54   5 B    3.524 --    89 N    1.216    93 N    1.115    81 N    1.032
    55   7 N    3.422 --    68 B    1.207    82 B    0.992    52 B    0.987
    56   5 B    3.517 --    51 N    1.201    97 N    1.089    29 N    1.027
    57   7 N    3.447 --    94 B    1.274    68 B    0.997    83 N    0.988
    58   5 B    3.427 --    53 N    1.170    85 N    1.111    96 B    0.921
    59   7 N    3.455 --    60 B    1.246    40 B    1.045    91 N    0.981
    60   5 B    3.403 --    59 N    1.246    46 B    0.980    68 B    0.957
    61   7 N    3.508 --    48 B    1.166    96 B    1.160    41 N    0.996
    62   5 B    3.333 --    44 B    1.008    74 B    1.005    73 N    0.960
    63   7 N    3.506 --    30 B    1.241    66 B    1.088    69 N    1.035
    64   5 B    3.510 --    41 N    1.135    65 N    1.092    37 N    1.085
    65   7 N    3.472 --    32 B    1.180    64 B    1.092    50 B    0.994
    66   5 B    3.466 --    71 N    1.184    63 N    1.088    30 B    0.991
    67   7 N    3.236 --    42 B    1.053    49 N    1.011    81 N    0.974
    68   5 B    3.377 --    55 N    1.207    57 N    0.997    60 B    0.957
    69   7 N    3.364 --    52 B    1.041    63 N    1.035    82 B    0.977
    70   5 B    3.430 --    83 N    1.163    77 N    1.095    46 B    0.934
    71   7 N    3.405 --    66 B    1.184    78 B    1.066    79 N    0.959
    72   5 B    3.371 --    27 N    1.149    26 B    0.968    51 N    0.932
                            84 B    0.124
    73   7 N    3.557 --    28 B    1.277    88 B    1.107    62 B    0.960
    74   5 B    3.356 --    38 B    1.286    62 B    1.005    34 B    0.636
                            88 B    0.183
    75   7 N    2.973 --    83 N    1.047    36 B    0.959    47 N    0.787
    76   5 B    3.405 --    77 N    1.233    44 B    0.934    34 B    0.934
    77   7 N    3.455 --    76 B    1.233    70 B    1.095    37 N    0.963
    78   5 B    3.444 --    97 N    1.139    71 N    1.066    26 B    1.001
    79   7 N    3.184 --    35 N    1.043    71 N    0.959    97 N    0.950
    80   5 B    3.520 --    85 N    1.172    45 N    1.121    95 N    0.997
    81   7 N    3.205 --    54 B    1.032    87 N    0.981    67 N    0.974
    82   5 B    3.507 --    91 N    1.273    55 N    0.992    69 N    0.977
    83   7 N    3.407 --    70 B    1.163    75 N    1.047    57 N    0.988
    84   5 B    3.309 --    51 N    1.052    27 N    0.990    28 B    0.964
                            72 B    0.124
    85   7 N    3.486 --    80 B    1.172    58 B    1.111    27 N    1.006
    86   5 B    3.385 --    29 N    1.152    40 B    1.004    90 B    1.002
    87   7 N    3.431 --    50 B    1.231    42 B    1.007    81 N    0.981
    88   5 B    3.432 --    29 N    1.140    73 N    1.107    38 B    0.634
                            74 B    0.183    90 B    0.124
    89   7 N    3.327 --    54 B    1.216    94 B    1.025    31 N    0.887
    90   5 B    3.332 --    38 B    1.009    86 B    1.002    33 N    0.979
                            88 B    0.124
    91   7 N    3.442 --    82 B    1.273    59 N    0.981    35 N    0.945
    92   5 B    3.448 --    43 N    1.150    93 N    1.107    30 B    0.995
    93   7 N    3.377 --    54 B    1.115    92 B    1.107    49 N    0.936
    94   5 B    3.440 --    57 N    1.274    89 N    1.025    31 N    0.962
    95   7 N    3.466 --    26 B    1.276    80 B    0.997    43 N    0.986
    96   5 B    3.349 --    61 N    1.160    28 B    0.984    58 B    0.921
    97   7 N    3.416 --    78 B    1.139    56 B    1.089    79 N    0.950
 ---------------------------------------------------------------------------

Topologies differ in total number of bonds
Writing topology from bond orders to xtbtopo.mol

molecular dipole:
                 x           y           z       tot (Debye)
 q only:       -4.269       0.440       3.192
   full:       -5.261      -0.113       4.646      17.844
molecular quadrupole (traceless):
                xx          xy          yy          xz          yz          zz
 q only:     -102.323       1.076     -82.886    -192.918     -59.829     185.209
  q+dip:      -76.520       7.328     -52.757    -178.383     -33.702     129.277
   full:      -70.150       6.775     -53.684    -171.567     -33.561     123.834


           -------------------------------------------------
          | TOTAL ENERGY              361.664901910674 Eh   |
          | GRADIENT NORM           14105.793976209066 Eh/α |
          | HOMO-LUMO GAP               0.076259566424 eV   |
           -------------------------------------------------

------------------------------------------------------------------------
 * finished run on 2026/08/31 at 21:13:11.803     
------------------------------------------------------------------------
 total:
 * wall-time:     0 d,  0 h,  0 min,  1.201 sec
 *  cpu-time:     0 d,  0 h,  0 min, 12.250 sec
 * ratio c/w:    10.200 speedup
 SCF:
 * wall-time:     0 d,  0 h,  0 min,  1.154 sec
 *  cpu-time:     0 d,  0 h,  0 min, 11.750 sec
 * ratio c/w:    10.182 speedup

normal termination of xtb
