169
Drug@B36N36 clean complex
C      8.855607     -2.955640     13.597071
C      7.884052     -2.200157     14.516739
C      8.682247     -1.187857     15.345775
C      7.156088     -3.218453     15.401375
O      6.964560     -1.534665     13.613770
C      5.961493     -0.766688     14.092918
O      5.711539     -0.548316     15.267411
N      5.243274     -0.279938     13.046556
C      3.966505      0.398357     13.241491
C      3.629495      1.216460     11.998887
C      3.454647      2.605855     12.109475
C      3.157261      3.381517     10.987281
C      3.032284      2.780978      9.737422
C      3.198372      1.404240      9.609686
C      3.494890      0.627099     10.731211
C      2.849206     -0.589811     13.671235
O      2.644760     -1.608686     12.676465
C      1.575383      0.181687     14.036646
O      1.526118      1.284148     14.564283
O      0.488368     -0.548131     13.656224
C     -0.762018      0.156495     13.601777
C     -0.841480      0.988988     12.316831
C     -1.194382     -0.026285     11.204226
O      0.000374     -0.803563     10.987256
C     -2.152314     -0.927444     11.960147
C     -3.287243     -1.441947     11.460490
C     -2.968920     -2.245633     10.220293
O     -2.176360     -3.179062     10.209632
C     -3.740010     -1.762185      9.019684
O     -4.767923     -2.689544      8.711313
C     -4.266465     -0.418820      9.539401
C     -5.520346     -0.003849      8.732856
C     -3.230655      0.797933      9.573075
C     -3.860288      1.721039     10.642314
C     -4.715371      0.834297     11.554826
O     -4.349901      1.062112     12.920076
C     -5.357506      1.033870     13.829390
O     -6.525417      0.764883     13.603753
C     -4.834771      1.350061     15.182352
C     -5.569623      0.922583     16.295109
C     -5.108457      1.193412     17.584506
C     -3.917333      1.896060     17.766169
C     -3.188009      2.335991     16.661696
C     -3.646810      2.069260     15.370331
C     -4.533207     -0.629890     11.061146
C     -5.766644     -1.462727     11.445871
C     -1.653650      0.601538      9.802848
C     -0.985406      2.007574      9.623683
C     -1.042083     -0.192503      8.606390
C     -1.885042     -0.867501     13.447180
H      8.316060     -3.665762     12.959465
H      9.370369     -2.262987     12.920936
H      9.610404     -3.507273     14.167315
H      9.122979     -0.418992     14.701253
H      8.051502     -0.665173     16.071117
H      9.487139     -1.677188     15.904818
H      6.523421     -3.877232     14.795909
H      6.497787     -2.732559     16.127815
H      7.864632     -3.836091     15.963780
H      5.445304     -0.707530     12.155057
H      4.124044      1.096380     14.075524
H      3.548126      3.096819     13.077014
H      3.027227      4.455641     11.090710
H      2.803858      3.384988      8.863548
H      3.097074      0.932192      8.635861
H      3.621882     -0.445720     10.601535
H      3.151418     -1.120435     14.581231
H      1.831870     -1.353395     12.188467
H     -0.894711      0.753428     14.510351
H     -1.614663      1.748563     12.446735
H      0.113093      1.485824     12.114479
H     -0.280428     -1.718480     10.780918
H     -3.120471     -1.642942      8.132166
H     -4.329766     -3.545154      8.538997
H     -6.318748     -0.750146      8.794718
H     -5.948559      0.945004      9.067957
H     -5.263761      0.113918      7.673637
H     -3.315067      1.310324      8.603062
H     -4.517789      2.440629     10.136014
H     -3.157914      2.333316     11.203561
H     -5.755498      1.153914     11.401461
H     -6.500680      0.374920     16.161557
H     -5.678584      0.857026     18.447267
H     -3.558993      2.105809     18.771534
H     -2.263179      2.889891     16.807681
H     -3.073895      2.433638     14.522091
H     -5.818979     -1.598522     12.532223
H     -6.697277     -0.979376     11.130488
H     -5.755860     -2.465554     11.008033
H     -1.312631      2.745728     10.358781
H     -1.209308      2.424835      8.634314
H      0.104182      1.936978      9.706504
H     -1.500154      0.106425      7.656653
H      0.034576     -0.002116      8.508992
H     -1.133599     -1.273062      8.704487
H     -2.777058     -0.555126     13.992793
H     -1.578266     -1.852519     13.815719
B      3.459180     -1.454569      1.628037
N      3.456400      1.129904      0.940040
B      2.539920      2.362499     -1.261047
N      2.293067     -0.641637     -2.730603
B      0.690534     -3.561069      2.702709
N     -2.939724     -2.654773      1.709476
B     -1.038202      4.085096      1.831238
N     -0.619347      0.017651     -3.941904
B     -0.473710      1.445324     -4.091730
N      1.209559     -3.786796     -1.739405
B     -3.844500      2.209440     -0.493722
N     -2.772864      2.763562     -1.211833
B      1.405725      0.818091     -4.889311
N     -0.235789      3.364215      2.833544
B      0.898320     -2.879798     -2.813849
N     -0.491833      3.766578     -1.010119
B     -0.805996      2.182269      3.281874
N      1.656110     -1.274433      3.503622
B     -0.248484      3.469937     -2.379863
N      1.308703      0.068898      3.816981
B     -1.597441     -0.559934     -3.084689
N     -3.832496      1.776842      0.831624
B      0.337602      4.495994      1.183894
N      0.043256     -0.013955      4.456653
B     -2.708837      2.226751      1.601242
N      3.772728     -0.132624     -0.765541
B     -2.253381     -3.639412      1.008482
N      1.055818      3.733398      2.235734
B     -1.825620     -0.777460      3.219840
N     -2.436768     -3.601880     -0.450773
B      3.018658     -1.073670     -1.502768
N     -3.157960     -1.252592     -0.384321
B      2.034656      2.922326      1.561722
N     -0.507447     -2.900148     -2.432795
B     -1.673548     -2.112882     -2.491621
N      0.590135      3.964583     -0.110225
B      1.090314      2.959649     -3.182489
N      0.077350     -4.359230      1.721289
B     -1.784034      3.452384     -0.408220
N     -2.013520      3.418515      1.031553
B      1.465878     -4.212148      1.499138
N     -0.797987      1.064153      4.194581
B     -2.666242     -2.402096     -1.175256
N     -1.074388     -4.484335      0.991235
B     -2.503710      0.491370     -2.109143
N      2.352728     -3.887335      0.453103
B      3.912327     -0.202357      0.725926
N      1.928548      1.957009     -2.465077
B      1.001184      2.254351     -4.622507
N     -4.186016      0.829005     -0.347538
B     -1.338881      2.453658     -3.114870
N     -2.359649      1.932605     -2.305841
B      3.073063     -2.645483      0.601111
N      2.335213     -3.673670     -0.970876
B      2.217863      0.545803      2.808407
N     -2.026423      0.611912      3.601492
B     -1.101749     -4.183787     -0.441007
N     -3.218144      0.041654     -0.958566
B      3.447752      1.258593     -0.514065
N      2.582085      1.632977      1.936454
B      1.472054     -1.555001     -3.515610
N     -2.102601      1.754194      2.760799
B      2.040765      0.711921     -3.211483
N     -2.720915     -1.341699      2.320567
B      0.658648     -0.538875     -4.486937
N     -0.168664     -3.759421     -1.356472
B      0.485560     -2.105634      3.433764
N     -0.587253     -1.205033      3.824488
B     -3.224373     -1.451411      1.000320
N      2.671324     -0.855529      2.621135
B      1.878557      3.339348     -0.106427
N      2.876911     -2.331783     -0.793563
