      -----------------------------------------------------------      
     |                   =====================                   |     
     |                           x T B                           |     
     |                   =====================                   |     
     |                         S. Grimme                         |     
     |          Mulliken Center for Theoretical Chemistry        |     
     |                    University of Bonn                     |     
      -----------------------------------------------------------      

   * xtb version 6.7.1pre (5071a88) compiled by 'Marcel@Raven' on 2024-07-23

   xtb is free software: you can redistribute it and/or modify it under
   the terms of the GNU Lesser General Public License as published by
   the Free Software Foundation, either version 3 of the License, or
   (at your option) any later version.
   
   xtb is distributed in the hope that it will be useful,
   but WITHOUT ANY WARRANTY; without even the implied warranty of
   MERCHANTABILITY or FITNESS FOR A PARTICULAR PURPOSE.  See the
   GNU Lesser General Public License for more details.
   
   Cite this work as:
   * C. Bannwarth, E. Caldeweyher, S. Ehlert, A. Hansen, P. Pracht,
     J. Seibert, S. Spicher, S. Grimme, WIREs Comput. Mol. Sci., 2020, 11,
     e01493. DOI: 10.1002/wcms.1493
   
   for GFN2-xTB:
   * C. Bannwarth, S. Ehlert and S. Grimme., J. Chem. Theory Comput., 2019,
     15, 1652-1671. DOI: 10.1021/acs.jctc.8b01176
   for GFN1-xTB:
   * S. Grimme, C. Bannwarth, P. Shushkov, J. Chem. Theory Comput., 2017,
     13, 1989-2009. DOI: 10.1021/acs.jctc.7b00118
   for GFN0-xTB:
   * P. Pracht, E. Caldeweyher, S. Ehlert, S. Grimme, ChemRxiv, 2019, preprint.
     DOI: 10.26434/chemrxiv.8326202.v1
   for GFN-FF:
   * S. Spicher and S. Grimme, Angew. Chem. Int. Ed., 2020, 59, 15665-15673.
     DOI: 10.1002/anie.202004239
   
   for ALPB and GBSA implicit solvation:
   * S. Ehlert, M. Stahn, S. Spicher, S. Grimme, J. Chem. Theory Comput.,
     2021, 17, 4250-4261. DOI: 10.1021/acs.jctc.1c00471
   
   for ddCOSMO and CPCM-X implicit solvation:
   * M. Stahn, S. Ehlert, S. Grimme, J. Phys. Chem. A,
     2023, XX, XXXX-XXXX. DOI: 10.1021/acs.jpca.3c04382
   
   for DFT-D4:
   * E. Caldeweyher, C. Bannwarth and S. Grimme, J. Chem. Phys., 2017,
     147, 034112. DOI: 10.1063/1.4993215
   * E. Caldeweyher, S. Ehlert, A. Hansen, H. Neugebauer, S. Spicher,
     C. Bannwarth and S. Grimme, J. Chem. Phys., 2019, 150, 154122.
     DOI: 10.1063/1.5090222
   * E. Caldeweyher, J.-M. Mewes, S. Ehlert and S. Grimme, Phys. Chem. Chem. Phys.
     2020, 22, 8499-8512. DOI: 10.1039/D0CP00502A
   
   for sTDA-xTB:
   * S. Grimme and C. Bannwarth, J. Chem. Phys., 2016, 145, 054103.
     DOI: 10.1063/1.4959605
   
   in the mass-spec context:
   * V. Asgeirsson, C. Bauer and S. Grimme, Chem. Sci., 2017, 8, 4879.
     DOI: 10.1039/c7sc00601b
   * J. Koopman and S. Grimme, ACS Omega 2019, 4, 12, 15120-15133.
     DOI: 10.1021/acsomega.9b02011
   
   for metadynamics refer to:
   * S. Grimme, J. Chem. Theory Comput., 2019, 155, 2847-2862
     DOI: 10.1021/acs.jctc.9b00143
   
   for SPH calculations refer to:
   * S. Spicher and S. Grimme, J. Chem. Theory Comput., 2021, 17, 1701-1714
     DOI: 10.1021/acs.jctc.0c01306
   
   for ONIOM refer to:
   * C. Plett, A. Katbashev, S. Ehlert, S. Grimme, M. Bursch,
     Phys. Chem. Chem. Phys., 2023, 25, 17860-17868. DOI: 10.1039/D3CP02178E
   
   for DIPRO refer to:
   * J. Kohn, N. Gildemeister, S. Grimme, D. Fazzi, A. Hansen,
     J. Chem. Phys., 2023, just accepted.
   
   for PTB refer to:
   * S. Grimme, M. Mueller, A. Hansen, J. Chem. Phys., 2023, 158, 124111.
     DOI: 10.1063/5.0137838
   
   with help from (in alphabetical order)
   P. Atkinson, C. Bannwarth, F. Bohle, G. Brandenburg, E. Caldeweyher
   M. Checinski, S. Dohm, S. Ehlert, S. Ehrlich, I. Gerasimov, C. Hölzer
   A. Katbashev, J. Kohn, J. Koopman, C. Lavigne, S. Lehtola, F. März, M. Müller,
   F. Musil, H. Neugebauer, J. Pisarek, C. Plett, P. Pracht, F. Pultar,
   J. Seibert, P. Shushkov, S. Spicher, M. Stahn, M. Steiner, T. Strunk,
   J. Stückrath, T. Rose, and J. Unsleber
   
 * started run on 2026/08/31 at 18:30:34.331     
   ID    Z sym.   atoms
    1    6 C      1-4, 6, 9-16, 18, 21-23, 25-27, 29, 31-35, 37, 39-50
    2    8 O      5, 7, 17, 19, 20, 24, 28, 30, 36, 38
    3    7 N      8
    4    1 H      51-97

           -------------------------------------------------
          |                Calculation Setup                |
           -------------------------------------------------

          program call               : "c:\Users\Andre\Proyectos doctorado\kras-pancreatic-gC3N4-ai\tools\xtb\xtb-6.7.1\bin\xtb.exe" "c:\Users\Andre\Proyectos doctorado\nano-qsar-ai-therapeutics\calculations\tnbc\Docetaxel\Docetaxel_drug.xyz" --gfn 2 --sp --chrg 0 --uhf 0 --iterations 500 --norestart
          coordinate file            : c:\Users\Andre\Proyectos doctorado\nano-qsar-ai-therapeutics\calculations\tnbc\Docetaxel\Docetaxel_drug.xyz
          omp threads                :                    16


           -------------------------------------------------
          |                 G F N 2 - x T B                 |
           -------------------------------------------------

        Reference                      10.1021/acs.jctc.8b01176
      * Hamiltonian:
        H0-scaling (s, p, d)           1.850000    2.230000    2.230000
        zeta-weighting                 0.500000
      * Dispersion:
        s8                             2.700000
        a1                             0.520000
        a2                             5.000000
        s9                             5.000000
      * Repulsion:
        kExp                           1.500000    1.000000
        rExp                           1.000000
      * Coulomb:
        alpha                          2.000000
        third order                    shell-resolved
        anisotropic                    true
        a3                             3.000000
        a5                             4.000000
        cn-shift                       1.200000
        cn-exp                         4.000000
        max-rad                        5.000000


          ...................................................
          :                      SETUP                      :
          :.................................................:
          :  # basis functions                 247          :
          :  # atomic orbitals                 247          :
          :  # shells                          147          :
          :  # electrons                       268          :
          :  max. iterations                   500          :
          :  Hamiltonian                  GFN2-xTB          :
          :  restarted?                      false          :
          :  GBSA solvation                  false          :
          :  PC potential                    false          :
          :  electronic temp.          300.0000000     K    :
          :  accuracy                    1.0000000          :
          :  -> integral cutoff          0.2500000E+02      :
          :  -> integral neglect         0.1000000E-07      :
          :  -> SCF convergence          0.1000000E-05 Eh   :
          :  -> wf. convergence          0.1000000E-03 e    :
          :  Broyden damping             0.4000000          :
          :  net charge                          0          :
          :  unpaired electrons                  0          :
          ...................................................

 iter      E             dE          RMSdq      gap      omega  full diag
   1   -152.5406287 -0.152541E+03  0.421E+00    1.07       0.0  T
   2   -152.4943072  0.463215E-01  0.294E+00    0.82       1.0  T
   3   -152.5436320 -0.493249E-01  0.234E+00    2.34       1.0  T
   4   -152.8031098 -0.259478E+00  0.880E-01    0.81       1.0  T
   5   -152.8237121 -0.206022E-01  0.360E-01    0.68       1.0  T
   6   -152.8283160 -0.460396E-02  0.135E-01    0.61       1.0  T
   7   -152.8270826  0.123337E-02  0.162E-01    0.65       1.0  T
   8   -152.8287585 -0.167585E-02  0.443E-02    0.60       1.0  T
   9   -152.8288817 -0.123188E-03  0.183E-02    0.61       1.0  T
  10   -152.8288980 -0.162758E-04  0.697E-03    0.61       1.5  T
  11   -152.8289006 -0.265947E-05  0.118E-03    0.61       8.6  T
  12   -152.8289007 -0.469235E-07  0.526E-04    0.61      19.3  T
  13   -152.8289007 -0.889969E-09  0.398E-04    0.61      25.5  T

   *** convergence criteria satisfied after 13 iterations ***

         #    Occupation            Energy/Eh            Energy/eV
      -------------------------------------------------------------
         1        2.0000           -0.7501023             -20.4113
       ...           ...                  ...                  ...
       128        2.0000           -0.4192593             -11.4086
       129        2.0000           -0.4089895             -11.1292
       130        2.0000           -0.4081895             -11.1074
       131        2.0000           -0.3998869             -10.8815
       132        2.0000           -0.3985349             -10.8447
       133        2.0000           -0.3877306             -10.5507
       134        2.0000           -0.3503913              -9.5346 (HOMO)
       135        0.0000           -0.3279595              -8.9242 (LUMO)
       136                         -0.2826704              -7.6919
       137                         -0.2538638              -6.9080
       138                         -0.2471009              -6.7240
       139                         -0.2423341              -6.5942
       ...                                ...                  ...
       247                          0.6581872              17.9102
      -------------------------------------------------------------
                  HL-Gap            0.0224318 Eh            0.6104 eV
             Fermi-level           -0.3391754 Eh           -9.2294 eV

 SCC (total)                   0 d,  0 h,  0 min,  0.168 sec
 SCC setup                      ...        0 min,  0.001 sec (  0.595%)
 Dispersion                     ...        0 min,  0.002 sec (  1.190%)
 classical contributions        ...        0 min,  0.000 sec (  0.000%)
 integral evaluation            ...        0 min,  0.006 sec (  3.571%)
 iterations                     ...        0 min,  0.141 sec ( 83.929%)
 molecular gradient             ...        0 min,  0.017 sec ( 10.119%)
 printout                       ...        0 min,  0.001 sec (  0.595%)

         :::::::::::::::::::::::::::::::::::::::::::::::::::::
         ::                     SUMMARY                     ::
         :::::::::::::::::::::::::::::::::::::::::::::::::::::
         :: total energy            -151.052319585190 Eh    ::
         :: gradient norm              0.143076508467 Eh/a0 ::
         :: HOMO-LUMO gap              0.610399143710 eV    ::
         ::.................................................::
         :: SCC energy              -152.824079669151 Eh    ::
         :: -> isotropic ES            0.254055877966 Eh    ::
         :: -> anisotropic ES          0.007041552546 Eh    ::
         :: -> anisotropic XC          0.040845146585 Eh    ::
         :: -> dispersion             -0.123587692170 Eh    ::
         :: repulsion energy           1.771760083961 Eh    ::
         :: add. restraining           0.000000000000 Eh    ::
         :: total charge              -0.000000000000 e     ::
         :::::::::::::::::::::::::::::::::::::::::::::::::::::

           -------------------------------------------------
          |                Property Printout                |
           -------------------------------------------------

    * Orbital Energies and Occupations

         #    Occupation            Energy/Eh            Energy/eV
      -------------------------------------------------------------
         1        2.0000           -0.7501023             -20.4113
       ...           ...                  ...                  ...
       122        2.0000           -0.4261342             -11.5957
       123        2.0000           -0.4249313             -11.5630
       124        2.0000           -0.4241681             -11.5422
       125        2.0000           -0.4217480             -11.4763
       126        2.0000           -0.4212486             -11.4628
       127        2.0000           -0.4200376             -11.4298
       128        2.0000           -0.4192593             -11.4086
       129        2.0000           -0.4089895             -11.1292
       130        2.0000           -0.4081895             -11.1074
       131        2.0000           -0.3998869             -10.8815
       132        2.0000           -0.3985349             -10.8447
       133        2.0000           -0.3877306             -10.5507
       134        2.0000           -0.3503913              -9.5346 (HOMO)
       135        0.0000           -0.3279595              -8.9242 (LUMO)
       136                         -0.2826704              -7.6919
       137                         -0.2538638              -6.9080
       138                         -0.2471009              -6.7240
       139                         -0.2423341              -6.5942
       140                         -0.2349994              -6.3947
       141                         -0.2318116              -6.3079
       142                         -0.2060377              -5.6066
       143                         -0.1859457              -5.0598
       144                         -0.1108330              -3.0159
       145                         -0.1096617              -2.9840
       ...                                ...                  ...
       247                          0.6581872              17.9102
      -------------------------------------------------------------
                  HL-Gap            0.0224318 Eh            0.6104 eV
             Fermi-level           -0.3391754 Eh           -9.2294 eV

     #   Z          covCN         q      C6AA      α(0)
     1   6 C        3.755    -0.116    22.771     6.804
     2   6 C        3.778     0.162    18.020     6.048
     3   6 C        3.753    -0.116    22.781     6.806
     4   6 C        3.753    -0.116    22.777     6.806
     5   8 O        1.706    -0.307    19.119     5.904
     6   6 C        2.636     0.404    20.188     7.350
     7   8 O        0.857    -0.475    23.228     6.462
     8   7 N        2.689    -0.199    25.314     7.473
     9   6 C        3.791     0.040    19.916     6.356
    10   6 C        2.960     0.004    27.927     8.668
    11   6 C        2.915    -0.034    28.839     8.806
    12   6 C        2.910    -0.030    28.746     8.792
    13   6 C        2.912    -0.032    28.801     8.800
    14   6 C        2.910    -0.031    28.762     8.794
    15   6 C        2.914    -0.033    28.833     8.805
    16   6 C        3.721     0.080    19.353     6.283
    17   8 O        1.650    -0.442    21.676     6.285
    18   6 C        2.708     0.334    21.323     7.558
    19   8 O        0.856    -0.400    21.687     6.244
    20   8 O        1.702    -0.255    18.226     5.764
    21   6 C        3.766     0.118    18.684     6.161
    22   6 C        3.842    -0.062    21.653     6.619
    23   6 C        3.776     0.136    18.412     6.114
    24   8 O        1.651    -0.452    21.882     6.315
    25   6 C        3.020     0.042    27.043     8.530
    26   6 C        2.966    -0.086    30.157     9.008
    27   6 C        2.898     0.204    23.674     7.978
    28   8 O        0.856    -0.403    21.746     6.252
    29   6 C        3.739     0.092    19.128     6.241
    30   8 O        1.653    -0.436    21.563     6.269
    31   6 C        3.960     0.003    20.459     6.427
    32   6 C        3.749    -0.108    22.622     6.783
    33   6 C        3.843    -0.045    21.347     6.572
    34   6 C        3.811    -0.072    21.862     6.655
    35   6 C        3.763     0.108    18.843     6.188
    36   8 O        1.703    -0.277    18.603     5.823
    37   6 C        2.719     0.348    21.084     7.517
    38   8 O        0.856    -0.409    21.858     6.268
    39   6 C        2.965    -0.018    28.460     8.751
    40   6 C        2.916    -0.018    28.470     8.750
    41   6 C        2.911    -0.025    28.631     8.774
    42   6 C        2.912    -0.020    28.509     8.755
    43   6 C        2.910    -0.027    28.668     8.780
    44   6 C        2.913    -0.023    28.587     8.768
    45   6 C        3.931     0.034    19.947     6.347
    46   6 C        3.754    -0.107    22.602     6.779
    47   6 C        3.869     0.005    20.450     6.430
    48   6 C        3.757    -0.112    22.686     6.791
    49   6 C        3.757    -0.107    22.598     6.778
    50   6 C        3.822    -0.076    21.941     6.666
    51   1 H        0.924     0.049     2.328     2.386
    52   1 H        0.924     0.049     2.339     2.392
    53   1 H        0.924     0.047     2.362     2.403
    54   1 H        0.924     0.042     2.419     2.432
    55   1 H        0.924     0.063     2.165     2.301
    56   1 H        0.924     0.042     2.419     2.432
    57   1 H        0.924     0.044     2.398     2.422
    58   1 H        0.924     0.062     2.178     2.308
    59   1 H        0.924     0.042     2.418     2.432
    60   1 H        0.860     0.193     1.144     1.675
    61   1 H        0.923     0.083     1.950     2.184
    62   1 H        0.925     0.045     2.385     2.415
    63   1 H        0.925     0.036     2.503     2.474
    64   1 H        0.925     0.032     2.562     2.503
    65   1 H        0.925     0.033     2.539     2.492
    66   1 H        0.925     0.049     2.332     2.388
    67   1 H        0.924     0.089     1.886     2.148
    68   1 H        0.803     0.320     0.664     1.280
    69   1 H        0.924     0.052     2.292     2.368
    70   1 H        0.924     0.052     2.290     2.366
    71   1 H        0.924     0.071     2.076     2.253
    72   1 H        0.803     0.309     0.695     1.309
    73   1 H        0.925     0.041     2.439     2.442
    74   1 H        0.803     0.302     0.717     1.330
    75   1 H        0.924     0.072     2.064     2.246
    76   1 H        0.924     0.037     2.495     2.470
    77   1 H        0.924     0.049     2.338     2.391
    78   1 H        0.923     0.052     2.300     2.372
    79   1 H        0.923     0.043     2.415     2.430
    80   1 H        0.925     0.053     2.281     2.362
    81   1 H        0.923     0.061     2.188     2.313
    82   1 H        0.925     0.061     2.190     2.314
    83   1 H        0.925     0.046     2.369     2.407
    84   1 H        0.925     0.046     2.375     2.410
    85   1 H        0.925     0.047     2.356     2.400
    86   1 H        0.925     0.043     2.403     2.424
    87   1 H        0.924     0.050     2.321     2.382
    88   1 H        0.924     0.051     2.302     2.373
    89   1 H        0.924     0.057     2.231     2.336
    90   1 H        0.924     0.035     2.515     2.480
    91   1 H        0.924     0.046     2.376     2.410
    92   1 H        0.924     0.052     2.299     2.371
    93   1 H        0.924     0.036     2.497     2.471
    94   1 H        0.924     0.056     2.245     2.343
    95   1 H        0.925     0.040     2.455     2.450
    96   1 H        0.924     0.079     1.988     2.205
    97   1 H        0.924     0.095     1.830     2.116

 Mol. C6AA /au·bohr⁶  :      94967.328399
 Mol. C8AA /au·bohr⁸  :    2199914.255754
 Mol. α(0) /au        :        466.506685


Wiberg/Mayer (AO) data.
largest (>0.10) Wiberg bond orders for each atom

 ---------------------------------------------------------------------------
     #   Z sym  total        # sym  WBO       # sym  WBO       # sym  WBO
 ---------------------------------------------------------------------------
     1   6 C    3.993 --     2 C    0.993    52 H    0.985    51 H    0.985
                            53 H    0.985
     2   6 C    3.920 --     3 C    0.995     4 C    0.995     1 C    0.993
                             5 O    0.907
     3   6 C    3.992 --     2 C    0.995    54 H    0.985    56 H    0.984
                            55 H    0.981
     4   6 C    3.992 --     2 C    0.995    57 H    0.985    59 H    0.984
                            58 H    0.981
     5   8 O    2.243 --     6 C    1.075     2 C    0.907     7 O    0.135
     6   6 C    3.940 --     7 O    1.627     8 N    1.194     5 O    1.075
     7   8 O    1.961 --     6 C    1.627     8 N    0.157     5 O    0.135
     8   7 N    3.385 --     6 C    1.194     9 C    0.983    60 H    0.930
                             7 O    0.157
     9   6 C    3.963 --    10 C    0.990     8 N    0.983    61 H    0.953
                            16 C    0.938
    10   6 C    3.985 --    15 C    1.416    11 C    1.413     9 C    0.990
                            13 C    0.110
    11   6 C    3.989 --    12 C    1.444    10 C    1.413    62 H    0.968
                            14 C    0.112
    12   6 C    3.991 --    11 C    1.444    13 C    1.438    63 H    0.971
                            15 C    0.111
    13   6 C    3.990 --    14 C    1.439    12 C    1.438    64 H    0.971
                            10 C    0.110
    14   6 C    3.991 --    15 C    1.441    13 C    1.439    65 H    0.971
                            11 C    0.112
    15   6 C    3.990 --    14 C    1.441    10 C    1.416    66 H    0.966
                            12 C    0.111
    16   6 C    3.962 --    17 O    1.003    18 C    0.951     9 C    0.938
                            67 H    0.929
    17   8 O    1.957 --    16 C    1.003    68 H    0.867
    18   6 C    3.917 --    19 O    1.757    20 O    1.123    16 C    0.951
    19   8 O    2.046 --    18 C    1.757    20 O    0.171
    20   8 O    2.312 --    18 C    1.123    21 C    0.930    19 O    0.171
    21   6 C    3.930 --    50 C    0.992    22 C    0.987    69 H    0.962
                            20 O    0.930
    22   6 C    3.992 --    21 C    0.987    71 H    0.964    70 H    0.964
                            23 C    0.962
    23   6 C    3.946 --    25 C    0.989    22 C    0.962    24 O    0.960
                            47 C    0.937
    24   8 O    1.963 --    23 C    0.960    72 H    0.884
    25   6 C    3.962 --    26 C    1.628    50 C    1.034    23 C    0.989
    26   6 C    3.886 --    25 C    1.628    27 C    1.078    45 C    0.915
    27   6 C    3.920 --    28 O    1.750    26 C    1.078    29 C    0.951
    28   8 O    2.052 --    27 C    1.750
    29   6 C    3.959 --    31 C    0.977    30 O    0.977    27 C    0.951
                            73 H    0.946
    30   8 O    1.956 --    29 C    0.977    74 H    0.892
    31   6 C    3.983 --    32 C    0.990    29 C    0.977    33 C    0.959
                            45 C    0.936
    32   6 C    3.988 --    31 C    0.990    76 H    0.983    77 H    0.982
                            75 H    0.978
    33   6 C    3.985 --    34 C    0.995    78 H    0.968    47 C    0.966
                            31 C    0.959
    34   6 C    3.992 --    33 C    0.995    35 C    0.985    79 H    0.977
                            80 H    0.962
    35   6 C    3.926 --    34 C    0.985    45 C    0.958    81 H    0.955
                            36 O    0.938
    36   8 O    2.297 --    37 C    1.103    35 C    0.938    38 O    0.168
    37   6 C    3.915 --    38 O    1.731    36 O    1.103    39 C    1.004
    38   8 O    2.038 --    37 C    1.731    36 O    0.168
    39   6 C    3.986 --    40 C    1.388    44 C    1.386    37 C    1.004
                            42 C    0.101
    40   6 C    3.986 --    41 C    1.449    39 C    1.388    82 H    0.967
                            43 C    0.108
    41   6 C    3.990 --    40 C    1.449    42 C    1.436    83 H    0.970
                            44 C    0.109
    42   6 C    3.989 --    41 C    1.436    43 C    1.433    84 H    0.970
                            39 C    0.101
    43   6 C    3.991 --    44 C    1.451    42 C    1.433    85 H    0.970
                            40 C    0.108
    44   6 C    3.990 --    43 C    1.451    39 C    1.386    86 H    0.967
                            41 C    0.109
    45   6 C    3.975 --    46 C    1.001    35 C    0.958    31 C    0.936
                            26 C    0.915
    46   6 C    3.990 --    45 C    1.001    89 H    0.981    87 H    0.980
                            88 H    0.979
    47   6 C    3.980 --    49 C    0.998    48 C    0.993    33 C    0.966
                            23 C    0.937
    48   6 C    3.991 --    47 C    0.993    91 H    0.983    92 H    0.981
                            90 H    0.979
    49   6 C    3.992 --    47 C    0.998    93 H    0.983    94 H    0.982
                            95 H    0.978
    50   6 C    3.993 --    25 C    1.034    21 C    0.992    96 H    0.941
                            97 H    0.934
    51   1 H    0.998 --     1 C    0.985
    52   1 H    0.998 --     1 C    0.985
    53   1 H    0.997 --     1 C    0.985
    54   1 H    0.998 --     3 C    0.985
    55   1 H    0.996 --     3 C    0.981
    56   1 H    0.998 --     3 C    0.984
    57   1 H    0.998 --     4 C    0.985
    58   1 H    0.996 --     4 C    0.981
    59   1 H    0.998 --     4 C    0.984
    60   1 H    0.963 --     8 N    0.930
    61   1 H    0.993 --     9 C    0.953
    62   1 H    0.998 --    11 C    0.968
    63   1 H    0.998 --    12 C    0.971
    64   1 H    0.998 --    13 C    0.971
    65   1 H    0.999 --    14 C    0.971
    66   1 H    0.998 --    15 C    0.966
    67   1 H    0.991 --    16 C    0.929
    68   1 H    0.898 --    17 O    0.867
    69   1 H    0.997 --    21 C    0.962
    70   1 H    0.997 --    22 C    0.964
    71   1 H    0.994 --    22 C    0.964
    72   1 H    0.904 --    24 O    0.884
    73   1 H    0.998 --    29 C    0.946
    74   1 H    0.909 --    30 O    0.892
    75   1 H    0.994 --    32 C    0.978
    76   1 H    0.998 --    32 C    0.983
    77   1 H    0.995 --    32 C    0.982
    78   1 H    0.997 --    33 C    0.968
    79   1 H    0.998 --    34 C    0.977
    80   1 H    0.997 --    34 C    0.962
    81   1 H    0.995 --    35 C    0.955
    82   1 H    0.996 --    40 C    0.967
    83   1 H    0.997 --    41 C    0.970
    84   1 H    0.997 --    42 C    0.970
    85   1 H    0.997 --    43 C    0.970
    86   1 H    0.998 --    44 C    0.967
    87   1 H    0.997 --    46 C    0.980
    88   1 H    0.997 --    46 C    0.979
    89   1 H    0.997 --    46 C    0.981
    90   1 H    0.999 --    48 C    0.979
    91   1 H    0.997 --    48 C    0.983
    92   1 H    0.997 --    48 C    0.981
    93   1 H    0.998 --    49 C    0.983
    94   1 H    0.996 --    49 C    0.982
    95   1 H    0.998 --    49 C    0.978
    96   1 H    0.992 --    50 C    0.941
    97   1 H    0.990 --    50 C    0.934
 ---------------------------------------------------------------------------

Topologies differ in total number of bonds
Writing topology from bond orders to xtbtopo.mol

molecular dipole:
                 x           y           z       tot (Debye)
 q only:       -0.367       1.029      -1.034
   full:       -0.474       0.994      -1.253       4.240
molecular quadrupole (traceless):
                xx          xy          yy          xz          yz          zz
 q only:       -8.274     -14.032      -4.250     -12.604      -9.789      12.524
  q+dip:      -19.022     -14.282      -0.530     -13.395     -10.442      19.552
   full:      -16.496     -15.344       0.720     -14.125     -10.599      15.775


           -------------------------------------------------
          | TOTAL ENERGY             -151.052319585190 Eh   |
          | GRADIENT NORM               0.143076508467 Eh/α |
          | HOMO-LUMO GAP               0.610399143710 eV   |
           -------------------------------------------------

------------------------------------------------------------------------
 * finished run on 2026/08/31 at 18:30:34.550     
------------------------------------------------------------------------
 total:
 * wall-time:     0 d,  0 h,  0 min,  0.218 sec
 *  cpu-time:     0 d,  0 h,  0 min,  2.281 sec
 * ratio c/w:    10.464 speedup
 SCF:
 * wall-time:     0 d,  0 h,  0 min,  0.169 sec
 *  cpu-time:     0 d,  0 h,  0 min,  1.906 sec
 * ratio c/w:    11.280 speedup

normal termination of xtb
