169
Drug@B36N36 non-overlapping relaxed complex
C      8.855607     -2.955640      9.887251
C      7.884052     -2.200157     10.806919
C      8.682247     -1.187857     11.635955
C      7.156088     -3.218453     11.691555
O      6.964560     -1.534665      9.903950
C      5.961493     -0.766688     10.383098
O      5.711539     -0.548316     11.557591
N      5.243274     -0.279938      9.336736
C      3.966505      0.398357      9.531671
C      3.629495      1.216460      8.289067
C      3.454647      2.605855      8.399655
C      3.157261      3.381517      7.277461
C      3.032284      2.780978      6.027602
C      3.198372      1.404240      5.899866
C      3.494890      0.627099      7.021391
C      2.849206     -0.589811      9.961415
O      2.644760     -1.608686      8.966645
C      1.575383      0.181687     10.326826
O      1.526118      1.284148     10.854463
O      0.488368     -0.548131      9.946404
C     -0.762018      0.156495      9.891957
C     -0.841480      0.988988      8.607011
C     -1.194382     -0.026285      7.494406
O      0.000374     -0.803563      7.277436
C     -2.152314     -0.927444      8.250327
C     -3.287243     -1.441947      7.750670
C     -2.968920     -2.245633      6.510473
O     -2.176360     -3.179062      6.499812
C     -3.740010     -1.762185      5.309864
O     -4.767923     -2.689544      5.001493
C     -4.266465     -0.418820      5.829581
C     -5.520346     -0.003849      5.023036
C     -3.230655      0.797933      5.863255
C     -3.860288      1.721039      6.932494
C     -4.715371      0.834297      7.845006
O     -4.349901      1.062112      9.210256
C     -5.357506      1.033870     10.119570
O     -6.525417      0.764883      9.893933
C     -4.834771      1.350061     11.472532
C     -5.569623      0.922583     12.585289
C     -5.108457      1.193412     13.874686
C     -3.917333      1.896060     14.056349
C     -3.188009      2.335991     12.951876
C     -3.646810      2.069260     11.660511
C     -4.533207     -0.629890      7.351326
C     -5.766644     -1.462727      7.736051
C     -1.653650      0.601538      6.093028
C     -0.985406      2.007574      5.913863
C     -1.042083     -0.192503      4.896570
C     -1.885042     -0.867501      9.737360
H      8.316060     -3.665762      9.249645
H      9.370369     -2.262987      9.211116
H      9.610404     -3.507273     10.457495
H      9.122979     -0.418992     10.991433
H      8.051502     -0.665173     12.361297
H      9.487139     -1.677188     12.194998
H      6.523421     -3.877232     11.086089
H      6.497787     -2.732559     12.417995
H      7.864632     -3.836091     12.253960
H      5.445304     -0.707530      8.445237
H      4.124044      1.096380     10.365704
H      3.548126      3.096819      9.367194
H      3.027227      4.455641      7.380890
H      2.803858      3.384988      5.153728
H      3.097074      0.932192      4.926041
H      3.621882     -0.445720      6.891715
H      3.151418     -1.120435     10.871411
H      1.831870     -1.353395      8.478647
H     -0.894711      0.753428     10.800531
H     -1.614663      1.748563      8.736915
H      0.113093      1.485824      8.404659
H     -0.280428     -1.718480      7.071098
H     -3.120471     -1.642942      4.422346
H     -4.329766     -3.545154      4.829177
H     -6.318748     -0.750146      5.084898
H     -5.948559      0.945004      5.358137
H     -5.263761      0.113918      3.963817
H     -3.315067      1.310324      4.893242
H     -4.517789      2.440629      6.426194
H     -3.157914      2.333316      7.493741
H     -5.755498      1.153914      7.691641
H     -6.500680      0.374920     12.451737
H     -5.678584      0.857026     14.737447
H     -3.558993      2.105809     15.061714
H     -2.263179      2.889891     13.097861
H     -3.073895      2.433638     10.812271
H     -5.818979     -1.598522      8.822403
H     -6.697277     -0.979376      7.420668
H     -5.755860     -2.465554      7.298213
H     -1.312631      2.745728      6.648961
H     -1.209308      2.424835      4.924494
H      0.104182      1.936978      5.996684
H     -1.500154      0.106425      3.946833
H      0.034576     -0.002116      4.799172
H     -1.133599     -1.273062      4.994667
H     -2.777058     -0.555126     10.282973
H     -1.578266     -1.852519     10.105899
B      3.459180     -1.454569      1.628037
N      3.456400      1.129904      0.940040
B      2.539920      2.362499     -1.261047
N      2.293067     -0.641637     -2.730603
B      0.690534     -3.561069      2.702709
N     -2.939724     -2.654773      1.709476
B     -1.038202      4.085096      1.831238
N     -0.619347      0.017651     -3.941904
B     -0.473710      1.445324     -4.091730
N      1.209559     -3.786796     -1.739405
B     -3.844500      2.209440     -0.493722
N     -2.772864      2.763562     -1.211833
B      1.405725      0.818091     -4.889311
N     -0.235789      3.364215      2.833544
B      0.898320     -2.879798     -2.813849
N     -0.491833      3.766578     -1.010119
B     -0.805996      2.182269      3.281874
N      1.656110     -1.274433      3.503622
B     -0.248484      3.469937     -2.379863
N      1.308703      0.068898      3.816981
B     -1.597441     -0.559934     -3.084689
N     -3.832496      1.776842      0.831624
B      0.337602      4.495994      1.183894
N      0.043256     -0.013955      4.456653
B     -2.708837      2.226751      1.601242
N      3.772728     -0.132624     -0.765541
B     -2.253381     -3.639412      1.008482
N      1.055818      3.733398      2.235734
B     -1.825620     -0.777460      3.219840
N     -2.436768     -3.601880     -0.450773
B      3.018658     -1.073670     -1.502768
N     -3.157960     -1.252592     -0.384321
B      2.034656      2.922326      1.561722
N     -0.507447     -2.900148     -2.432795
B     -1.673548     -2.112882     -2.491621
N      0.590135      3.964583     -0.110225
B      1.090314      2.959649     -3.182489
N      0.077350     -4.359230      1.721289
B     -1.784034      3.452384     -0.408220
N     -2.013520      3.418515      1.031553
B      1.465878     -4.212148      1.499138
N     -0.797987      1.064153      4.194581
B     -2.666242     -2.402096     -1.175256
N     -1.074388     -4.484335      0.991235
B     -2.503710      0.491370     -2.109143
N      2.352728     -3.887335      0.453103
B      3.912327     -0.202357      0.725926
N      1.928548      1.957009     -2.465077
B      1.001184      2.254351     -4.622507
N     -4.186016      0.829005     -0.347538
B     -1.338881      2.453658     -3.114870
N     -2.359649      1.932605     -2.305841
B      3.073063     -2.645483      0.601111
N      2.335213     -3.673670     -0.970876
B      2.217863      0.545803      2.808407
N     -2.026423      0.611912      3.601492
B     -1.101749     -4.183787     -0.441007
N     -3.218144      0.041654     -0.958566
B      3.447752      1.258593     -0.514065
N      2.582085      1.632977      1.936454
B      1.472054     -1.555001     -3.515610
N     -2.102601      1.754194      2.760799
B      2.040765      0.711921     -3.211483
N     -2.720915     -1.341699      2.320567
B      0.658648     -0.538875     -4.486937
N     -0.168664     -3.759421     -1.356472
B      0.485560     -2.105634      3.433764
N     -0.587253     -1.205033      3.824488
B     -3.224373     -1.451411      1.000320
N      2.671324     -0.855529      2.621135
B      1.878557      3.339348     -0.106427
N      2.876911     -2.331783     -0.793563
