169
Drug@B36N36 complex
C      8.855607     -2.955640      1.227950
C      7.884052     -2.200157      2.147618
C      8.682247     -1.187857      2.976654
C      7.156088     -3.218453      3.032254
O      6.964560     -1.534665      1.244649
C      5.961493     -0.766688      1.723797
O      5.711539     -0.548316      2.898290
N      5.243274     -0.279938      0.677435
C      3.966505      0.398357      0.872370
C      3.629495      1.216460     -0.370234
C      3.454647      2.605855     -0.259646
C      3.157261      3.381517     -1.381840
C      3.032284      2.780978     -2.631699
C      3.198372      1.404240     -2.759435
C      3.494890      0.627099     -1.637910
C      2.849206     -0.589811      1.302114
O      2.644760     -1.608686      0.307344
C      1.575383      0.181687      1.667525
O      1.526118      1.284148      2.195162
O      0.488368     -0.548131      1.287103
C     -0.762018      0.156495      1.232656
C     -0.841480      0.988988     -0.052290
C     -1.194382     -0.026285     -1.164895
O      0.000374     -0.803563     -1.381865
C     -2.152314     -0.927444     -0.408974
C     -3.287243     -1.441947     -0.908631
C     -2.968920     -2.245633     -2.148828
O     -2.176360     -3.179062     -2.159489
C     -3.740010     -1.762185     -3.349437
O     -4.767923     -2.689544     -3.657808
C     -4.266465     -0.418820     -2.829720
C     -5.520346     -0.003849     -3.636265
C     -3.230655      0.797933     -2.796046
C     -3.860288      1.721039     -1.726807
C     -4.715371      0.834297     -0.814295
O     -4.349901      1.062112      0.550955
C     -5.357506      1.033870      1.460269
O     -6.525417      0.764883      1.234632
C     -4.834771      1.350061      2.813231
C     -5.569623      0.922583      3.925988
C     -5.108457      1.193412      5.215385
C     -3.917333      1.896060      5.397048
C     -3.188009      2.335991      4.292575
C     -3.646810      2.069260      3.001210
C     -4.533207     -0.629890     -1.307975
C     -5.766644     -1.462727     -0.923250
C     -1.653650      0.601538     -2.566273
C     -0.985406      2.007574     -2.745438
C     -1.042083     -0.192503     -3.762731
C     -1.885042     -0.867501      1.078059
H      8.316060     -3.665762      0.590344
H      9.370369     -2.262987      0.551815
H      9.610404     -3.507273      1.798194
H      9.122979     -0.418992      2.332132
H      8.051502     -0.665173      3.701996
H      9.487139     -1.677188      3.535697
H      6.523421     -3.877232      2.426788
H      6.497787     -2.732559      3.758694
H      7.864632     -3.836091      3.594659
H      5.445304     -0.707530     -0.214064
H      4.124044      1.096380      1.706403
H      3.548126      3.096819      0.707893
H      3.027227      4.455641     -1.278411
H      2.803858      3.384988     -3.505573
H      3.097074      0.932192     -3.733260
H      3.621882     -0.445720     -1.767586
H      3.151418     -1.120435      2.212110
H      1.831870     -1.353395     -0.180654
H     -0.894711      0.753428      2.141230
H     -1.614663      1.748563      0.077614
H      0.113093      1.485824     -0.254642
H     -0.280428     -1.718480     -1.588203
H     -3.120471     -1.642942     -4.236955
H     -4.329766     -3.545154     -3.830124
H     -6.318748     -0.750146     -3.574403
H     -5.948559      0.945004     -3.301164
H     -5.263761      0.113918     -4.695484
H     -3.315067      1.310324     -3.766059
H     -4.517789      2.440629     -2.233107
H     -3.157914      2.333316     -1.165560
H     -5.755498      1.153914     -0.967660
H     -6.500680      0.374920      3.792436
H     -5.678584      0.857026      6.078146
H     -3.558993      2.105809      6.402413
H     -2.263179      2.889891      4.438560
H     -3.073895      2.433638      2.152970
H     -5.818979     -1.598522      0.163102
H     -6.697277     -0.979376     -1.238633
H     -5.755860     -2.465554     -1.361088
H     -1.312631      2.745728     -2.010340
H     -1.209308      2.424835     -3.734807
H      0.104182      1.936978     -2.662617
H     -1.500154      0.106425     -4.712468
H      0.034576     -0.002116     -3.860129
H     -1.133599     -1.273062     -3.664634
H     -2.777058     -0.555126      1.623672
H     -1.578266     -1.852519      1.446598
B      2.101200      0.000000      3.345000
B     -2.101200      0.000000      3.345000
B      0.000000      2.101200      3.345000
B      0.000000     -2.101200      3.345000
B      3.345000      2.101200      0.000000
B      3.345000     -2.101200      0.000000
B      3.345000      0.000000      2.101200
B      3.345000      0.000000     -2.101200
B     -3.345000      2.101200      0.000000
B     -3.345000     -2.101200      0.000000
B     -3.345000      0.000000      2.101200
B     -3.345000      0.000000     -2.101200
B      2.101200      0.000000     -3.345000
B     -2.101200      0.000000     -3.345000
B      0.000000      2.101200     -3.345000
B      0.000000     -2.101200     -3.345000
B      0.000000      3.345000      2.101200
B      0.000000      3.345000     -2.101200
B      0.000000     -3.345000      2.101200
B      0.000000     -3.345000     -2.101200
B      2.101200      3.345000      0.000000
B     -2.101200      3.345000      0.000000
B      2.101200     -3.345000      0.000000
B     -2.101200     -3.345000      0.000000
B      1.480000      1.480000      3.580000
B     -1.480000      1.480000      3.580000
B      1.480000     -1.480000      3.580000
B     -1.480000     -1.480000      3.580000
B      3.580000      1.480000      1.480000
B      3.580000     -1.480000      1.480000
B      3.580000      1.480000     -1.480000
B      3.580000     -1.480000     -1.480000
B     -3.580000      1.480000      1.480000
B     -3.580000     -1.480000      1.480000
B     -3.580000      1.480000     -1.480000
B     -3.580000     -1.480000     -1.480000
N      2.101200      0.000000      3.920000
N     -2.101200      0.000000      3.920000
N      0.000000      2.101200      3.920000
N      0.000000     -2.101200      3.920000
N      3.920000      2.101200      0.000000
N      3.920000     -2.101200      0.000000
N      3.920000      0.000000      2.101200
N      3.920000      0.000000     -2.101200
N     -3.920000      2.101200      0.000000
N     -3.920000     -2.101200      0.000000
N     -3.920000      0.000000      2.101200
N     -3.920000      0.000000     -2.101200
N      2.101200      0.000000     -3.920000
N     -2.101200      0.000000     -3.920000
N      0.000000      2.101200     -3.920000
N      0.000000     -2.101200     -3.920000
N      0.000000      3.920000      2.101200
N      0.000000      3.920000     -2.101200
N      0.000000     -3.920000      2.101200
N      0.000000     -3.920000     -2.101200
N      2.101200      3.920000      0.000000
N     -2.101200      3.920000      0.000000
N      2.101200     -3.920000      0.000000
N     -2.101200     -3.920000      0.000000
N      1.480000      1.480000      4.220000
N     -1.480000      1.480000      4.220000
N      1.480000     -1.480000      4.220000
N     -1.480000     -1.480000      4.220000
N      4.220000      1.480000      1.480000
N      4.220000     -1.480000      1.480000
N      4.220000      1.480000     -1.480000
N      4.220000     -1.480000     -1.480000
N     -4.220000      1.480000      1.480000
N     -4.220000     -1.480000      1.480000
N     -4.220000      1.480000     -1.480000
N     -4.220000     -1.480000     -1.480000
