126
Exatecan/B36N36 GFN2 opt
C      -5.03793453      0.31533614      6.54251164
C      -5.68683533     -0.18309412      7.82850031
C      -5.01277421      0.45078338      9.07777803
C      -3.56083927      0.05948505      9.15609308
C      -3.26897742     -1.17937380      9.65673021
C      -4.36532455     -2.04882636     10.18360942
O      -5.43738362     -1.30509940     10.75899103
C      -5.74134829     -0.09825832     10.31526110
O      -6.58421269      0.57369491     10.85694253
C      -1.91650234     -1.68444061      9.72668022
O      -1.58672193     -2.78060919     10.15234521
N      -0.97925730     -0.78885013      9.24931007
C       0.42994050     -1.12237247      9.14839027
C       1.01421965      0.08182498      8.48618635
C       2.28366487      0.37615926      8.05673022
C       3.41633510     -0.61521398      8.15339997
C       4.47475394     -0.31449625      7.08407771
C       4.90949005      1.14398568      7.11676307
C       3.73412955      2.06223780      6.94536804
C       2.48174291      1.65516037      7.46335485
C       1.36487589      2.53940906      7.35753287
C       1.53303703      3.79577051      6.74879785
C       2.74935016      4.12022299      6.22875012
C       3.87507571      3.28011401      6.31028134
C       5.17035818      3.72350990      5.69948061
F       2.88645913      5.31303350      5.60825868
N       0.13032480      2.22608832      7.79098610
C      -0.02034023      1.04190064      8.31160596
C      -1.26247678      0.45113150      8.76846000
C      -2.54125154      0.92535483      8.71930045
N       2.89890338     -1.97159271      8.05898961
O      -5.17498577      1.84420026      9.05207787
H      -5.04117617      1.40155522      6.53059995
H      -5.58895341     -0.04652962      5.67867016
H      -4.01015601     -0.02856467      6.46255164
H      -5.62785650     -1.26999061      7.88281777
H      -6.74025986      0.10709935      7.84897509
H      -3.97653776     -2.68641041     10.98371925
H      -4.77038291     -2.70390448      9.40065774
H       0.55737899     -2.03929703      8.57075349
H       0.84918479     -1.30386097     10.14372843
H       3.87156611     -0.51505463      9.15164559
H       4.04732347     -0.53804229      6.10362387
H       5.34033544     -0.96426900      7.23776599
H       5.64173908      1.31555080      6.32934927
H       5.38998065      1.36278693      8.07740883
H       0.68950450      4.45934721      6.66929798
H       5.08278259      4.73885944      5.32424387
H       5.97674468      3.69225722      6.43041974
H       5.42864862      3.07205993      4.86489302
H      -2.76632610      1.90621389      8.34496213
H       3.66329589     -2.63521234      8.11069607
H       2.43423870     -2.09864079      7.16510762
H      -5.90560910      2.05196024      9.65937597
B       0.87079301     -4.27032958      0.25902326
N       0.78865104     -4.77289103      1.62245406
B      -0.61764073     -4.51570638      1.34871506
N      -0.53615216     -4.36950588     -0.09617427
N      -3.98221213     -0.83897042      0.21294787
B      -4.00380700     -1.04523568      1.65260585
N      -4.19786670      0.33489375      2.06963522
B      -3.81360347      0.52913299      0.67931566
B      -1.09130376     -3.15060026     -0.57994149
N      -2.27179245     -2.61892845      0.08551261
B      -2.82645301     -1.37253573     -0.42422873
N      -2.01213762     -0.48041572     -1.23652032
B      -0.83547531     -1.04431047     -1.88174290
N      -0.24999919     -2.28562522     -1.39439057
N       1.52377599      1.27787068     -2.11708766
B       1.37015641     -0.15942507     -2.28097306
N      -0.02796138     -0.18703587     -2.68154684
B       0.07313735      1.16954180     -2.16478743
B      -2.65377156     -1.55064536      3.61184130
N      -3.19918998     -1.98555813      2.33953283
B      -2.41115001     -2.87885443      1.50945332
N      -1.47014222     -3.75602000      2.18415593
B      -0.91344488     -3.33656694      3.45589155
N      -1.71210221     -2.44007556      4.27256293
N       0.31114010     -2.14591748      5.78630554
B       0.21429692     -0.69568339      5.89956671
N      -1.23326715     -0.56942363      5.91703160
B      -1.09036862     -1.93561461      5.43808714
N      -0.80349696      1.72814424     -1.20545510
B      -1.94981943      0.91719841     -0.83603533
N      -2.78788799      1.40161784      0.24585991
B      -2.19347901      2.24733925      1.26566324
N      -1.04446414      3.04694026      0.88018481
B      -0.19332602      2.57551646     -0.19676445
B       2.67747243     -2.74365689      0.82785374
N       1.73180923     -3.22838498     -0.15939842
B       1.17755018     -2.28699706     -1.11696982
N       1.98666979     -1.12998389     -1.45568980
B       2.93413688     -0.62837469     -0.47781703
N       3.47433851     -1.58223578      0.47607180
N      -2.46623769      1.99276268      2.67197506
B      -3.22378152      0.79418330      3.00011662
N      -2.72371658     -0.14890039      3.99207633
B      -1.73192924      0.33991852      4.93682727
N      -0.95222176      1.52937063      4.63769936
B      -1.47740117      2.44916555      3.63838712
B       0.71755771      3.41664648      3.36935057
N       1.04374085      3.90707614      2.04013312
B      -0.39870259      3.75416205      1.92191852
N      -0.72230678      3.61643367      3.33329255
N       3.01782997      0.79843609     -0.20674192
B       2.02627586      1.65774929     -0.84087215
N       1.25446140      2.60325200     -0.04833818
B       1.78577286      2.98433645      1.25183705
N       2.77638109      2.14627556      1.91724292
B       3.52277668      1.20517651      1.09517960
B       1.10680504     -2.57170178      4.68102330
N       0.51603684     -3.46734537      3.70331674
B       1.35139151     -3.89404032      2.58874762
N       2.54038733     -3.13570153      2.22358665
B       3.10406883     -2.24517250      3.22360527
N       2.29894556     -1.79839481      4.35347926
N       1.35442199      2.31339405      3.98767556
B       0.49114748      1.42813506      4.74586788
N       1.08895852      0.20849600      5.25654501
B       2.23320967     -0.35999073      4.58087993
N       3.08700512      0.54772703      3.83766691
B       2.49587508      1.75872241      3.28919932
N       4.26660088     -1.49210713      2.88860827
B       4.28645357     -1.04599050      1.50128669
N       4.49392604      0.37638969      1.73095843
B       4.10369401     -0.05624034      3.06146914
