54
Exatecan GFN2 opt
C      -4.90407958      0.00246043     -1.97939759
C      -5.63130532     -0.26537061     -0.66832627
C      -4.90150735      0.41545972      0.52255376
C      -3.51811070     -0.14959341      0.70454384
C      -3.40313533     -1.33590009      1.37473424
C      -4.61837046     -1.98505670      1.95424952
O      -5.59746447     -1.04527185      2.38729468
C      -5.72844313      0.12408683      1.78527125
O      -6.49032652      0.96142708      2.20106044
C      -2.12500095     -1.97455441      1.60363009
O      -1.94767156     -3.02662983      2.19621869
N      -1.06454216     -1.26773810      1.06858968
C       0.30941265     -1.72597545      1.17999769
C       1.07834465     -0.66108650      0.47159724
C       2.41787317     -0.49599721      0.23689825
C       3.45214052     -1.49876049      0.68446348
C       4.69543074     -1.38434210     -0.20632786
C       5.22551362      0.04297077     -0.21391315
C       4.17296104      1.00463695     -0.68644781
C       2.81365689      0.69272141     -0.44101075
C       1.80015764      1.60721144     -0.85989387
C       2.17214457      2.78703244     -1.52936942
C       3.49438986      3.04181161     -1.74070839
C       4.52550966      2.17793132     -1.32373701
C       5.95367512      2.55579398     -1.57610434
F       3.83667706      4.18332663     -2.37602358
N       0.48827620      1.40959374     -0.63352469
C       0.16373014      0.32669959      0.01589457
C      -1.17204099     -0.08293284      0.40507751
C      -2.38158620      0.51649274      0.20532568
N       2.88259630     -2.83676096      0.71004581
O      -4.86620953      1.80467737      0.32731682
H      -4.75647335      1.07187832     -2.10305248
H      -5.49167616     -0.37132528     -2.81410999
H      -3.93227641     -0.48564265     -1.98864835
H      -5.71375256     -1.33886632     -0.49474069
H      -6.63868662      0.15496085     -0.71445649
H      -4.33833285     -2.56348179      2.84005266
H      -5.08354983     -2.67573326      1.23760350
H       0.41633894     -2.71695177      0.73374123
H       0.59344294     -1.82214550      2.23238187
H       3.72929931     -1.24973639      1.71925860
H       4.42606101     -1.67598599     -1.22602089
H       5.46806360     -2.07007259      0.14999063
H       6.10562699      0.10048335     -0.85449038
H       5.53471928      0.32281716      0.79887502
H       1.40794789      3.47434412     -1.85078225
H       6.01326610      3.55338097     -2.00143175
H       6.52497725      2.53753913     -0.64952116
H       6.41686910      1.85981496     -2.27560334
H      -2.46995753      1.45751092     -0.30544152
H       3.53171797     -3.48645315      1.13854681
H       2.70739603     -3.15663978     -0.23732544
H      -5.58371668      2.18123348      0.86519591
