      -----------------------------------------------------------      
     |                   =====================                   |     
     |                           x T B                           |     
     |                   =====================                   |     
     |                         S. Grimme                         |     
     |          Mulliken Center for Theoretical Chemistry        |     
     |                    University of Bonn                     |     
      -----------------------------------------------------------      

   * xtb version 6.7.1pre (5071a88) compiled by 'Marcel@Raven' on 2024-07-23

   xtb is free software: you can redistribute it and/or modify it under
   the terms of the GNU Lesser General Public License as published by
   the Free Software Foundation, either version 3 of the License, or
   (at your option) any later version.
   
   xtb is distributed in the hope that it will be useful,
   but WITHOUT ANY WARRANTY; without even the implied warranty of
   MERCHANTABILITY or FITNESS FOR A PARTICULAR PURPOSE.  See the
   GNU Lesser General Public License for more details.
   
   Cite this work as:
   * C. Bannwarth, E. Caldeweyher, S. Ehlert, A. Hansen, P. Pracht,
     J. Seibert, S. Spicher, S. Grimme, WIREs Comput. Mol. Sci., 2020, 11,
     e01493. DOI: 10.1002/wcms.1493
   
   for GFN2-xTB:
   * C. Bannwarth, S. Ehlert and S. Grimme., J. Chem. Theory Comput., 2019,
     15, 1652-1671. DOI: 10.1021/acs.jctc.8b01176
   for GFN1-xTB:
   * S. Grimme, C. Bannwarth, P. Shushkov, J. Chem. Theory Comput., 2017,
     13, 1989-2009. DOI: 10.1021/acs.jctc.7b00118
   for GFN0-xTB:
   * P. Pracht, E. Caldeweyher, S. Ehlert, S. Grimme, ChemRxiv, 2019, preprint.
     DOI: 10.26434/chemrxiv.8326202.v1
   for GFN-FF:
   * S. Spicher and S. Grimme, Angew. Chem. Int. Ed., 2020, 59, 15665-15673.
     DOI: 10.1002/anie.202004239
   
   for ALPB and GBSA implicit solvation:
   * S. Ehlert, M. Stahn, S. Spicher, S. Grimme, J. Chem. Theory Comput.,
     2021, 17, 4250-4261. DOI: 10.1021/acs.jctc.1c00471
   
   for ddCOSMO and CPCM-X implicit solvation:
   * M. Stahn, S. Ehlert, S. Grimme, J. Phys. Chem. A,
     2023, XX, XXXX-XXXX. DOI: 10.1021/acs.jpca.3c04382
   
   for DFT-D4:
   * E. Caldeweyher, C. Bannwarth and S. Grimme, J. Chem. Phys., 2017,
     147, 034112. DOI: 10.1063/1.4993215
   * E. Caldeweyher, S. Ehlert, A. Hansen, H. Neugebauer, S. Spicher,
     C. Bannwarth and S. Grimme, J. Chem. Phys., 2019, 150, 154122.
     DOI: 10.1063/1.5090222
   * E. Caldeweyher, J.-M. Mewes, S. Ehlert and S. Grimme, Phys. Chem. Chem. Phys.
     2020, 22, 8499-8512. DOI: 10.1039/D0CP00502A
   
   for sTDA-xTB:
   * S. Grimme and C. Bannwarth, J. Chem. Phys., 2016, 145, 054103.
     DOI: 10.1063/1.4959605
   
   in the mass-spec context:
   * V. Asgeirsson, C. Bauer and S. Grimme, Chem. Sci., 2017, 8, 4879.
     DOI: 10.1039/c7sc00601b
   * J. Koopman and S. Grimme, ACS Omega 2019, 4, 12, 15120-15133.
     DOI: 10.1021/acsomega.9b02011
   
   for metadynamics refer to:
   * S. Grimme, J. Chem. Theory Comput., 2019, 155, 2847-2862
     DOI: 10.1021/acs.jctc.9b00143
   
   for SPH calculations refer to:
   * S. Spicher and S. Grimme, J. Chem. Theory Comput., 2021, 17, 1701-1714
     DOI: 10.1021/acs.jctc.0c01306
   
   for ONIOM refer to:
   * C. Plett, A. Katbashev, S. Ehlert, S. Grimme, M. Bursch,
     Phys. Chem. Chem. Phys., 2023, 25, 17860-17868. DOI: 10.1039/D3CP02178E
   
   for DIPRO refer to:
   * J. Kohn, N. Gildemeister, S. Grimme, D. Fazzi, A. Hansen,
     J. Chem. Phys., 2023, just accepted.
   
   for PTB refer to:
   * S. Grimme, M. Mueller, A. Hansen, J. Chem. Phys., 2023, 158, 124111.
     DOI: 10.1063/5.0137838
   
   with help from (in alphabetical order)
   P. Atkinson, C. Bannwarth, F. Bohle, G. Brandenburg, E. Caldeweyher
   M. Checinski, S. Dohm, S. Ehlert, S. Ehrlich, I. Gerasimov, C. Hölzer
   A. Katbashev, J. Kohn, J. Koopman, C. Lavigne, S. Lehtola, F. März, M. Müller,
   F. Musil, H. Neugebauer, J. Pisarek, C. Plett, P. Pracht, F. Pultar,
   J. Seibert, P. Shushkov, S. Spicher, M. Stahn, M. Steiner, T. Strunk,
   J. Stückrath, T. Rose, and J. Unsleber
   
 * started run on 2026/08/31 at 21:13:45.287     
   ID    Z sym.   atoms
    1    6 C      1-3, 6-8, 10, 12-16, 18-24, 26, 28-30, 32-34, 36, 37
    2    8 O      4, 27
    3    7 N      5, 9, 11, 17, 25, 31, 35, 72, 74, 76, 78, 80, 82, 84, 86,
                  88, 90, 92, 94, 96, 98, 100, 102, 104, 106, 108, 110, 112,
                  114, 116, 118, 120, 122, 124, 126, 128, 130, 132, 134, 136,
                  138, 140, 142
    4    1 H      38-70
    5    5 B      71, 73, 75, 77, 79, 81, 83, 85, 87, 89, 91, 93, 95, 97, 99,
                  101, 103, 105, 107, 109, 111, 113, 115, 117, 119, 121, 123,
                  125, 127, 129, 131, 133, 135, 137, 139, 141

           -------------------------------------------------
          |                Calculation Setup                |
           -------------------------------------------------

          program call               : "c:\Users\Andre\Proyectos doctorado\kras-pancreatic-gC3N4-ai\tools\xtb\xtb-6.7.1\bin\xtb.exe" "c:\Users\Andre\Proyectos doctorado\nano-qsar-ai-therapeutics\calculations\tnbc\Osimertinib\Osimertinib_B36N36_phys_complex.xyz" --gfn 2 --sp --chrg 0 --uhf 0 --etemp 300 --iterations 500 --norestart
          coordinate file            : c:\Users\Andre\Proyectos doctorado\nano-qsar-ai-therapeutics\calculations\tnbc\Osimertinib\Osimertinib_B36N36_phys_complex.xyz
          omp threads                :                    16


molecular fragmentation (1/2 indicates fragments):
111111111111111111111111111111111111111111111111111111111111111111111122
2222222222222222222222222222222222222222222222222222222222222222222222
# atoms in fragment 1/2:    70    72
 fragment masses (1/2) :      499.61      893.44
CMA distance (Bohr)    :  23.514
constraining FC (au)   :  0.0500

           -------------------------------------------------
          |                 G F N 2 - x T B                 |
           -------------------------------------------------

        Reference                      10.1021/acs.jctc.8b01176
      * Hamiltonian:
        H0-scaling (s, p, d)           1.850000    2.230000    2.230000
        zeta-weighting                 0.500000
      * Dispersion:
        s8                             2.700000
        a1                             0.520000
        a2                             5.000000
        s9                             5.000000
      * Repulsion:
        kExp                           1.500000    1.000000
        rExp                           1.000000
      * Coulomb:
        alpha                          2.000000
        third order                    shell-resolved
        anisotropic                    true
        a3                             3.000000
        a5                             4.000000
        cn-shift                       1.200000
        cn-exp                         4.000000
        max-rad                        5.000000


          ...................................................
          :                      SETUP                      :
          :.................................................:
          :  # basis functions                 469          :
          :  # atomic orbitals                 469          :
          :  # shells                          251          :
          :  # electrons                       480          :
          :  max. iterations                   500          :
          :  Hamiltonian                  GFN2-xTB          :
          :  restarted?                      false          :
          :  GBSA solvation                  false          :
          :  PC potential                    false          :
          :  electronic temp.          300.0000000     K    :
          :  accuracy                    1.0000000          :
          :  -> integral cutoff          0.2500000E+02      :
          :  -> integral neglect         0.1000000E-07      :
          :  -> SCF convergence          0.1000000E-05 Eh   :
          :  -> wf. convergence          0.1000000E-03 e    :
          :  Broyden damping             0.4000000          :
          :  net charge                          0          :
          :  unpaired electrons                  0          :
          ...................................................

 iter      E             dE          RMSdq      gap      omega  full diag
   1   -257.4491522 -0.257449E+03  0.103E+01    0.62       0.0  T
   2   -257.9833919 -0.534240E+00  0.628E+00    0.45       1.0  T
   3   -255.3101199  0.267327E+01  0.389E+00    0.14       1.0  T
   4   -258.1780721 -0.286795E+01  0.122E+00    0.33       1.0  T
   5   -258.4128425 -0.234770E+00  0.665E-01    0.51       1.0  T
   6   -258.4624785 -0.496359E-01  0.475E-01    0.61       1.0  T
   7   -258.4708159 -0.833739E-02  0.345E-01    0.77       1.0  T
   8   -258.4675241  0.329179E-02  0.254E-01    0.66       1.0  T
   9   -258.4759262 -0.840212E-02  0.112E-01    0.66       1.0  T
  10   -258.4786651 -0.273888E-02  0.350E-02    0.65       1.0  T
  11   -258.4788989 -0.233820E-03  0.170E-02    0.64       1.0  T
  12   -258.4789171 -0.182075E-04  0.103E-02    0.64       1.0  T
  13   -258.4789171 -0.592183E-08  0.560E-03    0.64       1.5  T
  14   -258.4789227 -0.556077E-05  0.152E-03    0.64       5.5  T
  15   -258.4789230 -0.316422E-06  0.664E-04    0.64      12.6  T
  16   -258.4789230 -0.300608E-07  0.364E-04    0.64      23.0  T

   *** convergence criteria satisfied after 16 iterations ***

         #    Occupation            Energy/Eh            Energy/eV
      -------------------------------------------------------------
         1        2.0000           -0.7047908             -19.1783
       ...           ...                  ...                  ...
       234        2.0000           -0.3242700              -8.8238
       235        2.0000           -0.3214299              -8.7466
       236        2.0000           -0.3198011              -8.7022
       237        2.0000           -0.3174871              -8.6393
       238        2.0000           -0.3123598              -8.4997
       239        2.0000           -0.3105438              -8.4503
       240        2.0000           -0.3037597              -8.2657 (HOMO)
       241        0.0000           -0.2803100              -7.6276 (LUMO)
       242                         -0.2719357              -7.3997
       243                         -0.2615086              -7.1160
       244                         -0.2481909              -6.7536
       245                         -0.2430390              -6.6134
       ...                                ...                  ...
       469                          0.9864835              26.8436
      -------------------------------------------------------------
                  HL-Gap            0.0234497 Eh            0.6381 eV
             Fermi-level           -0.2920345 Eh           -7.9467 eV

 SCC (total)                   0 d,  0 h,  0 min,  0.762 sec
 SCC setup                      ...        0 min,  0.002 sec (  0.262%)
 Dispersion                     ...        0 min,  0.005 sec (  0.656%)
 classical contributions        ...        0 min,  0.000 sec (  0.000%)
 integral evaluation            ...        0 min,  0.014 sec (  1.837%)
 iterations                     ...        0 min,  0.698 sec ( 91.601%)
 molecular gradient             ...        0 min,  0.039 sec (  5.118%)
 printout                       ...        0 min,  0.004 sec (  0.525%)

         :::::::::::::::::::::::::::::::::::::::::::::::::::::
         ::                     SUMMARY                     ::
         :::::::::::::::::::::::::::::::::::::::::::::::::::::
         :: total energy            -255.609820246030 Eh    ::
         :: gradient norm              0.090458219426 Eh/a0 ::
         :: HOMO-LUMO gap              0.638099450420 eV    ::
         ::.................................................::
         :: SCC energy              -258.464682930402 Eh    ::
         :: -> isotropic ES            0.723077268098 Eh    ::
         :: -> anisotropic ES         -0.016922809231 Eh    ::
         :: -> anisotropic XC          0.125688016869 Eh    ::
         :: -> dispersion             -0.223861865774 Eh    ::
         :: repulsion energy           2.854862684372 Eh    ::
         :: add. restraining           0.000000000000 Eh    ::
         :: total charge              -0.000000000001 e     ::
         :::::::::::::::::::::::::::::::::::::::::::::::::::::

           -------------------------------------------------
          |                Property Printout                |
           -------------------------------------------------

    * Orbital Energies and Occupations

         #    Occupation            Energy/Eh            Energy/eV
      -------------------------------------------------------------
         1        2.0000           -0.7047908             -19.1783
       ...           ...                  ...                  ...
       228        2.0000           -0.3353337              -9.1249
       229        2.0000           -0.3316803              -9.0255
       230        2.0000           -0.3299597              -8.9787
       231        2.0000           -0.3293403              -8.9618
       232        2.0000           -0.3264980              -8.8845
       233        2.0000           -0.3256586              -8.8616
       234        2.0000           -0.3242700              -8.8238
       235        2.0000           -0.3214299              -8.7466
       236        2.0000           -0.3198011              -8.7022
       237        2.0000           -0.3174871              -8.6393
       238        2.0000           -0.3123598              -8.4997
       239        2.0000           -0.3105438              -8.4503
       240        2.0000           -0.3037597              -8.2657 (HOMO)
       241        0.0000           -0.2803100              -7.6276 (LUMO)
       242                         -0.2719357              -7.3997
       243                         -0.2615086              -7.1160
       244                         -0.2481909              -6.7536
       245                         -0.2430390              -6.6134
       246                         -0.2423848              -6.5956
       247                         -0.2416254              -6.5750
       248                         -0.2314180              -6.2972
       249                         -0.2272481              -6.1837
       250                         -0.2257643              -6.1434
       251                         -0.2226514              -6.0587
       ...                                ...                  ...
       469                          0.9864835              26.8436
      -------------------------------------------------------------
                  HL-Gap            0.0234497 Eh            0.6381 eV
             Fermi-level           -0.2920345 Eh           -7.9467 eV

     #   Z          covCN         q      C6AA      α(0)
     1   6 C        2.837    -0.067    29.671     8.927
     2   6 C        2.894    -0.066    29.636     8.926
     3   6 C        2.752     0.270    22.433     7.756
     4   8 O        0.857    -0.419    22.063     6.298
     5   7 N        2.698    -0.160    24.455     7.345
     6   6 C        2.898     0.051    26.846     8.495
     7   6 C        2.910    -0.072    29.793     8.950
     8   6 C        2.891     0.053    26.800     8.488
     9   7 N        2.699    -0.143    24.096     7.291
    10   6 C        2.841     0.233    23.133     7.882
    11   7 N        1.836    -0.273    27.941     7.833
    12   6 C        2.917     0.074    26.341     8.416
    13   6 C        2.907    -0.072    29.805     8.952
    14   6 C        2.969     0.116    25.453     8.275
    15   6 C        3.070    -0.036    28.832     8.804
    16   6 C        2.989    -0.011    28.282     8.724
    17   7 N        2.837    -0.025    21.724     6.922
    18   6 C        3.688    -0.051    21.695     6.667
    19   6 C        3.051     0.034    27.182     8.551
    20   6 C        2.906    -0.053    29.319     8.878
    21   6 C        2.914    -0.036    28.887     8.813
    22   6 C        2.908    -0.040    28.999     8.830
    23   6 C        2.912    -0.033    28.821     8.803
    24   6 C        3.095    -0.005    28.029     8.677
    25   7 N        1.851    -0.302    28.681     7.937
    26   6 C        2.859     0.107    25.626     8.297
    27   8 O        1.703    -0.286    18.748     5.846
    28   6 C        3.639     0.038    20.285     6.478
    29   6 C        2.908    -0.085    30.128     9.000
    30   6 C        2.929     0.027    27.404     8.585
    31   7 N        2.727    -0.171    24.688     7.380
    32   6 C        3.698    -0.030    21.285     6.599
    33   6 C        3.746     0.006    20.550     6.466
    34   6 C        3.750     0.002    20.599     6.473
    35   7 N        2.718    -0.175    24.796     7.396
    36   6 C        3.709    -0.032    21.287     6.594
    37   6 C        3.706    -0.035    21.351     6.605
    38   1 H        0.925     0.075     2.032     2.229
    39   1 H        0.925     0.044     2.400     2.423
    40   1 H        0.925     0.047     2.363     2.404
    41   1 H        0.860     0.212     1.048     1.604
    42   1 H        0.925     0.113     1.674     2.023
    43   1 H        0.860     0.201     1.100     1.643
    44   1 H        0.925     0.044     2.398     2.422
    45   1 H        0.926     0.027     2.623     2.533
    46   1 H        0.925     0.038     2.478     2.462
    47   1 H        0.924     0.061     2.190     2.314
    48   1 H        0.924     0.059     2.210     2.325
    49   1 H        0.924     0.059     2.216     2.328
    50   1 H        0.925     0.023     2.695     2.567
    51   1 H        0.925     0.025     2.657     2.549
    52   1 H        0.925     0.027     2.629     2.536
    53   1 H        0.925     0.043     2.403     2.424
    54   1 H        0.924     0.057     2.237     2.339
    55   1 H        0.924     0.041     2.435     2.441
    56   1 H        0.924     0.040     2.451     2.449
    57   1 H        0.925     0.036     2.507     2.476
    58   1 H        0.924     0.037     2.483     2.464
    59   1 H        0.924     0.016     2.795     2.615
    60   1 H        0.924     0.044     2.397     2.421
    61   1 H        0.924     0.020     2.733     2.585
    62   1 H        0.924     0.039     2.469     2.457
    63   1 H        0.924     0.038     2.479     2.462
    64   1 H        0.923     0.013     2.841     2.636
    65   1 H        0.924     0.041     2.441     2.443
    66   1 H        0.924     0.016     2.802     2.618
    67   1 H        0.924     0.036     2.508     2.477
    68   1 H        0.924     0.015     2.803     2.618
    69   1 H        0.924     0.041     2.440     2.443
    70   1 H        0.924     0.042     2.417     2.431
    71   5 B        2.781     0.075    20.211     7.517
    72   7 N        2.774    -0.228    25.986     7.571
    73   5 B        2.788     0.092    19.936     7.464
    74   7 N        2.524    -0.315    28.139     7.878
    75   5 B        2.779     0.084    20.069     7.491
    76   7 N        2.655    -0.270    26.996     7.717
    77   5 B        2.849     0.241    17.667     7.018
    78   7 N        2.529    -0.273    27.094     7.730
    79   5 B        3.195     0.150    18.932     7.257
    80   7 N        2.979    -0.111    23.407     7.186
    81   5 B        2.644     0.372    16.328     6.814
    82   7 N        2.669    -0.213    25.639     7.520
    83   5 B        3.181     0.021    21.008     7.644
    84   7 N        2.888    -0.220    25.801     7.544
    85   5 B        3.009     0.209    18.078     7.093
    86   7 N        2.660    -0.163    24.534     7.356
    87   5 B        2.906     0.320    16.610     6.801
    88   7 N        3.156    -0.082    22.822     7.095
    89   5 B        2.779     0.093    19.918     7.462
    90   7 N        3.037    -0.125    23.702     7.231
    91   5 B        2.758     0.090    20.007     7.484
    92   7 N        2.634    -0.309    27.956     7.853
    93   5 B        3.040     0.226    17.833     7.044
    94   7 N        2.981     0.003    21.210     6.840
    95   5 B        2.582     0.325    17.311     7.088
    96   7 N        2.596    -0.361    29.308     8.040
    97   5 B        3.287     0.340    16.338     6.741
    98   7 N        2.784    -0.253    26.571     7.656
    99   5 B        2.559     0.320    17.597     7.185
   100   7 N        2.579    -0.369    29.534     8.071
   101   5 B        2.530     0.301    18.226     7.377
   102   7 N        2.665    -0.205    25.464     7.494
   103   5 B        2.698     0.195    18.515     7.221
   104   7 N        2.844    -0.168    24.617     7.369
   105   5 B        2.758     0.082    20.134     7.508
   106   7 N        2.672    -0.174    24.775     7.392
   107   5 B        2.877     0.110    19.579     7.386
   108   7 N        2.663    -0.145    24.139     7.297
   109   5 B        2.594     0.312    17.392     7.086
   110   7 N        2.519    -0.354    29.167     8.021
   111   5 B        2.684     0.183    18.727     7.270
   112   7 N        3.008    -0.123    23.673     7.226
   113   5 B        2.677     0.210    18.363     7.203
   114   7 N        2.716    -0.249    26.483     7.643
   115   5 B        2.647     0.164    19.168     7.381
   116   7 N        2.825    -0.207    25.493     7.499
   117   5 B        3.321     0.229    17.792     7.034
   118   7 N        2.531    -0.286    27.418     7.776
   119   5 B        2.950     0.035    20.787     7.607
   120   7 N        2.783    -0.186    25.016     7.429
   121   5 B        2.796     0.084    20.046     7.483
   122   7 N        2.673    -0.156    24.375     7.333
   123   5 B        3.021     0.211    18.054     7.087
   124   7 N        3.272     0.014    20.995     6.805
   125   5 B        2.869     0.305    16.810     6.844
   126   7 N        3.154    -0.113    23.453     7.193
   127   5 B        3.263     0.320    16.586     6.792
   128   7 N        2.833    -0.061    22.414     7.032
   129   5 B        3.303     0.231    17.768     7.029
   130   7 N        2.656    -0.183    24.962     7.420
   131   5 B        2.838     0.112    19.572     7.388
   132   7 N        2.834    -0.223    25.865     7.553
   133   5 B        2.863     0.252    17.505     6.985
   134   7 N        2.654    -0.229    26.021     7.576
   135   5 B        3.011     0.114    19.494     7.365
   136   7 N        3.153    -0.086    22.914     7.110
   137   5 B        2.674     0.202    18.485     7.229
   138   7 N        2.696    -0.229    26.010     7.574
   139   5 B        2.585     0.369    16.726     6.963
   140   7 N        2.881    -0.180    24.894     7.410
   141   5 B        2.825     0.106    19.679     7.410
   142   7 N        2.827    -0.253    26.568     7.655

 Mol. C6AA /au·bohr⁶  :     327018.054034
 Mol. C8AA /au·bohr⁸  :    8812990.111958
 Mol. α(0) /au        :        899.163177


Wiberg/Mayer (AO) data.
largest (>0.10) Wiberg bond orders for each atom

 ---------------------------------------------------------------------------
     #   Z sym  total        # sym  WBO       # sym  WBO       # sym  WBO
 ---------------------------------------------------------------------------
     1   6 C    3.974 --     2 C    1.934    39 H    0.978    38 H    0.971
     2   6 C    3.987 --     1 C    1.934     3 C    1.007    40 H    0.964
     3   6 C    3.951 --     4 O    1.677     5 N    1.196     2 C    1.007
     4   8 O    2.009 --     3 C    1.677     5 N    0.171
     5   7 N    3.506 --     3 C    1.196     6 C    1.086    41 H    0.903
                             4 O    0.171
     6   6 C    3.966 --     7 C    1.379    30 C    1.318     5 N    1.086
     7   6 C    3.966 --     8 C    1.382     6 C    1.379    42 H    0.948
     8   6 C    3.961 --     7 C    1.382    26 C    1.280     9 N    1.104
     9   7 N    3.482 --    10 C    1.164     8 C    1.104    43 H    0.924
    10   6 C    3.959 --    11 N    1.331    25 N    1.329     9 N    1.164
    11   7 N    3.032 --    12 C    1.419    10 C    1.331
    12   6 C    3.974 --    13 C    1.450    11 N    1.419    44 H    0.963
    13   6 C    3.972 --    12 C    1.450    14 C    1.357    45 H    0.967
    14   6 C    3.975 --    25 N    1.376    13 C    1.357    15 C    1.074
    15   6 C    3.975 --    16 C    1.511    24 C    1.186    14 C    1.074
    16   6 C    3.953 --    15 C    1.511    17 N    1.221    46 H    0.967
    17   7 N    3.593 --    16 C    1.221    19 C    1.150    18 C    1.003
    18   6 C    3.974 --    17 N    1.003    47 H    0.982    48 H    0.976
                            49 H    0.976
    19   6 C    3.956 --    20 C    1.333    24 C    1.267    17 N    1.150
    20   6 C    3.985 --    21 C    1.480    19 C    1.333    50 H    0.970
                            23 C    0.125
    21   6 C    3.989 --    20 C    1.480    22 C    1.391    51 H    0.972
    22   6 C    3.987 --    23 C    1.491    21 C    1.391    52 H    0.971
    23   6 C    3.989 --    22 C    1.491    24 C    1.329    53 H    0.969
                            20 C    0.125
    24   6 C    3.985 --    23 C    1.329    19 C    1.267    15 C    1.186
    25   7 N    3.022 --    14 C    1.376    10 C    1.329
    26   6 C    3.910 --    29 C    1.395     8 C    1.280    27 O    1.032
    27   8 O    2.193 --    26 C    1.032    28 C    0.984
    28   6 C    3.948 --    27 O    0.984    54 H    0.980    55 H    0.978
                            56 H    0.978
    29   6 C    3.981 --    30 C    1.396    26 C    1.395    57 H    0.963
    30   6 C    3.949 --    29 C    1.396     6 C    1.318    31 N    1.010
    31   7 N    3.145 --    30 C    1.010    32 C    1.005    33 C    0.985
    32   6 C    3.984 --    31 N    1.005    60 H    0.983    58 H    0.981
                            59 H    0.975
    33   6 C    3.984 --    34 C    0.995    31 N    0.985    62 H    0.972
                            61 H    0.967
    34   6 C    3.986 --    35 N    0.998    33 C    0.995    63 H    0.973
                            64 H    0.965
    35   7 N    3.107 --    36 C    1.013    37 C    1.013    34 C    0.998
    36   6 C    3.986 --    35 N    1.013    67 H    0.983    65 H    0.982
                            66 H    0.976
    37   6 C    3.985 --    35 N    1.013    69 H    0.982    70 H    0.980
                            68 H    0.976
    38   1 H    0.994 --     1 C    0.971
    39   1 H    0.997 --     1 C    0.978
    40   1 H    0.998 --     2 C    0.964
    41   1 H    0.955 --     5 N    0.903
    42   1 H    0.986 --     7 C    0.948
    43   1 H    0.959 --     9 N    0.924
    44   1 H    0.997 --    12 C    0.963
    45   1 H    0.999 --    13 C    0.967
    46   1 H    0.998 --    16 C    0.967
    47   1 H    0.996 --    18 C    0.982
    48   1 H    0.995 --    18 C    0.976
    49   1 H    0.995 --    18 C    0.976
    50   1 H    0.999 --    20 C    0.970
    51   1 H    0.999 --    21 C    0.972
    52   1 H    0.999 --    22 C    0.971
    53   1 H    0.998 --    23 C    0.969
    54   1 H    0.996 --    28 C    0.980
    55   1 H    0.998 --    28 C    0.978
    56   1 H    0.998 --    28 C    0.978
    57   1 H    0.998 --    29 C    0.963
    58   1 H    0.998 --    32 C    0.981
    59   1 H    1.000 --    32 C    0.975
    60   1 H    0.998 --    32 C    0.983
    61   1 H    0.999 --    33 C    0.967
    62   1 H    0.999 --    33 C    0.972
    63   1 H    0.999 --    34 C    0.973
    64   1 H    1.000 --    34 C    0.965
    65   1 H    0.998 --    36 C    0.982
    66   1 H    1.000 --    36 C    0.976
    67   1 H    0.999 --    36 C    0.983
    68   1 H    1.000 --    37 C    0.976
    69   1 H    0.998 --    37 C    0.982
    70   1 H    0.998 --    37 C    0.980
    71   5 B    3.479 --   140 N    1.283   123 B    1.000   117 B    0.970
    72   7 N    3.398 --   117 B    1.142   130 N    1.007   129 B    1.001
    73   5 B    3.464 --   118 N    1.276   141 B    0.978   129 B    0.958
    74   7 N    3.530 --   133 B    1.152   131 B    1.150   101 B    1.018
    75   5 B    3.463 --   108 N    1.240   137 B    0.996   111 B    0.990
    76   7 N    3.264 --    97 B    1.201   139 B    0.967   134 N    0.888
    77   5 B    3.408 --   110 N    1.175    84 N    1.035    93 B    0.963
    78   7 N    3.568 --    91 B    1.277    79 B    1.158   135 B    0.973
    79   5 B    3.393 --    78 N    1.158   121 B    0.932   119 B    0.640
                            83 B    0.294
    80   7 N    3.322 --    85 B    1.113   124 N    1.043   136 N    0.945
    81   5 B    3.433 --    82 N    1.186    92 N    1.128   120 N    0.961
    82   7 N    3.445 --    81 B    1.186   109 B    1.086   122 N    0.967
    83   5 B    3.456 --   119 B    1.285   135 B    1.004   133 B    0.627
                            79 B    0.294
    84   7 N    3.429 --    87 B    1.231    77 B    1.035    98 N    0.929
    85   5 B    3.390 --    80 N    1.113   104 N    1.039   131 B    1.005
    86   7 N    3.510 --    89 B    1.207   109 B    1.123   106 N    0.999
    87   5 B    3.514 --    84 N    1.231   112 N    1.076   132 N    0.999
    88   7 N    3.350 --   137 B    1.140   140 N    0.991    90 N    0.983
    89   5 B    3.415 --    86 N    1.207   107 B    1.008   121 B    0.926
    90   7 N    3.330 --   125 B    1.138    88 N    0.983    94 N    0.974
    91   5 B    3.464 --    78 N    1.277   105 B    0.978   115 B    0.932
    92   7 N    3.217 --    81 B    1.128    95 B    1.065   120 N    0.792
    93   5 B    3.367 --   106 N    1.151    98 N    0.992    77 B    0.963
    94   7 N    3.099 --   112 N    1.014    90 N    0.974   138 N    0.938
    95   5 B    3.511 --   132 N    1.249    92 N    1.065   110 N    0.988
    96   7 N    3.433 --   101 B    1.202   129 B    1.061   117 B    0.925
    97   5 B    3.481 --    76 N    1.201   114 N    1.042   100 N    0.980
    98   7 N    3.283 --   103 B    1.170    93 B    0.992    84 N    0.929
    99   5 B    3.523 --   134 N    1.209   138 N    1.121   126 N    1.035
   100   7 N    3.430 --   113 B    1.220   127 B    0.993    97 B    0.980
   101   5 B    3.519 --    96 N    1.202   142 N    1.099    74 N    1.018
   102   7 N    3.441 --   139 B    1.260   113 B    0.998   128 N    0.990
   103   5 B    3.446 --    98 N    1.170   130 N    1.123   141 B    0.923
   104   7 N    3.469 --   105 B    1.260    85 B    1.039   136 N    0.984
   105   5 B    3.420 --   104 N    1.260    91 B    0.978   113 B    0.959
   106   7 N    3.510 --   141 B    1.172    93 B    1.151    86 N    0.999
   107   5 B    3.347 --   119 B    1.009    89 B    1.008   118 N    0.963
   108   7 N    3.508 --    75 B    1.240   111 B    1.093   114 N    1.035
   109   5 B    3.515 --    86 N    1.123   110 N    1.105    82 N    1.086
   110   7 N    3.477 --    77 B    1.175   109 B    1.105    95 B    0.988
   111   5 B    3.464 --   116 N    1.179   108 N    1.093    75 B    0.990
   112   7 N    3.268 --    87 B    1.076    94 N    1.014   126 N    0.976
   113   5 B    3.391 --   100 N    1.220   102 N    0.998   105 B    0.959
   114   7 N    3.371 --    97 B    1.042   108 N    1.035   127 B    0.986
   115   5 B    3.454 --   128 N    1.191   122 N    1.079    91 B    0.932
   116   7 N    3.406 --   111 B    1.179   123 B    1.072   124 N    0.959
   117   5 B    3.365 --    72 N    1.142    71 B    0.970    96 N    0.925
                           129 B    0.127
   118   7 N    3.560 --    73 B    1.276   133 B    1.106   107 B    0.963
   119   5 B    3.367 --    83 B    1.285   107 B    1.009    79 B    0.640
                           133 B    0.186
   120   7 N    2.986 --   128 N    1.045    81 B    0.961    92 N    0.792
   121   5 B    3.455 --   122 N    1.266    79 B    0.932    89 B    0.926
   122   7 N    3.481 --   121 B    1.266   115 B    1.079    82 N    0.967
   123   5 B    3.442 --   142 N    1.131   116 N    1.072    71 B    1.000
   124   7 N    3.186 --    80 N    1.043   116 N    0.959   142 N    0.950
   125   5 B    3.524 --   130 N    1.163    90 N    1.138   140 N    0.992
   126   7 N    3.221 --    99 B    1.035   132 N    0.985   112 N    0.976
   127   5 B    3.507 --   136 N    1.264   100 N    0.993   114 N    0.986
   128   7 N    3.440 --   115 B    1.191   120 N    1.045   102 N    0.990
   129   5 B    3.327 --    96 N    1.061    72 N    1.001    73 B    0.958
                           117 B    0.127
   130   7 N    3.491 --   125 B    1.163   103 B    1.123    72 N    1.007
   131   5 B    3.386 --    74 N    1.150    85 B    1.005   135 B    1.002
   132   7 N    3.448 --    95 B    1.249    87 B    0.999   126 N    0.985
   133   5 B    3.443 --    74 N    1.152   118 N    1.106    83 B    0.627
                           119 B    0.186   135 B    0.120
   134   7 N    3.332 --    99 B    1.209   139 B    1.038    76 N    0.888
   135   5 B    3.334 --    83 B    1.004   131 B    1.002    78 N    0.973
                           133 B    0.120
   136   7 N    3.439 --   127 B    1.264   104 N    0.984    80 N    0.945
   137   5 B    3.446 --    88 N    1.140   138 N    1.119    75 B    0.996
   138   7 N    3.396 --    99 B    1.121   137 B    1.119    94 N    0.938
   139   5 B    3.439 --   102 N    1.260   134 N    1.038    76 N    0.967
   140   7 N    3.475 --    71 B    1.283   125 B    0.992    88 N    0.991
   141   5 B    3.360 --   106 N    1.172    73 B    0.978   103 B    0.923
   142   7 N    3.417 --   123 B    1.131   101 B    1.099   124 N    0.950
 ---------------------------------------------------------------------------

Topologies differ in total number of bonds
Writing topology from bond orders to xtbtopo.mol

molecular dipole:
                 x           y           z       tot (Debye)
 q only:        1.600       1.321      -3.314
   full:       -0.118       0.423      -0.682       2.062
molecular quadrupole (traceless):
                xx          xy          yy          xz          yz          zz
 q only:       10.030      -2.302     -32.376     -20.117     -43.997      22.346
  q+dip:       16.536      -2.445     -40.870     -38.014     -42.097      24.333
   full:       18.504      -0.809     -37.042     -34.023     -37.881      18.538


           -------------------------------------------------
          | TOTAL ENERGY             -255.609820246030 Eh   |
          | GRADIENT NORM               0.090458219426 Eh/α |
          | HOMO-LUMO GAP               0.638099450420 eV   |
           -------------------------------------------------

------------------------------------------------------------------------
 * finished run on 2026/08/31 at 21:13:46.109     
------------------------------------------------------------------------
 total:
 * wall-time:     0 d,  0 h,  0 min,  0.821 sec
 *  cpu-time:     0 d,  0 h,  0 min,  8.562 sec
 * ratio c/w:    10.429 speedup
 SCF:
 * wall-time:     0 d,  0 h,  0 min,  0.763 sec
 *  cpu-time:     0 d,  0 h,  0 min,  8.031 sec
 * ratio c/w:    10.526 speedup

normal termination of xtb
