142
Drug@B36N36 complex
C     -4.861261      2.272285     -3.707880
C     -4.727140      1.487135     -2.631169
C     -3.376705      1.101555     -2.125466
O     -2.361849      1.471261     -2.701226
N     -3.464462      0.325466     -0.998120
C     -2.425598     -0.252515     -0.234956
C     -1.063888     -0.104011     -0.506307
C     -0.100142     -0.712183      0.310907
N      1.285228     -0.596712      0.098674
C      2.086632      0.026772     -0.846379
N      1.566499      0.740609     -1.851449
C      2.416472      1.307767     -2.721392
C      3.777675      1.188203     -2.630181
C      4.234852      0.438257     -1.569709
C      5.661352      0.224757     -1.344733
C      6.598047      0.146416     -2.360601
N      7.827512     -0.073941     -1.798008
C      9.058280     -0.222575     -2.542333
C      7.723702     -0.141541     -0.425970
C      8.700871     -0.346528      0.562369
C      8.292295     -0.369263      1.898708
C      6.955673     -0.193911      2.239818
C      5.990975      0.009187      1.247647
C      6.371523      0.035561     -0.112571
N      3.406420     -0.139460     -0.674956
C     -0.533369     -1.480548      1.420873
O      0.481250     -2.033737      2.173210
C      0.106686     -2.872778      3.257271
C     -1.896081     -1.631692      1.694560
C     -2.851928     -1.028130      0.868696
N     -4.249684     -1.146990      1.102440
C     -4.707140     -2.537589      1.125066
C     -4.688969     -0.311827      2.241675
C     -6.098536      0.282751      1.985613
N     -6.214507      1.149384      0.786957
C     -7.625564      1.436966      0.515552
C     -5.483848      2.408887      0.969769
H     -3.993813      2.650050     -4.242686
H     -5.842213      2.550204     -4.075542
H     -5.598457      1.114574     -2.107163
H     -4.383034      0.120422     -0.600575
H     -0.748576      0.489904     -1.355274
H      1.852543     -1.106700      0.763474
H      1.947942      1.880085     -3.516357
H      4.433062      1.667753     -3.341928
H      6.487493      0.212340     -3.435058
H      8.854111     -0.128232     -3.611953
H      9.472937     -1.211606     -2.331352
H      9.749640      0.563382     -2.227814
H      9.746060     -0.484995      0.306160
H      9.030203     -0.526719      2.681632
H      6.653545     -0.214188      3.283558
H      4.948833      0.145776      1.523473
H      1.023803     -3.253016      3.717436
H     -0.472580     -3.734609      2.909818
H     -0.438731     -2.309016      4.021077
H     -2.235704     -2.204105      2.547936
H     -5.801238     -2.570606      1.099667
H     -4.376995     -3.067192      2.025561
H     -4.351044     -3.081732      0.242593
H     -4.715425     -0.913870      3.159299
H     -3.986564      0.509242      2.433757
H     -6.792374     -0.560500      1.875329
H     -6.417012      0.831339      2.881923
H     -7.726608      2.051732     -0.385946
H     -8.109406      1.960926      1.347836
H     -8.176837      0.509946      0.322484
H     -5.840145      2.969435      1.841618
H     -5.594572      3.047378      0.085939
H     -4.410121      2.235307      1.086057
B      2.101200      0.000000      3.345000
B     -2.101200      0.000000      3.345000
B      0.000000      2.101200      3.345000
B      0.000000     -2.101200      3.345000
B      3.345000      2.101200      0.000000
B      3.345000     -2.101200      0.000000
B      3.345000      0.000000      2.101200
B      3.345000      0.000000     -2.101200
B     -3.345000      2.101200      0.000000
B     -3.345000     -2.101200      0.000000
B     -3.345000      0.000000      2.101200
B     -3.345000      0.000000     -2.101200
B      2.101200      0.000000     -3.345000
B     -2.101200      0.000000     -3.345000
B      0.000000      2.101200     -3.345000
B      0.000000     -2.101200     -3.345000
B      0.000000      3.345000      2.101200
B      0.000000      3.345000     -2.101200
B      0.000000     -3.345000      2.101200
B      0.000000     -3.345000     -2.101200
B      2.101200      3.345000      0.000000
B     -2.101200      3.345000      0.000000
B      2.101200     -3.345000      0.000000
B     -2.101200     -3.345000      0.000000
B      1.480000      1.480000      3.580000
B     -1.480000      1.480000      3.580000
B      1.480000     -1.480000      3.580000
B     -1.480000     -1.480000      3.580000
B      3.580000      1.480000      1.480000
B      3.580000     -1.480000      1.480000
B      3.580000      1.480000     -1.480000
B      3.580000     -1.480000     -1.480000
B     -3.580000      1.480000      1.480000
B     -3.580000     -1.480000      1.480000
B     -3.580000      1.480000     -1.480000
B     -3.580000     -1.480000     -1.480000
N      2.101200      0.000000      3.920000
N     -2.101200      0.000000      3.920000
N      0.000000      2.101200      3.920000
N      0.000000     -2.101200      3.920000
N      3.920000      2.101200      0.000000
N      3.920000     -2.101200      0.000000
N      3.920000      0.000000      2.101200
N      3.920000      0.000000     -2.101200
N     -3.920000      2.101200      0.000000
N     -3.920000     -2.101200      0.000000
N     -3.920000      0.000000      2.101200
N     -3.920000      0.000000     -2.101200
N      2.101200      0.000000     -3.920000
N     -2.101200      0.000000     -3.920000
N      0.000000      2.101200     -3.920000
N      0.000000     -2.101200     -3.920000
N      0.000000      3.920000      2.101200
N      0.000000      3.920000     -2.101200
N      0.000000     -3.920000      2.101200
N      0.000000     -3.920000     -2.101200
N      2.101200      3.920000      0.000000
N     -2.101200      3.920000      0.000000
N      2.101200     -3.920000      0.000000
N     -2.101200     -3.920000      0.000000
N      1.480000      1.480000      4.220000
N     -1.480000      1.480000      4.220000
N      1.480000     -1.480000      4.220000
N     -1.480000     -1.480000      4.220000
N      4.220000      1.480000      1.480000
N      4.220000     -1.480000      1.480000
N      4.220000      1.480000     -1.480000
N      4.220000     -1.480000     -1.480000
N     -4.220000      1.480000      1.480000
N     -4.220000     -1.480000      1.480000
N     -4.220000      1.480000     -1.480000
N     -4.220000     -1.480000     -1.480000
