      -----------------------------------------------------------      
     |                   =====================                   |     
     |                           x T B                           |     
     |                   =====================                   |     
     |                         S. Grimme                         |     
     |          Mulliken Center for Theoretical Chemistry        |     
     |                    University of Bonn                     |     
      -----------------------------------------------------------      

   * xtb version 6.7.1pre (5071a88) compiled by 'Marcel@Raven' on 2024-07-23

   xtb is free software: you can redistribute it and/or modify it under
   the terms of the GNU Lesser General Public License as published by
   the Free Software Foundation, either version 3 of the License, or
   (at your option) any later version.
   
   xtb is distributed in the hope that it will be useful,
   but WITHOUT ANY WARRANTY; without even the implied warranty of
   MERCHANTABILITY or FITNESS FOR A PARTICULAR PURPOSE.  See the
   GNU Lesser General Public License for more details.
   
   Cite this work as:
   * C. Bannwarth, E. Caldeweyher, S. Ehlert, A. Hansen, P. Pracht,
     J. Seibert, S. Spicher, S. Grimme, WIREs Comput. Mol. Sci., 2020, 11,
     e01493. DOI: 10.1002/wcms.1493
   
   for GFN2-xTB:
   * C. Bannwarth, S. Ehlert and S. Grimme., J. Chem. Theory Comput., 2019,
     15, 1652-1671. DOI: 10.1021/acs.jctc.8b01176
   for GFN1-xTB:
   * S. Grimme, C. Bannwarth, P. Shushkov, J. Chem. Theory Comput., 2017,
     13, 1989-2009. DOI: 10.1021/acs.jctc.7b00118
   for GFN0-xTB:
   * P. Pracht, E. Caldeweyher, S. Ehlert, S. Grimme, ChemRxiv, 2019, preprint.
     DOI: 10.26434/chemrxiv.8326202.v1
   for GFN-FF:
   * S. Spicher and S. Grimme, Angew. Chem. Int. Ed., 2020, 59, 15665-15673.
     DOI: 10.1002/anie.202004239
   
   for ALPB and GBSA implicit solvation:
   * S. Ehlert, M. Stahn, S. Spicher, S. Grimme, J. Chem. Theory Comput.,
     2021, 17, 4250-4261. DOI: 10.1021/acs.jctc.1c00471
   
   for ddCOSMO and CPCM-X implicit solvation:
   * M. Stahn, S. Ehlert, S. Grimme, J. Phys. Chem. A,
     2023, XX, XXXX-XXXX. DOI: 10.1021/acs.jpca.3c04382
   
   for DFT-D4:
   * E. Caldeweyher, C. Bannwarth and S. Grimme, J. Chem. Phys., 2017,
     147, 034112. DOI: 10.1063/1.4993215
   * E. Caldeweyher, S. Ehlert, A. Hansen, H. Neugebauer, S. Spicher,
     C. Bannwarth and S. Grimme, J. Chem. Phys., 2019, 150, 154122.
     DOI: 10.1063/1.5090222
   * E. Caldeweyher, J.-M. Mewes, S. Ehlert and S. Grimme, Phys. Chem. Chem. Phys.
     2020, 22, 8499-8512. DOI: 10.1039/D0CP00502A
   
   for sTDA-xTB:
   * S. Grimme and C. Bannwarth, J. Chem. Phys., 2016, 145, 054103.
     DOI: 10.1063/1.4959605
   
   in the mass-spec context:
   * V. Asgeirsson, C. Bauer and S. Grimme, Chem. Sci., 2017, 8, 4879.
     DOI: 10.1039/c7sc00601b
   * J. Koopman and S. Grimme, ACS Omega 2019, 4, 12, 15120-15133.
     DOI: 10.1021/acsomega.9b02011
   
   for metadynamics refer to:
   * S. Grimme, J. Chem. Theory Comput., 2019, 155, 2847-2862
     DOI: 10.1021/acs.jctc.9b00143
   
   for SPH calculations refer to:
   * S. Spicher and S. Grimme, J. Chem. Theory Comput., 2021, 17, 1701-1714
     DOI: 10.1021/acs.jctc.0c01306
   
   for ONIOM refer to:
   * C. Plett, A. Katbashev, S. Ehlert, S. Grimme, M. Bursch,
     Phys. Chem. Chem. Phys., 2023, 25, 17860-17868. DOI: 10.1039/D3CP02178E
   
   for DIPRO refer to:
   * J. Kohn, N. Gildemeister, S. Grimme, D. Fazzi, A. Hansen,
     J. Chem. Phys., 2023, just accepted.
   
   for PTB refer to:
   * S. Grimme, M. Mueller, A. Hansen, J. Chem. Phys., 2023, 158, 124111.
     DOI: 10.1063/5.0137838
   
   with help from (in alphabetical order)
   P. Atkinson, C. Bannwarth, F. Bohle, G. Brandenburg, E. Caldeweyher
   M. Checinski, S. Dohm, S. Ehlert, S. Ehrlich, I. Gerasimov, C. Hölzer
   A. Katbashev, J. Kohn, J. Koopman, C. Lavigne, S. Lehtola, F. März, M. Müller,
   F. Musil, H. Neugebauer, J. Pisarek, C. Plett, P. Pracht, F. Pultar,
   J. Seibert, P. Shushkov, S. Spicher, M. Stahn, M. Steiner, T. Strunk,
   J. Stückrath, T. Rose, and J. Unsleber
   
 * started run on 2026/08/31 at 18:41:32.882     
   ID    Z sym.   atoms
    1    6 C      1-3, 6-8, 10, 12-16, 18-24, 26, 28-30, 32-34, 36, 37
    2    8 O      4, 27
    3    7 N      5, 9, 11, 17, 25, 31, 35, 107-142
    4    1 H      38-70
    5    5 B      71-106

           -------------------------------------------------
          |                Calculation Setup                |
           -------------------------------------------------

          program call               : "c:\Users\Andre\Proyectos doctorado\kras-pancreatic-gC3N4-ai\tools\xtb\xtb-6.7.1\bin\xtb.exe" "c:\Users\Andre\Proyectos doctorado\nano-qsar-ai-therapeutics\calculations\tnbc\Osimertinib\Osimertinib_B36N36_complex.xyz" --gfn 2 --sp --chrg 0 --uhf 0 --iterations 500 --norestart
          coordinate file            : c:\Users\Andre\Proyectos doctorado\nano-qsar-ai-therapeutics\calculations\tnbc\Osimertinib\Osimertinib_B36N36_complex.xyz
          omp threads                :                    16


molecular fragmentation (1/2 indicates fragments):
111111111111111111111111111111111111111111111111111111111111111111111111
1111111111112212121111111111111111111111111111122212121111111111111111
# atoms in fragment 1/2:   133     9
 fragment masses (1/2) :     1279.77      113.28
CMA distance (Bohr)    :   6.714
constraining FC (au)   :  0.0500

           -------------------------------------------------
          |                 G F N 2 - x T B                 |
           -------------------------------------------------

        Reference                      10.1021/acs.jctc.8b01176
      * Hamiltonian:
        H0-scaling (s, p, d)           1.850000    2.230000    2.230000
        zeta-weighting                 0.500000
      * Dispersion:
        s8                             2.700000
        a1                             0.520000
        a2                             5.000000
        s9                             5.000000
      * Repulsion:
        kExp                           1.500000    1.000000
        rExp                           1.000000
      * Coulomb:
        alpha                          2.000000
        third order                    shell-resolved
        anisotropic                    true
        a3                             3.000000
        a5                             4.000000
        cn-shift                       1.200000
        cn-exp                         4.000000
        max-rad                        5.000000


          ...................................................
          :                      SETUP                      :
          :.................................................:
          :  # basis functions                 469          :
          :  # atomic orbitals                 469          :
          :  # shells                          251          :
          :  # electrons                       480          :
          :  max. iterations                   500          :
          :  Hamiltonian                  GFN2-xTB          :
          :  restarted?                      false          :
          :  GBSA solvation                  false          :
          :  PC potential                    false          :
          :  electronic temp.          300.0000000     K    :
          :  accuracy                    1.0000000          :
          :  -> integral cutoff          0.2500000E+02      :
          :  -> integral neglect         0.1000000E-07      :
          :  -> SCF convergence          0.1000000E-05 Eh   :
          :  -> wf. convergence          0.1000000E-03 e    :
          :  Broyden damping             0.4000000          :
          :  net charge                          0          :
          :  unpaired electrons                  0          :
          ...................................................

 iter      E             dE          RMSdq      gap      omega  full diag
   1   -233.2310605 -0.233231E+03  0.130E+01    0.14       0.0  T
   2    140.6669879  0.373898E+03  0.163E+01    0.25       1.0  T
   3    482.0123584  0.341345E+03  0.190E+01    0.20       1.0  T
   4   -156.2115572 -0.638224E+03  0.102E+01    0.21       1.0  T
   5   -192.1447107 -0.359332E+02  0.970E+00    0.04       1.0  T
   6   -199.8226609 -0.767795E+01  0.671E+00    0.08       1.0  T
   7   -207.8312865 -0.800863E+01  0.713E+00    0.07       1.0  T
   8   -225.6719396 -0.178407E+02  0.559E+00    0.08       1.0  T
   9   -233.1802160 -0.750828E+01  0.456E+00    0.08       1.0  T
  10   -235.7414323 -0.256122E+01  0.449E+00    0.12       1.0  T
  11   -231.2488669  0.449257E+01  0.417E+00    0.04       1.0  T
  12   -248.7638595 -0.175150E+02  0.243E+00    0.16       1.0  T
  13   -253.2493115 -0.448545E+01  0.218E+00    0.08       1.0  T
  14   -253.2733631 -0.240517E-01  0.202E+00    0.10       1.0  T
  15   -253.3036274 -0.302643E-01  0.201E+00    0.08       1.0  T
  16   -253.4050291 -0.101402E+00  0.190E+00    0.12       1.0  T
  17   -253.3781613  0.268678E-01  0.156E+00    0.03       1.0  T
  18   -253.2635027  0.114659E+00  0.158E+00    0.20       1.0  T
  19   -253.1852001  0.783025E-01  0.145E+00    0.15       1.0  T
  20   -252.6262375  0.558963E+00  0.161E+00    0.02       1.0  T
  21   -253.0062356 -0.379998E+00  0.134E+00    0.06       1.0  T
  22   -252.3231429  0.683093E+00  0.134E+00    0.00       1.0  T
  23   -253.0951345 -0.771992E+00  0.948E-01    0.12       1.0  T
  24   -253.2881114 -0.192977E+00  0.844E-01    0.23       1.0  T
  25   -253.4891527 -0.201041E+00  0.602E-01    0.11       1.0  T
  26   -253.6965186 -0.207366E+00  0.696E-01    0.03       1.0  T
  27   -253.6412500  0.552686E-01  0.511E-01    0.04       1.0  T
  28   -253.7217296 -0.804795E-01  0.572E-01    0.07       1.0  T
  29   -253.7306308 -0.890128E-02  0.350E-01    0.03       1.0  T
  30   -253.7351280 -0.449718E-02  0.265E-01    0.01       1.0  T
  31   -253.7356345 -0.506532E-03  0.233E-01    0.01       1.0  T
  32   -253.7500798 -0.144453E-01  0.241E-01    0.04       1.0  T
  33   -253.7319583  0.181215E-01  0.200E-01    0.01       1.0  T
  34   -253.7539639 -0.220056E-01  0.150E-01    0.04       1.0  T
  35   -253.7549888 -0.102490E-02  0.899E-02    0.03       1.0  T
  36   -253.7541227  0.866163E-03  0.815E-02    0.03       1.0  T
  37   -253.7534775  0.645210E-03  0.815E-02    0.03       1.0  T
  38   -253.7541649 -0.687402E-03  0.651E-02    0.03       1.0  T
  39   -253.7557239 -0.155901E-02  0.325E-02    0.03       1.0  T
  40   -253.7557180  0.590470E-05  0.387E-02    0.04       1.0  T
  41   -253.7555304  0.187571E-03  0.430E-02    0.04       1.0  T
  42   -253.7556813 -0.150946E-03  0.324E-02    0.04       1.0  T
  43   -253.7558792 -0.197884E-03  0.195E-02    0.04       1.0  T
  44   -253.7559531 -0.738720E-04  0.130E-02    0.04       1.0  T
  45   -253.7559727 -0.196228E-04  0.985E-03    0.04       1.0  T
  46   -253.7560041 -0.313390E-04  0.182E-03    0.04       4.6  T
  47   -253.7560031  0.993820E-06  0.269E-03    0.04       3.1  T
  48   -253.7560042 -0.112767E-05  0.184E-03    0.04       4.5  T
  49   -253.7560047 -0.521771E-06  0.619E-04    0.04      13.6  T
  50   -253.7560047 -0.370424E-07  0.392E-04    0.04      21.4  T

   *** convergence criteria satisfied after 50 iterations ***

         #    Occupation            Energy/Eh            Energy/eV
      -------------------------------------------------------------
         1        2.0000           -1.0438787             -28.4054
       ...           ...                  ...                  ...
       234        2.0000           -0.1977649              -5.3815
       235        2.0000           -0.1877569              -5.1091
       236        2.0000           -0.1817280              -4.9451
       237        2.0000           -0.1796900              -4.8896
       238        2.0000           -0.1764083              -4.8003
       239        1.9895           -0.1678727              -4.5680
       240        1.3442           -0.1635759              -4.4511 (HOMO)
       241        0.6455           -0.1621899              -4.4134 (LUMO)
       242        0.0209           -0.1585714              -4.3149
       243        0.0000           -0.1485917              -4.0434
       244                         -0.1457274              -3.9654
       245                         -0.1395788              -3.7981
       ...                                ...                  ...
       469                         57.5014915            1564.6952
      -------------------------------------------------------------
                  HL-Gap            0.0013860 Eh            0.0377 eV
             Fermi-level           -0.1628941 Eh           -4.4326 eV

 SCC (total)                   0 d,  0 h,  0 min,  1.492 sec
 SCC setup                      ...        0 min,  0.000 sec (  0.000%)
 Dispersion                     ...        0 min,  0.005 sec (  0.335%)
 classical contributions        ...        0 min,  0.001 sec (  0.067%)
 integral evaluation            ...        0 min,  0.016 sec (  1.072%)
 iterations                     ...        0 min,  1.426 sec ( 95.576%)
 molecular gradient             ...        0 min,  0.041 sec (  2.748%)
 printout                       ...        0 min,  0.003 sec (  0.201%)

         :::::::::::::::::::::::::::::::::::::::::::::::::::::
         ::                     SUMMARY                     ::
         :::::::::::::::::::::::::::::::::::::::::::::::::::::
         :: total energy             -35.681865949198 Eh    ::
         :: gradient norm            158.948247286717 Eh/a0 ::
         :: HOMO-LUMO gap              0.037714907102 eV    ::
         ::.................................................::
         :: SCC energy              -253.717685341444 Eh    ::
         :: -> isotropic ES            1.310074938037 Eh    ::
         :: -> anisotropic ES          0.172778753356 Eh    ::
         :: -> anisotropic XC          0.421507700293 Eh    ::
         :: -> dispersion             -0.388281372536 Eh    ::
         :: repulsion energy         218.035819392245 Eh    ::
         :: add. restraining           0.000000000000 Eh    ::
         :: total charge              -0.000000000001 e     ::
         :::::::::::::::::::::::::::::::::::::::::::::::::::::

           -------------------------------------------------
          |                Property Printout                |
           -------------------------------------------------

    * Orbital Energies and Occupations

         #    Occupation            Energy/Eh            Energy/eV
      -------------------------------------------------------------
         1        2.0000           -1.0438787             -28.4054
       ...           ...                  ...                  ...
       228        2.0000           -0.2443899              -6.6502
       229        2.0000           -0.2354394              -6.4066
       230        2.0000           -0.2299687              -6.2578
       231        2.0000           -0.2270448              -6.1782
       232        2.0000           -0.2196713              -5.9776
       233        2.0000           -0.2141076              -5.8262
       234        2.0000           -0.1977649              -5.3815
       235        2.0000           -0.1877569              -5.1091
       236        2.0000           -0.1817280              -4.9451
       237        2.0000           -0.1796900              -4.8896
       238        2.0000           -0.1764083              -4.8003
       239        1.9895           -0.1678727              -4.5680
       240        1.3442           -0.1635759              -4.4511 (HOMO)
       241        0.6455           -0.1621899              -4.4134 (LUMO)
       242        0.0209           -0.1585714              -4.3149
       243        0.0000           -0.1485917              -4.0434
       244                         -0.1457274              -3.9654
       245                         -0.1395788              -3.7981
       246                         -0.1379231              -3.7531
       247                         -0.1286344              -3.5003
       248                         -0.1249096              -3.3990
       249                         -0.1190788              -3.2403
       250                         -0.1088624              -2.9623
       251                         -0.1014072              -2.7594
       ...                                ...                  ...
       469                         57.5014915            1564.6952
      -------------------------------------------------------------
                  HL-Gap            0.0013860 Eh            0.0377 eV
             Fermi-level           -0.1628941 Eh           -4.4326 eV

     #   Z          covCN         q      C6AA      α(0)
     1   6 C        2.840    -0.314    36.825     9.945
     2   6 C        5.771    -0.145    23.193     6.839
     3   6 C        6.792     0.383    15.021     5.504
     4   8 O        2.786    -0.516    23.183     6.503
     5   7 N        7.607     0.137    18.902     6.457
     6   6 C        3.969    -0.268    25.845     7.223
     7   6 C        2.910    -0.221    33.919     9.550
     8   6 C        2.891    -0.015    28.391     8.736
     9   7 N        2.700    -0.229    25.999     7.573
    10   6 C        4.075     0.101    18.839     6.165
    11   7 N        3.190    -0.405    30.496     8.202
    12   6 C        6.542    -0.073    21.794     6.630
    13   6 C        6.744     0.039    19.840     6.326
    14   6 C        7.596     0.346    15.460     5.584
    15   6 C        4.189    -0.228    24.934     7.092
    16   6 C        2.989    -0.105    30.642     9.080
    17   7 N        2.837    -0.073    22.658     7.070
    18   6 C        3.688    -0.033    21.358     6.615
    19   6 C        3.051     0.023    27.434     8.590
    20   6 C        2.906    -0.089    30.238     9.017
    21   6 C        2.914    -0.055    29.371     8.887
    22   6 C        2.908    -0.061    29.525     8.910
    23   6 C        3.000    -0.204    33.383     9.478
    24   6 C        3.095    -0.036    28.778     8.792
    25   7 N        6.560    -0.475    32.508     8.468
    26   6 C        3.632    -0.163    24.135     7.073
    27   8 O        4.329    -0.128    16.211     5.438
    28   6 C        8.165    -0.135    22.996     6.810
    29   6 C        4.707    -0.270    25.883     7.225
    30   6 C        7.799    -0.112    22.538     6.742
    31   7 N        7.967     0.368    15.605     5.867
    32   6 C        7.196    -0.298    26.538     7.316
    33   6 C        7.752    -0.307    26.743     7.344
    34   6 C        3.856    -0.045    21.343     6.570
    35   7 N        2.803    -0.244    26.355     7.625
    36   6 C        3.709    -0.024    21.143     6.572
    37   6 C        5.405    -0.156    23.416     6.872
    38   1 H        0.925    -0.032     3.678     2.999
    39   1 H        0.925    -0.053     4.164     3.191
    40   1 H        0.992    -0.073     4.697     3.386
    41   1 H        0.940    -0.050     4.079     3.158
    42   1 H        0.925     0.057     2.237     2.339
    43   1 H        0.861     0.182     1.204     1.719
    44   1 H        0.926     0.079     1.993     2.208
    45   1 H        0.926     0.017     2.784     2.609
    46   1 H        0.925    -0.065     4.480     3.310
    47   1 H        0.924     0.032     2.557     2.501
    48   1 H        0.924     0.037     2.484     2.465
    49   1 H        0.924     0.034     2.527     2.486
    50   1 H        0.925    -0.025     3.539     2.942
    51   1 H        0.925    -0.022     3.469     2.912
    52   1 H        0.925    -0.020     3.435     2.898
    53   1 H        1.860     0.225     0.974     1.540
    54   1 H        1.157    -0.111     5.921     3.799
    55   1 H        2.756     0.409     0.458     1.056
    56   1 H        3.866     0.541     0.286     0.835
    57   1 H        1.359    -0.008     3.183     2.785
    58   1 H        0.924    -0.013     3.295     2.839
    59   1 H        0.932     0.025     2.658     2.549
    60   1 H        2.327     0.326     0.633     1.242
    61   1 H        0.954    -0.138     7.070     4.156
    62   1 H        3.725     0.560     0.269     0.810
    63   1 H        0.924    -0.023     3.489     2.921
    64   1 H        0.923    -0.020     3.424     2.894
    65   1 H        0.924     0.045     2.378     2.412
    66   1 H        0.924     0.011     2.881     2.654
    67   1 H        0.924     0.020     2.727     2.582
    68   1 H        0.924    -0.012     3.272     2.829
    69   1 H        0.924     0.019     2.743     2.590
    70   1 H        3.786     0.496     0.334     0.902
    71   5 B        5.102     0.085    21.230     7.424
    72   5 B        5.153     0.087    21.184     7.416
    73   5 B        5.102     0.105    20.886     7.364
    74   5 B        8.266     0.463    15.888     6.422
    75   5 B        5.136     0.161    19.983     7.203
    76   5 B        5.349     0.140    20.315     7.262
    77   5 B        5.131     0.070    21.490     7.469
    78   5 B        9.924     0.388    16.791     6.602
    79   5 B        5.765     0.119    20.650     7.322
    80   5 B        8.559     0.211    19.204     7.061
    81   5 B        8.716    -0.114    25.012     8.058
    82   5 B        7.892     0.218    19.106     7.043
    83   5 B        3.704     0.310    17.663     6.800
    84   5 B        2.924     0.218    17.957     7.071
    85   5 B        1.851     0.165    38.967    13.148
    86   5 B        1.850     0.090    41.384    13.549
    87   5 B        1.850     0.066    42.166    13.677
    88   5 B        1.850     0.116    40.507    13.405
    89   5 B        4.902     0.410    16.516     6.548
    90   5 B        1.850     0.099    41.057    13.496
    91   5 B        1.850     0.081    41.671    13.596
    92   5 B        1.850     0.076    41.832    13.622
    93   5 B        1.850     0.086    41.486    13.566
    94   5 B        1.870     0.074    41.859    13.625
    95   5 B        4.397     0.306    17.858     6.809
    96   5 B        4.397     0.287    18.123     6.859
    97   5 B        5.427     0.323    17.621     6.764
    98   5 B        6.362     0.288    18.096     6.854
    99   5 B        4.398     0.281    18.194     6.873
   100   5 B        4.399     0.268    18.378     6.907
   101   5 B        8.073     0.400    16.641     6.573
   102   5 B        5.823     0.322    17.640     6.767
   103   5 B        6.212     0.094    21.075     7.397
   104   5 B        8.752     0.009    22.578     7.656
   105   5 B        7.682     0.376    16.941     6.632
   106   5 B        5.325     0.317    17.702     6.779
   107   7 N        4.372    -0.083    22.849     7.099
   108   7 N        4.372    -0.217    25.716     7.532
   109   7 N        4.372    -0.029    21.801     6.935
   110   7 N        6.619    -0.001    21.275     6.851
   111   7 N        4.396    -0.159    24.428     7.341
   112   7 N        4.456    -0.062    22.439     7.035
   113   7 N        5.218    -0.020    21.635     6.908
   114   7 N        7.942     0.273    16.875     6.101
   115   7 N        5.909    -0.206    25.475     7.496
   116   7 N        7.889    -0.278    27.163     7.741
   117   7 N        7.695     0.194    18.019     6.305
   118   7 N        7.078     0.226    17.541     6.220
   119   7 N        1.670    -0.376    30.445     8.148
   120   7 N        1.119    -0.303    26.679     7.364
   121   7 N        0.932    -0.158    24.301     7.118
   122   7 N        0.932    -0.085    22.800     6.895
   123   7 N        0.932    -0.120    23.511     7.002
   124   7 N        0.932    -0.126    23.634     7.020
   125   7 N        2.844    -0.328    28.412     7.917
   126   7 N        0.932    -0.109    23.274     6.966
   127   7 N        0.932    -0.137    23.864     7.054
   128   7 N        0.932    -0.121    23.527     7.004
   129   7 N        0.932    -0.171    24.580     7.159
   130   7 N        0.932    -0.206    25.374     7.274
   131   7 N        3.977    -0.356    29.164     8.021
   132   7 N        3.977    -0.368    29.475     8.063
   133   7 N        4.070    -0.460    32.081     8.412
   134   7 N        4.500    -0.575    35.709     8.875
   135   7 N        4.107    -0.334    28.574     7.939
   136   7 N        3.995    -0.322    28.271     7.897
   137   7 N        6.694     0.006    21.145     6.830
   138   7 N        5.289    -0.402    30.405     8.190
   139   7 N        6.574    -0.362    29.300     8.039
   140   7 N        7.690     0.846    10.703     4.859
   141   7 N        6.866     0.061    20.182     6.672
   142   7 N        4.220    -0.548    34.805     8.762

 Mol. C6AA /au·bohr⁶  :     345422.773218
 Mol. C8AA /au·bohr⁸  :    9428361.351298
 Mol. α(0) /au        :        931.873183


Wiberg/Mayer (AO) data.
largest (>0.10) Wiberg bond orders for each atom

 ---------------------------------------------------------------------------
     #   Z sym  total        # sym  WBO       # sym  WBO       # sym  WBO
 ---------------------------------------------------------------------------
     1   6 C    3.547 --     2 C    1.247    38 H    0.970    39 H    0.963
     2   6 C    3.661 --     1 C    1.247    40 H    0.897   141 N    0.646
                             3 C    0.363     5 N    0.131
     3   6 C    3.826 --     4 O    0.967   105 B    0.664   141 N    0.616
                           118 N    0.488     2 C    0.363    82 B    0.308
                             5 N    0.192
     4   8 O    1.749 --     3 C    0.967   141 N    0.164    84 B    0.139
                           105 B    0.104
     5   7 N    3.501 --     6 C    0.770    41 H    0.617   118 N    0.592
                           105 B    0.437    82 B    0.423     3 C    0.192
                             2 C    0.131
     6   6 C    3.532 --     7 C    1.125    30 C    0.978     5 N    0.770
     7   6 C    3.827 --     8 C    1.353     6 C    1.125    42 H    0.949
                            26 C    0.124
     8   6 C    3.849 --     7 C    1.353    26 C    1.184     9 N    1.040
     9   7 N    3.330 --    10 C    1.082     8 C    1.040    43 H    0.835
    10   6 C    3.874 --    11 N    1.130     9 N    1.082    25 N    1.011
                            78 B    0.171    12 C    0.100
    11   7 N    2.894 --    10 C    1.130    12 C    0.951    25 N    0.137
                            83 B    0.132
    12   6 C    3.839 --    11 N    0.951    44 H    0.918    13 C    0.849
                           101 B    0.356    83 B    0.178    78 B    0.111
                           137 N    0.110    10 C    0.100
    13   6 C    3.804 --    45 H    0.859    12 C    0.849   137 N    0.554
                           114 N    0.461   101 B    0.309    78 B    0.218
                            25 N    0.155    14 C    0.151
    14   6 C    3.865 --   114 N    1.223   137 N    0.769    15 C    0.653
                            25 N    0.646    78 B    0.157    13 C    0.151
                           101 B    0.150
    15   6 C    3.844 --    16 C    1.362    24 C    1.201    14 C    0.653
    16   6 C    3.721 --    15 C    1.362    17 N    1.103    46 H    0.965
    17   7 N    3.490 --    19 C    1.157    16 C    1.103    18 C    1.012
    18   6 C    3.987 --    17 N    1.012    47 H    0.984    49 H    0.979
                            48 H    0.978
    19   6 C    3.944 --    20 C    1.322    24 C    1.258    17 N    1.157
    20   6 C    3.849 --    21 C    1.390    19 C    1.322    50 H    0.970
    21   6 C    3.908 --    22 C    1.432    20 C    1.390    51 H    0.972
    22   6 C    3.959 --    21 C    1.432    23 C    1.409    52 H    0.971
    23   6 C    3.761 --    22 C    1.409    24 C    1.273    53 H    0.724
    24   6 C    3.942 --    23 C    1.273    19 C    1.258    15 C    1.201
    25   7 N    2.984 --    10 C    1.011    14 C    0.646    78 B    0.192
                           102 B    0.156    13 C    0.155    11 N    0.137
    26   6 C    3.356 --     8 C    1.184    29 C    0.968    27 O    0.698
                             7 C    0.124
    27   8 O    2.592 --    26 C    0.698    74 B    0.664    89 B    0.368
                            28 C    0.306   125 N    0.150   110 N    0.125
    28   6 C    3.538 --    54 H    0.762   110 N    0.731    74 B    0.576
                            55 H    0.472    27 O    0.306   125 N    0.277
                            89 B    0.197
    29   6 C    3.428 --    26 C    0.968    30 C    0.758    57 H    0.733
                            98 B    0.202   104 B    0.186   134 N    0.116
    30   6 C    3.859 --     6 C    0.978   104 B    0.931    29 C    0.758
                            80 B    0.275    81 B    0.227    31 N    0.131
    31   7 N    3.427 --   140 N    2.410   104 B    0.385    30 C    0.131
                           116 N    0.101
    32   6 C    3.684 --    58 H    0.895    59 H    0.840    60 H    0.626
                           140 N    0.431   116 N    0.399
    33   6 C    3.777 --   117 N    1.305    34 C    0.818    61 H    0.762
                           104 B    0.183    81 B    0.140
    34   6 C    3.958 --    35 N    0.991    63 H    0.965    64 H    0.951
                            33 C    0.818
    35   7 N    3.067 --    36 C    0.995    34 C    0.991    37 C    0.974
    36   6 C    3.979 --    35 N    0.995    67 H    0.983    65 H    0.980
                            66 H    0.978
    37   6 C    3.826 --    35 N    0.974    68 H    0.954    69 H    0.953
                            70 H    0.304   139 N    0.180   103 B    0.140
    38   1 H    0.997 --     1 C    0.970
    39   1 H    0.986 --     1 C    0.963
    40   1 H    0.990 --     2 C    0.897
    41   1 H    0.987 --     5 N    0.617
    42   1 H    0.994 --     7 C    0.949
    43   1 H    0.964 --     9 N    0.835
    44   1 H    0.992 --    12 C    0.918
    45   1 H    0.998 --    13 C    0.859
    46   1 H    0.995 --    16 C    0.965
    47   1 H    0.999 --    18 C    0.984
    48   1 H    0.995 --    18 C    0.978
    49   1 H    0.996 --    18 C    0.979
    50   1 H    0.998 --    20 C    0.970
    51   1 H    0.998 --    21 C    0.972
    52   1 H    0.999 --    22 C    0.971
    53   1 H    0.949 --    23 C    0.724   113 N    0.153
    54   1 H    0.984 --    28 C    0.762
    55   1 H    0.830 --    28 C    0.472   125 N    0.177    89 B    0.112
    56   1 H    0.707 --   110 N    0.527    74 B    0.114
    57   1 H    0.990 --    29 C    0.733    98 B    0.142
    58   1 H    0.988 --    32 C    0.895
    59   1 H    0.974 --    32 C    0.840
    60   1 H    0.891 --    32 C    0.626   116 N    0.141
    61   1 H    0.965 --    33 C    0.762
    62   1 H    0.685 --   117 N    0.421    81 B    0.141
    63   1 H    0.995 --    34 C    0.965
    64   1 H    0.994 --    34 C    0.951
    65   1 H    0.997 --    36 C    0.980
    66   1 H    1.000 --    36 C    0.978
    67   1 H    0.999 --    36 C    0.983
    68   1 H    0.994 --    37 C    0.954
    69   1 H    0.991 --    37 C    0.953
    70   1 H    0.753 --   139 N    0.306    37 C    0.304
    71   5 B    3.674 --   107 N    3.042    77 B    0.214    97 B    0.160
                            95 B    0.130
    72   5 B    3.678 --   108 N    2.972    81 B    0.379    96 B    0.114
    73   5 B    3.627 --   109 N    3.115    87 B    0.161    95 B    0.150
                            96 B    0.140
    74   5 B    3.374 --   110 N    1.858    27 O    0.664    28 C    0.576
                            56 H    0.114
    75   5 B    3.626 --   111 N    2.951   101 B    0.222    91 B    0.158
                            99 B    0.118
    76   5 B    3.627 --   112 N    3.101    93 B    0.161   102 B    0.132
                           100 B    0.119
    77   5 B    3.676 --   113 N    2.953    71 B    0.214    99 B    0.162
                           100 B    0.145
    78   5 B    3.114 --   114 N    1.570    13 C    0.218    25 N    0.192
                            10 C    0.171    14 C    0.157   102 B    0.157
                            83 B    0.129    12 C    0.111
    79   5 B    3.632 --   115 N    2.937    92 B    0.167   103 B    0.165
                           105 B    0.148
    80   5 B    3.489 --   116 N    2.499    30 C    0.275    94 B    0.190
                           106 B    0.137
    81   5 B    3.367 --   117 N    1.670    72 B    0.379    30 C    0.227
                           103 B    0.212   104 B    0.154    62 H    0.141
                            33 C    0.140
    82   5 B    3.311 --   118 N    1.898     5 N    0.423     3 C    0.308
                            84 B    0.153   106 B    0.141
    83   5 B    3.471 --   119 N    2.992    12 C    0.178    11 N    0.132
                            78 B    0.129
    84   5 B    3.569 --   120 N    3.218    82 B    0.153     4 O    0.139
    85   5 B    3.629 --   121 N    3.474    88 B    0.119
    86   5 B    3.671 --   122 N    3.544    90 B    0.124
    87   5 B    3.679 --   123 N    3.482    73 B    0.161
    88   5 B    3.654 --   124 N    3.526    85 B    0.119
    89   5 B    3.324 --   125 N    2.553    27 O    0.368    28 C    0.197
                            55 H    0.112
    90   5 B    3.664 --   126 N    3.533    86 B    0.124
    91   5 B    3.671 --   127 N    3.462    75 B    0.158
    92   5 B    3.669 --   128 N    3.453    79 B    0.167
    93   5 B    3.670 --   129 N    3.449    76 B    0.161
    94   5 B    3.652 --   130 N    3.351    80 B    0.190
    95   5 B    3.449 --   131 N    2.912    73 B    0.150    71 B    0.130
    96   5 B    3.453 --   132 N    2.978    73 B    0.140    72 B    0.114
    97   5 B    3.440 --   133 N    2.947    71 B    0.160
    98   5 B    3.515 --   134 N    2.935    29 C    0.202    57 H    0.142
    99   5 B    3.468 --   135 N    2.902    77 B    0.162    75 B    0.118
   100   5 B    3.468 --   136 N    2.929    77 B    0.145    76 B    0.119
   101   5 B    3.102 --   137 N    1.572    12 C    0.356    13 C    0.309
                            75 B    0.222    14 C    0.150
   102   5 B    3.387 --   138 N    2.663    78 B    0.157    25 N    0.156
                            76 B    0.132
   103   5 B    3.411 --   139 N    2.636    81 B    0.212    79 B    0.165
                            37 C    0.140
   104   5 B    3.067 --    30 C    0.931   140 N    0.828    31 N    0.385
                            29 C    0.186    33 C    0.183    81 B    0.154
   105   5 B    3.385 --   141 N    1.690     3 C    0.664     5 N    0.437
                            79 B    0.148     4 O    0.104
   106   5 B    3.435 --   142 N    2.847    82 B    0.141    80 B    0.137
   107   7 N    3.628 --    71 B    3.042   131 N    0.149
   108   7 N    3.503 --    72 B    2.972   132 N    0.107
   109   7 N    3.637 --    73 B    3.115   131 N    0.133   132 N    0.133
   110   7 N    3.466 --    74 B    1.858    28 C    0.731    56 H    0.527
                            27 O    0.125
   111   7 N    3.609 --    75 B    2.951   135 N    0.162
   112   7 N    3.645 --    76 B    3.101   136 N    0.130
   113   7 N    3.694 --    77 B    2.953    53 H    0.153   136 N    0.122
                           135 N    0.104
   114   7 N    3.646 --    78 B    1.570    14 C    1.223    13 C    0.461
   115   7 N    3.560 --    79 B    2.937
   116   7 N    3.477 --    80 B    2.499    32 C    0.399    60 H    0.141
                            31 N    0.101
   117   7 N    3.650 --    81 B    1.670    33 C    1.305    62 H    0.421
   118   7 N    3.504 --    82 B    1.898     5 N    0.592     3 C    0.488
   119   7 N    3.322 --    83 B    2.992
   120   7 N    3.444 --    84 B    3.218
   121   7 N    3.624 --    85 B    3.474   124 N    0.109
   122   7 N    3.666 --    86 B    3.544   126 N    0.115
   123   7 N    3.625 --    87 B    3.482
   124   7 N    3.639 --    88 B    3.526   121 N    0.109
   125   7 N    3.325 --    89 B    2.553    28 C    0.277    55 H    0.177
                            27 O    0.150
   126   7 N    3.650 --    90 B    3.533   122 N    0.115
   127   7 N    3.608 --    91 B    3.462
   128   7 N    3.607 --    92 B    3.453
   129   7 N    3.592 --    93 B    3.449
   130   7 N    3.524 --    94 B    3.351
   131   7 N    3.380 --    95 B    2.912   107 N    0.149   109 N    0.133
   132   7 N    3.371 --    96 B    2.978   109 N    0.133   108 N    0.107
   133   7 N    3.327 --    97 B    2.947
   134   7 N    3.236 --    98 B    2.935    29 C    0.116
   135   7 N    3.456 --    99 B    2.902   111 N    0.162   113 N    0.104
   136   7 N    3.429 --   100 B    2.929   112 N    0.130   113 N    0.122
   137   7 N    3.370 --   101 B    1.572    14 C    0.769    13 C    0.554
                            12 C    0.110
   138   7 N    3.320 --   102 B    2.663
   139   7 N    3.397 --   103 B    2.636    70 H    0.306    37 C    0.180
   140   7 N    3.907 --    31 N    2.410   104 B    0.828    32 C    0.431
   141   7 N    3.535 --   105 B    1.690     2 C    0.646     3 C    0.616
                             4 O    0.164
   142   7 N    3.274 --   106 B    2.847
 ---------------------------------------------------------------------------

Topologies differ in total number of bonds
Writing topology from bond orders to xtbtopo.mol

molecular dipole:
                 x           y           z       tot (Debye)
 q only:       -6.107      -4.589       4.119
   full:       -7.944      -3.684       4.990      25.617
molecular quadrupole (traceless):
                xx          xy          yy          xz          yz          zz
 q only:      -85.726      57.455      75.916     -87.779     -23.321       9.810
  q+dip:       38.228      52.713     -10.525    -124.089     -43.640     -27.703
   full:       27.670      51.891       4.765    -124.081     -41.915     -32.435


           -------------------------------------------------
          | TOTAL ENERGY              -35.681865949198 Eh   |
          | GRADIENT NORM             158.948247286717 Eh/α |
          | HOMO-LUMO GAP               0.037714907102 eV   |
           -------------------------------------------------

------------------------------------------------------------------------
 * finished run on 2026/08/31 at 18:41:34.441     
------------------------------------------------------------------------
 total:
 * wall-time:     0 d,  0 h,  0 min,  1.557 sec
 *  cpu-time:     0 d,  0 h,  0 min, 22.688 sec
 * ratio c/w:    14.571 speedup
 SCF:
 * wall-time:     0 d,  0 h,  0 min,  1.495 sec
 *  cpu-time:     0 d,  0 h,  0 min, 21.922 sec
 * ratio c/w:    14.663 speedup

normal termination of xtb
