134
Palbociclib/B36N36 GFN2 opt
C       3.21615328      3.67542656     12.23569263
C       3.72791026      2.76321511     11.16730347
C       5.03526237      2.71591611     10.78466081
C       5.51219918      1.78750980      9.76136324
O       6.68120603      1.69938962      9.42774608
N       4.55440178      0.97949726      9.14313199
C       3.24214522      1.02619518      9.48248832
N       2.38314740      0.26339094      8.81536700
C       1.10537552      0.29801055      9.16732953
N       0.61251481      0.97296832     10.21711993
C       1.45014461      1.75054811     10.86257562
C       2.80389998      1.87502581     10.53264200
N       0.27179586     -0.42097025      8.37275802
C      -1.09191488     -0.50276484      8.45255865
N      -1.77446226     -0.68801107      7.30981245
C      -3.09461870     -0.87787887      7.33480157
C      -3.85346764     -0.88331956      8.50618040
C      -3.14426082     -0.65425949      9.70558561
C      -1.78570726     -0.47157554      9.67001350
N      -5.19218420     -1.11861273      8.47645687
C      -5.84165457     -1.60015494      7.27245457
C      -7.18528779     -2.22662555      7.66293355
N      -8.09270240     -1.27989902      8.29043107
C      -7.39126634     -0.22443607      9.00934561
C      -6.07008220     -0.74769924      9.56796598
C       5.04453737      0.02441818      8.15326907
C       4.86087386     -1.43317055      8.59534965
C       4.90982431     -2.18988730      7.27435730
C       4.06231801     -1.31410132      6.35247923
C       4.40392331      0.12748056      6.75326199
C       6.05521058      3.63823551     11.38369878
O       5.87127632      4.83116221     11.44590549
C       7.29331543      2.97566746     11.90813374
H       2.41323466      4.29313613     11.83744001
H       3.99709808      4.33050671     12.60424351
H       2.81822978      3.09286323     13.06620718
H       1.02087832      2.30106366     11.68824467
H       0.63777768     -0.66679132      7.42894800
H      -3.53795204     -1.00718566      6.36305986
H      -3.65298760     -0.64944141     10.65560129
H      -1.22377032     -0.30134473     10.57192849
H      -5.21201809     -2.35802127      6.80065193
H      -6.00014532     -0.78792518      6.54915791
H      -6.99734132     -3.03878670      8.37463428
H      -7.66037346     -2.65970965      6.78279561
H      -8.71972446     -0.86782655      7.61002028
H      -7.17285527      0.64856974      8.37530602
H      -8.03047905      0.10831138      9.83302958
H      -6.26726375     -1.60424215     10.22444221
H      -5.60534890      0.04504523     10.15639398
H       6.11431599      0.23809934      8.07841310
H       3.88109420     -1.55850873      9.05399347
H       5.63087103     -1.74362535      9.30132956
H       4.52235242     -3.20334806      7.35989270
H       5.93835338     -2.24026624      6.91411576
H       3.00678557     -1.50411212      6.53684248
H       4.25646348     -1.50076052      5.29936996
H       3.51175477      0.74750718      6.76160657
H       5.11388311      0.56933326      6.05559261
H       7.84712852      2.57623604     11.05997325
H       7.03129737      2.14184054     12.55570082
H       7.90301963      3.69837077     12.44332007
B      -0.69166411     -4.36768742      1.10776939
N      -0.52309428     -4.46627450      2.54940805
B      -1.89611451     -3.99167114      2.46887172
N      -2.14266009     -4.26523896      1.05905155
N      -4.85892170     -0.13990166      0.90712504
B      -4.55471863      0.05114662      2.31856295
N      -4.45385375      1.50279996      2.33014915
B      -4.37924913      1.23444254      0.90142048
B      -2.60852965     -3.13029324      0.33530183
N      -3.51337829     -2.21000615      1.00655984
B      -3.97652442     -1.05208478      0.25864580
N      -3.25714241     -0.59753816     -0.92277642
B      -2.35876925     -1.54492035     -1.56666953
N      -1.86670343     -2.70904571     -0.84489299
N       0.19313822      0.08502502     -2.92616262
B      -0.20506086     -1.27875378     -2.61079007
N      -1.64741644     -1.11939108     -2.72568896
B      -1.22679946      0.27288731     -2.66827982
B      -2.84804817     -0.19444447      4.04971716
N      -3.76495884     -0.82200550      3.09749464
B      -3.33414807     -2.04059038      2.44253454
N      -2.40905357     -2.88063291      3.17224473
B      -1.50758054     -2.24600024      4.13343658
N      -1.96082181     -1.05211267      4.78812911
N       0.38605757     -0.79461720      5.73994178
B       0.51013704      0.60693895      5.37276544
N      -0.82593148      1.04308460      5.64691112
B      -1.12036089     -0.45304100      5.86975660
N      -1.76194387      1.23778933     -1.78338335
B      -2.89284562      0.81039407     -0.97842082
N      -3.37202844      1.72806784      0.03853399
B      -2.43098708      2.66443878      0.62959354
N      -1.30523526      3.08057347     -0.18920105
B      -0.81085926      2.17223679     -1.20661601
B       1.40022361     -3.15677321      0.84385637
N       0.18940910     -3.68198598      0.23729308
B      -0.42865588     -2.93278247     -0.84064336
N       0.43880077     -2.10395431     -1.65956181
B       1.65301419     -1.56945778     -1.06769503
N       2.25619535     -2.32809898      0.01200358
N      -2.39805645      2.85482416      2.06885521
B      -3.21990190      1.96746725      2.88152101
N      -2.65560401      1.24803507      4.00599447
B      -1.38543813      1.72227119      4.54589990
N      -0.53807411      2.61855811      3.76000708
B      -1.14579721      3.32316510      2.64880535
B       1.03459932      3.71975499      1.70222496
N       1.10331293      3.76518850      0.24776924
B      -0.33264962      3.88316362      0.45364715
N      -0.32942356      4.19977284      1.87270328
N       2.00806837     -0.17247482     -1.26673754
B       1.03282255      0.67454741     -1.93699783
N       0.61842439      1.93768875     -1.34541832
B       1.49229739      2.52769982     -0.34007788
N       2.47809682      1.71153555      0.35289607
B       2.86042551      0.44948171     -0.26235973
B       0.81097451     -1.62188145      4.66680202
N      -0.10141117     -2.63103707      4.15153367
B       0.37168841     -3.49060479      3.08346925
N       1.53779738     -3.12572787      2.28926975
B       2.43859616     -2.12833467      2.84788293
N       1.98972994     -1.23489977      3.89705946
N       1.64449744      2.72790389      2.50242424
B       0.86383904      2.26141813      3.63965127
N       1.38822823      1.14530287      4.39520311
B       2.22618700      0.18701250      3.71363067
N       3.00601332      0.65856368      2.58006108
B       2.48845089      1.77379194      1.80864175
N       3.59731461     -1.76575699      2.09715499
B       3.35483715     -1.71832595      0.66320910
N       3.82151753     -0.36471292      0.40304587
B       3.70161578     -0.33359057      1.85389716
