62
drug @complex
C       3.21615328      3.67542656     12.23569263
C       3.72791026      2.76321511     11.16730347
C       5.03526237      2.71591611     10.78466081
C       5.51219918      1.78750980      9.76136324
O       6.68120603      1.69938962      9.42774608
N       4.55440178      0.97949726      9.14313199
C       3.24214522      1.02619518      9.48248832
N       2.38314740      0.26339094      8.81536700
C       1.10537552      0.29801055      9.16732953
N       0.61251481      0.97296832     10.21711993
C       1.45014461      1.75054811     10.86257562
C       2.80389998      1.87502581     10.53264200
N       0.27179586     -0.42097025      8.37275802
C      -1.09191488     -0.50276484      8.45255865
N      -1.77446226     -0.68801107      7.30981245
C      -3.09461870     -0.87787887      7.33480157
C      -3.85346764     -0.88331956      8.50618040
C      -3.14426082     -0.65425949      9.70558561
C      -1.78570726     -0.47157554      9.67001350
N      -5.19218420     -1.11861273      8.47645687
C      -5.84165457     -1.60015494      7.27245457
C      -7.18528779     -2.22662555      7.66293355
N      -8.09270240     -1.27989902      8.29043107
C      -7.39126634     -0.22443607      9.00934561
C      -6.07008220     -0.74769924      9.56796598
C       5.04453737      0.02441818      8.15326907
C       4.86087386     -1.43317055      8.59534965
C       4.90982431     -2.18988730      7.27435730
C       4.06231801     -1.31410132      6.35247923
C       4.40392331      0.12748056      6.75326199
C       6.05521058      3.63823551     11.38369878
O       5.87127632      4.83116221     11.44590549
C       7.29331543      2.97566746     11.90813374
H       2.41323466      4.29313613     11.83744001
H       3.99709808      4.33050671     12.60424351
H       2.81822978      3.09286323     13.06620718
H       1.02087832      2.30106366     11.68824467
H       0.63777768     -0.66679132      7.42894800
H      -3.53795204     -1.00718566      6.36305986
H      -3.65298760     -0.64944141     10.65560129
H      -1.22377032     -0.30134473     10.57192849
H      -5.21201809     -2.35802127      6.80065193
H      -6.00014532     -0.78792518      6.54915791
H      -6.99734132     -3.03878670      8.37463428
H      -7.66037346     -2.65970965      6.78279561
H      -8.71972446     -0.86782655      7.61002028
H      -7.17285527      0.64856974      8.37530602
H      -8.03047905      0.10831138      9.83302958
H      -6.26726375     -1.60424215     10.22444221
H      -5.60534890      0.04504523     10.15639398
H       6.11431599      0.23809934      8.07841310
H       3.88109420     -1.55850873      9.05399347
H       5.63087103     -1.74362535      9.30132956
H       4.52235242     -3.20334806      7.35989270
H       5.93835338     -2.24026624      6.91411576
H       3.00678557     -1.50411212      6.53684248
H       4.25646348     -1.50076052      5.29936996
H       3.51175477      0.74750718      6.76160657
H       5.11388311      0.56933326      6.05559261
H       7.84712852      2.57623604     11.05997325
H       7.03129737      2.14184054     12.55570082
H       7.90301963      3.69837077     12.44332007
