      -----------------------------------------------------------      
     |                   =====================                   |     
     |                           x T B                           |     
     |                   =====================                   |     
     |                         S. Grimme                         |     
     |          Mulliken Center for Theoretical Chemistry        |     
     |                    University of Bonn                     |     
      -----------------------------------------------------------      

   * xtb version 6.7.1pre (5071a88) compiled by 'Marcel@Raven' on 2024-07-23

   xtb is free software: you can redistribute it and/or modify it under
   the terms of the GNU Lesser General Public License as published by
   the Free Software Foundation, either version 3 of the License, or
   (at your option) any later version.
   
   xtb is distributed in the hope that it will be useful,
   but WITHOUT ANY WARRANTY; without even the implied warranty of
   MERCHANTABILITY or FITNESS FOR A PARTICULAR PURPOSE.  See the
   GNU Lesser General Public License for more details.
   
   Cite this work as:
   * C. Bannwarth, E. Caldeweyher, S. Ehlert, A. Hansen, P. Pracht,
     J. Seibert, S. Spicher, S. Grimme, WIREs Comput. Mol. Sci., 2020, 11,
     e01493. DOI: 10.1002/wcms.1493
   
   for GFN2-xTB:
   * C. Bannwarth, S. Ehlert and S. Grimme., J. Chem. Theory Comput., 2019,
     15, 1652-1671. DOI: 10.1021/acs.jctc.8b01176
   for GFN1-xTB:
   * S. Grimme, C. Bannwarth, P. Shushkov, J. Chem. Theory Comput., 2017,
     13, 1989-2009. DOI: 10.1021/acs.jctc.7b00118
   for GFN0-xTB:
   * P. Pracht, E. Caldeweyher, S. Ehlert, S. Grimme, ChemRxiv, 2019, preprint.
     DOI: 10.26434/chemrxiv.8326202.v1
   for GFN-FF:
   * S. Spicher and S. Grimme, Angew. Chem. Int. Ed., 2020, 59, 15665-15673.
     DOI: 10.1002/anie.202004239
   
   for ALPB and GBSA implicit solvation:
   * S. Ehlert, M. Stahn, S. Spicher, S. Grimme, J. Chem. Theory Comput.,
     2021, 17, 4250-4261. DOI: 10.1021/acs.jctc.1c00471
   
   for ddCOSMO and CPCM-X implicit solvation:
   * M. Stahn, S. Ehlert, S. Grimme, J. Phys. Chem. A,
     2023, XX, XXXX-XXXX. DOI: 10.1021/acs.jpca.3c04382
   
   for DFT-D4:
   * E. Caldeweyher, C. Bannwarth and S. Grimme, J. Chem. Phys., 2017,
     147, 034112. DOI: 10.1063/1.4993215
   * E. Caldeweyher, S. Ehlert, A. Hansen, H. Neugebauer, S. Spicher,
     C. Bannwarth and S. Grimme, J. Chem. Phys., 2019, 150, 154122.
     DOI: 10.1063/1.5090222
   * E. Caldeweyher, J.-M. Mewes, S. Ehlert and S. Grimme, Phys. Chem. Chem. Phys.
     2020, 22, 8499-8512. DOI: 10.1039/D0CP00502A
   
   for sTDA-xTB:
   * S. Grimme and C. Bannwarth, J. Chem. Phys., 2016, 145, 054103.
     DOI: 10.1063/1.4959605
   
   in the mass-spec context:
   * V. Asgeirsson, C. Bauer and S. Grimme, Chem. Sci., 2017, 8, 4879.
     DOI: 10.1039/c7sc00601b
   * J. Koopman and S. Grimme, ACS Omega 2019, 4, 12, 15120-15133.
     DOI: 10.1021/acsomega.9b02011
   
   for metadynamics refer to:
   * S. Grimme, J. Chem. Theory Comput., 2019, 155, 2847-2862
     DOI: 10.1021/acs.jctc.9b00143
   
   for SPH calculations refer to:
   * S. Spicher and S. Grimme, J. Chem. Theory Comput., 2021, 17, 1701-1714
     DOI: 10.1021/acs.jctc.0c01306
   
   for ONIOM refer to:
   * C. Plett, A. Katbashev, S. Ehlert, S. Grimme, M. Bursch,
     Phys. Chem. Chem. Phys., 2023, 25, 17860-17868. DOI: 10.1039/D3CP02178E
   
   for DIPRO refer to:
   * J. Kohn, N. Gildemeister, S. Grimme, D. Fazzi, A. Hansen,
     J. Chem. Phys., 2023, just accepted.
   
   for PTB refer to:
   * S. Grimme, M. Mueller, A. Hansen, J. Chem. Phys., 2023, 158, 124111.
     DOI: 10.1063/5.0137838
   
   with help from (in alphabetical order)
   P. Atkinson, C. Bannwarth, F. Bohle, G. Brandenburg, E. Caldeweyher
   M. Checinski, S. Dohm, S. Ehlert, S. Ehrlich, I. Gerasimov, C. Hölzer
   A. Katbashev, J. Kohn, J. Koopman, C. Lavigne, S. Lehtola, F. März, M. Müller,
   F. Musil, H. Neugebauer, J. Pisarek, C. Plett, P. Pracht, F. Pultar,
   J. Seibert, P. Shushkov, S. Spicher, M. Stahn, M. Steiner, T. Strunk,
   J. Stückrath, T. Rose, and J. Unsleber
   
 * started run on 2026/08/31 at 18:35:26.217     
   ID    Z sym.   atoms
    1    7 N      1, 13, 15, 87-122
    2    6 C      2-7, 9-12, 14, 16-28
    3   17 Cl     8
    4    1 H      29-50
    5    5 B      51-86

           -------------------------------------------------
          |                Calculation Setup                |
           -------------------------------------------------

          program call               : "c:\Users\Andre\Proyectos doctorado\kras-pancreatic-gC3N4-ai\tools\xtb\xtb-6.7.1\bin\xtb.exe" "c:\Users\Andre\Proyectos doctorado\nano-qsar-ai-therapeutics\calculations\tnbc\Capivasertib\Capivasertib_B36N36_complex.xyz" --gfn 2 --sp --chrg 0 --uhf 0 --iterations 500 --norestart
          coordinate file            : c:\Users\Andre\Proyectos doctorado\nano-qsar-ai-therapeutics\calculations\tnbc\Capivasertib\Capivasertib_B36N36_complex.xyz
          omp threads                :                    16


molecular fragmentation (1/2 indicates fragments):
111111111111111111111111111111111111111111111111111111111111111112111211
11111111111111111111111111212211121111111111111111
# atoms in fragment 1/2:   116     6
 fragment masses (1/2) :     1203.69       77.65
CMA distance (Bohr)    :   7.977
constraining FC (au)   :  0.0500

           -------------------------------------------------
          |                 G F N 2 - x T B                 |
           -------------------------------------------------

        Reference                      10.1021/acs.jctc.8b01176
      * Hamiltonian:
        H0-scaling (s, p, d)           1.850000    2.230000    2.230000
        zeta-weighting                 0.500000
      * Dispersion:
        s8                             2.700000
        a1                             0.520000
        a2                             5.000000
        s9                             5.000000
      * Repulsion:
        kExp                           1.500000    1.000000
        rExp                           1.000000
      * Coulomb:
        alpha                          2.000000
        third order                    shell-resolved
        anisotropic                    true
        a3                             3.000000
        a5                             4.000000
        cn-shift                       1.200000
        cn-exp                         4.000000
        max-rad                        5.000000


          ...................................................
          :                      SETUP                      :
          :.................................................:
          :  # basis functions                 428          :
          :  # atomic orbitals                 427          :
          :  # shells                          223          :
          :  # electrons                       428          :
          :  max. iterations                   500          :
          :  Hamiltonian                  GFN2-xTB          :
          :  restarted?                      false          :
          :  GBSA solvation                  false          :
          :  PC potential                    false          :
          :  electronic temp.          300.0000000     K    :
          :  accuracy                    1.0000000          :
          :  -> integral cutoff          0.2500000E+02      :
          :  -> integral neglect         0.1000000E-07      :
          :  -> SCF convergence          0.1000000E-05 Eh   :
          :  -> wf. convergence          0.1000000E-03 e    :
          :  Broyden damping             0.4000000          :
          :  net charge                          0          :
          :  unpaired electrons                  0          :
          ...................................................

 iter      E             dE          RMSdq      gap      omega  full diag
   1   -207.3128972 -0.207313E+03  0.150E+01    0.23       0.0  T
   2   -197.5030207  0.980988E+01  0.124E+01    0.25       1.0  T
   3   -192.2849533  0.521807E+01  0.941E+00    0.32       1.0  T
   4   -189.1301104  0.315484E+01  0.788E+00    0.04       1.0  T
   5   -203.3994543 -0.142693E+02  0.532E+00    0.15       1.0  T
   6   -203.2796110  0.119843E+00  0.479E+00    0.27       1.0  T
   7   -217.6887973 -0.144092E+02  0.316E+00    0.08       1.0  T
   8   -220.7096578 -0.302086E+01  0.245E+00    0.09       1.0  T
   9   -221.9300860 -0.122043E+01  0.197E+00    0.34       1.0  T
  10   -221.9069275  0.231585E-01  0.164E+00    0.14       1.0  T
  11   -221.8620388  0.448887E-01  0.139E+00    0.18       1.0  T
  12   -222.0799336 -0.217895E+00  0.655E-01    0.34       1.0  T
  13   -222.1813665 -0.101433E+00  0.515E-01    0.07       1.0  T
  14   -222.1911369 -0.977031E-02  0.339E-01    0.12       1.0  T
  15   -221.9168996  0.274237E+00  0.108E+00    0.24       1.0  T
  16   -221.9208454 -0.394576E-02  0.107E+00    0.23       1.0  T
  17   -222.0902084 -0.169363E+00  0.677E-01    0.09       1.0  T
  18   -222.1677259 -0.775175E-01  0.464E-01    0.25       1.0  T
  19   -222.1735160 -0.579011E-02  0.409E-01    0.23       1.0  T
  20   -222.2069659 -0.334499E-01  0.216E-01    0.13       1.0  T
  21   -222.2188339 -0.118680E-01  0.129E-01    0.07       1.0  T
  22   -222.2218408 -0.300687E-02  0.389E-02    0.08       1.0  T
  23   -222.2217821  0.586289E-04  0.372E-02    0.09       1.0  T
  24   -222.2220015 -0.219342E-03  0.234E-02    0.08       1.0  T
  25   -222.2220930 -0.915486E-04  0.149E-02    0.08       1.0  T
  26   -222.2221031 -0.100364E-04  0.123E-02    0.08       1.0  T
  27   -222.2221298 -0.267711E-04  0.478E-03    0.08       1.9  T
  28   -222.2220624  0.674720E-04  0.171E-02    0.08       1.0  T
  29   -222.2220930 -0.306298E-04  0.121E-02    0.08       1.0  T
  30   -222.2221372 -0.441920E-04  0.990E-04    0.08       9.1  T
  31   -222.2221367  0.452497E-06  0.135E-03    0.08       6.7  T
  32   -222.2221360  0.773222E-06  0.209E-03    0.08       4.3  T
  33   -222.2221372 -0.129092E-05  0.178E-04    0.08      51.0  T
  34   -222.2221371  0.145632E-06  0.754E-04    0.08      12.0  T
  35   -222.2221372 -0.148648E-06  0.498E-05    0.08     181.9  T

   *** convergence criteria satisfied after 35 iterations ***

         #    Occupation            Energy/Eh            Energy/eV
      -------------------------------------------------------------
         1        2.0000           -0.9982633             -27.1641
       ...           ...                  ...                  ...
       208        2.0000           -0.1803163              -4.9067
       209        2.0000           -0.1767892              -4.8107
       210        2.0000           -0.1730179              -4.7081
       211        2.0000           -0.1599946              -4.3537
       212        2.0000           -0.1564284              -4.2566
       213        2.0000           -0.1518357              -4.1317
       214        1.6560           -0.1355002              -3.6871 (HOMO)
       215        0.3438           -0.1325136              -3.6059 (LUMO)
       216        0.0002           -0.1249863              -3.4010
       217                         -0.1160874              -3.1589
       218                         -0.1107875              -3.0147
       219                         -0.1066236              -2.9014
       ...                                ...                  ...
       427                         73.8207999            2008.7662
      -------------------------------------------------------------
                  HL-Gap            0.0029865 Eh            0.0813 eV
             Fermi-level           -0.1340072 Eh           -3.6465 eV

 SCC (total)                   0 d,  0 h,  0 min,  1.020 sec
 SCC setup                      ...        0 min,  0.002 sec (  0.196%)
 Dispersion                     ...        0 min,  0.004 sec (  0.392%)
 classical contributions        ...        0 min,  0.000 sec (  0.000%)
 integral evaluation            ...        0 min,  0.015 sec (  1.471%)
 iterations                     ...        0 min,  0.959 sec ( 94.020%)
 molecular gradient             ...        0 min,  0.037 sec (  3.627%)
 printout                       ...        0 min,  0.003 sec (  0.294%)

         :::::::::::::::::::::::::::::::::::::::::::::::::::::
         ::                     SUMMARY                     ::
         :::::::::::::::::::::::::::::::::::::::::::::::::::::
         :: total energy              22.886575685657 Eh    ::
         :: gradient norm            188.332147369904 Eh/a0 ::
         :: HOMO-LUMO gap              0.081268020350 eV    ::
         ::.................................................::
         :: SCC energy              -222.181101757413 Eh    ::
         :: -> isotropic ES            1.338980065603 Eh    ::
         :: -> anisotropic ES          0.135000972048 Eh    ::
         :: -> anisotropic XC          0.338004260568 Eh    ::
         :: -> dispersion             -0.345597150345 Eh    ::
         :: repulsion energy         245.067677443070 Eh    ::
         :: add. restraining           0.000000000000 Eh    ::
         :: total charge              -0.000000000005 e     ::
         :::::::::::::::::::::::::::::::::::::::::::::::::::::

           -------------------------------------------------
          |                Property Printout                |
           -------------------------------------------------

    * Orbital Energies and Occupations

         #    Occupation            Energy/Eh            Energy/eV
      -------------------------------------------------------------
         1        2.0000           -0.9982633             -27.1641
       ...           ...                  ...                  ...
       202        2.0000           -0.2198629              -5.9828
       203        2.0000           -0.2162804              -5.8853
       204        2.0000           -0.2001218              -5.4456
       205        2.0000           -0.1952384              -5.3127
       206        2.0000           -0.1895992              -5.1593
       207        2.0000           -0.1837986              -5.0014
       208        2.0000           -0.1803163              -4.9067
       209        2.0000           -0.1767892              -4.8107
       210        2.0000           -0.1730179              -4.7081
       211        2.0000           -0.1599946              -4.3537
       212        2.0000           -0.1564284              -4.2566
       213        2.0000           -0.1518357              -4.1317
       214        1.6560           -0.1355002              -3.6871 (HOMO)
       215        0.3438           -0.1325136              -3.6059 (LUMO)
       216        0.0002           -0.1249863              -3.4010
       217                         -0.1160874              -3.1589
       218                         -0.1107875              -3.0147
       219                         -0.1066236              -2.9014
       220                         -0.1061392              -2.8882
       221                         -0.1009091              -2.7459
       222                         -0.0928263              -2.5259
       223                         -0.0865912              -2.3563
       224                         -0.0840396              -2.2868
       225                         -0.0755596              -2.0561
       ...                                ...                  ...
       427                         73.8207999            2008.7662
      -------------------------------------------------------------
                  HL-Gap            0.0029865 Eh            0.0813 eV
             Fermi-level           -0.1340072 Eh           -3.6465 eV

     #   Z          covCN         q      C6AA      α(0)
     1   7 N        4.166    -0.519    33.883     8.645
     2   6 C        4.757    -0.206    24.455     7.023
     3   6 C        3.853    -0.084    22.055     6.680
     4   6 C        5.917    -0.348    27.744     7.480
     5   6 C        7.693     0.061    19.468     6.266
     6   6 C        6.685     0.119    18.555     6.117
     7   6 C        6.047    -0.276    26.012     7.243
     8  17 Cl       0.973    -0.510   116.111    16.485
     9   6 C        8.650    -0.086    22.041     6.667
    10   6 C        7.490    -0.262    25.694     7.199
    11   6 C        4.351    -0.374    28.418     7.571
    12   6 C        7.591     0.053    19.598     6.287
    13   7 N        6.408    -0.035    21.922     6.954
    14   6 C        5.097     0.251    16.674     5.799
    15   7 N        3.425    -0.604    36.699     8.997
    16   6 C        3.351    -0.128    28.134     8.355
    17   6 C        4.776     0.014    20.259     6.392
    18   6 C        4.310    -0.261    25.676     7.196
    19   6 C        3.914    -0.061    21.614     6.608
    20   6 C        4.783    -0.280    26.119     7.258
    21   6 C        7.156    -0.109    22.485     6.734
    22   6 C        7.914    -0.296    26.492     7.310
    23   6 C        8.331     0.086    19.080     6.203
    24   6 C        6.397    -0.546    33.294     8.195
    25   6 C        6.943    -0.194    24.210     6.988
    26   6 C        7.073    -0.064    21.644     6.607
    27   6 C        4.586    -0.300    26.569     7.320
    28   6 C        4.406    -0.225    24.878     7.084
    29   1 H        1.655     0.304     0.692     1.299
    30   1 H        2.522     0.344     0.587     1.196
    31   1 H        0.956     0.116     1.641     2.002
    32   1 H        2.710     0.284     0.754     1.356
    33   1 H        0.924     0.066     2.130     2.282
    34   1 H        4.561     0.697     0.177     0.656
    35   1 H        1.007    -0.287    20.324     7.043
    36   1 H        2.679     0.365     0.542     1.149
    37   1 H        1.857     0.235     0.931     1.506
    38   1 H        4.550     0.652     0.202     0.701
    39   1 H        0.921     0.025     2.660     2.551
    40   1 H        0.925    -0.079     4.865     3.449
    41   1 H        2.745     0.504     0.324     0.889
    42   1 H        0.987     0.082     1.954     2.184
    43   1 H        4.318     0.554     0.274     0.818
    44   1 H        2.871     0.346     0.584     1.193
    45   1 H        0.925    -0.068     4.571     3.343
    46   1 H        1.712     0.158     1.328     1.799
    47   1 H        0.925     0.029     2.596     2.520
    48   1 H        0.933     0.066     2.125     2.279
    49   1 H        3.865     0.494     0.336     0.905
    50   1 H        1.453     0.092     1.850     2.124
    51   5 B        8.693     0.330    17.530     6.746
    52   5 B        5.912     0.027    22.243     7.599
    53   5 B        5.102     0.067    21.543     7.479
    54   5 B        5.102     0.083    21.265     7.430
    55   5 B        8.546     0.086    21.212     7.421
    56   5 B        8.559     0.323    17.634     6.766
    57   5 B        8.509     0.393    16.727     6.590
    58   5 B        6.364     0.145    20.240     7.249
    59   5 B        8.805    -0.135    25.471     8.132
    60   5 B        5.869     0.168    19.869     7.182
    61   5 B        7.952     0.147    20.194     7.241
    62   5 B        7.784     0.168    19.862     7.181
    63   5 B        3.003     0.144    19.023     7.276
    64   5 B        1.985     0.108    40.249    13.332
    65   5 B        3.165     0.127    19.287     7.324
    66   5 B        1.850     0.113    40.602    13.421
    67   5 B        1.850     0.044    42.928    13.800
    68   5 B        4.231     0.177    19.726     7.156
    69   5 B        1.865     0.104    40.857    13.461
    70   5 B        2.350     0.189    26.009     9.719
    71   5 B        1.923     0.019    43.608    13.897
    72   5 B        2.434     0.063    24.583     8.955
    73   5 B        6.184     0.297    17.985     6.833
    74   5 B        5.000     0.226    18.987     7.021
    75   5 B        5.825     0.326    17.593     6.758
    76   5 B        4.397     0.234    18.865     6.998
    77   5 B        4.419     0.229    18.941     7.012
    78   5 B        4.937     0.315    17.733     6.785
    79   5 B        9.545     0.169    19.856     7.180
    80   5 B        4.537     0.236    18.844     6.994
    81   5 B        6.446     0.142    20.284     7.257
    82   5 B        6.654     0.217    19.114     7.044
    83   5 B        8.780     0.240    18.786     6.984
    84   5 B        5.794     0.364    17.094     6.662
    85   5 B        8.097     0.118    20.664     7.324
    86   5 B        5.583     0.373    16.975     6.638
    87   7 N        6.768    -0.184    24.977     7.423
    88   7 N        4.372    -0.034    21.902     6.951
    89   7 N        4.372    -0.039    21.981     6.963
    90   7 N        4.372    -0.073    22.658     7.070
    91   7 N        7.143     0.015    20.982     6.803
    92   7 N        6.944    -0.190    25.102     7.441
    93   7 N        7.115    -0.338    28.687     7.955
    94   7 N        4.384    -0.171    24.680     7.378
    95   7 N        8.183     1.131     8.657     4.370
    96   7 N        4.373    -0.214    25.653     7.523
    97   7 N        6.175    -0.012    21.487     6.885
    98   7 N        6.132    -0.071    22.619     7.064
    99   7 N        0.934    -0.248    26.321     7.407
   100   7 N        0.932    -0.155    24.242     7.110
   101   7 N        0.948    -0.188    24.862     7.191
   102   7 N        0.932    -0.150    24.135     7.094
   103   7 N        0.932    -0.122    23.546     7.007
   104   7 N        1.171    -0.300    26.426     7.313
   105   7 N        0.934    -0.237    26.052     7.369
   106   7 N        1.182    -0.245    25.130     7.129
   107   7 N        0.932    -0.242    26.192     7.390
   108   7 N        1.165    -0.370    28.179     7.553
   109   7 N        4.102     0.387    15.370     5.823
   110   7 N        3.277     0.034    20.654     6.750
   111   7 N        4.276    -0.442    31.551     8.343
   112   7 N        3.977    -0.422    30.962     8.264
   113   7 N        3.977    -0.372    29.590     8.079
   114   7 N        3.977    -0.411    30.660     8.224
   115   7 N        7.223     0.745    11.567     5.051
   116   7 N        3.978    -0.524    34.030     8.664
   117   7 N        5.143    -0.500    33.276     8.568
   118   7 N        5.729    -0.542    34.611     8.738
   119   7 N        7.041    -0.308    27.907     7.846
   120   7 N        4.006    -0.511    33.633     8.613
   121   7 N        7.856    -0.358    29.199     8.026
   122   7 N        3.996    -0.510    33.607     8.610

 Mol. C6AA /au·bohr⁶  :     270875.356033
 Mol. C8AA /au·bohr⁸  :    7737991.181515
 Mol. α(0) /au        :        809.741322


Wiberg/Mayer (AO) data.
largest (>0.10) Wiberg bond orders for each atom

 ---------------------------------------------------------------------------
     #   Z sym  total        # sym  WBO       # sym  WBO       # sym  WBO
 ---------------------------------------------------------------------------
     1   7 N    3.008 --     2 C    0.951    29 H    0.793    30 H    0.707
                            68 B    0.159   104 N    0.118   101 N    0.109
     2   6 C    3.947 --     1 N    0.951     3 C    0.943    31 H    0.893
                            32 H    0.616    94 N    0.131
     3   6 C    3.974 --    11 C    0.987    33 H    0.946     2 C    0.943
                             4 C    0.901
     4   6 C    3.368 --     3 C    0.901    10 C    0.835     5 C    0.678
                            91 N    0.218    79 B    0.161    55 B    0.107
     5   6 C    3.873 --    91 N    1.060    79 B    0.722     4 C    0.678
                            55 B    0.585   115 N    0.218     7 C    0.159
     6   6 C    3.942 --   115 N    2.403    35 H    0.620     7 C    0.292
                            79 B    0.210    91 N    0.136
     7   6 C    2.838 --     9 C    0.827     8 Cl   0.635     6 C    0.292
                           115 N    0.213    79 B    0.205     5 C    0.159
     8  17 Cl   1.010 --     7 C    0.635
     9   6 C    3.711 --     7 C    0.827    10 C    0.672    36 H    0.452
                            93 N    0.313    87 N    0.261    57 B    0.216
                            51 B    0.207    75 B    0.126    79 B    0.123
    10   6 C    3.729 --     4 C    0.835     9 C    0.672    57 B    0.562
                            37 H    0.557    51 B    0.404
    11   6 C    3.263 --     3 C    0.987    28 C    0.955    12 C    0.708
                            92 N    0.147
    12   6 C    3.788 --    82 B    0.791    11 C    0.708    56 B    0.646
                            92 N    0.635    13 N    0.587
    13   7 N    3.189 --    39 H    0.743    12 C    0.587   109 N    0.570
                            73 B    0.517    14 C    0.294
    14   6 C    3.656 --    28 C    0.892    15 N    0.852   109 N    0.821
                            73 B    0.471    13 N    0.294
    15   7 N    2.715 --    16 C    1.026    14 C    0.852   109 N    0.194
                            73 B    0.166
    16   6 C    3.757 --    17 C    1.374    15 N    1.026    40 H    0.950
                            18 C    0.116    74 B    0.115
    17   6 C    3.745 --    16 C    1.374    18 C    0.923   110 N    0.865
                            74 B    0.294
    18   6 C    3.569 --    28 C    0.982    19 C    0.940    17 C    0.923
                            74 B    0.175   110 N    0.122    16 C    0.116
    19   6 C    3.880 --    20 C    1.020    27 C    1.012    18 C    0.940
                            74 B    0.356    96 N    0.128    60 B    0.121
                           110 N    0.102
    20   6 C    3.764 --    19 C    1.020    21 C    0.969    42 H    0.838
                            86 B    0.323    98 N    0.112    62 B    0.104
    21   6 C    3.694 --    22 C    0.983    20 C    0.969    62 B    0.385
                            85 B    0.383    98 N    0.331    43 H    0.209
                           121 N    0.130
    22   6 C    3.603 --    21 C    0.983    26 C    0.885    59 B    0.671
                            83 B    0.231
    23   6 C    3.922 --    95 N    2.652   119 N    0.373    59 B    0.256
                            44 H    0.203    25 C    0.113
    24   6 C    3.172 --    45 H    0.925    46 H    0.761    25 C    0.704
                            59 B    0.131   121 N    0.124
    25   6 C    3.375 --    47 H    0.961    48 H    0.891    24 C    0.704
                            95 N    0.175    59 B    0.166    23 C    0.113
    26   6 C    3.768 --    27 C    0.962    22 C    0.885    61 B    0.542
                            97 N    0.447    83 B    0.325    49 H    0.214
    27   6 C    3.731 --    19 C    1.012    26 C    0.962    50 H    0.755
                            84 B    0.326    97 N    0.137
    28   6 C    3.644 --    18 C    0.982    11 C    0.955    14 C    0.892
                            73 B    0.235   109 N    0.178
    29   1 H    0.906 --     1 N    0.793
    30   1 H    0.880 --     1 N    0.707
    31   1 H    0.983 --     2 C    0.893
    32   1 H    0.919 --     2 C    0.616    58 B    0.153
    33   1 H    0.993 --     3 C    0.946
    34   1 H    0.515 --    91 N    0.210   117 N    0.118
    35   1 H    0.910 --     6 C    0.620
    36   1 H    0.854 --     9 C    0.452    87 N    0.228
    37   1 H    0.944 --    10 C    0.557    51 B    0.215
    38   1 H    0.575 --   118 N    0.336    82 B    0.126
    39   1 H    0.924 --    13 N    0.743
    40   1 H    0.989 --    16 C    0.950
    41   1 H    0.745 --   110 N    0.524    74 B    0.168
    42   1 H    0.991 --    20 C    0.838
    43   1 H    0.692 --    21 C    0.209    85 B    0.183    62 B    0.127
    44   1 H    0.878 --   119 N    0.376    23 C    0.203
    45   1 H    0.986 --    24 C    0.925
    46   1 H    0.971 --    24 C    0.761   121 N    0.153
    47   1 H    0.994 --    25 C    0.961
    48   1 H    0.995 --    25 C    0.891
    49   1 H    0.755 --    61 B    0.249    26 C    0.214
    50   1 H    0.988 --    27 C    0.755    78 B    0.146
    51   5 B    3.475 --    87 N    2.351    10 C    0.404    37 H    0.215
                             9 C    0.207    77 B    0.120
    52   5 B    3.725 --    88 N    3.236    76 B    0.138
    53   5 B    3.696 --    89 N    3.167    67 B    0.171    76 B    0.145
                            75 B    0.136
    54   5 B    3.662 --    90 N    3.067    69 B    0.174    77 B    0.159
                            78 B    0.132
    55   5 B    3.223 --    91 N    1.541     5 C    0.585    71 B    0.351
                            81 B    0.256     4 C    0.107
    56   5 B    3.440 --    92 N    2.277    12 C    0.646    80 B    0.103
    57   5 B    3.422 --    93 N    2.332    10 C    0.562     9 C    0.216
    58   5 B    3.650 --    94 N    3.159    32 H    0.153
    59   5 B    2.979 --    95 N    0.770    22 C    0.671    72 B    0.393
                            23 C    0.256    83 B    0.173    25 C    0.166
                            24 C    0.131    85 B    0.104
    60   5 B    3.631 --    96 N    3.060    74 B    0.256    19 C    0.121
    61   5 B    3.600 --    97 N    2.484    26 C    0.542    49 H    0.249
    62   5 B    3.599 --    98 N    2.742    21 C    0.385    43 H    0.127
                            20 C    0.104    64 B    0.102
    63   5 B    3.633 --    99 N    3.373
    64   5 B    3.660 --   100 N    3.455    62 B    0.102
    65   5 B    3.640 --   101 N    3.408
    66   5 B    3.658 --   102 N    3.501    70 B    0.128
    67   5 B    3.691 --   103 N    3.474    53 B    0.171
    68   5 B    3.581 --   104 N    3.224     1 N    0.159
    69   5 B    3.660 --   105 N    3.384    54 B    0.174
    70   5 B    3.621 --   106 N    3.389    66 B    0.128
    71   5 B    3.721 --   107 N    3.178    55 B    0.351
    72   5 B    3.662 --   108 N    3.125    59 B    0.393
    73   5 B    3.347 --   109 N    1.597    13 N    0.517    14 C    0.471
                            28 C    0.235    15 N    0.166
    74   5 B    3.331 --   110 N    1.818    19 C    0.356    17 C    0.294
                            60 B    0.256    18 C    0.175    41 H    0.168
                            16 C    0.115
    75   5 B    3.485 --   111 N    2.936    53 B    0.136     9 C    0.126
    76   5 B    3.513 --   112 N    2.973    53 B    0.145    52 B    0.138
    77   5 B    3.458 --   113 N    2.759    54 B    0.159    51 B    0.120
    78   5 B    3.472 --   114 N    2.898    50 H    0.146    54 B    0.132
    79   5 B    2.863 --   115 N    0.824     5 C    0.722     6 C    0.210
                             7 C    0.205     4 C    0.161     9 C    0.123
    80   5 B    3.344 --   116 N    2.814    56 B    0.103
    81   5 B    3.517 --   117 N    2.775    55 B    0.256   107 N    0.111
    82   5 B    3.476 --   118 N    2.306    12 C    0.791    38 H    0.126
    83   5 B    3.326 --   119 N    1.960    26 C    0.325    22 C    0.231
                            59 B    0.173
    84   5 B    3.439 --   120 N    2.906    27 C    0.326
    85   5 B    3.566 --   121 N    2.608    21 C    0.383    43 H    0.183
                            59 B    0.104
    86   5 B    3.437 --   122 N    2.903    20 C    0.323
    87   7 N    3.407 --    51 B    2.351     9 C    0.261    36 H    0.228
                           113 N    0.151
    88   7 N    3.694 --    52 B    3.236   114 N    0.122
    89   7 N    3.709 --    53 B    3.167   112 N    0.134   111 N    0.112
    90   7 N    3.644 --    54 B    3.067   113 N    0.137   114 N    0.107
    91   7 N    3.531 --    55 B    1.541     5 C    1.060     4 C    0.218
                            34 H    0.210     6 C    0.136
    92   7 N    3.386 --    56 B    2.277    12 C    0.635    11 C    0.147
    93   7 N    3.268 --    57 B    2.332     9 C    0.313
    94   7 N    3.599 --    58 B    3.159     2 C    0.131
    95   7 N    3.909 --    23 C    2.652    59 B    0.770    25 C    0.175
    96   7 N    3.541 --    60 B    3.060    19 C    0.128
    97   7 N    3.616 --    61 B    2.484    26 C    0.447    27 C    0.137
    98   7 N    3.638 --    62 B    2.742    21 C    0.331    20 C    0.112
    99   7 N    3.533 --    63 B    3.373
   100   7 N    3.620 --    64 B    3.455
   101   7 N    3.580 --    65 B    3.408     1 N    0.109
   102   7 N    3.625 --    66 B    3.501   106 N    0.107
   103   7 N    3.624 --    67 B    3.474
   104   7 N    3.431 --    68 B    3.224     1 N    0.118
   105   7 N    3.557 --    69 B    3.384
   106   7 N    3.578 --    70 B    3.389   102 N    0.107
   107   7 N    3.505 --    71 B    3.178    81 B    0.111
   108   7 N    3.334 --    72 B    3.125
   109   7 N    3.574 --    73 B    1.597    14 C    0.821    13 N    0.570
                            15 N    0.194    28 C    0.178
   110   7 N    3.550 --    74 B    1.818    17 C    0.865    41 H    0.524
                            18 C    0.122    19 C    0.102
   111   7 N    3.379 --    75 B    2.936    89 N    0.112
   112   7 N    3.386 --    76 B    2.973    89 N    0.134
   113   7 N    3.353 --    77 B    2.759    87 N    0.151    90 N    0.137
   114   7 N    3.373 --    78 B    2.898    88 N    0.122    90 N    0.107
   115   7 N    3.869 --     6 C    2.403    79 B    0.824     5 C    0.218
                             7 C    0.213
   116   7 N    3.254 --    80 B    2.814
   117   7 N    3.281 --    81 B    2.775    34 H    0.118
   118   7 N    2.969 --    82 B    2.306    38 H    0.336
   119   7 N    3.181 --    83 B    1.960    44 H    0.376    23 C    0.373
   120   7 N    3.266 --    84 B    2.906
   121   7 N    3.367 --    85 B    2.608    46 H    0.153    21 C    0.130
                            24 C    0.124
   122   7 N    3.274 --    86 B    2.903
 ---------------------------------------------------------------------------

Topologies differ in total number of bonds
Writing topology from bond orders to xtbtopo.mol

molecular dipole:
                 x           y           z       tot (Debye)
 q only:       -2.513      -0.664      -3.167
   full:       -1.812      -1.680      -2.435       8.818
molecular quadrupole (traceless):
                xx          xy          yy          xz          yz          zz
 q only:       29.293     -34.067      -5.700     -57.013     -18.329     -23.593
  q+dip:       78.281     -41.019     -25.475     -76.031      -8.581     -52.805
   full:       69.090     -40.399     -13.316     -73.071      -8.208     -55.773


           -------------------------------------------------
          | TOTAL ENERGY               22.886575685657 Eh   |
          | GRADIENT NORM             188.332147369904 Eh/α |
          | HOMO-LUMO GAP               0.081268020350 eV   |
           -------------------------------------------------

------------------------------------------------------------------------
 * finished run on 2026/08/31 at 18:35:27.298     
------------------------------------------------------------------------
 total:
 * wall-time:     0 d,  0 h,  0 min,  1.080 sec
 *  cpu-time:     0 d,  0 h,  0 min, 12.578 sec
 * ratio c/w:    11.646 speedup
 SCF:
 * wall-time:     0 d,  0 h,  0 min,  1.022 sec
 *  cpu-time:     0 d,  0 h,  0 min, 12.031 sec
 * ratio c/w:    11.772 speedup

normal termination of xtb
