122
Drug@B36N36 complex
N      1.067904      2.255214     -1.696994
C      1.456761      0.838827     -1.697305
C      1.449998      0.180875     -0.292115
C      2.429762      0.707440      0.756015
C      3.550210      1.488423      0.429574
C      4.419425      1.947378      1.424481
C      4.177912      1.631586      2.758344
Cl      5.250548      2.196157      3.979668
C      3.072968      0.862857      3.109181
C      2.204422      0.406446      2.115002
C      1.720385     -1.309943     -0.394481
C      2.953816     -1.907534     -0.628115
N      2.790749     -3.263763     -0.630248
C      1.476027     -3.573515     -0.442599
N      1.012765     -4.835954     -0.411821
C     -0.319600     -4.908446     -0.224822
C     -1.169990     -3.824620     -0.082906
C     -0.643774     -2.524303     -0.126194
C     -1.518242     -1.362605     -0.009120
C     -2.009884     -0.718434     -1.149666
C     -2.835476      0.407068     -1.037288
C     -3.209009      0.930608      0.212360
C     -4.093171      2.152517      0.382551
C     -5.218716      2.448707     -0.578600
C     -3.997656      3.323526     -0.565578
C     -2.718495      0.259569      1.346606
C     -1.893548     -0.867157      1.243355
C      0.756769     -2.386550     -0.305541
H      0.160046      2.353698     -1.240773
H      0.942593      2.569588     -2.657884
H      0.754007      0.300523     -2.345519
H      2.440945      0.744487     -2.170651
H      0.455442      0.352896      0.128337
H      3.759921      1.760278     -0.601777
H      5.278043      2.553237      1.148604
H      2.880674      0.614002      4.148791
H      1.345173     -0.197148      2.402243
H      3.936191     -1.474392     -0.766604
H      3.513802     -3.956689     -0.754970
H     -0.716819     -5.920361     -0.193960
H     -2.234752     -3.987075      0.053600
H     -1.746885     -1.086231     -2.139658
H     -3.189997      0.877811     -1.951317
H     -4.300242      2.424198      1.418408
H     -6.137477      2.853002     -0.167471
H     -5.376869      1.798405     -1.430339
H     -4.090442      4.319219     -0.145332
H     -3.320679      3.272140     -1.409557
H     -2.980512      0.621610      2.339314
H     -1.535022     -1.347574      2.151472
B      2.101200      0.000000      3.345000
B     -2.101200      0.000000      3.345000
B      0.000000      2.101200      3.345000
B      0.000000     -2.101200      3.345000
B      3.345000      2.101200      0.000000
B      3.345000     -2.101200      0.000000
B      3.345000      0.000000      2.101200
B      3.345000      0.000000     -2.101200
B     -3.345000      2.101200      0.000000
B     -3.345000     -2.101200      0.000000
B     -3.345000      0.000000      2.101200
B     -3.345000      0.000000     -2.101200
B      2.101200      0.000000     -3.345000
B     -2.101200      0.000000     -3.345000
B      0.000000      2.101200     -3.345000
B      0.000000     -2.101200     -3.345000
B      0.000000      3.345000      2.101200
B      0.000000      3.345000     -2.101200
B      0.000000     -3.345000      2.101200
B      0.000000     -3.345000     -2.101200
B      2.101200      3.345000      0.000000
B     -2.101200      3.345000      0.000000
B      2.101200     -3.345000      0.000000
B     -2.101200     -3.345000      0.000000
B      1.480000      1.480000      3.580000
B     -1.480000      1.480000      3.580000
B      1.480000     -1.480000      3.580000
B     -1.480000     -1.480000      3.580000
B      3.580000      1.480000      1.480000
B      3.580000     -1.480000      1.480000
B      3.580000      1.480000     -1.480000
B      3.580000     -1.480000     -1.480000
B     -3.580000      1.480000      1.480000
B     -3.580000     -1.480000      1.480000
B     -3.580000      1.480000     -1.480000
B     -3.580000     -1.480000     -1.480000
N      2.101200      0.000000      3.920000
N     -2.101200      0.000000      3.920000
N      0.000000      2.101200      3.920000
N      0.000000     -2.101200      3.920000
N      3.920000      2.101200      0.000000
N      3.920000     -2.101200      0.000000
N      3.920000      0.000000      2.101200
N      3.920000      0.000000     -2.101200
N     -3.920000      2.101200      0.000000
N     -3.920000     -2.101200      0.000000
N     -3.920000      0.000000      2.101200
N     -3.920000      0.000000     -2.101200
N      2.101200      0.000000     -3.920000
N     -2.101200      0.000000     -3.920000
N      0.000000      2.101200     -3.920000
N      0.000000     -2.101200     -3.920000
N      0.000000      3.920000      2.101200
N      0.000000      3.920000     -2.101200
N      0.000000     -3.920000      2.101200
N      0.000000     -3.920000     -2.101200
N      2.101200      3.920000      0.000000
N     -2.101200      3.920000      0.000000
N      2.101200     -3.920000      0.000000
N     -2.101200     -3.920000      0.000000
N      1.480000      1.480000      4.220000
N     -1.480000      1.480000      4.220000
N      1.480000     -1.480000      4.220000
N     -1.480000     -1.480000      4.220000
N      4.220000      1.480000      1.480000
N      4.220000     -1.480000      1.480000
N      4.220000      1.480000     -1.480000
N      4.220000     -1.480000     -1.480000
N     -4.220000      1.480000      1.480000
N     -4.220000     -1.480000      1.480000
N     -4.220000      1.480000     -1.480000
N     -4.220000     -1.480000     -1.480000
