50
Ipatasertib - ETKDG+MMFF conformer
N     -0.683995     -1.693133     -2.787662
C     -2.049363     -1.213502     -2.568549
C     -2.432027     -0.795286     -1.118947
C     -1.925049      0.508923     -0.532636
C     -1.076773      1.362220     -1.257534
C     -0.726612      2.623568     -0.764942
C     -1.214970      3.046794      0.466553
Cl     -0.753303      4.583171      1.087829
C     -2.063465      2.227347      1.203545
C     -2.422850      0.972773      0.702367
C     -2.307278     -1.933013     -0.117489
C     -3.407622     -2.749227      0.140884
N     -3.034073     -3.748683      0.981992
C     -1.714828     -3.623305      1.286269
N     -1.090057     -4.513425      2.076992
C      0.202969     -4.230464      2.284804
C      0.857173     -3.129290      1.772400
C      0.167266     -2.207696      0.954715
C      0.898980     -1.014425      0.535538
C      0.999170      0.084096      1.404612
C      1.815575      1.181419      1.102367
C      2.546157      1.201156     -0.083340
O      3.361312      2.211643     -0.510376
C      3.379534      3.407740      0.277173
C      4.257330      4.462143     -0.377968
F      5.535978      4.044418     -0.507314
F      3.802444      4.806509     -1.602948
F      4.278321      5.589179      0.374416
C      2.472756      0.105111     -0.943800
C      1.668771     -0.996712     -0.632170
C     -1.201655     -2.475384      0.663922
H     -0.504623     -2.464059     -2.142705
H     -0.610181     -2.084514     -3.725396
H     -2.238116     -0.380053     -3.255118
H     -2.724265     -2.022453     -2.877685
H     -3.514142     -0.596339     -1.212433
H     -0.663732      1.055935     -2.216391
H     -0.059918      3.255692     -1.344784
H     -2.454096      2.555644      2.162395
H     -3.107274      0.355901      1.282404
H     -4.422057     -2.703578     -0.234523
H     -3.613955     -4.498523      1.328946
H      0.731568     -4.938396      2.917768
H      1.903374     -2.968416      2.019191
H      0.438866      0.085897      2.337996
H      1.843290      1.999227      1.813848
H      2.364975      3.811335      0.368806
H      3.782014      3.187857      1.272647
H      3.047648      0.101472     -1.866559
H      1.660808     -1.847296     -1.308430
