      -----------------------------------------------------------      
     |                   =====================                   |     
     |                           x T B                           |     
     |                   =====================                   |     
     |                         S. Grimme                         |     
     |          Mulliken Center for Theoretical Chemistry        |     
     |                    University of Bonn                     |     
      -----------------------------------------------------------      

   * xtb version 6.7.1pre (5071a88) compiled by 'Marcel@Raven' on 2024-07-23

   xtb is free software: you can redistribute it and/or modify it under
   the terms of the GNU Lesser General Public License as published by
   the Free Software Foundation, either version 3 of the License, or
   (at your option) any later version.
   
   xtb is distributed in the hope that it will be useful,
   but WITHOUT ANY WARRANTY; without even the implied warranty of
   MERCHANTABILITY or FITNESS FOR A PARTICULAR PURPOSE.  See the
   GNU Lesser General Public License for more details.
   
   Cite this work as:
   * C. Bannwarth, E. Caldeweyher, S. Ehlert, A. Hansen, P. Pracht,
     J. Seibert, S. Spicher, S. Grimme, WIREs Comput. Mol. Sci., 2020, 11,
     e01493. DOI: 10.1002/wcms.1493
   
   for GFN2-xTB:
   * C. Bannwarth, S. Ehlert and S. Grimme., J. Chem. Theory Comput., 2019,
     15, 1652-1671. DOI: 10.1021/acs.jctc.8b01176
   for GFN1-xTB:
   * S. Grimme, C. Bannwarth, P. Shushkov, J. Chem. Theory Comput., 2017,
     13, 1989-2009. DOI: 10.1021/acs.jctc.7b00118
   for GFN0-xTB:
   * P. Pracht, E. Caldeweyher, S. Ehlert, S. Grimme, ChemRxiv, 2019, preprint.
     DOI: 10.26434/chemrxiv.8326202.v1
   for GFN-FF:
   * S. Spicher and S. Grimme, Angew. Chem. Int. Ed., 2020, 59, 15665-15673.
     DOI: 10.1002/anie.202004239
   
   for ALPB and GBSA implicit solvation:
   * S. Ehlert, M. Stahn, S. Spicher, S. Grimme, J. Chem. Theory Comput.,
     2021, 17, 4250-4261. DOI: 10.1021/acs.jctc.1c00471
   
   for ddCOSMO and CPCM-X implicit solvation:
   * M. Stahn, S. Ehlert, S. Grimme, J. Phys. Chem. A,
     2023, XX, XXXX-XXXX. DOI: 10.1021/acs.jpca.3c04382
   
   for DFT-D4:
   * E. Caldeweyher, C. Bannwarth and S. Grimme, J. Chem. Phys., 2017,
     147, 034112. DOI: 10.1063/1.4993215
   * E. Caldeweyher, S. Ehlert, A. Hansen, H. Neugebauer, S. Spicher,
     C. Bannwarth and S. Grimme, J. Chem. Phys., 2019, 150, 154122.
     DOI: 10.1063/1.5090222
   * E. Caldeweyher, J.-M. Mewes, S. Ehlert and S. Grimme, Phys. Chem. Chem. Phys.
     2020, 22, 8499-8512. DOI: 10.1039/D0CP00502A
   
   for sTDA-xTB:
   * S. Grimme and C. Bannwarth, J. Chem. Phys., 2016, 145, 054103.
     DOI: 10.1063/1.4959605
   
   in the mass-spec context:
   * V. Asgeirsson, C. Bauer and S. Grimme, Chem. Sci., 2017, 8, 4879.
     DOI: 10.1039/c7sc00601b
   * J. Koopman and S. Grimme, ACS Omega 2019, 4, 12, 15120-15133.
     DOI: 10.1021/acsomega.9b02011
   
   for metadynamics refer to:
   * S. Grimme, J. Chem. Theory Comput., 2019, 155, 2847-2862
     DOI: 10.1021/acs.jctc.9b00143
   
   for SPH calculations refer to:
   * S. Spicher and S. Grimme, J. Chem. Theory Comput., 2021, 17, 1701-1714
     DOI: 10.1021/acs.jctc.0c01306
   
   for ONIOM refer to:
   * C. Plett, A. Katbashev, S. Ehlert, S. Grimme, M. Bursch,
     Phys. Chem. Chem. Phys., 2023, 25, 17860-17868. DOI: 10.1039/D3CP02178E
   
   for DIPRO refer to:
   * J. Kohn, N. Gildemeister, S. Grimme, D. Fazzi, A. Hansen,
     J. Chem. Phys., 2023, just accepted.
   
   for PTB refer to:
   * S. Grimme, M. Mueller, A. Hansen, J. Chem. Phys., 2023, 158, 124111.
     DOI: 10.1063/5.0137838
   
   with help from (in alphabetical order)
   P. Atkinson, C. Bannwarth, F. Bohle, G. Brandenburg, E. Caldeweyher
   M. Checinski, S. Dohm, S. Ehlert, S. Ehrlich, I. Gerasimov, C. Hölzer
   A. Katbashev, J. Kohn, J. Koopman, C. Lavigne, S. Lehtola, F. März, M. Müller,
   F. Musil, H. Neugebauer, J. Pisarek, C. Plett, P. Pracht, F. Pultar,
   J. Seibert, P. Shushkov, S. Spicher, M. Stahn, M. Steiner, T. Strunk,
   J. Stückrath, T. Rose, and J. Unsleber
   
 * started run on 2026/08/31 at 22:22:10.825     
   ID    Z sym.   atoms
    1    7 N      1, 13, 15, 52, 54, 56, 58, 60, 62, 64, 66, 68, 70, 72, 74,
                  76, 78, 80, 82, 84, 86, 88, 90, 92, 94, 96, 98, 100, 102,
                  104, 106, 108, 110, 112, 114, 116, 118, 120, 122
    2    6 C      2-7, 9-12, 14, 16-22, 24, 25, 29-31
    3   17 Cl     8
    4    8 O      23
    5    9 F      26-28
    6    1 H      32-50
    7    5 B      51, 53, 55, 57, 59, 61, 63, 65, 67, 69, 71, 73, 75, 77, 79,
                  81, 83, 85, 87, 89, 91, 93, 95, 97, 99, 101, 103, 105, 107,
                  109, 111, 113, 115, 117, 119, 121

           -------------------------------------------------
          |                Calculation Setup                |
           -------------------------------------------------

          program call               : "c:\Users\Andre\Proyectos doctorado\kras-pancreatic-gC3N4-ai\tools\xtb\xtb-6.7.1\bin\xtb.exe" "c:\Users\Andre\Proyectos doctorado\nano-qsar-ai-therapeutics\calculations\tnbc\Ipatasertib\Ipatasertib_B36N36_clean_complex.xyz" --gfn 2 --sp --chrg 0 --uhf 0 --etemp 300 --iterations 500 --norestart
          coordinate file            : c:\Users\Andre\Proyectos doctorado\nano-qsar-ai-therapeutics\calculations\tnbc\Ipatasertib\Ipatasertib_B36N36_clean_complex.xyz
          omp threads                :                    16


molecular fragmentation (1/2 indicates fragments):
111111111111111111111111111111111111111111111111112222222222222222222222
22222222222222222222222222222222222222222222222222
# atoms in fragment 1/2:    50    72
 fragment masses (1/2) :      445.87      893.44
CMA distance (Bohr)    :  21.622
constraining FC (au)   :  0.0500

           -------------------------------------------------
          |                 G F N 2 - x T B                 |
           -------------------------------------------------

        Reference                      10.1021/acs.jctc.8b01176
      * Hamiltonian:
        H0-scaling (s, p, d)           1.850000    2.230000    2.230000
        zeta-weighting                 0.500000
      * Dispersion:
        s8                             2.700000
        a1                             0.520000
        a2                             5.000000
        s9                             5.000000
      * Repulsion:
        kExp                           1.500000    1.000000
        rExp                           1.000000
      * Coulomb:
        alpha                          2.000000
        third order                    shell-resolved
        anisotropic                    true
        a3                             3.000000
        a5                             4.000000
        cn-shift                       1.200000
        cn-exp                         4.000000
        max-rad                        5.000000


          ...................................................
          :                      SETUP                      :
          :.................................................:
          :  # basis functions                 437          :
          :  # atomic orbitals                 436          :
          :  # shells                          226          :
          :  # electrons                       448          :
          :  max. iterations                   500          :
          :  Hamiltonian                  GFN2-xTB          :
          :  restarted?                      false          :
          :  GBSA solvation                  false          :
          :  PC potential                    false          :
          :  electronic temp.          300.0000000     K    :
          :  accuracy                    1.0000000          :
          :  -> integral cutoff          0.2500000E+02      :
          :  -> integral neglect         0.1000000E-07      :
          :  -> SCF convergence          0.1000000E-05 Eh   :
          :  -> wf. convergence          0.1000000E-03 e    :
          :  Broyden damping             0.4000000          :
          :  net charge                          0          :
          :  unpaired electrons                  0          :
          ...................................................

 iter      E             dE          RMSdq      gap      omega  full diag
   1   -242.2350181 -0.242235E+03  0.110E+01    0.61       0.0  T
   2   -242.7234291 -0.488411E+00  0.672E+00    0.42       1.0  T
   3   -239.7536210  0.296981E+01  0.433E+00    0.15       1.0  T
   4   -242.8697680 -0.311615E+01  0.133E+00    0.20       1.0  T
   5   -243.0318697 -0.162102E+00  0.963E-01    0.27       1.0  T
   6   -243.2014705 -0.169601E+00  0.605E-01    0.58       1.0  T
   7   -243.2236672 -0.221968E-01  0.440E-01    0.81       1.0  T
   8   -243.2192616  0.440564E-02  0.368E-01    0.73       1.0  T
   9   -243.2203108 -0.104917E-02  0.218E-01    0.76       1.0  T
  10   -243.2288316 -0.852083E-02  0.738E-02    0.73       1.0  T
  11   -243.2297524 -0.920792E-03  0.352E-02    0.73       1.0  T
  12   -243.2297937 -0.413654E-04  0.272E-02    0.72       1.0  T
  13   -243.2297902  0.358779E-05  0.158E-02    0.72       1.0  T
  14   -243.2298132 -0.230285E-04  0.557E-03    0.71       1.6  T
  15   -243.2298171 -0.395816E-05  0.365E-03    0.71       2.5  T
  16   -243.2298177 -0.536527E-06  0.288E-03    0.71       3.1  T
  17   -243.2298177 -0.644082E-07  0.179E-03    0.71       5.1  T
  18   -243.2298180 -0.246875E-06  0.145E-03    0.71       6.2  T
  19   -243.2298181 -0.865931E-07  0.117E-03    0.71       7.7  T
  20   -243.2298181 -0.492726E-07  0.577E-04    0.71      15.7  T
  21   -243.2298181 -0.193706E-07  0.199E-04    0.71      45.4  T

   *** convergence criteria satisfied after 21 iterations ***

         #    Occupation            Energy/Eh            Energy/eV
      -------------------------------------------------------------
         1        2.0000           -1.0514089             -28.6103
       ...           ...                  ...                  ...
       218        2.0000           -0.3287850              -8.9467
       219        2.0000           -0.3261007              -8.8737
       220        2.0000           -0.3249409              -8.8421
       221        2.0000           -0.3223492              -8.7716
       222        2.0000           -0.3168219              -8.6212
       223        2.0000           -0.3148487              -8.5675
       224        2.0000           -0.3107432              -8.4558 (HOMO)
       225        0.0000           -0.2846334              -7.7453 (LUMO)
       226                         -0.2761981              -7.5157
       227                         -0.2659167              -7.2360
       228                         -0.2575170              -7.0074
       229                         -0.2527604              -6.8780
       ...                                ...                  ...
       436                          0.9824643              26.7342
      -------------------------------------------------------------
                  HL-Gap            0.0261098 Eh            0.7105 eV
             Fermi-level           -0.2976813 Eh           -8.1003 eV

 SCC (total)                   0 d,  0 h,  0 min,  1.272 sec
 SCC setup                      ...        0 min,  0.002 sec (  0.157%)
 Dispersion                     ...        0 min,  0.009 sec (  0.708%)
 classical contributions        ...        0 min,  0.003 sec (  0.236%)
 integral evaluation            ...        0 min,  0.018 sec (  1.415%)
 iterations                     ...        0 min,  1.192 sec ( 93.711%)
 molecular gradient             ...        0 min,  0.045 sec (  3.538%)
 printout                       ...        0 min,  0.003 sec (  0.236%)

         :::::::::::::::::::::::::::::::::::::::::::::::::::::
         ::                     SUMMARY                     ::
         :::::::::::::::::::::::::::::::::::::::::::::::::::::
         :: total energy            -240.734846779309 Eh    ::
         :: gradient norm              0.093105683762 Eh/a0 ::
         :: HOMO-LUMO gap              0.710483386993 eV    ::
         ::.................................................::
         :: SCC energy              -243.213379765475 Eh    ::
         :: -> isotropic ES            0.715596642679 Eh    ::
         :: -> anisotropic ES         -0.023139557264 Eh    ::
         :: -> anisotropic XC          0.085661342007 Eh    ::
         :: -> dispersion             -0.212405335989 Eh    ::
         :: repulsion energy           2.478532986166 Eh    ::
         :: add. restraining           0.000000000000 Eh    ::
         :: total charge               0.000000000001 e     ::
         :::::::::::::::::::::::::::::::::::::::::::::::::::::

           -------------------------------------------------
          |                Property Printout                |
           -------------------------------------------------

    * Orbital Energies and Occupations

         #    Occupation            Energy/Eh            Energy/eV
      -------------------------------------------------------------
         1        2.0000           -1.0514089             -28.6103
       ...           ...                  ...                  ...
       212        2.0000           -0.3417116              -9.2984
       213        2.0000           -0.3400831              -9.2541
       214        2.0000           -0.3364312              -9.1548
       215        2.0000           -0.3339976              -9.0885
       216        2.0000           -0.3315530              -9.0220
       217        2.0000           -0.3306174              -8.9966
       218        2.0000           -0.3287850              -8.9467
       219        2.0000           -0.3261007              -8.8737
       220        2.0000           -0.3249409              -8.8421
       221        2.0000           -0.3223492              -8.7716
       222        2.0000           -0.3168219              -8.6212
       223        2.0000           -0.3148487              -8.5675
       224        2.0000           -0.3107432              -8.4558 (HOMO)
       225        0.0000           -0.2846334              -7.7453 (LUMO)
       226                         -0.2761981              -7.5157
       227                         -0.2659167              -7.2360
       228                         -0.2575170              -7.0074
       229                         -0.2527604              -6.8780
       230                         -0.2467494              -6.7144
       231                         -0.2361464              -6.4259
       232                         -0.2326717              -6.3313
       233                         -0.2323505              -6.3226
       234                         -0.2305520              -6.2736
       235                         -0.2294773              -6.2444
       ...                                ...                  ...
       436                          0.9824643              26.7342
      -------------------------------------------------------------
                  HL-Gap            0.0261098 Eh            0.7105 eV
             Fermi-level           -0.2976813 Eh           -8.1003 eV

     #   Z          covCN         q      C6AA      α(0)
     1   7 N        2.626    -0.346    28.924     7.987
     2   6 C        3.727     0.021    20.325     6.437
     3   6 C        3.852    -0.026    20.995     6.517
     4   6 C        2.958     0.017    27.635     8.622
     5   6 C        2.915    -0.038    28.946     8.822
     6   6 C        2.947    -0.044    29.098     8.847
     7   6 C        2.880     0.092    25.946     8.351
     8  17 Cl       0.966    -0.192   105.185    15.690
     9   6 C        2.946    -0.043    29.070     8.843
    10   6 C        2.916    -0.038    28.934     8.821
    11   6 C        3.058    -0.029    28.673     8.781
    12   6 C        3.000    -0.010    28.257     8.720
    13   7 N        2.775    -0.104    23.285     7.167
    14   6 C        3.103     0.128    25.070     8.204
    15   7 N        1.832    -0.270    27.864     7.822
    16   6 C        2.922     0.055    26.777     8.486
    17   6 C        2.911    -0.058    29.431     8.896
    18   6 C        2.983     0.025    27.438     8.592
    19   6 C        2.968     0.008    27.827     8.653
    20   6 C        2.919    -0.034    28.843     8.807
    21   6 C        2.910    -0.068    29.692     8.935
    22   6 C        2.857     0.143    24.885     8.176
    23   8 O        1.703    -0.266    18.410     5.793
    24   6 C        3.694     0.062    19.711     6.352
    25   6 C        3.326     0.480    17.493     6.645
    26   9 F        0.788    -0.190    11.128     3.940
    27   9 F        0.788    -0.188    11.113     3.938
    28   9 F        0.788    -0.202    11.257     3.963
    29   6 C        2.914    -0.050    29.245     8.868
    30   6 C        2.917    -0.029    28.725     8.789
    31   6 C        3.061    -0.029    28.668     8.780
    32   1 H        0.860     0.138     1.488     1.911
    33   1 H        0.860     0.144     1.441     1.881
    34   1 H        0.924     0.044     2.401     2.423
    35   1 H        0.923     0.009     2.905     2.666
    36   1 H        0.923     0.051     2.308     2.376
    37   1 H        0.925     0.070     2.087     2.259
    38   1 H        0.925     0.053     2.286     2.364
    39   1 H        0.925     0.051     2.313     2.378
    40   1 H        0.925     0.040     2.451     2.448
    41   1 H        0.925     0.039     2.469     2.457
    42   1 H        0.860     0.176     1.237     1.742
    43   1 H        0.925     0.035     2.512     2.478
    44   1 H        0.925     0.033     2.547     2.496
    45   1 H        0.925     0.036     2.509     2.477
    46   1 H        0.925     0.034     2.530     2.488
    47   1 H        0.924     0.082     1.959     2.189
    48   1 H        0.924     0.075     2.032     2.229
    49   1 H        0.925     0.062     2.171     2.304
    50   1 H        0.925     0.053     2.279     2.361
    51   5 B        2.781     0.076    20.191     7.513
    52   7 N        2.774    -0.227    25.950     7.566
    53   5 B        2.788     0.092    19.927     7.462
    54   7 N        2.524    -0.314    28.118     7.875
    55   5 B        2.779     0.082    20.103     7.497
    56   7 N        2.655    -0.272    27.031     7.722
    57   5 B        2.849     0.241    17.663     7.018
    58   7 N        2.529    -0.272    27.077     7.728
    59   5 B        3.195     0.150    18.927     7.256
    60   7 N        2.979    -0.110    23.396     7.184
    61   5 B        2.644     0.373    16.320     6.813
    62   7 N        2.669    -0.212    25.628     7.519
    63   5 B        3.181     0.022    20.988     7.641
    64   7 N        2.888    -0.221    25.821     7.547
    65   5 B        3.009     0.209    18.071     7.091
    66   7 N        2.660    -0.163    24.524     7.355
    67   5 B        2.906     0.320    16.605     6.800
    68   7 N        3.156    -0.082    22.831     7.097
    69   5 B        2.779     0.094    19.909     7.461
    70   7 N        3.037    -0.125    23.703     7.231
    71   5 B        2.758     0.090    20.009     7.484
    72   7 N        2.634    -0.310    27.979     7.856
    73   5 B        3.040     0.227    17.821     7.041
    74   7 N        2.981    -0.002    21.290     6.853
    75   5 B        2.582     0.325    17.309     7.088
    76   7 N        2.596    -0.359    29.274     8.035
    77   5 B        3.287     0.340    16.339     6.741
    78   7 N        2.784    -0.252    26.536     7.651
    79   5 B        2.559     0.320    17.603     7.186
    80   7 N        2.579    -0.369    29.531     8.071
    81   5 B        2.530     0.301    18.227     7.377
    82   7 N        2.665    -0.205    25.462     7.494
    83   5 B        2.698     0.196    18.498     7.218
    84   7 N        2.844    -0.167    24.609     7.368
    85   5 B        2.758     0.082    20.131     7.507
    86   7 N        2.672    -0.174    24.761     7.390
    87   5 B        2.877     0.111    19.571     7.384
    88   7 N        2.663    -0.145    24.146     7.298
    89   5 B        2.594     0.312    17.390     7.086
    90   7 N        2.519    -0.354    29.166     8.020
    91   5 B        2.684     0.184    18.719     7.268
    92   7 N        3.008    -0.129    23.780     7.243
    93   5 B        2.677     0.210    18.356     7.201
    94   7 N        2.716    -0.249    26.488     7.644
    95   5 B        2.647     0.164    19.164     7.380
    96   7 N        2.825    -0.206    25.481     7.497
    97   5 B        3.321     0.230    17.776     7.031
    98   7 N        2.531    -0.285    27.400     7.774
    99   5 B        2.950     0.036    20.769     7.603
   100   7 N        2.783    -0.185    25.012     7.428
   101   5 B        2.796     0.085    20.036     7.481
   102   7 N        2.673    -0.156    24.367     7.331
   103   5 B        3.021     0.211    18.049     7.087
   104   7 N        3.272     0.015    20.979     6.803
   105   5 B        2.869     0.306    16.797     6.842
   106   7 N        3.154    -0.117    23.543     7.206
   107   5 B        3.263     0.320    16.583     6.791
   108   7 N        2.833    -0.061    22.415     7.032
   109   5 B        3.303     0.231    17.761     7.028
   110   7 N        2.656    -0.182    24.940     7.417
   111   5 B        2.838     0.112    19.567     7.387
   112   7 N        2.834    -0.224    25.892     7.557
   113   5 B        2.863     0.253    17.502     6.984
   114   7 N        2.654    -0.232    26.074     7.584
   115   5 B        3.011     0.114    19.487     7.364
   116   7 N        3.153    -0.086    22.911     7.109
   117   5 B        2.674     0.201    18.505     7.233
   118   7 N        2.696    -0.234    26.132     7.592
   119   5 B        2.585     0.369    16.719     6.961
   120   7 N        2.881    -0.180    24.878     7.408
   121   5 B        2.825     0.107    19.665     7.407
   122   7 N        2.827    -0.252    26.552     7.653

 Mol. C6AA /au·bohr⁶  :     271384.297865
 Mol. C8AA /au·bohr⁸  :    7585363.074159
 Mol. α(0) /au        :        820.023367


Wiberg/Mayer (AO) data.
largest (>0.10) Wiberg bond orders for each atom

 ---------------------------------------------------------------------------
     #   Z sym  total        # sym  WBO       # sym  WBO       # sym  WBO
 ---------------------------------------------------------------------------
     1   7 N    2.990 --     2 C    1.021    33 H    0.965    32 H    0.964
     2   6 C    3.986 --     1 N    1.021     3 C    0.976    35 H    0.973
                            34 H    0.972
     3   6 C    3.991 --     4 C    0.995    11 C    0.990     2 C    0.976
                            36 H    0.943
     4   6 C    3.985 --     5 C    1.412    10 C    1.399     3 C    0.995
     5   6 C    3.986 --     6 C    1.437     4 C    1.412    37 H    0.964
                             9 C    0.107
     6   6 C    3.988 --     5 C    1.437     7 C    1.408    38 H    0.968
                            10 C    0.109
     7   6 C    3.910 --     6 C    1.408     9 C    1.398     8 Cl   0.965
     8  17 Cl   1.097 --     7 C    0.965
     9   6 C    3.988 --    10 C    1.449     7 C    1.398    39 H    0.968
                             5 C    0.107
    10   6 C    3.989 --     9 C    1.449     4 C    1.399    40 H    0.969
                             6 C    0.109
    11   6 C    3.968 --    12 C    1.573    31 C    1.197     3 C    0.990
    12   6 C    3.943 --    11 C    1.573    13 N    1.205    41 H    0.969
    13   7 N    3.559 --    12 C    1.205    14 C    1.188    42 H    0.939
    14   6 C    3.959 --    15 N    1.334    31 C    1.239    13 N    1.188
    15   7 N    3.034 --    16 C    1.445    14 C    1.334    18 C    0.112
    16   6 C    3.981 --    15 N    1.445    17 C    1.411    43 H    0.964
    17   6 C    3.986 --    18 C    1.422    16 C    1.411    44 H    0.969
    18   6 C    3.986 --    17 C    1.422    31 C    1.304    19 C    1.024
                            15 N    0.112
    19   6 C    3.988 --    20 C    1.398    30 C    1.392    18 C    1.024
    20   6 C    3.988 --    21 C    1.436    19 C    1.398    45 H    0.971
                            29 C    0.114
    21   6 C    3.985 --    20 C    1.436    22 C    1.382    46 H    0.966
                            30 C    0.105
    22   6 C    3.918 --    21 C    1.382    29 C    1.364    23 O    1.028
    23   8 O    2.199 --    22 C    1.028    24 C    0.986
    24   6 C    3.957 --    23 O    0.986    48 H    0.960    47 H    0.959
                            25 C    0.957
    25   6 C    3.847 --    27 F    0.960    26 F    0.959    24 C    0.957
                            28 F    0.947
    26   9 F    1.085 --    25 C    0.959
    27   9 F    1.086 --    25 C    0.960
    28   9 F    1.070 --    25 C    0.947
    29   6 C    3.984 --    30 C    1.454    22 C    1.364    49 H    0.966
                            20 C    0.114
    30   6 C    3.987 --    29 C    1.454    19 C    1.392    50 H    0.967
                            21 C    0.105
    31   6 C    3.977 --    18 C    1.304    14 C    1.239    11 C    1.197
    32   1 H    0.981 --     1 N    0.964
    33   1 H    0.979 --     1 N    0.965
    34   1 H    0.997 --     2 C    0.972
    35   1 H    0.999 --     2 C    0.973
    36   1 H    0.996 --     3 C    0.943
    37   1 H    0.995 --     5 C    0.964
    38   1 H    0.997 --     6 C    0.968
    39   1 H    0.997 --     9 C    0.968
    40   1 H    0.998 --    10 C    0.969
    41   1 H    0.998 --    12 C    0.969
    42   1 H    0.968 --    13 N    0.939
    43   1 H    0.997 --    16 C    0.964
    44   1 H    0.999 --    17 C    0.969
    45   1 H    0.999 --    20 C    0.971
    46   1 H    0.998 --    21 C    0.966
    47   1 H    0.993 --    24 C    0.959
    48   1 H    0.994 --    24 C    0.960
    49   1 H    0.995 --    29 C    0.966
    50   1 H    0.996 --    30 C    0.967
    51   5 B    3.477 --   120 N    1.282   103 B    1.000    97 B    0.969
    52   7 N    3.399 --    97 B    1.143   110 N    1.007   109 B    1.001
    53   5 B    3.464 --    98 N    1.276   121 B    0.978   109 B    0.958
    54   7 N    3.530 --   113 B    1.152   111 B    1.150    81 B    1.018
    55   5 B    3.464 --    88 N    1.241   117 B    0.996    91 B    0.990
    56   7 N    3.262 --    77 B    1.199   119 B    0.967   114 N    0.888
    57   5 B    3.407 --    90 N    1.176    64 N    1.034    73 B    0.963
    58   7 N    3.568 --    71 B    1.278    59 B    1.158   115 B    0.973
    59   5 B    3.393 --    58 N    1.158   101 B    0.932    99 B    0.640
                            63 B    0.294
    60   7 N    3.322 --    65 B    1.113   104 N    1.043   116 N    0.945
    61   5 B    3.433 --    62 N    1.187    72 N    1.126   100 N    0.961
    62   7 N    3.446 --    61 B    1.187    89 B    1.086   102 N    0.967
    63   5 B    3.456 --    99 B    1.284   115 B    1.004   113 B    0.626
                            59 B    0.294
    64   7 N    3.430 --    67 B    1.234    57 B    1.034    78 N    0.929
    65   5 B    3.389 --    60 N    1.113    84 N    1.039   111 B    1.005
    66   7 N    3.511 --    69 B    1.206    89 B    1.123    86 N    0.999
    67   5 B    3.514 --    64 N    1.234    92 N    1.072   112 N    1.001
    68   7 N    3.351 --   117 B    1.144   120 N    0.990    70 N    0.983
    69   5 B    3.414 --    66 N    1.206    87 B    1.008   101 B    0.926
    70   7 N    3.327 --   105 B    1.136    68 N    0.983    74 N    0.974
    71   5 B    3.465 --    58 N    1.278    85 B    0.978    95 B    0.932
    72   7 N    3.217 --    61 B    1.126    75 B    1.067   100 N    0.792
    73   5 B    3.368 --    86 N    1.151    78 N    0.992    57 B    0.963
    74   7 N    3.096 --    92 N    1.013    70 N    0.974   118 N    0.937
    75   5 B    3.511 --   112 N    1.246    72 N    1.067    90 N    0.989
    76   7 N    3.434 --    81 B    1.202   109 B    1.061    97 B    0.925
    77   5 B    3.481 --    56 N    1.199    94 N    1.042    80 N    0.981
    78   7 N    3.284 --    83 B    1.169    73 B    0.992    64 N    0.929
    79   5 B    3.524 --   114 N    1.210   118 N    1.121   106 N    1.034
    80   7 N    3.430 --    93 B    1.220   107 B    0.993    77 B    0.981
    81   5 B    3.520 --    76 N    1.202   122 N    1.098    54 N    1.018
    82   7 N    3.442 --   119 B    1.262    93 B    0.997   108 N    0.990
    83   5 B    3.445 --    78 N    1.169   110 N    1.123   121 B    0.923
    84   7 N    3.469 --    85 B    1.260    65 B    1.039   116 N    0.984
    85   5 B    3.421 --    84 N    1.260    71 B    0.978    93 B    0.959
    86   7 N    3.511 --   121 B    1.172    73 B    1.151    66 N    0.999
    87   5 B    3.347 --    99 B    1.009    69 B    1.008    98 N    0.963
    88   7 N    3.508 --    55 B    1.241    91 B    1.092    94 N    1.035
    89   5 B    3.515 --    66 N    1.123    90 N    1.104    62 N    1.086
    90   7 N    3.477 --    57 B    1.176    89 B    1.104    75 B    0.989
    91   5 B    3.464 --    96 N    1.180    88 N    1.092    55 B    0.990
    92   7 N    3.261 --    67 B    1.072    74 N    1.013   106 N    0.975
    93   5 B    3.390 --    80 N    1.220    82 N    0.997    85 B    0.959
    94   7 N    3.371 --    77 B    1.042    88 N    1.035   107 B    0.985
    95   5 B    3.453 --   108 N    1.190   102 N    1.079    71 B    0.932
    96   7 N    3.406 --    91 B    1.180   103 B    1.072   104 N    0.959
    97   5 B    3.365 --    52 N    1.143    51 B    0.969    76 N    0.925
                           109 B    0.127
    98   7 N    3.561 --    53 B    1.276   113 B    1.106    87 B    0.963
    99   5 B    3.367 --    63 B    1.284    87 B    1.009    59 B    0.640
                           113 B    0.186
   100   7 N    2.986 --   108 N    1.045    61 B    0.961    72 N    0.792
   101   5 B    3.454 --   102 N    1.265    59 B    0.932    69 B    0.926
   102   7 N    3.481 --   101 B    1.265    95 B    1.079    62 N    0.967
   103   5 B    3.442 --   122 N    1.131    96 N    1.072    51 B    1.000
   104   7 N    3.186 --    60 N    1.043    96 N    0.959   122 N    0.951
   105   5 B    3.523 --   110 N    1.164    70 N    1.136   120 N    0.994
   106   7 N    3.217 --    79 B    1.034   112 N    0.984    92 N    0.975
   107   5 B    3.507 --   116 N    1.266    80 N    0.993    94 N    0.985
   108   7 N    3.439 --    95 B    1.190   100 N    1.045    82 N    0.990
   109   5 B    3.327 --    76 N    1.061    52 N    1.001    53 B    0.958
                            97 B    0.127
   110   7 N    3.492 --   105 B    1.164    83 B    1.123    52 N    1.007
   111   5 B    3.386 --    54 N    1.150    65 B    1.005   115 B    1.002
   112   7 N    3.445 --    75 B    1.246    67 B    1.001   106 N    0.984
   113   5 B    3.444 --    54 N    1.152    98 N    1.106    63 B    0.626
                            99 B    0.186   115 B    0.120
   114   7 N    3.331 --    79 B    1.210   119 B    1.035    56 N    0.888
   115   5 B    3.334 --    63 B    1.004   111 B    1.002    58 N    0.973
                           113 B    0.120
   116   7 N    3.440 --   107 B    1.266    84 N    0.984    60 N    0.945
   117   5 B    3.448 --    68 N    1.144   118 N    1.115    55 B    0.996
   118   7 N    3.391 --    79 B    1.121   117 B    1.115    74 N    0.937
   119   5 B    3.439 --    82 N    1.262   114 N    1.035    56 N    0.967
   120   7 N    3.475 --    51 B    1.282   105 B    0.994    68 N    0.990
   121   5 B    3.359 --    86 N    1.172    53 B    0.978    83 B    0.923
   122   7 N    3.418 --   103 B    1.131    81 B    1.098   104 N    0.951
 ---------------------------------------------------------------------------

Topologies differ in total number of bonds
Writing topology from bond orders to xtbtopo.mol

molecular dipole:
                 x           y           z       tot (Debye)
 q only:        0.267       0.233      -4.353
   full:       -1.682      -0.492      -2.156       7.062
molecular quadrupole (traceless):
                xx          xy          yy          xz          yz          zz
 q only:       -3.397      -8.145      -9.560     -37.344     -67.057      12.957
  q+dip:        4.642      -4.707       1.952     -46.839     -50.130      -6.593
   full:       10.318      -6.706      -0.135     -40.842     -49.045     -10.183


           -------------------------------------------------
          | TOTAL ENERGY             -240.734846779309 Eh   |
          | GRADIENT NORM               0.093105683762 Eh/α |
          | HOMO-LUMO GAP               0.710483386993 eV   |
           -------------------------------------------------

------------------------------------------------------------------------
 * finished run on 2026/08/31 at 22:22:12.176     
------------------------------------------------------------------------
 total:
 * wall-time:     0 d,  0 h,  0 min,  1.348 sec
 *  cpu-time:     0 d,  0 h,  0 min,  9.906 sec
 * ratio c/w:     7.349 speedup
 SCF:
 * wall-time:     0 d,  0 h,  0 min,  1.274 sec
 *  cpu-time:     0 d,  0 h,  0 min,  9.391 sec
 * ratio c/w:     7.371 speedup

normal termination of xtb
