134
Drug@B36N36 non-overlapping complex
C     -6.000183      1.034806     15.231399
N     -6.624946      1.334394     13.951026
C     -8.052945      1.597070     13.983622
C     -5.999887      1.198491     12.710785
O     -6.648194      1.154350     11.667075
C     -4.548849      1.137767     12.692735
C     -3.653765      2.014519     13.296018
C     -2.341831      1.612007     12.962616
C     -1.052560      2.047128     13.231649
N      0.000922      1.378245     12.710597
C     -0.214352      0.299845     11.929895
N      0.844057     -0.404720     11.382261
C      2.219485     -0.292701     11.418838
C      2.912054      0.684615     12.115729
C      4.313478      0.713567     12.080967
C      5.037481     -0.222833     11.343865
N      6.437942     -0.252412     11.274335
C      7.198475      0.657505     12.157005
C      8.711560      0.346544     12.108075
N      9.271410      0.366900     10.742135
C      8.513533     -0.599213      9.922916
C      6.988828     -0.339214      9.899500
C      4.243353     -1.177140     10.702518
N      2.884194     -1.228540     10.712114
N     -1.427124     -0.184718     11.615948
C     -2.450579      0.500014     12.150399
N     -3.789568      0.217261     11.981993
C     -4.310504     -0.897627     11.203798
C     -3.907925     -0.879942      9.716726
C     -3.211206     -2.212960      9.462087
C     -3.810359     -3.150551     10.496702
C     -3.906706     -2.281124     11.741214
H     -5.870334      1.970930     15.781598
H     -5.037574      0.532482     15.121732
H     -6.658417      0.370732     15.800768
H     -8.263390      2.327875     14.770180
H     -8.576316      0.661514     14.201948
H     -8.415188      1.994369     13.031590
H     -3.933123      2.869929     13.898301
H     -0.825835      2.908784     13.847414
H      0.532190     -1.181192     10.821731
H      2.392005      1.439130     12.693616
H      4.805927      1.503641     12.637652
H      6.869067      0.543775     13.196962
H      7.037602      1.699483     11.851171
H      9.249050      1.082614     12.716109
H      8.903494     -0.634861     12.559665
H      9.123000      1.297757     10.352115
H      8.898554     -0.563952      8.897717
H      8.708066     -1.612594     10.296093
H      6.787051      0.600021      9.367808
H      6.530268     -1.151818      9.326462
H      4.696413     -1.994324     10.148799
H     -5.402861     -0.849218     11.243560
H     -3.274475     -0.033887      9.431723
H     -4.814074     -0.820570      9.100740
H     -3.364115     -2.569950      8.439469
H     -2.132189     -2.111660      9.626174
H     -4.809318     -3.475064     10.182320
H     -3.195373     -4.040345     10.658330
H     -4.644220     -2.670049     12.451263
H     -2.941176     -2.264864     12.258115
B      3.459180     -1.454569      1.628037
N      3.456400      1.129904      0.940040
B      2.539920      2.362499     -1.261047
N      2.293067     -0.641637     -2.730603
B      0.690534     -3.561069      2.702709
N     -2.939724     -2.654773      1.709476
B     -1.038202      4.085096      1.831238
N     -0.619347      0.017651     -3.941904
B     -0.473710      1.445324     -4.091730
N      1.209559     -3.786796     -1.739405
B     -3.844500      2.209440     -0.493722
N     -2.772864      2.763562     -1.211833
B      1.405725      0.818091     -4.889311
N     -0.235789      3.364215      2.833544
B      0.898320     -2.879798     -2.813849
N     -0.491833      3.766578     -1.010119
B     -0.805996      2.182269      3.281874
N      1.656110     -1.274433      3.503622
B     -0.248484      3.469937     -2.379863
N      1.308703      0.068898      3.816981
B     -1.597441     -0.559934     -3.084689
N     -3.832496      1.776842      0.831624
B      0.337602      4.495994      1.183894
N      0.043256     -0.013955      4.456653
B     -2.708837      2.226751      1.601242
N      3.772728     -0.132624     -0.765541
B     -2.253381     -3.639412      1.008482
N      1.055818      3.733398      2.235734
B     -1.825620     -0.777460      3.219840
N     -2.436768     -3.601880     -0.450773
B      3.018658     -1.073670     -1.502768
N     -3.157960     -1.252592     -0.384321
B      2.034656      2.922326      1.561722
N     -0.507447     -2.900148     -2.432795
B     -1.673548     -2.112882     -2.491621
N      0.590135      3.964583     -0.110225
B      1.090314      2.959649     -3.182489
N      0.077350     -4.359230      1.721289
B     -1.784034      3.452384     -0.408220
N     -2.013520      3.418515      1.031553
B      1.465878     -4.212148      1.499138
N     -0.797987      1.064153      4.194581
B     -2.666242     -2.402096     -1.175256
N     -1.074388     -4.484335      0.991235
B     -2.503710      0.491370     -2.109143
N      2.352728     -3.887335      0.453103
B      3.912327     -0.202357      0.725926
N      1.928548      1.957009     -2.465077
B      1.001184      2.254351     -4.622507
N     -4.186016      0.829005     -0.347538
B     -1.338881      2.453658     -3.114870
N     -2.359649      1.932605     -2.305841
B      3.073063     -2.645483      0.601111
N      2.335213     -3.673670     -0.970876
B      2.217863      0.545803      2.808407
N     -2.026423      0.611912      3.601492
B     -1.101749     -4.183787     -0.441007
N     -3.218144      0.041654     -0.958566
B      3.447752      1.258593     -0.514065
N      2.582085      1.632977      1.936454
B      1.472054     -1.555001     -3.515610
N     -2.102601      1.754194      2.760799
B      2.040765      0.711921     -3.211483
N     -2.720915     -1.341699      2.320567
B      0.658648     -0.538875     -4.486937
N     -0.168664     -3.759421     -1.356472
B      0.485560     -2.105634      3.433764
N     -0.587253     -1.205033      3.824488
B     -3.224373     -1.451411      1.000320
N      2.671324     -0.855529      2.621135
B      1.878557      3.339348     -0.106427
N      2.876911     -2.331783     -0.793563
