192
Drug@B36N36 non-overlapping complex
C     -9.760503      3.709080     17.475559
O     -9.292460      4.559476     16.437761
C     -8.233624      3.972268     15.678227
C     -6.871885      4.194480     16.341201
O     -5.815256      3.622350     15.570234
C     -5.609864      2.210960     15.811250
C     -4.429583      2.128099     16.809639
C     -3.774691      0.764628     17.197678
C     -4.311111     -0.504368     16.542203
C     -5.819227     -0.699242     16.474181
C     -6.379070     -0.809607     15.021410
C     -6.038012     -2.202937     14.465211
C     -6.097711      0.367617     13.991117
O     -7.430747      0.919598     13.741129
C     -5.633630     -0.111183     12.560066
O     -6.432562     -0.654327     11.791279
C     -4.188129      0.173111     12.056022
O     -3.762823      1.320844     12.134337
N     -3.441804     -0.859502     11.450936
C     -4.082498     -2.084002     10.977779
C     -3.104593     -3.143221     10.495995
C     -2.135823     -2.614791      9.440677
C     -1.862053     -1.111990      9.543283
C     -2.070958     -0.536515     10.948465
C     -0.928134     -1.000258     11.893539
O     -0.630394     -2.169424     12.111546
O     -0.335279      0.055414     12.527266
C      0.048018     -0.141512     13.940782
C     -1.241943      0.225276     14.791078
C     -1.557853      1.700775     14.455237
O     -2.299381     -0.630493     14.291726
C     -2.171907     -2.038144     14.559994
C     -1.180467      0.076088     16.344382
C     -2.193886      0.861953     17.257334
C      1.276873      0.749383     14.208093
C      2.518696      0.175055     13.570647
C      3.625335     -0.304946     14.161204
C      3.880180     -0.380617     15.583328
C      4.969606     -0.880272     16.192559
C      6.121755     -1.492396     15.565563
C      7.274752     -1.857949     16.163004
C      7.604449     -1.695531     17.623495
C      8.379656     -2.505423     15.340360
C      8.982715     -1.607857     14.229550
C      9.994552     -2.432654     13.427290
C      9.603260     -0.318644     14.826610
C     10.113602      0.723260     13.815232
O     11.277079      0.248596     13.144427
C     12.490249      0.584024     13.800693
C      9.010286      1.133131     12.817725
O      9.085797      0.930141     11.604801
C      7.797642      1.821611     13.396385
C     -5.274859      1.575597     14.460755
H     -8.965775      3.491431     18.194113
H    -10.569485      4.223888     18.000968
H    -10.156199      2.778032     17.058368
H     -8.227888      4.455103     14.694379
H     -8.433359      2.911276     15.491839
H     -6.684760      5.272290     16.406211
H     -6.847676      3.822039     17.371146
H     -6.531191      1.803659     16.227297
H     -4.768144      2.598307     17.745022
H     -3.658571      2.828015     16.464521
H     -4.064940      0.650239     18.255134
H     -3.965313     -0.542636     15.528750
H     -3.879472     -1.363391     17.070020
H     -6.360529      0.043369     17.063370
H     -6.055396     -1.638725     16.994484
H     -7.469078     -0.843902     15.172985
H     -4.983005     -2.284016     14.201416
H     -6.257050     -2.985917     15.199756
H     -6.640685     -2.435484     13.582235
H     -7.860764      0.322482     13.094610
H     -4.751494     -1.802963     10.155532
H     -4.697791     -2.498957     11.780719
H     -2.540353     -3.527590     11.352569
H     -3.652684     -4.002800     10.092691
H     -1.193695     -3.171443      9.515286
H     -2.529837     -2.829165      8.439469
H     -2.546419     -0.595140      8.856979
H     -0.847420     -0.901942      9.184005
H     -1.974436      0.552564     10.861062
H      0.344826     -1.182228     14.097323
H     -1.643036      1.876429     13.379838
H     -2.496421      2.034000     14.877073
H     -0.788759      2.374399     14.847845
H     -2.603087     -2.293256     15.528578
H     -2.740938     -2.579418     13.800782
H     -1.146177     -2.404843     14.549866
H     -0.188113      0.408512     16.673247
H     -1.230230     -0.977694     16.635741
H     -1.929588      0.545731     18.278585
H     -1.898746      1.918967     17.238834
H      1.419895      0.890995     15.280362
H      1.132310      1.743296     13.767787
H      2.494531      0.156025     12.479844
H      4.406231     -0.671119     13.497744
H      3.112059      0.023291     16.238401
H      4.974514     -0.830087     17.278686
H      6.030105     -1.688499     14.499027
H      7.732162     -2.678438     18.089037
H      8.539787     -1.137062     17.737634
H      6.843412     -1.157130     18.191391
H      9.186485     -2.842332     16.005055
H      7.971540     -3.421179     14.890780
H      8.175234     -1.328750     13.542158
H     10.285957     -1.920049     12.506457
H     10.896820     -2.635931     14.013524
H      9.563769     -3.394201     13.126928
H      8.857597      0.177785     15.458215
H     10.425166     -0.609417     15.492585
H     10.371913      1.645639     14.353267
H     13.318335      0.151810     13.232516
H     12.620458      1.670093     13.829951
H     12.514041      0.174651     14.814399
H      7.208690      2.264728     12.588206
H      7.177282      1.099603     13.930797
H      8.112666      2.622140     14.070264
H     -4.236041      1.272676     14.465437
H     -5.363026      2.357227     13.692873
B      3.459180     -1.454569      1.628037
N      3.456400      1.129904      0.940040
B      2.539920      2.362499     -1.261047
N      2.293067     -0.641637     -2.730603
B      0.690534     -3.561069      2.702709
N     -2.939724     -2.654773      1.709476
B     -1.038202      4.085096      1.831238
N     -0.619347      0.017651     -3.941904
B     -0.473710      1.445324     -4.091730
N      1.209559     -3.786796     -1.739405
B     -3.844500      2.209440     -0.493722
N     -2.772864      2.763562     -1.211833
B      1.405725      0.818091     -4.889311
N     -0.235789      3.364215      2.833544
B      0.898320     -2.879798     -2.813849
N     -0.491833      3.766578     -1.010119
B     -0.805996      2.182269      3.281874
N      1.656110     -1.274433      3.503622
B     -0.248484      3.469937     -2.379863
N      1.308703      0.068898      3.816981
B     -1.597441     -0.559934     -3.084689
N     -3.832496      1.776842      0.831624
B      0.337602      4.495994      1.183894
N      0.043256     -0.013955      4.456653
B     -2.708837      2.226751      1.601242
N      3.772728     -0.132624     -0.765541
B     -2.253381     -3.639412      1.008482
N      1.055818      3.733398      2.235734
B     -1.825620     -0.777460      3.219840
N     -2.436768     -3.601880     -0.450773
B      3.018658     -1.073670     -1.502768
N     -3.157960     -1.252592     -0.384321
B      2.034656      2.922326      1.561722
N     -0.507447     -2.900148     -2.432795
B     -1.673548     -2.112882     -2.491621
N      0.590135      3.964583     -0.110225
B      1.090314      2.959649     -3.182489
N      0.077350     -4.359230      1.721289
B     -1.784034      3.452384     -0.408220
N     -2.013520      3.418515      1.031553
B      1.465878     -4.212148      1.499138
N     -0.797987      1.064153      4.194581
B     -2.666242     -2.402096     -1.175256
N     -1.074388     -4.484335      0.991235
B     -2.503710      0.491370     -2.109143
N      2.352728     -3.887335      0.453103
B      3.912327     -0.202357      0.725926
N      1.928548      1.957009     -2.465077
B      1.001184      2.254351     -4.622507
N     -4.186016      0.829005     -0.347538
B     -1.338881      2.453658     -3.114870
N     -2.359649      1.932605     -2.305841
B      3.073063     -2.645483      0.601111
N      2.335213     -3.673670     -0.970876
B      2.217863      0.545803      2.808407
N     -2.026423      0.611912      3.601492
B     -1.101749     -4.183787     -0.441007
N     -3.218144      0.041654     -0.958566
B      3.447752      1.258593     -0.514065
N      2.582085      1.632977      1.936454
B      1.472054     -1.555001     -3.515610
N     -2.102601      1.754194      2.760799
B      2.040765      0.711921     -3.211483
N     -2.720915     -1.341699      2.320567
B      0.658648     -0.538875     -4.486937
N     -0.168664     -3.759421     -1.356472
B      0.485560     -2.105634      3.433764
N     -0.587253     -1.205033      3.824488
B     -3.224373     -1.451411      1.000320
N      2.671324     -0.855529      2.621135
B      1.878557      3.339348     -0.106427
N      2.876911     -2.331783     -0.793563
