      -----------------------------------------------------------      
     |                   =====================                   |     
     |                           x T B                           |     
     |                   =====================                   |     
     |                         S. Grimme                         |     
     |          Mulliken Center for Theoretical Chemistry        |     
     |                    University of Bonn                     |     
      -----------------------------------------------------------      

   * xtb version 6.7.1pre (5071a88) compiled by 'Marcel@Raven' on 2024-07-23

   xtb is free software: you can redistribute it and/or modify it under
   the terms of the GNU Lesser General Public License as published by
   the Free Software Foundation, either version 3 of the License, or
   (at your option) any later version.
   
   xtb is distributed in the hope that it will be useful,
   but WITHOUT ANY WARRANTY; without even the implied warranty of
   MERCHANTABILITY or FITNESS FOR A PARTICULAR PURPOSE.  See the
   GNU Lesser General Public License for more details.
   
   Cite this work as:
   * C. Bannwarth, E. Caldeweyher, S. Ehlert, A. Hansen, P. Pracht,
     J. Seibert, S. Spicher, S. Grimme, WIREs Comput. Mol. Sci., 2020, 11,
     e01493. DOI: 10.1002/wcms.1493
   
   for GFN2-xTB:
   * C. Bannwarth, S. Ehlert and S. Grimme., J. Chem. Theory Comput., 2019,
     15, 1652-1671. DOI: 10.1021/acs.jctc.8b01176
   for GFN1-xTB:
   * S. Grimme, C. Bannwarth, P. Shushkov, J. Chem. Theory Comput., 2017,
     13, 1989-2009. DOI: 10.1021/acs.jctc.7b00118
   for GFN0-xTB:
   * P. Pracht, E. Caldeweyher, S. Ehlert, S. Grimme, ChemRxiv, 2019, preprint.
     DOI: 10.26434/chemrxiv.8326202.v1
   for GFN-FF:
   * S. Spicher and S. Grimme, Angew. Chem. Int. Ed., 2020, 59, 15665-15673.
     DOI: 10.1002/anie.202004239
   
   for ALPB and GBSA implicit solvation:
   * S. Ehlert, M. Stahn, S. Spicher, S. Grimme, J. Chem. Theory Comput.,
     2021, 17, 4250-4261. DOI: 10.1021/acs.jctc.1c00471
   
   for ddCOSMO and CPCM-X implicit solvation:
   * M. Stahn, S. Ehlert, S. Grimme, J. Phys. Chem. A,
     2023, XX, XXXX-XXXX. DOI: 10.1021/acs.jpca.3c04382
   
   for DFT-D4:
   * E. Caldeweyher, C. Bannwarth and S. Grimme, J. Chem. Phys., 2017,
     147, 034112. DOI: 10.1063/1.4993215
   * E. Caldeweyher, S. Ehlert, A. Hansen, H. Neugebauer, S. Spicher,
     C. Bannwarth and S. Grimme, J. Chem. Phys., 2019, 150, 154122.
     DOI: 10.1063/1.5090222
   * E. Caldeweyher, J.-M. Mewes, S. Ehlert and S. Grimme, Phys. Chem. Chem. Phys.
     2020, 22, 8499-8512. DOI: 10.1039/D0CP00502A
   
   for sTDA-xTB:
   * S. Grimme and C. Bannwarth, J. Chem. Phys., 2016, 145, 054103.
     DOI: 10.1063/1.4959605
   
   in the mass-spec context:
   * V. Asgeirsson, C. Bauer and S. Grimme, Chem. Sci., 2017, 8, 4879.
     DOI: 10.1039/c7sc00601b
   * J. Koopman and S. Grimme, ACS Omega 2019, 4, 12, 15120-15133.
     DOI: 10.1021/acsomega.9b02011
   
   for metadynamics refer to:
   * S. Grimme, J. Chem. Theory Comput., 2019, 155, 2847-2862
     DOI: 10.1021/acs.jctc.9b00143
   
   for SPH calculations refer to:
   * S. Spicher and S. Grimme, J. Chem. Theory Comput., 2021, 17, 1701-1714
     DOI: 10.1021/acs.jctc.0c01306
   
   for ONIOM refer to:
   * C. Plett, A. Katbashev, S. Ehlert, S. Grimme, M. Bursch,
     Phys. Chem. Chem. Phys., 2023, 25, 17860-17868. DOI: 10.1039/D3CP02178E
   
   for DIPRO refer to:
   * J. Kohn, N. Gildemeister, S. Grimme, D. Fazzi, A. Hansen,
     J. Chem. Phys., 2023, just accepted.
   
   for PTB refer to:
   * S. Grimme, M. Mueller, A. Hansen, J. Chem. Phys., 2023, 158, 124111.
     DOI: 10.1063/5.0137838
   
   with help from (in alphabetical order)
   P. Atkinson, C. Bannwarth, F. Bohle, G. Brandenburg, E. Caldeweyher
   M. Checinski, S. Dohm, S. Ehlert, S. Ehrlich, I. Gerasimov, C. Hölzer
   A. Katbashev, J. Kohn, J. Koopman, C. Lavigne, S. Lehtola, F. März, M. Müller,
   F. Musil, H. Neugebauer, J. Pisarek, C. Plett, P. Pracht, F. Pultar,
   J. Seibert, P. Shushkov, S. Spicher, M. Stahn, M. Steiner, T. Strunk,
   J. Stückrath, T. Rose, and J. Unsleber
   
 * started run on 2026/08/31 at 21:13:39.537     
   ID    Z sym.   atoms
    1    6 C      1, 3, 4, 6-13, 15, 17, 20-25, 28-30, 32-47, 49, 50, 52, 53
    2    8 O      2, 5, 14, 16, 18, 26, 27, 31, 48, 51
    3    7 N      19, 122, 124, 126, 128, 130, 132, 134, 136, 138, 140, 142,
                  144, 146, 148, 150, 152, 154, 156, 158, 160, 162, 164, 166,
                  168, 170, 172, 174, 176, 178, 180, 182, 184, 186, 188, 190,
                  192
    4    1 H      54-120
    5    5 B      121, 123, 125, 127, 129, 131, 133, 135, 137, 139, 141, 143,
                  145, 147, 149, 151, 153, 155, 157, 159, 161, 163, 165, 167,
                  169, 171, 173, 175, 177, 179, 181, 183, 185, 187, 189, 191

           -------------------------------------------------
          |                Calculation Setup                |
           -------------------------------------------------

          program call               : "c:\Users\Andre\Proyectos doctorado\kras-pancreatic-gC3N4-ai\tools\xtb\xtb-6.7.1\bin\xtb.exe" "c:\Users\Andre\Proyectos doctorado\nano-qsar-ai-therapeutics\calculations\tnbc\Everolimus\Everolimus_B36N36_phys_complex.xyz" --gfn 2 --sp --chrg 0 --uhf 0 --etemp 300 --iterations 500 --norestart
          coordinate file            : c:\Users\Andre\Proyectos doctorado\nano-qsar-ai-therapeutics\calculations\tnbc\Everolimus\Everolimus_B36N36_phys_complex.xyz
          omp threads                :                    16


molecular fragmentation (1/2 indicates fragments):
111111111111111111111111111111111111111111111111111111111111111111111111
111111111111111111111111111111111111111111111111222222222222222222222222
222222222222222222222222222222222222222222222222
# atoms in fragment 1/2:   120    72
 fragment masses (1/2) :      745.98      893.44
CMA distance (Bohr)    :  26.558
constraining FC (au)   :  0.0500

           -------------------------------------------------
          |                 G F N 2 - x T B                 |
           -------------------------------------------------

        Reference                      10.1021/acs.jctc.8b01176
      * Hamiltonian:
        H0-scaling (s, p, d)           1.850000    2.230000    2.230000
        zeta-weighting                 0.500000
      * Dispersion:
        s8                             2.700000
        a1                             0.520000
        a2                             5.000000
        s9                             5.000000
      * Repulsion:
        kExp                           1.500000    1.000000
        rExp                           1.000000
      * Coulomb:
        alpha                          2.000000
        third order                    shell-resolved
        anisotropic                    true
        a3                             3.000000
        a5                             4.000000
        cn-shift                       1.200000
        cn-exp                         4.000000
        max-rad                        5.000000


          ...................................................
          :                      SETUP                      :
          :.................................................:
          :  # basis functions                 567          :
          :  # atomic orbitals                 567          :
          :  # shells                          317          :
          :  # electrons                       588          :
          :  max. iterations                   500          :
          :  Hamiltonian                  GFN2-xTB          :
          :  restarted?                      false          :
          :  GBSA solvation                  false          :
          :  PC potential                    false          :
          :  electronic temp.          300.0000000     K    :
          :  accuracy                    1.0000000          :
          :  -> integral cutoff          0.2500000E+02      :
          :  -> integral neglect         0.1000000E-07      :
          :  -> SCF convergence          0.1000000E-05 Eh   :
          :  -> wf. convergence          0.1000000E-03 e    :
          :  Broyden damping             0.4000000          :
          :  net charge                          0          :
          :  unpaired electrons                  0          :
          ...................................................

 iter      E             dE          RMSdq      gap      omega  full diag
   1   -319.9585844 -0.319959E+03  0.904E+00    0.66       0.0  T
   2   -319.3587752  0.599809E+00  0.547E+00    0.12       1.0  T
   3   -185.3479024  0.134011E+03  0.101E+01    0.04       1.0  T
   4   -226.4047804 -0.410569E+02  0.680E+00    0.11       1.0  T
   5   -263.4779349 -0.370732E+02  0.689E+00    0.02       1.0  T
   6   -289.7821351 -0.263042E+02  0.455E+00    0.29       1.0  T
   7   -319.2269790 -0.294448E+02  0.236E+00    0.29       1.0  T
   8   -320.9319840 -0.170500E+01  0.164E+00    0.36       1.0  T
   9   -321.0024028 -0.704188E-01  0.135E+00    0.23       1.0  T
  10   -321.0354099 -0.330070E-01  0.122E+00    0.49       1.0  T
  11   -321.0436197 -0.820985E-02  0.896E-01    0.39       1.0  T
  12   -320.1678037  0.875816E+00  0.124E+00    0.10       1.0  T
  13   -320.0145215  0.153282E+00  0.126E+00    0.18       1.0  T
  14   -320.5629853 -0.548464E+00  0.866E-01    0.05       1.0  T
  15   -320.7323777 -0.169392E+00  0.673E-01    0.02       1.0  T
  16   -321.0447171 -0.312339E+00  0.442E-01    0.08       1.0  T
  17   -320.4632801  0.581437E+00  0.845E-01    0.02       1.0  T
  18   -321.0672338 -0.603954E+00  0.428E-01    0.31       1.0  T
  19   -321.0705984 -0.336467E-02  0.382E-01    0.57       1.0  T
  20   -321.0729923 -0.239385E-02  0.334E-01    0.71       1.0  T
  21   -321.0764592 -0.346695E-02  0.266E-01    0.68       1.0  T
  22   -321.0784124 -0.195312E-02  0.204E-01    0.65       1.0  T
  23   -321.0802202 -0.180786E-02  0.125E-01    0.61       1.0  T
  24   -321.0807917 -0.571519E-03  0.841E-02    0.61       1.0  T
  25   -321.0811530 -0.361217E-03  0.695E-02    0.62       1.0  T
  26   -321.0814274 -0.274466E-03  0.578E-02    0.63       1.0  T
  27   -321.0817258 -0.298388E-03  0.464E-02    0.64       1.0  T
  28   -321.0819102 -0.184409E-03  0.414E-02    0.66       1.0  T
  29   -321.0820315 -0.121275E-03  0.360E-02    0.67       1.0  T
  30   -321.0821299 -0.983553E-04  0.306E-02    0.68       1.0  T
  31   -321.0822573 -0.127454E-03  0.232E-02    0.65       1.0  T
  32   -321.0822859 -0.286225E-04  0.207E-02    0.59       1.0  T
  33   -321.0823020 -0.160538E-04  0.182E-02    0.55       1.0  T
  34   -321.0823140 -0.120149E-04  0.160E-02    0.53       1.0  T
  35   -321.0823167 -0.265009E-05  0.155E-02    0.52       1.0  T
  36   -321.0823202 -0.352882E-05  0.149E-02    0.52       1.0  T
  37   -321.0823347 -0.145355E-04  0.121E-02    0.49       1.0  T
  38   -321.0823483 -0.135461E-04  0.926E-03    0.45       1.0  T
  39   -321.0823532 -0.491606E-05  0.818E-03    0.43       1.0  T
  40   -321.0823593 -0.616078E-05  0.657E-03    0.42       1.1  T
  41   -321.0823665 -0.720249E-05  0.429E-03    0.39       1.7  T
  42   -321.0823713 -0.475421E-05  0.158E-03    0.36       4.6  T
  43   -321.0823721 -0.761014E-06  0.201E-04    0.34      35.9  T
  44   -321.0823721 -0.542940E-08  0.111E-04    0.35      64.8  T

   *** convergence criteria satisfied after 44 iterations ***

         #    Occupation            Energy/Eh            Energy/eV
      -------------------------------------------------------------
         1        2.0000           -0.7252196             -19.7342
       ...           ...                  ...                  ...
       288        2.0000           -0.3265399              -8.8856
       289        2.0000           -0.3238367              -8.8120
       290        2.0000           -0.3226307              -8.7792
       291        2.0000           -0.3199300              -8.7057
       292        2.0000           -0.3145386              -8.5590
       293        2.0000           -0.3126471              -8.5076
       294        1.9975           -0.3083362              -8.3903 (HOMO)
       295        0.0025           -0.2956153              -8.0441 (LUMO)
       296                         -0.2824366              -7.6855
       297                         -0.2741632              -7.4604
       298                         -0.2636223              -7.1735
       299                         -0.2625052              -7.1431
       ...                                ...                  ...
       567                          0.9845507              26.7910
      -------------------------------------------------------------
                  HL-Gap            0.0127209 Eh            0.3462 eV
             Fermi-level           -0.3019700 Eh           -8.2170 eV

 SCC (total)                   0 d,  0 h,  0 min,  2.800 sec
 SCC setup                      ...        0 min,  0.001 sec (  0.036%)
 Dispersion                     ...        0 min,  0.008 sec (  0.286%)
 classical contributions        ...        0 min,  0.000 sec (  0.000%)
 integral evaluation            ...        0 min,  0.022 sec (  0.786%)
 iterations                     ...        0 min,  2.694 sec ( 96.214%)
 molecular gradient             ...        0 min,  0.070 sec (  2.500%)
 printout                       ...        0 min,  0.005 sec (  0.179%)

         :::::::::::::::::::::::::::::::::::::::::::::::::::::
         ::                     SUMMARY                     ::
         :::::::::::::::::::::::::::::::::::::::::::::::::::::
         :: total energy            -317.801246146397 Eh    ::
         :: gradient norm              0.133609021854 Eh/a0 ::
         :: HOMO-LUMO gap              0.346152813792 eV    ::
         ::.................................................::
         :: SCC energy              -321.062824116740 Eh    ::
         :: -> isotropic ES            0.862183414524 Eh    ::
         :: -> anisotropic ES         -0.010093937893 Eh    ::
         :: -> anisotropic XC          0.111564494257 Eh    ::
         :: -> dispersion             -0.280148574264 Eh    ::
         :: repulsion energy           3.261577970342 Eh    ::
         :: add. restraining           0.000000000000 Eh    ::
         :: total charge               0.000000000380 e     ::
         :::::::::::::::::::::::::::::::::::::::::::::::::::::

           -------------------------------------------------
          |                Property Printout                |
           -------------------------------------------------

    * Orbital Energies and Occupations

         #    Occupation            Energy/Eh            Energy/eV
      -------------------------------------------------------------
         1        2.0000           -0.7252196             -19.7342
       ...           ...                  ...                  ...
       282        2.0000           -0.3392361              -9.2311
       283        2.0000           -0.3378038              -9.1921
       284        2.0000           -0.3339893              -9.0883
       285        2.0000           -0.3317106              -9.0263
       286        2.0000           -0.3293110              -8.9610
       287        2.0000           -0.3281027              -8.9281
       288        2.0000           -0.3265399              -8.8856
       289        2.0000           -0.3238367              -8.8120
       290        2.0000           -0.3226307              -8.7792
       291        2.0000           -0.3199300              -8.7057
       292        2.0000           -0.3145386              -8.5590
       293        2.0000           -0.3126471              -8.5076
       294        1.9975           -0.3083362              -8.3903 (HOMO)
       295        0.0025           -0.2956153              -8.0441 (LUMO)
       296                         -0.2824366              -7.6855
       297                         -0.2741632              -7.4604
       298                         -0.2636223              -7.1735
       299                         -0.2625052              -7.1431
       300                         -0.2585033              -7.0342
       301                         -0.2519735              -6.8565
       302                         -0.2505399              -6.8175
       303                         -0.2445250              -6.6539
       304                         -0.2337883              -6.3617
       305                         -0.2300055              -6.2588
       ...                                ...                  ...
       567                          0.9845507              26.7910
      -------------------------------------------------------------
                  HL-Gap            0.0127209 Eh            0.3462 eV
             Fermi-level           -0.3019700 Eh           -8.2170 eV

     #   Z          covCN         q      C6AA      α(0)
     1   6 C        3.645     0.039    20.250     6.468
     2   8 O        1.697    -0.322    19.389     5.945
     3   6 C        3.694     0.064    19.676     6.346
     4   6 C        3.685     0.072    19.561     6.332
     5   8 O        1.695    -0.333    19.584     5.975
     6   6 C        3.733     0.114    18.798     6.188
     7   6 C        3.794    -0.075    21.939     6.670
     8   6 C        3.837    -0.020    20.899     6.504
     9   6 C        3.802    -0.074    21.908     6.664
    10   6 C        3.798    -0.063    21.720     6.636
    11   6 C        3.836    -0.025    20.994     6.519
    12   6 C        3.750    -0.108    22.630     6.785
    13   6 C        3.753     0.123    18.630     6.155
    14   8 O        1.648    -0.458    22.017     6.334
    15   6 C        2.799     0.205    23.640     7.965
    16   8 O        0.856    -0.341    20.534     6.075
    17   6 C        2.745     0.244    22.904     7.836
    18   8 O        0.857    -0.398    21.646     6.238
    19   7 N        2.724    -0.089    22.973     7.119
    20   6 C        3.738     0.006    20.566     6.471
    21   6 C        3.801    -0.062    21.701     6.632
    22   6 C        3.800    -0.059    21.637     6.623
    23   6 C        3.801    -0.061    21.677     6.629
    24   6 C        3.783     0.021    20.243     6.409
    25   6 C        2.695     0.357    20.947     7.491
    26   8 O        0.856    -0.394    21.570     6.227
    27   8 O        1.694    -0.276    18.589     5.821
    28   6 C        3.723     0.106    18.935     6.214
    29   6 C        3.764     0.136    18.412     6.116
    30   6 C        3.754    -0.124    22.944     6.830
    31   8 O        1.693    -0.339    19.696     5.992
    32   6 C        3.628     0.041    20.294     6.489
    33   6 C        3.791    -0.068    21.815     6.652
    34   6 C        3.784    -0.065    21.763     6.645
    35   6 C        3.800    -0.065    21.754     6.641
    36   6 C        2.889    -0.040    28.988     8.827
    37   6 C        2.889    -0.040    28.997     8.828
    38   6 C        2.893    -0.039    28.976     8.826
    39   6 C        2.892    -0.036    28.891     8.813
    40   6 C        2.895    -0.055    29.377     8.887
    41   6 C        2.937     0.007    27.861     8.657
    42   6 C        3.752    -0.106    22.577     6.776
    43   6 C        3.807    -0.072    21.879     6.659
    44   6 C        3.844    -0.007    20.678     6.468
    45   6 C        3.751    -0.107    22.601     6.780
    46   6 C        3.798    -0.065    21.741     6.639
    47   6 C        3.742     0.096    19.070     6.230
    48   8 O        1.698    -0.301    19.011     5.887
    49   6 C        3.643     0.040    20.249     6.469
    50   6 C        2.807     0.226    23.255     7.900
    51   8 O        0.856    -0.338    20.477     6.067
    52   6 C        3.750    -0.138    23.230     6.874
    53   6 C        3.802    -0.080    22.028     6.682
    54   1 H        0.924     0.027     2.626     2.534
    55   1 H        0.924     0.055     2.253     2.347
    56   1 H        0.924     0.033     2.540     2.492
    57   1 H        0.924     0.063     2.167     2.302
    58   1 H        0.924     0.045     2.389     2.417
    59   1 H        0.924     0.056     2.251     2.346
    60   1 H        0.924     0.021     2.712     2.576
    61   1 H        0.925     0.037     2.491     2.468
    62   1 H        0.923     0.026     2.637     2.540
    63   1 H        0.924     0.050     2.319     2.381
    64   1 H        0.923     0.028     2.622     2.532
    65   1 H        0.926     0.075     2.028     2.227
    66   1 H        0.924     0.026     2.649     2.545
    67   1 H        0.924     0.035     2.510     2.477
    68   1 H        0.923     0.036     2.507     2.476
    69   1 H        0.923     0.054     2.271     2.357
    70   1 H        0.924     0.033     2.549     2.496
    71   1 H        0.924     0.039     2.456     2.451
    72   1 H        0.924     0.038     2.479     2.462
    73   1 H        0.803     0.301     0.717     1.330
    74   1 H        0.924     0.060     2.204     2.322
    75   1 H        0.924     0.049     2.335     2.390
    76   1 H        0.924     0.057     2.231     2.336
    77   1 H        0.924     0.043     2.404     2.425
    78   1 H        0.924     0.049     2.334     2.389
    79   1 H        0.924     0.041     2.440     2.443
    80   1 H        0.923     0.052     2.295     2.369
    81   1 H        0.924     0.051     2.312     2.378
    82   1 H        0.924     0.087     1.905     2.159
    83   1 H        0.924     0.050     2.326     2.385
    84   1 H        0.924     0.076     2.025     2.225
    85   1 H        0.925     0.072     2.065     2.247
    86   1 H        0.924     0.043     2.411     2.428
    87   1 H        0.924     0.037     2.495     2.470
    88   1 H        0.924     0.052     2.298     2.371
    89   1 H        0.925     0.042     2.428     2.437
    90   1 H        0.924     0.031     2.566     2.505
    91   1 H        0.924     0.038     2.471     2.458
    92   1 H        0.923     0.033     2.541     2.493
    93   1 H        0.924     0.041     2.440     2.443
    94   1 H        0.924     0.046     2.367     2.406
    95   1 H        0.924     0.067     2.118     2.276
    96   1 H        0.924     0.040     2.449     2.447
    97   1 H        0.925     0.038     2.471     2.458
    98   1 H        0.925     0.022     2.700     2.570
    99   1 H        0.925     0.025     2.663     2.552
   100   1 H        0.925     0.035     2.521     2.483
   101   1 H        0.924     0.046     2.366     2.405
   102   1 H        0.924     0.043     2.407     2.426
   103   1 H        0.924     0.040     2.451     2.448
   104   1 H        0.923     0.038     2.474     2.460
   105   1 H        0.923     0.045     2.389     2.417
   106   1 H        0.924     0.032     2.557     2.501
   107   1 H        0.924     0.061     2.186     2.312
   108   1 H        0.924     0.034     2.525     2.485
   109   1 H        0.924     0.032     2.563     2.504
   110   1 H        0.924     0.036     2.505     2.475
   111   1 H        0.924     0.043     2.409     2.427
   112   1 H        0.923     0.032     2.554     2.499
   113   1 H        0.924     0.062     2.176     2.307
   114   1 H        0.924     0.030     2.593     2.518
   115   1 H        0.924     0.030     2.591     2.517
   116   1 H        0.924     0.077     2.007     2.215
   117   1 H        0.924     0.079     1.988     2.205
   118   1 H        0.924     0.058     2.221     2.331
   119   1 H        0.925     0.080     1.975     2.197
   120   1 H        0.923     0.093     1.850     2.127
   121   5 B        2.781     0.077    20.189     7.512
   122   7 N        2.774    -0.227    25.960     7.567
   123   5 B        2.788     0.092    19.931     7.463
   124   7 N        2.524    -0.314    28.122     7.875
   125   5 B        2.779     0.083    20.086     7.494
   126   7 N        2.655    -0.271    27.003     7.718
   127   5 B        2.849     0.241    17.662     7.017
   128   7 N        2.529    -0.272    27.081     7.728
   129   5 B        3.195     0.150    18.929     7.256
   130   7 N        2.979    -0.110    23.397     7.184
   131   5 B        2.644     0.373    16.321     6.813
   132   7 N        2.669    -0.212    25.628     7.519
   133   5 B        3.181     0.022    20.995     7.642
   134   7 N        2.888    -0.222    25.830     7.548
   135   5 B        3.009     0.209    18.075     7.092
   136   7 N        2.660    -0.163    24.527     7.355
   137   5 B        2.906     0.320    16.609     6.801
   138   7 N        3.156    -0.082    22.823     7.095
   139   5 B        2.779     0.094    19.912     7.461
   140   7 N        3.037    -0.126    23.724     7.234
   141   5 B        2.758     0.090    20.008     7.484
   142   7 N        2.634    -0.309    27.956     7.853
   143   5 B        3.040     0.227    17.827     7.043
   144   7 N        2.981    -0.002    21.306     6.855
   145   5 B        2.582     0.326    17.307     7.087
   146   7 N        2.596    -0.360    29.279     8.036
   147   5 B        3.287     0.340    16.340     6.741
   148   7 N        2.784    -0.253    26.565     7.655
   149   5 B        2.559     0.319    17.606     7.187
   150   7 N        2.579    -0.368    29.522     8.069
   151   5 B        2.530     0.301    18.227     7.377
   152   7 N        2.665    -0.205    25.458     7.494
   153   5 B        2.698     0.196    18.505     7.219
   154   7 N        2.844    -0.167    24.609     7.368
   155   5 B        2.758     0.082    20.132     7.507
   156   7 N        2.672    -0.174    24.765     7.391
   157   5 B        2.877     0.110    19.574     7.385
   158   7 N        2.663    -0.144    24.131     7.296
   159   5 B        2.594     0.312    17.390     7.086
   160   7 N        2.519    -0.354    29.161     8.020
   161   5 B        2.684     0.184    18.721     7.269
   162   7 N        3.008    -0.129    23.780     7.243
   163   5 B        2.677     0.210    18.359     7.202
   164   7 N        2.716    -0.249    26.476     7.642
   165   5 B        2.647     0.164    19.167     7.380
   166   7 N        2.825    -0.206    25.476     7.496
   167   5 B        3.321     0.230    17.776     7.031
   168   7 N        2.531    -0.286    27.403     7.774
   169   5 B        2.950     0.036    20.775     7.605
   170   7 N        2.783    -0.185    25.003     7.426
   171   5 B        2.796     0.085    20.040     7.482
   172   7 N        2.673    -0.156    24.367     7.331
   173   5 B        3.021     0.211    18.049     7.087
   174   7 N        3.272     0.015    20.982     6.803
   175   5 B        2.869     0.305    16.802     6.843
   176   7 N        3.154    -0.115    23.508     7.201
   177   5 B        3.263     0.320    16.586     6.792
   178   7 N        2.833    -0.061    22.413     7.031
   179   5 B        3.303     0.231    17.763     7.028
   180   7 N        2.656    -0.182    24.951     7.419
   181   5 B        2.838     0.112    19.568     7.387
   182   7 N        2.834    -0.224    25.877     7.555
   183   5 B        2.863     0.253    17.504     6.985
   184   7 N        2.654    -0.230    26.044     7.579
   185   5 B        3.011     0.114    19.489     7.364
   186   7 N        3.153    -0.086    22.910     7.109
   187   5 B        2.674     0.202    18.495     7.231
   188   7 N        2.696    -0.231    26.064     7.582
   189   5 B        2.585     0.369    16.722     6.962
   190   7 N        2.881    -0.180    24.878     7.408
   191   5 B        2.825     0.106    19.670     7.408
   192   7 N        2.827    -0.253    26.554     7.653

 Mol. C6AA /au·bohr⁶  :     468255.922381
 Mol. C8AA /au·bohr⁸  :   11995479.558219
 Mol. α(0) /au        :       1050.139157


Wiberg/Mayer (AO) data.
largest (>0.10) Wiberg bond orders for each atom

 ---------------------------------------------------------------------------
     #   Z sym  total        # sym  WBO       # sym  WBO       # sym  WBO
 ---------------------------------------------------------------------------
     1   6 C    3.956 --     2 O    0.996    55 H    0.981    54 H    0.979
                            56 H    0.978
     2   8 O    2.059 --     1 C    0.996     3 C    0.980
     3   6 C    3.948 --     4 C    0.986     2 O    0.980    57 H    0.969
                            58 H    0.965
     4   6 C    3.956 --     5 O    0.987     3 C    0.986    59 H    0.969
                            60 H    0.967
     5   8 O    2.057 --     4 C    0.987     6 C    0.955
     6   6 C    3.948 --    53 C    0.989     7 C    0.985    61 H    0.958
                             5 O    0.955
     7   6 C    3.989 --     6 C    0.985     8 C    0.985    62 H    0.978
                            63 H    0.967
     8   6 C    3.990 --     9 C    1.002     7 C    0.985    34 C    0.982
                            64 H    0.975
     9   6 C    3.991 --    10 C    1.003     8 C    1.002    66 H    0.974
                            65 H    0.956
    10   6 C    3.994 --     9 C    1.003    11 C    0.991    68 H    0.974
                            67 H    0.970
    11   6 C    3.985 --    12 C    1.010    10 C    0.991    69 H    0.965
                            13 C    0.936
    12   6 C    3.995 --    11 C    1.010    72 H    0.985    71 H    0.983
                            70 H    0.980
    13   6 C    3.940 --    53 C    0.988    14 O    0.964    11 C    0.936
                            15 C    0.929
    14   8 O    1.948 --    13 C    0.964    73 H    0.883
    15   6 C    3.873 --    16 O    1.876    13 C    0.929    17 C    0.914
    16   8 O    2.088 --    15 C    1.876
    17   6 C    3.952 --    18 O    1.688    19 N    1.226    15 C    0.914
    18   8 O    2.054 --    17 C    1.688    19 N    0.211
    19   7 N    3.488 --    17 C    1.226    20 C    0.980    24 C    0.962
                            18 O    0.211
    20   6 C    3.967 --    21 C    1.008    19 N    0.980    75 H    0.965
                            74 H    0.964
    21   6 C    3.994 --    20 C    1.008    22 C    1.006    77 H    0.975
                            76 H    0.973
    22   6 C    3.996 --    21 C    1.006    23 C    1.004    78 H    0.979
                            79 H    0.979
    23   6 C    3.992 --    22 C    1.004    24 C    0.985    80 H    0.975
                            81 H    0.974
    24   6 C    3.965 --    23 C    0.985    19 N    0.962    82 H    0.955
                            25 C    0.929
    25   6 C    3.911 --    26 O    1.770    27 O    1.117    24 C    0.929
    26   8 O    2.052 --    25 C    1.770    27 O    0.157
    27   8 O    2.267 --    25 C    1.117    28 C    0.913    26 O    0.157
    28   6 C    3.911 --    35 C    0.981    83 H    0.957    29 C    0.937
                            27 O    0.913
    29   6 C    3.935 --    30 C    0.995    33 C    0.976    31 O    0.951
                            28 C    0.937
    30   6 C    3.984 --    29 C    0.995    86 H    0.980    84 H    0.976
                            85 H    0.964
    31   8 O    2.081 --    32 C    0.984    29 C    0.951
    32   6 C    3.949 --    31 O    0.984    88 H    0.974    89 H    0.971
                            87 H    0.970
    33   6 C    3.991 --    34 C    0.997    29 C    0.976    91 H    0.974
                            90 H    0.971
    34   6 C    3.987 --    33 C    0.997     8 C    0.982    92 H    0.980
                            93 H    0.976
    35   6 C    3.991 --    36 C    1.023    28 C    0.981    94 H    0.962
                            95 H    0.957
    36   6 C    3.941 --    37 C    1.805    35 C    1.023    96 H    0.969
                            39 C    0.118
    37   6 C    3.989 --    36 C    1.805    38 C    1.150    97 H    0.960
    38   6 C    3.987 --    39 C    1.717    37 C    1.150    98 H    0.962
                            41 C    0.113
    39   6 C    3.986 --    38 C    1.717    40 C    1.154    99 H    0.962
                            36 C    0.118
    40   6 C    3.989 --    41 C    1.759    39 C    1.154   100 H    0.957
    41   6 C    3.942 --    40 C    1.759    42 C    1.030    43 C    1.009
                            38 C    0.113
    42   6 C    3.995 --    41 C    1.030   103 H    0.980   102 H    0.970
                           101 H    0.967
    43   6 C    3.993 --    41 C    1.009    44 C    0.978   104 H    0.976
                           105 H    0.962
    44   6 C    3.987 --    45 C    1.010    46 C    0.994    43 C    0.978
                           106 H    0.966
    45   6 C    3.993 --    44 C    1.010   108 H    0.987   109 H    0.985
                           107 H    0.982
    46   6 C    3.993 --    44 C    0.994   110 H    0.972   111 H    0.970
                            47 C    0.967
    47   6 C    3.960 --    48 O    0.981    46 C    0.967    50 C    0.957
                           112 H    0.943
    48   8 O    2.077 --    49 C    0.994    47 C    0.981
    49   6 C    3.953 --    48 O    0.994   113 H    0.979   114 H    0.978
                           115 H    0.978
    50   6 C    3.921 --    51 O    1.878    52 C    1.009    47 C    0.957
    51   8 O    2.076 --    50 C    1.878
    52   6 C    3.992 --    50 C    1.009   116 H    0.979   118 H    0.970
                           117 H    0.953
    53   6 C    3.982 --     6 C    0.989    13 C    0.988   120 H    0.960
                           119 H    0.952
    54   1 H    0.999 --     1 C    0.979
    55   1 H    0.997 --     1 C    0.981
    56   1 H    0.999 --     1 C    0.978
    57   1 H    0.996 --     3 C    0.969
    58   1 H    0.998 --     3 C    0.965
    59   1 H    0.997 --     4 C    0.969
    60   1 H    0.999 --     4 C    0.967
    61   1 H    0.999 --     6 C    0.958
    62   1 H    0.999 --     7 C    0.978
    63   1 H    0.997 --     7 C    0.967
    64   1 H    0.999 --     8 C    0.975
    65   1 H    0.994 --     9 C    0.956
    66   1 H    0.999 --     9 C    0.974
    67   1 H    0.999 --    10 C    0.970
    68   1 H    0.997 --    10 C    0.974
    69   1 H    0.997 --    11 C    0.965
    70   1 H    0.999 --    12 C    0.980
    71   1 H    0.998 --    12 C    0.983
    72   1 H    0.999 --    12 C    0.985
    73   1 H    0.909 --    14 O    0.883
    74   1 H    0.996 --    20 C    0.964
    75   1 H    0.998 --    20 C    0.965
    76   1 H    0.997 --    21 C    0.973
    77   1 H    0.998 --    21 C    0.975
    78   1 H    0.998 --    22 C    0.979
    79   1 H    0.998 --    22 C    0.979
    80   1 H    0.997 --    23 C    0.975
    81   1 H    0.997 --    23 C    0.974
    82   1 H    0.992 --    24 C    0.955
    83   1 H    0.997 --    28 C    0.957
    84   1 H    0.994 --    30 C    0.976
    85   1 H    0.995 --    30 C    0.964
    86   1 H    0.998 --    30 C    0.980
    87   1 H    0.999 --    32 C    0.970
    88   1 H    0.997 --    32 C    0.974
    89   1 H    0.998 --    32 C    0.971
    90   1 H    0.999 --    33 C    0.971
    91   1 H    0.998 --    33 C    0.974
    92   1 H    0.998 --    34 C    0.980
    93   1 H    0.998 --    34 C    0.976
    94   1 H    0.997 --    35 C    0.962
    95   1 H    0.994 --    35 C    0.957
    96   1 H    0.998 --    36 C    0.969
    97   1 H    0.998 --    37 C    0.960
    98   1 H    0.999 --    38 C    0.962
    99   1 H    0.999 --    39 C    0.962
   100   1 H    0.999 --    40 C    0.957
   101   1 H    0.996 --    42 C    0.967
   102   1 H    0.997 --    42 C    0.970
   103   1 H    0.998 --    42 C    0.980
   104   1 H    0.998 --    43 C    0.976
   105   1 H    0.996 --    43 C    0.962
   106   1 H    0.999 --    44 C    0.966
   107   1 H    0.996 --    45 C    0.982
   108   1 H    0.999 --    45 C    0.987
   109   1 H    0.999 --    45 C    0.985
   110   1 H    0.999 --    46 C    0.972
   111   1 H    0.998 --    46 C    0.970
   112   1 H    0.999 --    47 C    0.943
   113   1 H    0.996 --    49 C    0.979
   114   1 H    0.999 --    49 C    0.978
   115   1 H    0.999 --    49 C    0.978
   116   1 H    0.994 --    52 C    0.979
   117   1 H    0.994 --    52 C    0.953
   118   1 H    0.997 --    52 C    0.970
   119   1 H    0.994 --    53 C    0.952
   120   1 H    0.991 --    53 C    0.960
   121   5 B    3.477 --   190 N    1.282   173 B    1.000   167 B    0.969
   122   7 N    3.398 --   167 B    1.143   180 N    1.007   179 B    1.001
   123   5 B    3.464 --   168 N    1.276   191 B    0.978   179 B    0.958
   124   7 N    3.530 --   183 B    1.152   181 B    1.150   151 B    1.018
   125   5 B    3.464 --   158 N    1.241   187 B    0.996   161 B    0.990
   126   7 N    3.263 --   147 B    1.200   189 B    0.967   184 N    0.888
   127   5 B    3.407 --   160 N    1.176   134 N    1.034   143 B    0.963
   128   7 N    3.568 --   141 B    1.277   129 B    1.158   185 B    0.973
   129   5 B    3.393 --   128 N    1.158   171 B    0.932   169 B    0.640
                           133 B    0.294
   130   7 N    3.323 --   135 B    1.113   174 N    1.043   186 N    0.945
   131   5 B    3.433 --   132 N    1.187   142 N    1.127   170 N    0.961
   132   7 N    3.446 --   131 B    1.187   159 B    1.086   172 N    0.967
   133   5 B    3.456 --   169 B    1.284   185 B    1.004   183 B    0.626
                           129 B    0.294
   134   7 N    3.429 --   137 B    1.233   127 B    1.034   148 N    0.929
   135   5 B    3.390 --   130 N    1.113   154 N    1.039   181 B    1.005
   136   7 N    3.510 --   139 B    1.206   159 B    1.123   156 N    0.999
   137   5 B    3.514 --   134 N    1.233   162 N    1.072   182 N    1.001
   138   7 N    3.350 --   187 B    1.143   190 N    0.990   140 N    0.983
   139   5 B    3.414 --   136 N    1.206   157 B    1.008   171 B    0.926
   140   7 N    3.327 --   175 B    1.136   138 N    0.983   144 N    0.973
   141   5 B    3.464 --   128 N    1.277   155 B    0.978   165 B    0.932
   142   7 N    3.218 --   131 B    1.127   145 B    1.067   170 N    0.792
   143   5 B    3.368 --   156 N    1.152   148 N    0.992   127 B    0.963
   144   7 N    3.096 --   162 N    1.013   140 N    0.973   188 N    0.938
   145   5 B    3.511 --   182 N    1.246   142 N    1.067   160 N    0.989
   146   7 N    3.434 --   151 B    1.202   179 B    1.062   167 B    0.925
   147   5 B    3.481 --   126 N    1.200   164 N    1.042   150 N    0.981
   148   7 N    3.282 --   153 B    1.169   143 B    0.992   134 N    0.929
   149   5 B    3.524 --   184 N    1.210   188 N    1.121   176 N    1.034
   150   7 N    3.430 --   163 B    1.220   177 B    0.993   147 B    0.981
   151   5 B    3.520 --   146 N    1.202   192 N    1.099   124 N    1.018
   152   7 N    3.442 --   189 B    1.261   163 B    0.998   178 N    0.990
   153   5 B    3.445 --   148 N    1.169   180 N    1.123   191 B    0.923
   154   7 N    3.469 --   155 B    1.260   135 B    1.039   186 N    0.984
   155   5 B    3.421 --   154 N    1.260   141 B    0.978   163 B    0.959
   156   7 N    3.511 --   191 B    1.172   143 B    1.152   136 N    0.999
   157   5 B    3.347 --   169 B    1.009   139 B    1.008   168 N    0.963
   158   7 N    3.509 --   125 B    1.241   161 B    1.093   164 N    1.035
   159   5 B    3.515 --   136 N    1.123   160 N    1.104   132 N    1.086
   160   7 N    3.477 --   127 B    1.176   159 B    1.104   145 B    0.989
   161   5 B    3.464 --   166 N    1.179   158 N    1.093   125 B    0.990
   162   7 N    3.262 --   137 B    1.072   144 N    1.013   176 N    0.975
   163   5 B    3.391 --   150 N    1.220   152 N    0.998   155 B    0.959
   164   7 N    3.372 --   147 B    1.042   158 N    1.035   177 B    0.985
   165   5 B    3.454 --   178 N    1.191   172 N    1.079   141 B    0.932
   166   7 N    3.406 --   161 B    1.179   173 B    1.072   174 N    0.959
   167   5 B    3.365 --   122 N    1.143   121 B    0.969   146 N    0.925
                           179 B    0.127
   168   7 N    3.561 --   123 B    1.276   183 B    1.105   157 B    0.963
   169   5 B    3.367 --   133 B    1.284   157 B    1.009   129 B    0.640
                           183 B    0.186
   170   7 N    2.986 --   178 N    1.045   131 B    0.961   142 N    0.792
   171   5 B    3.455 --   172 N    1.266   129 B    0.932   139 B    0.926
   172   7 N    3.481 --   171 B    1.266   165 B    1.079   132 N    0.967
   173   5 B    3.442 --   192 N    1.131   166 N    1.072   121 B    1.000
   174   7 N    3.186 --   130 N    1.043   166 N    0.959   192 N    0.950
   175   5 B    3.523 --   180 N    1.163   140 N    1.136   190 N    0.994
   176   7 N    3.217 --   149 B    1.034   182 N    0.984   162 N    0.975
   177   5 B    3.507 --   186 N    1.265   150 N    0.993   164 N    0.985
   178   7 N    3.440 --   165 B    1.191   170 N    1.045   152 N    0.990
   179   5 B    3.327 --   146 N    1.062   122 N    1.001   123 B    0.958
                           167 B    0.127
   180   7 N    3.491 --   175 B    1.163   153 B    1.123   122 N    1.007
   181   5 B    3.386 --   124 N    1.150   135 B    1.005   185 B    1.002
   182   7 N    3.446 --   145 B    1.246   137 B    1.001   176 N    0.984
   183   5 B    3.444 --   124 N    1.152   168 N    1.105   133 B    0.626
                           169 B    0.186   185 B    0.120
   184   7 N    3.332 --   149 B    1.210   189 B    1.036   126 N    0.888
   185   5 B    3.334 --   133 B    1.004   181 B    1.002   128 N    0.973
                           183 B    0.120
   186   7 N    3.440 --   177 B    1.265   154 N    0.984   130 N    0.945
   187   5 B    3.447 --   138 N    1.143   188 N    1.116   125 B    0.996
   188   7 N    3.393 --   149 B    1.121   187 B    1.116   144 N    0.938
   189   5 B    3.439 --   152 N    1.261   184 N    1.036   126 N    0.967
   190   7 N    3.475 --   121 B    1.282   175 B    0.994   138 N    0.990
   191   5 B    3.360 --   156 N    1.172   123 B    0.978   153 B    0.923
   192   7 N    3.418 --   173 B    1.131   151 B    1.099   174 N    0.950
 ---------------------------------------------------------------------------

Topologies differ in total number of bonds
Writing topology from bond orders to xtbtopo.mol

molecular dipole:
                 x           y           z       tot (Debye)
 q only:        3.226       0.719      -1.844
   full:        1.597      -0.437       0.861       4.744
molecular quadrupole (traceless):
                xx          xy          yy          xz          yz          zz
 q only:      -86.322      35.183     -60.749      91.123     -60.379     147.071
  q+dip:      -88.514      47.213     -71.818     102.068     -67.943     160.332
   full:      -83.734      49.451     -71.124     104.837     -67.647     154.858


           -------------------------------------------------
          | TOTAL ENERGY             -317.801246146397 Eh   |
          | GRADIENT NORM               0.133609021854 Eh/α |
          | HOMO-LUMO GAP               0.346152813792 eV   |
           -------------------------------------------------

------------------------------------------------------------------------
 * finished run on 2026/08/31 at 21:13:42.422     
------------------------------------------------------------------------
 total:
 * wall-time:     0 d,  0 h,  0 min,  2.883 sec
 *  cpu-time:     0 d,  0 h,  0 min, 30.828 sec
 * ratio c/w:    10.693 speedup
 SCF:
 * wall-time:     0 d,  0 h,  0 min,  2.802 sec
 *  cpu-time:     0 d,  0 h,  0 min, 29.891 sec
 * ratio c/w:    10.668 speedup

normal termination of xtb
