      -----------------------------------------------------------      
     |                   =====================                   |     
     |                           x T B                           |     
     |                   =====================                   |     
     |                         S. Grimme                         |     
     |          Mulliken Center for Theoretical Chemistry        |     
     |                    University of Bonn                     |     
      -----------------------------------------------------------      

   * xtb version 6.7.1pre (5071a88) compiled by 'Marcel@Raven' on 2024-07-23

   xtb is free software: you can redistribute it and/or modify it under
   the terms of the GNU Lesser General Public License as published by
   the Free Software Foundation, either version 3 of the License, or
   (at your option) any later version.
   
   xtb is distributed in the hope that it will be useful,
   but WITHOUT ANY WARRANTY; without even the implied warranty of
   MERCHANTABILITY or FITNESS FOR A PARTICULAR PURPOSE.  See the
   GNU Lesser General Public License for more details.
   
   Cite this work as:
   * C. Bannwarth, E. Caldeweyher, S. Ehlert, A. Hansen, P. Pracht,
     J. Seibert, S. Spicher, S. Grimme, WIREs Comput. Mol. Sci., 2020, 11,
     e01493. DOI: 10.1002/wcms.1493
   
   for GFN2-xTB:
   * C. Bannwarth, S. Ehlert and S. Grimme., J. Chem. Theory Comput., 2019,
     15, 1652-1671. DOI: 10.1021/acs.jctc.8b01176
   for GFN1-xTB:
   * S. Grimme, C. Bannwarth, P. Shushkov, J. Chem. Theory Comput., 2017,
     13, 1989-2009. DOI: 10.1021/acs.jctc.7b00118
   for GFN0-xTB:
   * P. Pracht, E. Caldeweyher, S. Ehlert, S. Grimme, ChemRxiv, 2019, preprint.
     DOI: 10.26434/chemrxiv.8326202.v1
   for GFN-FF:
   * S. Spicher and S. Grimme, Angew. Chem. Int. Ed., 2020, 59, 15665-15673.
     DOI: 10.1002/anie.202004239
   
   for ALPB and GBSA implicit solvation:
   * S. Ehlert, M. Stahn, S. Spicher, S. Grimme, J. Chem. Theory Comput.,
     2021, 17, 4250-4261. DOI: 10.1021/acs.jctc.1c00471
   
   for ddCOSMO and CPCM-X implicit solvation:
   * M. Stahn, S. Ehlert, S. Grimme, J. Phys. Chem. A,
     2023, XX, XXXX-XXXX. DOI: 10.1021/acs.jpca.3c04382
   
   for DFT-D4:
   * E. Caldeweyher, C. Bannwarth and S. Grimme, J. Chem. Phys., 2017,
     147, 034112. DOI: 10.1063/1.4993215
   * E. Caldeweyher, S. Ehlert, A. Hansen, H. Neugebauer, S. Spicher,
     C. Bannwarth and S. Grimme, J. Chem. Phys., 2019, 150, 154122.
     DOI: 10.1063/1.5090222
   * E. Caldeweyher, J.-M. Mewes, S. Ehlert and S. Grimme, Phys. Chem. Chem. Phys.
     2020, 22, 8499-8512. DOI: 10.1039/D0CP00502A
   
   for sTDA-xTB:
   * S. Grimme and C. Bannwarth, J. Chem. Phys., 2016, 145, 054103.
     DOI: 10.1063/1.4959605
   
   in the mass-spec context:
   * V. Asgeirsson, C. Bauer and S. Grimme, Chem. Sci., 2017, 8, 4879.
     DOI: 10.1039/c7sc00601b
   * J. Koopman and S. Grimme, ACS Omega 2019, 4, 12, 15120-15133.
     DOI: 10.1021/acsomega.9b02011
   
   for metadynamics refer to:
   * S. Grimme, J. Chem. Theory Comput., 2019, 155, 2847-2862
     DOI: 10.1021/acs.jctc.9b00143
   
   for SPH calculations refer to:
   * S. Spicher and S. Grimme, J. Chem. Theory Comput., 2021, 17, 1701-1714
     DOI: 10.1021/acs.jctc.0c01306
   
   for ONIOM refer to:
   * C. Plett, A. Katbashev, S. Ehlert, S. Grimme, M. Bursch,
     Phys. Chem. Chem. Phys., 2023, 25, 17860-17868. DOI: 10.1039/D3CP02178E
   
   for DIPRO refer to:
   * J. Kohn, N. Gildemeister, S. Grimme, D. Fazzi, A. Hansen,
     J. Chem. Phys., 2023, just accepted.
   
   for PTB refer to:
   * S. Grimme, M. Mueller, A. Hansen, J. Chem. Phys., 2023, 158, 124111.
     DOI: 10.1063/5.0137838
   
   with help from (in alphabetical order)
   P. Atkinson, C. Bannwarth, F. Bohle, G. Brandenburg, E. Caldeweyher
   M. Checinski, S. Dohm, S. Ehlert, S. Ehrlich, I. Gerasimov, C. Hölzer
   A. Katbashev, J. Kohn, J. Koopman, C. Lavigne, S. Lehtola, F. März, M. Müller,
   F. Musil, H. Neugebauer, J. Pisarek, C. Plett, P. Pracht, F. Pultar,
   J. Seibert, P. Shushkov, S. Spicher, M. Stahn, M. Steiner, T. Strunk,
   J. Stückrath, T. Rose, and J. Unsleber
   
 * started run on 2026/08/31 at 18:40:13.878     
   ID    Z sym.   atoms
    1    6 C      1, 3, 4, 6-13, 15, 17, 20-25, 28-30, 32-47, 49, 50, 52, 53
    2    8 O      2, 5, 14, 16, 18, 26, 27, 31, 48, 51
    3    7 N      19, 157-192
    4    1 H      54-120
    5    5 B      121-156

           -------------------------------------------------
          |                Calculation Setup                |
           -------------------------------------------------

          program call               : "c:\Users\Andre\Proyectos doctorado\kras-pancreatic-gC3N4-ai\tools\xtb\xtb-6.7.1\bin\xtb.exe" "c:\Users\Andre\Proyectos doctorado\nano-qsar-ai-therapeutics\calculations\tnbc\Everolimus\Everolimus_B36N36_complex.xyz" --gfn 2 --sp --chrg 0 --uhf 0 --iterations 500 --norestart
          coordinate file            : c:\Users\Andre\Proyectos doctorado\nano-qsar-ai-therapeutics\calculations\tnbc\Everolimus\Everolimus_B36N36_complex.xyz
          omp threads                :                    16


molecular fragmentation (1/2 indicates fragments):
111111111111111111111111111111111111111111111111111111111111111111111111
111111111111111111111111111111111111111111111111111111111111112112111111
111111111111111111111111212112111111111111111111
# atoms in fragment 1/2:   187     5
 fragment masses (1/2) :     1575.78       63.64
CMA distance (Bohr)    :   7.790
constraining FC (au)   :  0.0500

           -------------------------------------------------
          |                 G F N 2 - x T B                 |
           -------------------------------------------------

        Reference                      10.1021/acs.jctc.8b01176
      * Hamiltonian:
        H0-scaling (s, p, d)           1.850000    2.230000    2.230000
        zeta-weighting                 0.500000
      * Dispersion:
        s8                             2.700000
        a1                             0.520000
        a2                             5.000000
        s9                             5.000000
      * Repulsion:
        kExp                           1.500000    1.000000
        rExp                           1.000000
      * Coulomb:
        alpha                          2.000000
        third order                    shell-resolved
        anisotropic                    true
        a3                             3.000000
        a5                             4.000000
        cn-shift                       1.200000
        cn-exp                         4.000000
        max-rad                        5.000000


          ...................................................
          :                      SETUP                      :
          :.................................................:
          :  # basis functions                 567          :
          :  # atomic orbitals                 567          :
          :  # shells                          317          :
          :  # electrons                       588          :
          :  max. iterations                   500          :
          :  Hamiltonian                  GFN2-xTB          :
          :  restarted?                      false          :
          :  GBSA solvation                  false          :
          :  PC potential                    false          :
          :  electronic temp.          300.0000000     K    :
          :  accuracy                    1.0000000          :
          :  -> integral cutoff          0.2500000E+02      :
          :  -> integral neglect         0.1000000E-07      :
          :  -> SCF convergence          0.1000000E-05 Eh   :
          :  -> wf. convergence          0.1000000E-03 e    :
          :  Broyden damping             0.4000000          :
          :  net charge                          0          :
          :  unpaired electrons                  0          :
          ...................................................

 iter      E             dE          RMSdq      gap      omega  full diag
   1   -294.9019407 -0.294902E+03  0.116E+01    0.03       0.0  T
   2   -117.9951802  0.176907E+03  0.125E+01    0.08       1.0  T
   3    610.3133340  0.728309E+03  0.162E+01    0.05       1.0  T
   4    541.9054398 -0.684079E+02  0.151E+01    0.07       1.0  T
   5   -295.9875759 -0.837893E+03  0.687E+00    0.04       1.0  T
   6   -306.8671935 -0.108796E+02  0.495E+00    0.20       1.0  T
   7   -297.7949742  0.907222E+01  0.416E+00    0.17       1.0  T
   8   -302.1953294 -0.440036E+01  0.424E+00    0.28       1.0  T
   9   -308.7867505 -0.659142E+01  0.283E+00    0.02       1.0  T
  10   -304.3174481  0.446930E+01  0.284E+00    0.10       1.0  T
  11   -306.7332454 -0.241580E+01  0.264E+00    0.10       1.0  T
  12   -308.5529921 -0.181975E+01  0.207E+00    0.14       1.0  T
  13   -305.0328776  0.352011E+01  0.233E+00    0.07       1.0  T
  14   -312.7134338 -0.768056E+01  0.143E+00    0.07       1.0  T
  15   -313.3425946 -0.629161E+00  0.122E+00    0.07       1.0  T
  16   -313.2978829  0.447117E-01  0.118E+00    0.02       1.0  T
  17   -313.5601882 -0.262305E+00  0.105E+00    0.08       1.0  T
  18   -313.7193843 -0.159196E+00  0.112E+00    0.11       1.0  T
  19   -313.6594673  0.599171E-01  0.118E+00    0.13       1.0  T
  20   -313.3745249  0.284942E+00  0.135E+00    0.27       1.0  T
  21   -313.7010829 -0.326558E+00  0.937E-01    0.11       1.0  T
  22   -313.9179402 -0.216857E+00  0.478E-01    0.04       1.0  T
  23   -313.9828464 -0.649062E-01  0.417E-01    0.03       1.0  T
  24   -313.9891399 -0.629348E-02  0.377E-01    0.03       1.0  T
  25   -313.9866655  0.247441E-02  0.419E-01    0.07       1.0  T
  26   -314.0174894 -0.308239E-01  0.270E-01    0.03       1.0  T
  27   -314.0218805 -0.439109E-02  0.361E-01    0.08       1.0  T
  28   -314.0357611 -0.138807E-01  0.332E-01    0.08       1.0  T
  29   -314.0293024  0.645872E-02  0.334E-01    0.08       1.0  T
  30   -313.9750074  0.542950E-01  0.644E-01    0.02       1.0  T
  31   -314.0063179 -0.313104E-01  0.539E-01    0.03       1.0  T
  32   -313.4701766  0.536141E+00  0.147E+00    0.10       1.0  T
  33   -313.5719003 -0.101724E+00  0.134E+00    0.11       1.0  T
  34   -314.0228763 -0.450976E+00  0.444E-01    0.01       1.0  T
  35   -313.6965769  0.326299E+00  0.115E+00    0.08       1.0  T
  36   -314.0728988 -0.376322E+00  0.978E-02    0.03       1.0  T
  37   -314.0669746  0.592419E-02  0.150E-01    0.03       1.0  T
  38   -314.0758973 -0.892269E-02  0.531E-02    0.04       1.0  T
  39   -314.0583812  0.175161E-01  0.244E-01    0.03       1.0  T
  40   -314.0657468 -0.736554E-02  0.190E-01    0.04       1.0  T
  41   -314.0369620  0.287848E-01  0.353E-01    0.02       1.0  T
  42   -314.0719954 -0.350334E-01  0.131E-01    0.03       1.0  T
  43   -314.0737319 -0.173651E-02  0.107E-01    0.03       1.0  T
  44   -314.0767591 -0.302722E-02  0.435E-02    0.03       1.0  T
  45   -314.0772430 -0.483926E-03  0.128E-02    0.04       1.0  T
  46   -314.0772250  0.180861E-04  0.145E-02    0.04       1.0  T
  47   -314.0768537  0.371283E-03  0.362E-02    0.04       1.0  T
  48   -314.0767153  0.138384E-03  0.406E-02    0.04       1.0  T
  49   -314.0772485 -0.533233E-03  0.894E-03    0.04       1.0  T
  50   -314.0772744 -0.258900E-04  0.238E-03    0.04       3.0  T
  51   -314.0772775 -0.308302E-05  0.184E-03    0.04       3.9  T
  52   -314.0772731  0.443020E-05  0.441E-03    0.04       1.6  T
  53   -314.0772775 -0.445514E-05  0.148E-03    0.04       4.9  T
  54   -314.0772777 -0.128658E-06  0.126E-03    0.04       5.7  T
  55   -314.0772781 -0.414858E-06  0.288E-04    0.04      25.1  T
  56   -314.0772781 -0.266476E-08  0.261E-04    0.04      27.6  T

   *** convergence criteria satisfied after 56 iterations ***

         #    Occupation            Energy/Eh            Energy/eV
      -------------------------------------------------------------
         1        2.0000           -1.0883600             -29.6158
       ...           ...                  ...                  ...
       288        2.0000           -0.2240791              -6.0975
       289        2.0000           -0.2229691              -6.0673
       290        2.0000           -0.2161619              -5.8821
       291        2.0000           -0.2099568              -5.7132
       292        2.0000           -0.1914119              -5.2086
       293        1.9782           -0.1842771              -5.0144
       294        1.1908           -0.1803624              -4.9079 (HOMO)
       295        0.5356           -0.1790398              -4.8719 (LUMO)
       296        0.2943           -0.1783260              -4.8525
       297        0.0010           -0.1727709              -4.7013
       298        0.0001           -0.1709488              -4.6518
       299                         -0.1633101              -4.4439
       ...                                ...                  ...
       567                         67.2087299            1828.8426
      -------------------------------------------------------------
                  HL-Gap            0.0013226 Eh            0.0360 eV
             Fermi-level           -0.1799954 Eh           -4.8979 eV

 SCC (total)                   0 d,  0 h,  0 min,  2.886 sec
 SCC setup                      ...        0 min,  0.001 sec (  0.035%)
 Dispersion                     ...        0 min,  0.009 sec (  0.312%)
 classical contributions        ...        0 min,  0.000 sec (  0.000%)
 integral evaluation            ...        0 min,  0.025 sec (  0.866%)
 iterations                     ...        0 min,  2.767 sec ( 95.877%)
 molecular gradient             ...        0 min,  0.079 sec (  2.737%)
 printout                       ...        0 min,  0.005 sec (  0.173%)

         :::::::::::::::::::::::::::::::::::::::::::::::::::::
         ::                     SUMMARY                     ::
         :::::::::::::::::::::::::::::::::::::::::::::::::::::
         :: total energy             -75.249846013086 Eh    ::
         :: gradient norm            168.805607769195 Eh/a0 ::
         :: HOMO-LUMO gap              0.035988422360 eV    ::
         ::.................................................::
         :: SCC energy              -314.022439304278 Eh    ::
         :: -> isotropic ES            1.193848253888 Eh    ::
         :: -> anisotropic ES          0.171105371425 Eh    ::
         :: -> anisotropic XC          0.321593962289 Eh    ::
         :: -> dispersion             -0.461377642481 Eh    ::
         :: repulsion energy         238.772593291191 Eh    ::
         :: add. restraining           0.000000000000 Eh    ::
         :: total charge              -0.000000000007 e     ::
         :::::::::::::::::::::::::::::::::::::::::::::::::::::

           -------------------------------------------------
          |                Property Printout                |
           -------------------------------------------------

    * Orbital Energies and Occupations

         #    Occupation            Energy/Eh            Energy/eV
      -------------------------------------------------------------
         1        2.0000           -1.0883600             -29.6158
       ...           ...                  ...                  ...
       282        2.0000           -0.2557160              -6.9584
       283        2.0000           -0.2507492              -6.8232
       284        2.0000           -0.2487199              -6.7680
       285        2.0000           -0.2426094              -6.6017
       286        2.0000           -0.2292218              -6.2374
       287        2.0000           -0.2243142              -6.1039
       288        2.0000           -0.2240791              -6.0975
       289        2.0000           -0.2229691              -6.0673
       290        2.0000           -0.2161619              -5.8821
       291        2.0000           -0.2099568              -5.7132
       292        2.0000           -0.1914119              -5.2086
       293        1.9782           -0.1842771              -5.0144
       294        1.1908           -0.1803624              -4.9079 (HOMO)
       295        0.5356           -0.1790398              -4.8719 (LUMO)
       296        0.2943           -0.1783260              -4.8525
       297        0.0010           -0.1727709              -4.7013
       298        0.0001           -0.1709488              -4.6518
       299                         -0.1633101              -4.4439
       300                         -0.1626202              -4.4251
       301                         -0.1602777              -4.3614
       302                         -0.1534234              -4.1749
       303                         -0.1482347              -4.0337
       304                         -0.1449952              -3.9455
       305                         -0.1374432              -3.7400
       ...                                ...                  ...
       567                         67.2087299            1828.8426
      -------------------------------------------------------------
                  HL-Gap            0.0013226 Eh            0.0360 eV
             Fermi-level           -0.1799954 Eh           -4.8979 eV

     #   Z          covCN         q      C6AA      α(0)
     1   6 C        3.645     0.033    20.353     6.484
     2   8 O        1.697    -0.321    19.358     5.940
     3   6 C        3.694     0.058    19.770     6.361
     4   6 C        3.685     0.065    19.684     6.352
     5   8 O        1.695    -0.378    20.420     6.101
     6   6 C        4.908     0.081    19.148     6.214
     7   6 C        5.698     0.041    19.799     6.319
     8   6 C        8.243    -0.172    23.751     6.921
     9   6 C        7.755    -0.055    21.477     6.582
    10   6 C        4.692    -0.232    25.023     7.104
    11   6 C        3.842    -0.076    21.921     6.660
    12   6 C        3.911    -0.298    26.565     7.326
    13   6 C        3.756     0.027    20.178     6.405
    14   8 O        1.648    -0.513    23.178     6.499
    15   6 C        4.138    -0.193    24.185     6.985
    16   8 O        0.856    -0.664    27.734     7.061
    17   6 C        7.621     0.026    20.045     6.358
    18   8 O        4.277     0.228    11.833     4.646
    19   7 N        7.472    -0.376    29.699     8.094
    20   6 C        4.451    -0.064    21.632     6.605
    21   6 C        3.801    -0.111    22.616     6.771
    22   6 C        3.805    -0.116    22.711     6.784
    23   6 C        5.459    -0.185    24.014     6.959
    24   6 C        6.277     0.370    15.175     5.532
    25   6 C        4.849    -0.067    21.688     6.614
    26   8 O        3.204    -0.318    19.274     5.929
    27   8 O        1.698    -0.425    21.315     6.233
    28   6 C        3.723     0.049    19.858     6.364
    29   6 C        3.764     0.072    19.410     6.280
    30   6 C        5.418    -0.477    31.217     7.935
    31   8 O        2.319    -0.495    22.715     6.437
    32   6 C        7.405    -0.213    24.616     7.046
    33   6 C        5.333    -0.339    27.514     7.449
    34   6 C        8.856    -0.115    22.602     6.752
    35   6 C        3.808    -0.180    23.996     6.973
    36   6 C        5.606    -0.276    26.020     7.244
    37   6 C        7.762    -0.284    26.203     7.270
    38   6 C        8.107     0.148    18.119     6.045
    39   6 C        6.341    -0.045    21.281     6.551
    40   6 C        3.400    -0.181    28.183     8.201
    41   6 C        2.937    -0.080    29.994     8.982
    42   6 C        3.752    -0.107    22.613     6.781
    43   6 C        3.807    -0.070    21.828     6.651
    44   6 C        3.844    -0.012    20.756     6.481
    45   6 C        3.751    -0.106    22.586     6.777
    46   6 C        3.798    -0.064    21.724     6.636
    47   6 C        3.742     0.096    19.071     6.230
    48   8 O        1.698    -0.307    19.123     5.904
    49   6 C        3.643     0.045    20.164     6.456
    50   6 C        2.807     0.170    24.335     8.082
    51   8 O        0.856    -0.430    22.300     6.331
    52   6 C        3.750    -0.135    23.152     6.862
    53   6 C        6.786    -0.255    25.534     7.176
    54   1 H        0.924     0.027     2.633     2.538
    55   1 H        0.924     0.060     2.201     2.320
    56   1 H        0.924     0.039     2.456     2.451
    57   1 H        0.924     0.065     2.141     2.288
    58   1 H        0.924     0.054     2.272     2.357
    59   1 H        0.924     0.061     2.182     2.310
    60   1 H        0.924     0.022     2.699     2.569
    61   1 H        0.925     0.037     2.485     2.465
    62   1 H        0.923    -0.048     4.049     3.147
    63   1 H        1.364    -0.052     4.106     3.163
    64   1 H        0.923    -0.107     5.811     3.770
    65   1 H        4.481     0.565     0.264     0.803
    66   1 H        2.806     0.016     2.771     2.599
    67   1 H        0.924    -0.043     3.924     3.098
    68   1 H        0.923     0.003     2.999     2.708
    69   1 H        0.923     0.042     2.429     2.437
    70   1 H        1.843     0.214     1.024     1.580
    71   1 H        0.924    -0.029     3.621     2.976
    72   1 H        0.924     0.023     2.693     2.566
    73   1 H        0.803     0.308     0.699     1.313
    74   1 H        0.924     0.027     2.625     2.534
    75   1 H        0.972     0.103     1.753     2.069
    76   1 H        0.924     0.061     2.192     2.315
    77   1 H        0.924     0.066     2.128     2.281
    78   1 H        0.924     0.110     1.695     2.036
    79   1 H        0.924     0.028     2.613     2.528
    80   1 H        0.925    -0.034     3.720     3.016
    81   1 H        0.924     0.076     2.026     2.226
    82   1 H        2.744     0.505     0.324     0.888
    83   1 H        0.924     0.075     2.029     2.228
    84   1 H        0.927     0.099     1.789     2.092
    85   1 H        2.677     0.344     0.587     1.196
    86   1 H        0.958     0.181     1.201     1.713
    87   1 H        2.472     0.229     0.955     1.525
    88   1 H        3.310     0.493     0.337     0.907
    89   1 H        1.662     0.200     1.092     1.632
    90   1 H        0.924     0.108     1.715     2.048
    91   1 H        1.505     0.165     1.285     1.770
    92   1 H        4.548     0.687     0.181     0.665
    93   1 H        2.055     0.329     0.625     1.235
    94   1 H        0.924     0.039     2.468     2.457
    95   1 H        0.924     0.105     1.738     2.061
    96   1 H        2.447     0.336     0.608     1.217
    97   1 H        2.794     0.357     0.558     1.166
    98   1 H        3.029     0.599     0.237     0.760
    99   1 H        0.986     0.000     3.043     2.726
   100   1 H        0.925     0.021     2.721     2.580
   101   1 H        0.924     0.023     2.687     2.563
   102   1 H        0.924     0.031     2.572     2.508
   103   1 H        0.924    -0.002     3.089     2.748
   104   1 H        0.923     0.022     2.702     2.571
   105   1 H        0.923     0.023     2.689     2.565
   106   1 H        0.924     0.035     2.519     2.482
   107   1 H        0.924     0.060     2.194     2.316
   108   1 H        0.924     0.026     2.651     2.546
   109   1 H        0.924     0.023     2.690     2.565
   110   1 H        0.924     0.028     2.610     2.527
   111   1 H        0.924     0.025     2.664     2.552
   112   1 H        0.923     0.006     2.964     2.692
   113   1 H        0.924     0.049     2.331     2.387
   114   1 H        0.924     0.022     2.697     2.568
   115   1 H        0.924     0.022     2.697     2.568
   116   1 H        0.924     0.064     2.153     2.294
   117   1 H        0.924     0.046     2.368     2.406
   118   1 H        0.924     0.027     2.636     2.539
   119   1 H        3.367     0.446     0.399     0.986
   120   1 H        0.964     0.024     2.673     2.555
   121   5 B        5.109     0.025    22.276     7.605
   122   5 B        8.551     0.210    19.220     7.064
   123   5 B        5.105     0.056    21.730     7.511
   124   5 B        5.102     0.061    21.636     7.495
   125   5 B        5.243     0.123    20.584     7.310
   126   5 B        6.078     0.172    19.811     7.172
   127   5 B        7.732    -0.379    31.563     9.052
   128   5 B        7.592     0.199    19.396     7.096
   129   5 B        8.242     0.000    22.742     7.684
   130   5 B        8.186     0.207    19.278     7.074
   131   5 B        9.090    -0.069    24.078     7.906
   132   5 B        8.364    -0.191    26.713     8.328
   133   5 B        2.164     0.098    37.576    12.660
   134   5 B        6.126     0.018    22.409     7.627
   135   5 B        1.850     0.107    40.811    13.455
   136   5 B        3.517     0.405    15.707     6.573
   137   5 B        1.850     0.011    44.125    13.991
   138   5 B        1.850     0.069    42.088    13.664
   139   5 B        1.850    -0.003    44.639    14.072
   140   5 B        2.640     0.270    17.678     7.094
   141   5 B        1.850     0.081    41.660    13.595
   142   5 B        3.198     0.128    19.261     7.319
   143   5 B        1.850     0.043    42.975    13.807
   144   5 B        4.519     0.129    20.499     7.295
   145   5 B        4.397     0.245    18.717     6.971
   146   5 B        7.450     0.216    19.129     7.047
   147   5 B        4.397     0.254    18.578     6.945
   148   5 B        5.050     0.219    19.085     7.039
   149   5 B        5.253     0.232    18.893     7.003
   150   5 B        6.709    -0.037    23.441     7.801
   151   5 B        5.372     0.335    17.464     6.733
   152   5 B        6.425     0.330    17.537     6.747
   153   5 B        7.968     0.156    20.064     7.217
   154   5 B        8.517     0.107    20.855     7.358
   155   5 B        6.157     0.043    21.955     7.550
   156   5 B        6.469     0.253    18.591     6.947
   157   7 N        4.372    -0.051    22.218     7.001
   158   7 N        6.395    -0.056    22.309     7.015
   159   7 N        4.372    -0.090    22.988     7.121
   160   7 N        4.372    -0.070    22.599     7.060
   161   7 N        4.376    -0.066    22.505     7.046
   162   7 N        5.221    -0.163    24.525     7.355
   163   7 N        7.126     0.491    14.129     5.583
   164   7 N        5.762    -0.251    26.523     7.649
   165   7 N        6.358    -0.041    22.020     6.969
   166   7 N        6.531    -0.315    28.077     7.870
   167   7 N        7.783     0.640    12.550     5.262
   168   7 N        7.991     1.198     8.245     4.265
   169   7 N        0.932    -0.133    23.786     7.042
   170   7 N        4.299     0.165    18.467     6.382
   171   7 N        0.932    -0.154    24.229     7.108
   172   7 N        1.724    -0.587    37.163     9.018
   173   7 N        0.932    -0.130    23.705     7.030
   174   7 N        0.932    -0.067    22.438     6.840
   175   7 N        0.932    -0.098    23.057     6.934
   176   7 N        1.224    -0.456    30.361     7.829
   177   7 N        0.932    -0.136    23.837     7.050
   178   7 N        0.961    -0.246    26.122     7.364
   179   7 N        0.932    -0.075    22.598     6.864
   180   7 N        1.533    -0.291    27.527     7.664
   181   7 N        3.977    -0.392    30.141     8.154
   182   7 N        5.873    -0.488    32.927     8.523
   183   7 N        3.977    -0.356    29.141     8.018
   184   7 N        3.977    -0.436    31.369     8.318
   185   7 N        4.506    -0.432    31.269     8.305
   186   7 N        6.433     0.256    17.115     6.144
   187   7 N        4.057    -0.380    29.793     8.107
   188   7 N        5.509    -0.353    29.081     8.009
   189   7 N        8.035    -0.225    25.907     7.560
   190   7 N        7.010    -0.183    24.946     7.418
   191   7 N        6.531    -0.058    22.364     7.024
   192   7 N        6.129    -0.440    31.473     8.332

 Mol. C6AA /au·bohr⁶  :     484621.491966
 Mol. C8AA /au·bohr⁸  :   12698467.572168
 Mol. α(0) /au        :       1073.050584


Wiberg/Mayer (AO) data.
largest (>0.10) Wiberg bond orders for each atom

 ---------------------------------------------------------------------------
     #   Z sym  total        # sym  WBO       # sym  WBO       # sym  WBO
 ---------------------------------------------------------------------------
     1   6 C    3.954 --     2 O    0.995    55 H    0.980    54 H    0.979
                            56 H    0.978
     2   8 O    2.060 --     1 C    0.995     3 C    0.982
     3   6 C    3.948 --     4 C    0.987     2 O    0.982    57 H    0.969
                            58 H    0.964
     4   6 C    3.946 --     3 C    0.987     5 O    0.974    59 H    0.967
                            60 H    0.966
     5   8 O    2.009 --     4 C    0.974     6 C    0.889
     6   6 C    3.918 --    61 H    0.944    53 C    0.890     5 O    0.889
                             7 C    0.616   189 N    0.184   153 B    0.105
     7   6 C    3.878 --    62 H    0.826    63 H    0.807     8 C    0.641
                             6 C    0.616   189 N    0.587   153 B    0.198
     8   6 C    3.695 --    64 H    0.863   167 N    0.697     7 C    0.641
                           131 B    0.421    34 C    0.330
     9   6 C    3.845 --   167 N    1.582   190 N    0.605    10 C    0.604
                            66 H    0.404   131 B    0.222
    10   6 C    3.926 --    68 H    0.973    11 C    0.957    67 H    0.948
                             9 C    0.604
    11   6 C    3.960 --    12 C    1.005    69 H    0.960    10 C    0.957
                            13 C    0.916
    12   6 C    3.823 --    11 C    1.005    71 H    0.980    72 H    0.979
                            70 H    0.651
    13   6 C    3.879 --    14 O    0.926    11 C    0.916    53 C    0.892
                            15 C    0.888
    14   8 O    1.902 --    13 C    0.926    73 H    0.874
    15   6 C    3.446 --    16 O    1.339    13 C    0.888    17 C    0.270
                           192 N    0.151    19 N    0.137
    16   8 O    1.654 --    15 C    1.339
    17   6 C    3.897 --   168 N    2.709    15 C    0.270    18 O    0.269
                           132 B    0.247
    18   8 O    2.708 --   191 N    1.023   155 B    0.819    17 C    0.269
    19   7 N    3.068 --    20 C    0.910   132 B    0.647    24 C    0.431
                           168 N    0.163    15 C    0.137   170 N    0.127
                            25 C    0.110
    20   6 C    3.943 --    21 C    0.994    74 H    0.970    75 H    0.926
                            19 N    0.910
    21   6 C    3.985 --    22 C    1.003    20 C    0.994    76 H    0.968
                            77 H    0.967
    22   6 C    3.965 --    21 C    1.003    79 H    0.974    78 H    0.950
                            23 C    0.910
    23   6 C    3.942 --    81 H    0.952    22 C    0.910    80 H    0.909
                            24 C    0.421   170 N    0.255   134 B    0.204
    24   6 C    3.678 --   170 N    1.008   134 B    0.966    25 C    0.515
                            19 N    0.431    23 C    0.421
    25   6 C    3.383 --    26 O    1.087    27 O    0.930    24 C    0.515
                           170 N    0.223   134 B    0.114    19 N    0.110
    26   8 O    2.228 --    25 C    1.087   136 B    0.442   140 B    0.400
    27   8 O    2.054 --    25 C    0.930    28 C    0.876
    28   6 C    3.904 --    35 C    0.971    83 H    0.945    29 C    0.907
                            27 O    0.876
    29   6 C    3.898 --    30 C    0.960    33 C    0.952    28 C    0.907
                            31 O    0.868
    30   6 C    3.847 --    29 C    0.960    86 H    0.873    84 H    0.868
                            85 H    0.467   165 N    0.135   142 B    0.111
    31   8 O    2.037 --    29 C    0.868    32 C    0.737
    32   6 C    3.808 --    89 H    0.776    31 O    0.737    87 H    0.537
                           130 B    0.503    88 H    0.367   144 B    0.329
                           180 N    0.155
    33   6 C    3.852 --    29 C    0.952    90 H    0.878    91 H    0.673
                            34 C    0.566   122 B    0.161
    34   6 C    3.874 --    33 C    0.566   122 B    0.547    93 H    0.459
                           146 B    0.454   158 N    0.454     8 C    0.330
                           131 B    0.321   182 N    0.178
    35   6 C    3.963 --    36 C    0.973    28 C    0.971    95 H    0.923
                            94 H    0.908
    36   6 C    3.770 --    37 C    1.239    35 C    0.973    96 H    0.520
                           128 B    0.251   151 B    0.218   164 N    0.137
    37   6 C    3.674 --    36 C    1.239    38 C    0.955    97 H    0.612
                           152 B    0.190
    38   6 C    3.724 --    37 C    0.955   163 N    0.768   186 N    0.664
                            39 C    0.460   127 B    0.362   150 B    0.311
    39   6 C    3.810 --   186 N    0.987    40 C    0.942    99 H    0.773
                            38 C    0.460   163 N    0.279
    40   6 C    3.729 --    41 C    1.498   100 H    0.952    39 C    0.942
    41   6 C    3.702 --    40 C    1.498    42 C    1.020    43 C    1.001
    42   6 C    3.989 --    41 C    1.020   103 H    0.979   102 H    0.975
                           101 H    0.974
    43   6 C    3.987 --    41 C    1.001    44 C    0.978   104 H    0.977
                           105 H    0.967
    44   6 C    3.981 --    45 C    1.009    46 C    0.995    43 C    0.978
                           106 H    0.966
    45   6 C    3.994 --    44 C    1.009   108 H    0.987   109 H    0.986
                           107 H    0.982
    46   6 C    3.984 --    44 C    0.995   110 H    0.973   111 H    0.972
                            47 C    0.972
    47   6 C    3.946 --    46 C    0.972    48 O    0.971   112 H    0.950
                            50 C    0.946
    48   8 O    2.073 --    49 C    1.003    47 C    0.971
    49   6 C    3.962 --    48 O    1.003   113 H    0.981   114 H    0.978
                           115 H    0.978
    50   6 C    3.664 --    51 O    1.678    52 C    0.994    47 C    0.946
    51   8 O    1.833 --    50 C    1.678
    52   6 C    3.995 --    50 C    0.994   116 H    0.982   118 H    0.978
                           117 H    0.966
    53   6 C    3.882 --    13 C    0.892     6 C    0.890   120 H    0.858
                           119 H    0.426   165 N    0.298   129 B    0.111
    54   1 H    0.999 --     1 C    0.979
    55   1 H    0.996 --     1 C    0.980
    56   1 H    0.998 --     1 C    0.978
    57   1 H    0.996 --     3 C    0.969
    58   1 H    0.997 --     3 C    0.964
    59   1 H    0.994 --     4 C    0.967
    60   1 H    0.998 --     4 C    0.966
    61   1 H    0.997 --     6 C    0.944
    62   1 H    0.986 --     7 C    0.826
    63   1 H    0.992 --     7 C    0.807
    64   1 H    0.984 --     8 C    0.863
    65   1 H    0.676 --   190 N    0.272   154 B    0.162
    66   1 H    0.966 --     9 C    0.404   154 B    0.145
    67   1 H    0.995 --    10 C    0.948
    68   1 H    0.998 --    10 C    0.973
    69   1 H    0.993 --    11 C    0.960
    70   1 H    0.954 --    12 C    0.651   166 N    0.257
    71   1 H    0.998 --    12 C    0.980
    72   1 H    0.999 --    12 C    0.979
    73   1 H    0.902 --    14 O    0.874
    74   1 H    0.999 --    20 C    0.970
    75   1 H    0.989 --    20 C    0.926
    76   1 H    0.996 --    21 C    0.968
    77   1 H    0.994 --    21 C    0.967
    78   1 H    0.987 --    22 C    0.950
    79   1 H    0.997 --    22 C    0.974
    80   1 H    0.991 --    23 C    0.909
    81   1 H    0.993 --    23 C    0.952
    82   1 H    0.744 --   134 B    0.356   170 N    0.246
    83   1 H    0.991 --    28 C    0.945
    84   1 H    0.986 --    30 C    0.868
    85   1 H    0.879 --    30 C    0.467   129 B    0.267
    86   1 H    0.962 --    30 C    0.873
    87   1 H    0.942 --    32 C    0.537   154 B    0.258
    88   1 H    0.754 --    32 C    0.367   130 B    0.190
    89   1 H    0.958 --    32 C    0.776
    90   1 H    0.979 --    33 C    0.878
    91   1 H    0.963 --    33 C    0.673   148 B    0.131
    92   1 H    0.526 --   158 N    0.320   122 B    0.109
    93   1 H    0.889 --    34 C    0.459   146 B    0.283
    94   1 H    0.996 --    35 C    0.908
    95   1 H    0.986 --    35 C    0.923
    96   1 H    0.887 --    36 C    0.520   128 B    0.266
    97   1 H    0.865 --    37 C    0.612   188 N    0.181
    98   1 H    0.640 --   127 B    0.366   163 N    0.128
    99   1 H    0.924 --    39 C    0.773
   100   1 H    0.999 --    40 C    0.952
   101   1 H    0.989 --    42 C    0.974
   102   1 H    0.990 --    42 C    0.975
   103   1 H    1.000 --    42 C    0.979
   104   1 H    0.999 --    43 C    0.977
   105   1 H    0.991 --    43 C    0.967
   106   1 H    0.999 --    44 C    0.966
   107   1 H    0.996 --    45 C    0.982
   108   1 H    0.999 --    45 C    0.987
   109   1 H    0.999 --    45 C    0.986
   110   1 H    0.999 --    46 C    0.973
   111   1 H    0.999 --    46 C    0.972
   112   1 H    0.992 --    47 C    0.950
   113   1 H    0.997 --    49 C    0.981
   114   1 H    0.999 --    49 C    0.978
   115   1 H    0.999 --    49 C    0.978
   116   1 H    0.995 --    52 C    0.982
   117   1 H    0.986 --    52 C    0.966
   118   1 H    0.992 --    52 C    0.978
   119   1 H    0.800 --    53 C    0.426   165 N    0.251
   120   1 H    0.995 --    53 C    0.858
   121   5 B    3.705 --   157 N    3.026   127 B    0.218   145 B    0.153
                           147 B    0.149
   122   5 B    3.547 --   158 N    2.323    34 C    0.547   131 B    0.175
                            33 C    0.161    92 H    0.109
   123   5 B    3.660 --   159 N    3.092   137 B    0.182   145 B    0.134
                           146 B    0.103
   124   5 B    3.667 --   160 N    3.059   139 B    0.181   148 B    0.164
                           147 B    0.140
   125   5 B    3.659 --   161 N    3.166   149 B    0.151   141 B    0.145
                           151 B    0.104
   126   5 B    3.620 --   162 N    2.918   150 B    0.267   143 B    0.154
                           152 B    0.119
   127   5 B    3.567 --   163 N    2.115    98 H    0.366    38 C    0.362
                           121 B    0.218   149 B    0.103   150 B    0.100
   128   5 B    3.555 --   164 N    2.720    96 H    0.266    36 C    0.251
                           133 B    0.101
   129   5 B    3.696 --   165 N    2.559    85 H    0.267   155 B    0.245
                            53 C    0.111   153 B    0.102
   130   5 B    3.586 --   166 N    2.628    32 C    0.503    88 H    0.190
   131   5 B    3.233 --   167 N    1.220     8 C    0.421    34 C    0.321
                           154 B    0.232     9 C    0.222   122 B    0.175
                           153 B    0.133
   132   5 B    2.903 --   168 N    0.719    19 N    0.647   134 B    0.315
                            17 C    0.247   155 B    0.179   156 B    0.140
   133   5 B    3.665 --   169 N    3.494   128 B    0.101
   134   5 B    3.551 --   170 N    1.382    24 C    0.966    82 H    0.356
                           132 B    0.315    23 C    0.204    25 C    0.114
   135   5 B    3.653 --   171 N    3.491   138 B    0.129
   136   5 B    3.402 --   172 N    2.875    26 O    0.442
   137   5 B    3.701 --   173 N    3.431   123 B    0.182
   138   5 B    3.676 --   174 N    3.536   135 B    0.129
   139   5 B    3.717 --   175 N    3.471   124 B    0.181
   140   5 B    3.515 --   176 N    3.085    26 O    0.400
   141   5 B    3.681 --   177 N    3.476   125 B    0.145
   142   5 B    3.628 --   178 N    3.331    30 C    0.111
   143   5 B    3.696 --   179 N    3.504   126 B    0.154
   144   5 B    3.592 --   180 N    3.034    32 C    0.329
   145   5 B    3.437 --   181 N    2.874   121 B    0.153   123 B    0.134
   146   5 B    3.513 --   182 N    2.495    34 C    0.454    93 H    0.283
                           123 B    0.103
   147   5 B    3.484 --   183 N    2.913   121 B    0.149   124 B    0.140
   148   5 B    3.441 --   184 N    2.800   124 B    0.164    91 H    0.131
   149   5 B    3.489 --   185 N    3.004   125 B    0.151   127 B    0.103
   150   5 B    2.834 --   186 N    1.681    38 C    0.311   126 B    0.267
                           127 B    0.100
   151   5 B    3.445 --   187 N    2.879    36 C    0.218   125 B    0.104
   152   5 B    3.376 --   188 N    2.694    37 C    0.190   126 B    0.119
   153   5 B    3.262 --   189 N    2.171     7 C    0.198   131 B    0.133
                             6 C    0.105   129 B    0.102
   154   5 B    3.270 --   190 N    1.918    87 H    0.258   131 B    0.232
                            65 H    0.162    66 H    0.145
   155   5 B    3.198 --   191 N    1.500    18 O    0.819   129 B    0.245
                           132 B    0.179
   156   5 B    3.435 --   192 N    2.756   132 B    0.140
   157   7 N    3.633 --   121 B    3.026   183 N    0.120   181 N    0.117
   158   7 N    3.544 --   122 B    2.323    34 C    0.454    92 H    0.320
                           184 N    0.145
   159   7 N    3.587 --   123 B    3.092   181 N    0.145
   160   7 N    3.612 --   124 B    3.059   183 N    0.157
   161   7 N    3.659 --   125 B    3.166   187 N    0.121
   162   7 N    3.564 --   126 B    2.918
   163   7 N    3.788 --   127 B    2.115    38 C    0.768    39 C    0.279
                            98 H    0.128
   164   7 N    3.349 --   128 B    2.720    36 C    0.137
   165   7 N    3.666 --   129 B    2.559    53 C    0.298   119 H    0.251
                            30 C    0.135
   166   7 N    3.435 --   130 B    2.628    70 H    0.257
   167   7 N    3.807 --     9 C    1.582   131 B    1.220     8 C    0.697
   168   7 N    3.947 --    17 C    2.709   132 B    0.719    19 N    0.163
   169   7 N    3.632 --   133 B    3.494
   170   7 N    3.513 --   134 B    1.382    24 C    1.008    23 C    0.255
                            82 H    0.246    25 C    0.223    19 N    0.127
   171   7 N    3.617 --   135 B    3.491   174 N    0.111
   172   7 N    3.058 --   136 B    2.875
   173   7 N    3.595 --   137 B    3.431
   174   7 N    3.668 --   138 B    3.536   171 N    0.111
   175   7 N    3.627 --   139 B    3.471
   176   7 N    3.268 --   140 B    3.085
   177   7 N    3.634 --   141 B    3.476
   178   7 N    3.507 --   142 B    3.331
   179   7 N    3.660 --   143 B    3.504
   180   7 N    3.385 --   144 B    3.034    32 C    0.155
   181   7 N    3.364 --   145 B    2.874   159 N    0.145   157 N    0.117
   182   7 N    3.123 --   146 B    2.495    34 C    0.178
   183   7 N    3.405 --   147 B    2.913   160 N    0.157   157 N    0.120
   184   7 N    3.330 --   148 B    2.800   158 N    0.145
   185   7 N    3.374 --   149 B    3.004
   186   7 N    3.642 --   150 B    1.681    39 C    0.987    38 C    0.664
   187   7 N    3.321 --   151 B    2.879   161 N    0.121
   188   7 N    3.307 --   152 B    2.694    97 H    0.181
   189   7 N    3.469 --   153 B    2.171     7 C    0.587     6 C    0.184
   190   7 N    3.264 --   154 B    1.918     9 C    0.605    65 H    0.272
   191   7 N    3.063 --   155 B    1.500    18 O    1.023
   192   7 N    3.396 --   156 B    2.756    15 C    0.151
 ---------------------------------------------------------------------------

Topologies differ in total number of bonds
Writing topology from bond orders to xtbtopo.mol

molecular dipole:
                 x           y           z       tot (Debye)
 q only:       -3.695       2.394       2.895
   full:       -6.869       3.942       3.787      22.313
molecular quadrupole (traceless):
                xx          xy          yy          xz          yz          zz
 q only:     -198.726      -6.902      81.913      34.618     -29.997     116.813
  q+dip:      -94.979      -4.221     -13.375      67.231     -44.514     108.354
   full:     -103.446      -5.125      -1.748      64.613     -40.034     105.194


           -------------------------------------------------
          | TOTAL ENERGY              -75.249846013086 Eh   |
          | GRADIENT NORM             168.805607769195 Eh/α |
          | HOMO-LUMO GAP               0.035988422360 eV   |
           -------------------------------------------------

------------------------------------------------------------------------
 * finished run on 2026/08/31 at 18:40:16.849     
------------------------------------------------------------------------
 total:
 * wall-time:     0 d,  0 h,  0 min,  2.970 sec
 *  cpu-time:     0 d,  0 h,  0 min, 39.438 sec
 * ratio c/w:    13.279 speedup
 SCF:
 * wall-time:     0 d,  0 h,  0 min,  2.888 sec
 *  cpu-time:     0 d,  0 h,  0 min, 38.547 sec
 * ratio c/w:    13.347 speedup

normal termination of xtb
