192
Drug@B36N36 clean complex
C     -9.760503      3.709080     16.692743
O     -9.292460      4.559476     15.654945
C     -8.233624      3.972268     14.895411
C     -6.871885      4.194480     15.558385
O     -5.815256      3.622350     14.787418
C     -5.609864      2.210960     15.028434
C     -4.429583      2.128099     16.026823
C     -3.774691      0.764628     16.414862
C     -4.311111     -0.504368     15.759387
C     -5.819227     -0.699242     15.691365
C     -6.379070     -0.809607     14.238594
C     -6.038012     -2.202937     13.682395
C     -6.097711      0.367617     13.208301
O     -7.430747      0.919598     12.958313
C     -5.633630     -0.111183     11.777250
O     -6.432562     -0.654327     11.008463
C     -4.188129      0.173111     11.273206
O     -3.762823      1.320844     11.351521
N     -3.441804     -0.859502     10.668120
C     -4.082498     -2.084002     10.194963
C     -3.104593     -3.143221      9.713179
C     -2.135823     -2.614791      8.657861
C     -1.862053     -1.111990      8.760467
C     -2.070958     -0.536515     10.165649
C     -0.928134     -1.000258     11.110723
O     -0.630394     -2.169424     11.328730
O     -0.335279      0.055414     11.744450
C      0.048018     -0.141512     13.157966
C     -1.241943      0.225276     14.008262
C     -1.557853      1.700775     13.672421
O     -2.299381     -0.630493     13.508910
C     -2.171907     -2.038144     13.777178
C     -1.180467      0.076088     15.561566
C     -2.193886      0.861953     16.474518
C      1.276873      0.749383     13.425277
C      2.518696      0.175055     12.787831
C      3.625335     -0.304946     13.378388
C      3.880180     -0.380617     14.800512
C      4.969606     -0.880272     15.409743
C      6.121755     -1.492396     14.782747
C      7.274752     -1.857949     15.380188
C      7.604449     -1.695531     16.840679
C      8.379656     -2.505423     14.557544
C      8.982715     -1.607857     13.446734
C      9.994552     -2.432654     12.644474
C      9.603260     -0.318644     14.043794
C     10.113602      0.723260     13.032416
O     11.277079      0.248596     12.361611
C     12.490249      0.584024     13.017877
C      9.010286      1.133131     12.034909
O      9.085797      0.930141     10.821985
C      7.797642      1.821611     12.613569
C     -5.274859      1.575597     13.677939
H     -8.965775      3.491431     17.411297
H    -10.569485      4.223888     17.218152
H    -10.156199      2.778032     16.275552
H     -8.227888      4.455103     13.911563
H     -8.433359      2.911276     14.709023
H     -6.684760      5.272290     15.623395
H     -6.847676      3.822039     16.588330
H     -6.531191      1.803659     15.444481
H     -4.768144      2.598307     16.962206
H     -3.658571      2.828015     15.681705
H     -4.064940      0.650239     17.472318
H     -3.965313     -0.542636     14.745934
H     -3.879472     -1.363391     16.287204
H     -6.360529      0.043369     16.280554
H     -6.055396     -1.638725     16.211668
H     -7.469078     -0.843902     14.390169
H     -4.983005     -2.284016     13.418600
H     -6.257050     -2.985917     14.416940
H     -6.640685     -2.435484     12.799419
H     -7.860764      0.322482     12.311794
H     -4.751494     -1.802963      9.372716
H     -4.697791     -2.498957     10.997903
H     -2.540353     -3.527590     10.569753
H     -3.652684     -4.002800      9.309875
H     -1.193695     -3.171443      8.732470
H     -2.529837     -2.829165      7.656653
H     -2.546419     -0.595140      8.074163
H     -0.847420     -0.901942      8.401189
H     -1.974436      0.552564     10.078246
H      0.344826     -1.182228     13.314507
H     -1.643036      1.876429     12.597022
H     -2.496421      2.034000     14.094257
H     -0.788759      2.374399     14.065029
H     -2.603087     -2.293256     14.745762
H     -2.740938     -2.579418     13.017966
H     -1.146177     -2.404843     13.767050
H     -0.188113      0.408512     15.890431
H     -1.230230     -0.977694     15.852925
H     -1.929588      0.545731     17.495769
H     -1.898746      1.918967     16.456018
H      1.419895      0.890995     14.497546
H      1.132310      1.743296     12.984971
H      2.494531      0.156025     11.697028
H      4.406231     -0.671119     12.714928
H      3.112059      0.023291     15.455585
H      4.974514     -0.830087     16.495870
H      6.030105     -1.688499     13.716211
H      7.732162     -2.678438     17.306221
H      8.539787     -1.137062     16.954818
H      6.843412     -1.157130     17.408575
H      9.186485     -2.842332     15.222239
H      7.971540     -3.421179     14.107964
H      8.175234     -1.328750     12.759342
H     10.285957     -1.920049     11.723641
H     10.896820     -2.635931     13.230708
H      9.563769     -3.394201     12.344112
H      8.857597      0.177785     14.675399
H     10.425166     -0.609417     14.709769
H     10.371913      1.645639     13.570451
H     13.318335      0.151810     12.449700
H     12.620458      1.670093     13.047135
H     12.514041      0.174651     14.031583
H      7.208690      2.264728     11.805390
H      7.177282      1.099603     13.147981
H      8.112666      2.622140     13.287448
H     -4.236041      1.272676     13.682621
H     -5.363026      2.357227     12.910057
B      3.459180     -1.454569      1.628037
N      3.456400      1.129904      0.940040
B      2.539920      2.362499     -1.261047
N      2.293067     -0.641637     -2.730603
B      0.690534     -3.561069      2.702709
N     -2.939724     -2.654773      1.709476
B     -1.038202      4.085096      1.831238
N     -0.619347      0.017651     -3.941904
B     -0.473710      1.445324     -4.091730
N      1.209559     -3.786796     -1.739405
B     -3.844500      2.209440     -0.493722
N     -2.772864      2.763562     -1.211833
B      1.405725      0.818091     -4.889311
N     -0.235789      3.364215      2.833544
B      0.898320     -2.879798     -2.813849
N     -0.491833      3.766578     -1.010119
B     -0.805996      2.182269      3.281874
N      1.656110     -1.274433      3.503622
B     -0.248484      3.469937     -2.379863
N      1.308703      0.068898      3.816981
B     -1.597441     -0.559934     -3.084689
N     -3.832496      1.776842      0.831624
B      0.337602      4.495994      1.183894
N      0.043256     -0.013955      4.456653
B     -2.708837      2.226751      1.601242
N      3.772728     -0.132624     -0.765541
B     -2.253381     -3.639412      1.008482
N      1.055818      3.733398      2.235734
B     -1.825620     -0.777460      3.219840
N     -2.436768     -3.601880     -0.450773
B      3.018658     -1.073670     -1.502768
N     -3.157960     -1.252592     -0.384321
B      2.034656      2.922326      1.561722
N     -0.507447     -2.900148     -2.432795
B     -1.673548     -2.112882     -2.491621
N      0.590135      3.964583     -0.110225
B      1.090314      2.959649     -3.182489
N      0.077350     -4.359230      1.721289
B     -1.784034      3.452384     -0.408220
N     -2.013520      3.418515      1.031553
B      1.465878     -4.212148      1.499138
N     -0.797987      1.064153      4.194581
B     -2.666242     -2.402096     -1.175256
N     -1.074388     -4.484335      0.991235
B     -2.503710      0.491370     -2.109143
N      2.352728     -3.887335      0.453103
B      3.912327     -0.202357      0.725926
N      1.928548      1.957009     -2.465077
B      1.001184      2.254351     -4.622507
N     -4.186016      0.829005     -0.347538
B     -1.338881      2.453658     -3.114870
N     -2.359649      1.932605     -2.305841
B      3.073063     -2.645483      0.601111
N      2.335213     -3.673670     -0.970876
B      2.217863      0.545803      2.808407
N     -2.026423      0.611912      3.601492
B     -1.101749     -4.183787     -0.441007
N     -3.218144      0.041654     -0.958566
B      3.447752      1.258593     -0.514065
N      2.582085      1.632977      1.936454
B      1.472054     -1.555001     -3.515610
N     -2.102601      1.754194      2.760799
B      2.040765      0.711921     -3.211483
N     -2.720915     -1.341699      2.320567
B      0.658648     -0.538875     -4.486937
N     -0.168664     -3.759421     -1.356472
B      0.485560     -2.105634      3.433764
N     -0.587253     -1.205033      3.824488
B     -3.224373     -1.451411      1.000320
N      2.671324     -0.855529      2.621135
B      1.878557      3.339348     -0.106427
N      2.876911     -2.331783     -0.793563
