121
Drug@B36N36 complex
C      7.056900     -0.131400     -0.062264
C      6.251846      0.808910      0.860107
C      6.534177      2.259529      0.410094
C      6.768307      0.674613      2.249097
N      7.182516      0.559355      3.327525
C      4.770789      0.420550      0.793427
C      3.782112      1.222089      0.212355
C      2.453962      0.790004      0.175166
C      2.122051     -0.446580      0.716599
N      3.054834     -1.246409      1.281413
C      4.333435     -0.802871      1.310032
C      0.732524     -0.918312      0.683300
N     -0.268307     -0.125299      0.115341
C     -1.423154     -0.743217      0.176862
N     -2.564378     -0.148876     -0.293551
C     -3.783078     -0.742388     -0.499712
O     -4.025200     -1.939594     -0.385512
N     -4.774133      0.153930     -0.884928
C     -4.749837      1.593539     -0.655504
C     -6.210609      1.976085     -0.475823
C     -6.927719      0.992474     -1.386757
C     -6.130364     -0.303594     -1.195668
C     -6.210694     -1.182491     -2.438934
S     -1.412544     -2.261187      0.934430
C      0.283174     -2.132836      1.186117
C      1.012856     -3.243213      1.860796
H      8.123635      0.124485     -0.059091
H      6.701911     -0.070797     -1.098074
H      6.981723     -1.179942      0.250509
H      5.981200      2.985561      1.018931
H      6.262541      2.419599     -0.639818
H      7.599045      2.506195      0.508246
H      4.007922      2.191113     -0.223912
H      1.691988      1.418704     -0.276181
H      5.021965     -1.500916      1.783803
H     -2.399030      0.746043     -0.719821
H     -4.323087      2.063149     -1.548288
H     -4.147525      1.858067      0.218337
H     -6.518587      1.811231      0.563741
H     -6.407793      3.020511     -0.731921
H     -6.867311      1.345637     -2.423870
H     -7.984455      0.872750     -1.130095
H     -6.505165     -0.852775     -0.322912
H     -7.253055     -1.417527     -2.678226
H     -5.763527     -0.684524     -3.306422
H     -5.681115     -2.129318     -2.298367
H      1.785411     -3.651656      1.201281
H      0.348558     -4.070219      2.133855
H      1.485284     -2.888182      2.782419
B      2.101200      0.000000      3.345000
B     -2.101200      0.000000      3.345000
B      0.000000      2.101200      3.345000
B      0.000000     -2.101200      3.345000
B      3.345000      2.101200      0.000000
B      3.345000     -2.101200      0.000000
B      3.345000      0.000000      2.101200
B      3.345000      0.000000     -2.101200
B     -3.345000      2.101200      0.000000
B     -3.345000     -2.101200      0.000000
B     -3.345000      0.000000      2.101200
B     -3.345000      0.000000     -2.101200
B      2.101200      0.000000     -3.345000
B     -2.101200      0.000000     -3.345000
B      0.000000      2.101200     -3.345000
B      0.000000     -2.101200     -3.345000
B      0.000000      3.345000      2.101200
B      0.000000      3.345000     -2.101200
B      0.000000     -3.345000      2.101200
B      0.000000     -3.345000     -2.101200
B      2.101200      3.345000      0.000000
B     -2.101200      3.345000      0.000000
B      2.101200     -3.345000      0.000000
B     -2.101200     -3.345000      0.000000
B      1.480000      1.480000      3.580000
B     -1.480000      1.480000      3.580000
B      1.480000     -1.480000      3.580000
B     -1.480000     -1.480000      3.580000
B      3.580000      1.480000      1.480000
B      3.580000     -1.480000      1.480000
B      3.580000      1.480000     -1.480000
B      3.580000     -1.480000     -1.480000
B     -3.580000      1.480000      1.480000
B     -3.580000     -1.480000      1.480000
B     -3.580000      1.480000     -1.480000
B     -3.580000     -1.480000     -1.480000
N      2.101200      0.000000      3.920000
N     -2.101200      0.000000      3.920000
N      0.000000      2.101200      3.920000
N      0.000000     -2.101200      3.920000
N      3.920000      2.101200      0.000000
N      3.920000     -2.101200      0.000000
N      3.920000      0.000000      2.101200
N      3.920000      0.000000     -2.101200
N     -3.920000      2.101200      0.000000
N     -3.920000     -2.101200      0.000000
N     -3.920000      0.000000      2.101200
N     -3.920000      0.000000     -2.101200
N      2.101200      0.000000     -3.920000
N     -2.101200      0.000000     -3.920000
N      0.000000      2.101200     -3.920000
N      0.000000     -2.101200     -3.920000
N      0.000000      3.920000      2.101200
N      0.000000      3.920000     -2.101200
N      0.000000     -3.920000      2.101200
N      0.000000     -3.920000     -2.101200
N      2.101200      3.920000      0.000000
N     -2.101200      3.920000      0.000000
N      2.101200     -3.920000      0.000000
N     -2.101200     -3.920000      0.000000
N      1.480000      1.480000      4.220000
N     -1.480000      1.480000      4.220000
N      1.480000     -1.480000      4.220000
N     -1.480000     -1.480000      4.220000
N      4.220000      1.480000      1.480000
N      4.220000     -1.480000      1.480000
N      4.220000      1.480000     -1.480000
N      4.220000     -1.480000     -1.480000
N     -4.220000      1.480000      1.480000
N     -4.220000     -1.480000      1.480000
N     -4.220000      1.480000     -1.480000
N     -4.220000     -1.480000     -1.480000
