      -----------------------------------------------------------      
     |                   =====================                   |     
     |                           x T B                           |     
     |                   =====================                   |     
     |                         S. Grimme                         |     
     |          Mulliken Center for Theoretical Chemistry        |     
     |                    University of Bonn                     |     
      -----------------------------------------------------------      

   * xtb version 6.7.1pre (5071a88) compiled by 'Marcel@Raven' on 2024-07-23

   xtb is free software: you can redistribute it and/or modify it under
   the terms of the GNU Lesser General Public License as published by
   the Free Software Foundation, either version 3 of the License, or
   (at your option) any later version.
   
   xtb is distributed in the hope that it will be useful,
   but WITHOUT ANY WARRANTY; without even the implied warranty of
   MERCHANTABILITY or FITNESS FOR A PARTICULAR PURPOSE.  See the
   GNU Lesser General Public License for more details.
   
   Cite this work as:
   * C. Bannwarth, E. Caldeweyher, S. Ehlert, A. Hansen, P. Pracht,
     J. Seibert, S. Spicher, S. Grimme, WIREs Comput. Mol. Sci., 2020, 11,
     e01493. DOI: 10.1002/wcms.1493
   
   for GFN2-xTB:
   * C. Bannwarth, S. Ehlert and S. Grimme., J. Chem. Theory Comput., 2019,
     15, 1652-1671. DOI: 10.1021/acs.jctc.8b01176
   for GFN1-xTB:
   * S. Grimme, C. Bannwarth, P. Shushkov, J. Chem. Theory Comput., 2017,
     13, 1989-2009. DOI: 10.1021/acs.jctc.7b00118
   for GFN0-xTB:
   * P. Pracht, E. Caldeweyher, S. Ehlert, S. Grimme, ChemRxiv, 2019, preprint.
     DOI: 10.26434/chemrxiv.8326202.v1
   for GFN-FF:
   * S. Spicher and S. Grimme, Angew. Chem. Int. Ed., 2020, 59, 15665-15673.
     DOI: 10.1002/anie.202004239
   
   for ALPB and GBSA implicit solvation:
   * S. Ehlert, M. Stahn, S. Spicher, S. Grimme, J. Chem. Theory Comput.,
     2021, 17, 4250-4261. DOI: 10.1021/acs.jctc.1c00471
   
   for ddCOSMO and CPCM-X implicit solvation:
   * M. Stahn, S. Ehlert, S. Grimme, J. Phys. Chem. A,
     2023, XX, XXXX-XXXX. DOI: 10.1021/acs.jpca.3c04382
   
   for DFT-D4:
   * E. Caldeweyher, C. Bannwarth and S. Grimme, J. Chem. Phys., 2017,
     147, 034112. DOI: 10.1063/1.4993215
   * E. Caldeweyher, S. Ehlert, A. Hansen, H. Neugebauer, S. Spicher,
     C. Bannwarth and S. Grimme, J. Chem. Phys., 2019, 150, 154122.
     DOI: 10.1063/1.5090222
   * E. Caldeweyher, J.-M. Mewes, S. Ehlert and S. Grimme, Phys. Chem. Chem. Phys.
     2020, 22, 8499-8512. DOI: 10.1039/D0CP00502A
   
   for sTDA-xTB:
   * S. Grimme and C. Bannwarth, J. Chem. Phys., 2016, 145, 054103.
     DOI: 10.1063/1.4959605
   
   in the mass-spec context:
   * V. Asgeirsson, C. Bauer and S. Grimme, Chem. Sci., 2017, 8, 4879.
     DOI: 10.1039/c7sc00601b
   * J. Koopman and S. Grimme, ACS Omega 2019, 4, 12, 15120-15133.
     DOI: 10.1021/acsomega.9b02011
   
   for metadynamics refer to:
   * S. Grimme, J. Chem. Theory Comput., 2019, 155, 2847-2862
     DOI: 10.1021/acs.jctc.9b00143
   
   for SPH calculations refer to:
   * S. Spicher and S. Grimme, J. Chem. Theory Comput., 2021, 17, 1701-1714
     DOI: 10.1021/acs.jctc.0c01306
   
   for ONIOM refer to:
   * C. Plett, A. Katbashev, S. Ehlert, S. Grimme, M. Bursch,
     Phys. Chem. Chem. Phys., 2023, 25, 17860-17868. DOI: 10.1039/D3CP02178E
   
   for DIPRO refer to:
   * J. Kohn, N. Gildemeister, S. Grimme, D. Fazzi, A. Hansen,
     J. Chem. Phys., 2023, just accepted.
   
   for PTB refer to:
   * S. Grimme, M. Mueller, A. Hansen, J. Chem. Phys., 2023, 158, 124111.
     DOI: 10.1063/5.0137838
   
   with help from (in alphabetical order)
   P. Atkinson, C. Bannwarth, F. Bohle, G. Brandenburg, E. Caldeweyher
   M. Checinski, S. Dohm, S. Ehlert, S. Ehrlich, I. Gerasimov, C. Hölzer
   A. Katbashev, J. Kohn, J. Koopman, C. Lavigne, S. Lehtola, F. März, M. Müller,
   F. Musil, H. Neugebauer, J. Pisarek, C. Plett, P. Pracht, F. Pultar,
   J. Seibert, P. Shushkov, S. Spicher, M. Stahn, M. Steiner, T. Strunk,
   J. Stückrath, T. Rose, and J. Unsleber
   
 * started run on 2026/08/31 at 18:34:44.864     
   ID    Z sym.   atoms
    1    6 C      1-4, 6-9, 11, 12, 14, 16, 19-23, 25, 26
    2    7 N      5, 10, 13, 15, 18
    3    8 O      17
    4   16 S      24
    5    1 H      27-49

           -------------------------------------------------
          |                Calculation Setup                |
           -------------------------------------------------

          program call               : "c:\Users\Andre\Proyectos doctorado\kras-pancreatic-gC3N4-ai\tools\xtb\xtb-6.7.1\bin\xtb.exe" "c:\Users\Andre\Proyectos doctorado\nano-qsar-ai-therapeutics\calculations\tnbc\Alpelisib\Alpelisib_drug.xyz" --gfn 2 --sp --chrg 0 --uhf 0 --iterations 500 --norestart
          coordinate file            : c:\Users\Andre\Proyectos doctorado\nano-qsar-ai-therapeutics\calculations\tnbc\Alpelisib\Alpelisib_drug.xyz
          omp threads                :                    16


           -------------------------------------------------
          |                 G F N 2 - x T B                 |
           -------------------------------------------------

        Reference                      10.1021/acs.jctc.8b01176
      * Hamiltonian:
        H0-scaling (s, p, d)           1.850000    2.230000    2.230000
        zeta-weighting                 0.500000
      * Dispersion:
        s8                             2.700000
        a1                             0.520000
        a2                             5.000000
        s9                             5.000000
      * Repulsion:
        kExp                           1.500000    1.000000
        rExp                           1.000000
      * Coulomb:
        alpha                          2.000000
        third order                    shell-resolved
        anisotropic                    true
        a3                             3.000000
        a5                             4.000000
        cn-shift                       1.200000
        cn-exp                         4.000000
        max-rad                        5.000000


          ...................................................
          :                      SETUP                      :
          :.................................................:
          :  # basis functions                 133          :
          :  # atomic orbitals                 132          :
          :  # shells                           76          :
          :  # electrons                       136          :
          :  max. iterations                   500          :
          :  Hamiltonian                  GFN2-xTB          :
          :  restarted?                      false          :
          :  GBSA solvation                  false          :
          :  PC potential                    false          :
          :  electronic temp.          300.0000000     K    :
          :  accuracy                    1.0000000          :
          :  -> integral cutoff          0.2500000E+02      :
          :  -> integral neglect         0.1000000E-07      :
          :  -> SCF convergence          0.1000000E-05 Eh   :
          :  -> wf. convergence          0.1000000E-03 e    :
          :  Broyden damping             0.4000000          :
          :  net charge                          0          :
          :  unpaired electrons                  0          :
          ...................................................

 iter      E             dE          RMSdq      gap      omega  full diag
   1    -75.2529275 -0.752529E+02  0.414E+00    2.46       0.0  T
   2    -75.3607175 -0.107790E+00  0.249E+00    2.88       1.0  T
   3    -75.3395084  0.212091E-01  0.147E+00    2.86       1.0  T
   4    -75.3736676 -0.341593E-01  0.725E-01    2.84       1.0  T
   5    -75.3910093 -0.173417E-01  0.167E-01    2.86       1.0  T
   6    -75.3914573 -0.448038E-03  0.975E-02    2.86       1.0  T
   7    -75.3917050 -0.247694E-03  0.298E-02    2.86       1.0  T
   8    -75.3917198 -0.147660E-04  0.153E-02    2.86       1.0  T
   9    -75.3917223 -0.254038E-05  0.901E-03    2.86       1.6  T
  10    -75.3917245 -0.221505E-05  0.251E-03    2.86       5.7  T
  11    -75.3917246 -0.953624E-07  0.118E-03    2.86      12.1  T
  12    -75.3917246 -0.120202E-07  0.617E-04    2.86      23.1  T
  13    -75.3917246 -0.442526E-08  0.244E-04    2.86      58.5  T

   *** convergence criteria satisfied after 13 iterations ***

         #    Occupation            Energy/Eh            Energy/eV
      -------------------------------------------------------------
         1        2.0000           -0.7348200             -19.9955
       ...           ...                  ...                  ...
        62        2.0000           -0.4166334             -11.3372
        63        2.0000           -0.4108508             -11.1798
        64        2.0000           -0.4044019             -11.0043
        65        2.0000           -0.3950865             -10.7509
        66        2.0000           -0.3883895             -10.5686
        67        2.0000           -0.3682660             -10.0210
        68        2.0000           -0.3678126             -10.0087 (HOMO)
        69                         -0.2627456              -7.1497 (LUMO)
        70                         -0.2475630              -6.7365
        71                         -0.2416426              -6.5754
        72                         -0.2148934              -5.8475
        73                         -0.2143766              -5.8335
       ...                                ...                  ...
       132                          1.0253271              27.9006
      -------------------------------------------------------------
                  HL-Gap            0.1050670 Eh            2.8590 eV
             Fermi-level           -0.3152791 Eh           -8.5792 eV

 SCC (total)                   0 d,  0 h,  0 min,  0.037 sec
 SCC setup                      ...        0 min,  0.001 sec (  2.703%)
 Dispersion                     ...        0 min,  0.000 sec (  0.000%)
 classical contributions        ...        0 min,  0.000 sec (  0.000%)
 integral evaluation            ...        0 min,  0.001 sec (  2.703%)
 iterations                     ...        0 min,  0.029 sec ( 78.379%)
 molecular gradient             ...        0 min,  0.006 sec ( 16.216%)
 printout                       ...        0 min,  0.000 sec (  0.000%)

         :::::::::::::::::::::::::::::::::::::::::::::::::::::
         ::                     SUMMARY                     ::
         :::::::::::::::::::::::::::::::::::::::::::::::::::::
         :: total energy             -74.373672894767 Eh    ::
         :: gradient norm              0.103546895621 Eh/a0 ::
         :: HOMO-LUMO gap              2.859017385334 eV    ::
         ::.................................................::
         :: SCC energy               -75.392112112052 Eh    ::
         :: -> isotropic ES            0.077722329445 Eh    ::
         :: -> anisotropic ES          0.010538193526 Eh    ::
         :: -> anisotropic XC          0.054140407861 Eh    ::
         :: -> dispersion             -0.052591125948 Eh    ::
         :: repulsion energy           1.018439217284 Eh    ::
         :: add. restraining           0.000000000000 Eh    ::
         :: total charge              -0.000000000000 e     ::
         :::::::::::::::::::::::::::::::::::::::::::::::::::::

           -------------------------------------------------
          |                Property Printout                |
           -------------------------------------------------

    * Orbital Energies and Occupations

         #    Occupation            Energy/Eh            Energy/eV
      -------------------------------------------------------------
         1        2.0000           -0.7348200             -19.9955
       ...           ...                  ...                  ...
        56        2.0000           -0.4487446             -12.2110
        57        2.0000           -0.4479166             -12.1884
        58        2.0000           -0.4430255             -12.0553
        59        2.0000           -0.4354015             -11.8479
        60        2.0000           -0.4302061             -11.7065
        61        2.0000           -0.4230696             -11.5123
        62        2.0000           -0.4166334             -11.3372
        63        2.0000           -0.4108508             -11.1798
        64        2.0000           -0.4044019             -11.0043
        65        2.0000           -0.3950865             -10.7509
        66        2.0000           -0.3883895             -10.5686
        67        2.0000           -0.3682660             -10.0210
        68        2.0000           -0.3678126             -10.0087 (HOMO)
        69                         -0.2627456              -7.1497 (LUMO)
        70                         -0.2475630              -6.7365
        71                         -0.2416426              -6.5754
        72                         -0.2148934              -5.8475
        73                         -0.2143766              -5.8335
        74                         -0.1961265              -5.3369
        75                         -0.1878152              -5.1107
        76                         -0.1707583              -4.6466
        77                         -0.1149372              -3.1276
        78                         -0.1005382              -2.7358
        79                         -0.0378517              -1.0300
       ...                                ...                  ...
       132                          1.0253271              27.9006
      -------------------------------------------------------------
                  HL-Gap            0.1050670 Eh            2.8590 eV
             Fermi-level           -0.3152791 Eh           -8.5792 eV

     #   Z          covCN         q      C6AA      α(0)
     1   6 C        3.759    -0.093    22.327     6.736
     2   6 C        3.901     0.037    19.904     6.342
     3   6 C        3.759    -0.094    22.344     6.739
     4   6 C        1.910     0.108    28.431     8.611
     5   7 N        0.911    -0.230    26.036     7.380
     6   6 C        2.959    -0.000    28.035     8.685
     7   6 C        2.926    -0.022    28.561     8.764
     8   6 C        2.909    -0.040    29.001     8.831
     9   6 C        2.933     0.096    25.880     8.343
    10   7 N        1.834    -0.242    27.179     7.726
    11   6 C        2.887     0.051    26.848     8.495
    12   6 C        3.197     0.048    26.408     8.377
    13   7 N        1.956    -0.308    28.805     7.959
    14   6 C        2.933     0.177    24.197     8.067
    15   7 N        2.729    -0.181    24.928     7.415
    16   6 C        2.690     0.320    21.558     7.599
    17   8 O        0.858    -0.449    22.677     6.385
    18   7 N        2.758    -0.145    24.140     7.297
    19   6 C        3.771     0.005    20.535     6.458
    20   6 C        3.829    -0.058    21.594     6.612
    21   6 C        3.834    -0.066    21.743     6.634
    22   6 C        3.818     0.054    19.665     6.311
    23   6 C        3.751    -0.112    22.709     6.796
    24  16 S        2.326     0.002   140.957    19.982
    25   6 C        2.961     0.016    27.649     8.625
    26   6 C        3.780    -0.109    22.611     6.774
    27   1 H        0.924     0.044     2.393     2.419
    28   1 H        0.924     0.043     2.406     2.426
    29   1 H        0.924     0.042     2.420     2.433
    30   1 H        0.924     0.041     2.437     2.442
    31   1 H        0.924     0.045     2.390     2.418
    32   1 H        0.924     0.043     2.411     2.428
    33   1 H        0.925     0.037     2.492     2.469
    34   1 H        0.925     0.053     2.283     2.363
    35   1 H        0.925     0.038     2.477     2.461
    36   1 H        0.860     0.199     1.112     1.652
    37   1 H        0.924     0.038     2.476     2.461
    38   1 H        0.924     0.041     2.430     2.438
    39   1 H        0.924     0.045     2.390     2.418
    40   1 H        0.924     0.045     2.388     2.417
    41   1 H        0.924     0.047     2.360     2.403
    42   1 H        0.924     0.044     2.392     2.419
    43   1 H        0.924     0.048     2.343     2.394
    44   1 H        0.924     0.045     2.383     2.414
    45   1 H        0.924     0.041     2.440     2.443
    46   1 H        0.924     0.065     2.145     2.290
    47   1 H        0.924     0.070     2.084     2.257
    48   1 H        0.924     0.054     2.272     2.357
    49   1 H        0.924     0.071     2.075     2.253

 Mol. C6AA /au·bohr⁶  :      28904.846662
 Mol. C8AA /au·bohr⁸  :     715375.328600
 Mol. α(0) /au        :        262.413838


Wiberg/Mayer (AO) data.
largest (>0.10) Wiberg bond orders for each atom

 ---------------------------------------------------------------------------
     #   Z sym  total        # sym  WBO       # sym  WBO       # sym  WBO
 ---------------------------------------------------------------------------
     1   6 C    3.991 --    29 H    0.985    27 H    0.984    28 H    0.983
                             2 C    0.963
     2   6 C    3.988 --     4 C    0.999     3 C    0.976     1 C    0.963
                             6 C    0.961
     3   6 C    3.993 --    30 H    0.986    32 H    0.985    31 H    0.981
                             2 C    0.976
     4   6 C    3.930 --     5 N    2.862     2 C    0.999
     5   7 N    3.010 --     4 C    2.862
     6   6 C    3.976 --    11 C    1.402     7 C    1.400     2 C    0.961
     7   6 C    3.988 --     8 C    1.456     6 C    1.400    33 H    0.966
     8   6 C    3.988 --     7 C    1.456     9 C    1.366    34 H    0.966
                            11 C    0.109
     9   6 C    3.978 --     8 C    1.366    10 N    1.365    12 C    1.075
    10   7 N    3.046 --    11 C    1.443     9 C    1.365
    11   6 C    3.981 --    10 N    1.443     6 C    1.402    35 H    0.963
                             8 C    0.109
    12   6 C    3.968 --    25 C    1.514    13 N    1.191     9 C    1.075
    13   7 N    3.043 --    14 C    1.532    12 C    1.191    24 S    0.131
    14   6 C    3.951 --    13 N    1.532    24 S    1.150    15 N    1.128
    15   7 N    3.452 --    14 C    1.128    16 C    1.102    36 H    0.921
                            17 O    0.112
    16   6 C    3.958 --    17 O    1.613    18 N    1.171    15 N    1.102
    17   8 O    1.994 --    16 C    1.613    18 N    0.164    15 N    0.112
    18   7 N    3.409 --    16 C    1.171    19 C    0.984    22 C    0.965
                            17 O    0.164
    19   6 C    3.978 --    20 C    1.003    18 N    0.984    38 H    0.971
                            37 H    0.969
    20   6 C    3.995 --    21 C    1.007    19 C    1.003    39 H    0.979
                            40 H    0.977
    21   6 C    3.995 --    20 C    1.007    22 C    0.994    42 H    0.978
                            41 H    0.977
    22   6 C    3.968 --    23 C    1.007    21 C    0.994    18 N    0.965
                            43 H    0.960
    23   6 C    3.992 --    22 C    1.007    45 H    0.985    44 H    0.983
                            46 H    0.982
    24  16 S    2.673 --    25 C    1.168    14 C    1.150    13 N    0.131
    25   6 C    3.943 --    12 C    1.514    24 S    1.168    26 C    1.042
    26   6 C    3.991 --    25 C    1.042    48 H    0.982    47 H    0.962
                            49 H    0.962
    27   1 H    0.997 --     1 C    0.984
    28   1 H    0.998 --     1 C    0.983
    29   1 H    0.998 --     1 C    0.985
    30   1 H    0.998 --     3 C    0.986
    31   1 H    0.998 --     3 C    0.981
    32   1 H    0.998 --     3 C    0.985
    33   1 H    0.998 --     7 C    0.966
    34   1 H    0.997 --     8 C    0.966
    35   1 H    0.998 --    11 C    0.963
    36   1 H    0.960 --    15 N    0.921
    37   1 H    0.998 --    19 C    0.969
    38   1 H    0.998 --    19 C    0.971
    39   1 H    0.998 --    20 C    0.979
    40   1 H    0.997 --    20 C    0.977
    41   1 H    0.998 --    21 C    0.977
    42   1 H    0.998 --    21 C    0.978
    43   1 H    0.997 --    22 C    0.960
    44   1 H    0.997 --    23 C    0.983
    45   1 H    0.998 --    23 C    0.985
    46   1 H    0.996 --    23 C    0.982
    47   1 H    0.994 --    26 C    0.962
    48   1 H    0.997 --    26 C    0.982
    49   1 H    0.994 --    26 C    0.962
 ---------------------------------------------------------------------------

Topologies differ in total number of bonds
Writing topology from bond orders to xtbtopo.mol

molecular dipole:
                 x           y           z       tot (Debye)
 q only:       -1.183       1.416      -1.304
   full:       -1.121       1.965      -1.841       7.414
molecular quadrupole (traceless):
                xx          xy          yy          xz          yz          zz
 q only:       11.661     -15.949      -0.148     -13.153      -5.851     -11.513
  q+dip:       11.192     -15.743       1.078     -23.390      -7.635     -12.270
   full:       10.862     -16.464       1.017     -24.612      -4.751     -11.880


           -------------------------------------------------
          | TOTAL ENERGY              -74.373672894767 Eh   |
          | GRADIENT NORM               0.103546895621 Eh/α |
          | HOMO-LUMO GAP               2.859017385334 eV   |
           -------------------------------------------------

------------------------------------------------------------------------
 * finished run on 2026/08/31 at 18:34:44.930     
------------------------------------------------------------------------
 total:
 * wall-time:     0 d,  0 h,  0 min,  0.065 sec
 *  cpu-time:     0 d,  0 h,  0 min,  0.750 sec
 * ratio c/w:    11.538 speedup
 SCF:
 * wall-time:     0 d,  0 h,  0 min,  0.038 sec
 *  cpu-time:     0 d,  0 h,  0 min,  0.438 sec
 * ratio c/w:    11.513 speedup

normal termination of xtb
