      -----------------------------------------------------------      
     |                   =====================                   |     
     |                           x T B                           |     
     |                   =====================                   |     
     |                         S. Grimme                         |     
     |          Mulliken Center for Theoretical Chemistry        |     
     |                    University of Bonn                     |     
      -----------------------------------------------------------      

   * xtb version 6.7.1pre (5071a88) compiled by 'Marcel@Raven' on 2024-07-23

   xtb is free software: you can redistribute it and/or modify it under
   the terms of the GNU Lesser General Public License as published by
   the Free Software Foundation, either version 3 of the License, or
   (at your option) any later version.
   
   xtb is distributed in the hope that it will be useful,
   but WITHOUT ANY WARRANTY; without even the implied warranty of
   MERCHANTABILITY or FITNESS FOR A PARTICULAR PURPOSE.  See the
   GNU Lesser General Public License for more details.
   
   Cite this work as:
   * C. Bannwarth, E. Caldeweyher, S. Ehlert, A. Hansen, P. Pracht,
     J. Seibert, S. Spicher, S. Grimme, WIREs Comput. Mol. Sci., 2020, 11,
     e01493. DOI: 10.1002/wcms.1493
   
   for GFN2-xTB:
   * C. Bannwarth, S. Ehlert and S. Grimme., J. Chem. Theory Comput., 2019,
     15, 1652-1671. DOI: 10.1021/acs.jctc.8b01176
   for GFN1-xTB:
   * S. Grimme, C. Bannwarth, P. Shushkov, J. Chem. Theory Comput., 2017,
     13, 1989-2009. DOI: 10.1021/acs.jctc.7b00118
   for GFN0-xTB:
   * P. Pracht, E. Caldeweyher, S. Ehlert, S. Grimme, ChemRxiv, 2019, preprint.
     DOI: 10.26434/chemrxiv.8326202.v1
   for GFN-FF:
   * S. Spicher and S. Grimme, Angew. Chem. Int. Ed., 2020, 59, 15665-15673.
     DOI: 10.1002/anie.202004239
   
   for ALPB and GBSA implicit solvation:
   * S. Ehlert, M. Stahn, S. Spicher, S. Grimme, J. Chem. Theory Comput.,
     2021, 17, 4250-4261. DOI: 10.1021/acs.jctc.1c00471
   
   for ddCOSMO and CPCM-X implicit solvation:
   * M. Stahn, S. Ehlert, S. Grimme, J. Phys. Chem. A,
     2023, XX, XXXX-XXXX. DOI: 10.1021/acs.jpca.3c04382
   
   for DFT-D4:
   * E. Caldeweyher, C. Bannwarth and S. Grimme, J. Chem. Phys., 2017,
     147, 034112. DOI: 10.1063/1.4993215
   * E. Caldeweyher, S. Ehlert, A. Hansen, H. Neugebauer, S. Spicher,
     C. Bannwarth and S. Grimme, J. Chem. Phys., 2019, 150, 154122.
     DOI: 10.1063/1.5090222
   * E. Caldeweyher, J.-M. Mewes, S. Ehlert and S. Grimme, Phys. Chem. Chem. Phys.
     2020, 22, 8499-8512. DOI: 10.1039/D0CP00502A
   
   for sTDA-xTB:
   * S. Grimme and C. Bannwarth, J. Chem. Phys., 2016, 145, 054103.
     DOI: 10.1063/1.4959605
   
   in the mass-spec context:
   * V. Asgeirsson, C. Bauer and S. Grimme, Chem. Sci., 2017, 8, 4879.
     DOI: 10.1039/c7sc00601b
   * J. Koopman and S. Grimme, ACS Omega 2019, 4, 12, 15120-15133.
     DOI: 10.1021/acsomega.9b02011
   
   for metadynamics refer to:
   * S. Grimme, J. Chem. Theory Comput., 2019, 155, 2847-2862
     DOI: 10.1021/acs.jctc.9b00143
   
   for SPH calculations refer to:
   * S. Spicher and S. Grimme, J. Chem. Theory Comput., 2021, 17, 1701-1714
     DOI: 10.1021/acs.jctc.0c01306
   
   for ONIOM refer to:
   * C. Plett, A. Katbashev, S. Ehlert, S. Grimme, M. Bursch,
     Phys. Chem. Chem. Phys., 2023, 25, 17860-17868. DOI: 10.1039/D3CP02178E
   
   for DIPRO refer to:
   * J. Kohn, N. Gildemeister, S. Grimme, D. Fazzi, A. Hansen,
     J. Chem. Phys., 2023, just accepted.
   
   for PTB refer to:
   * S. Grimme, M. Mueller, A. Hansen, J. Chem. Phys., 2023, 158, 124111.
     DOI: 10.1063/5.0137838
   
   with help from (in alphabetical order)
   P. Atkinson, C. Bannwarth, F. Bohle, G. Brandenburg, E. Caldeweyher
   M. Checinski, S. Dohm, S. Ehlert, S. Ehrlich, I. Gerasimov, C. Hölzer
   A. Katbashev, J. Kohn, J. Koopman, C. Lavigne, S. Lehtola, F. März, M. Müller,
   F. Musil, H. Neugebauer, J. Pisarek, C. Plett, P. Pracht, F. Pultar,
   J. Seibert, P. Shushkov, S. Spicher, M. Stahn, M. Steiner, T. Strunk,
   J. Stückrath, T. Rose, and J. Unsleber
   
 * started run on 2026/08/31 at 21:13:31.968     
   ID    Z sym.   atoms
    1    6 C      1-4, 6-9, 11, 12, 14, 16, 19-23, 25, 26
    2    7 N      5, 10, 13, 15, 18, 51, 53, 55, 57, 59, 61, 63, 65, 67, 69,
                  71, 73, 75, 77, 79, 81, 83, 85, 87, 89, 91, 93, 95, 97, 99,
                  101, 103, 105, 107, 109, 111, 113, 115, 117, 119, 121
    3    8 O      17
    4   16 S      24
    5    1 H      27-49
    6    5 B      50, 52, 54, 56, 58, 60, 62, 64, 66, 68, 70, 72, 74, 76, 78,
                  80, 82, 84, 86, 88, 90, 92, 94, 96, 98, 100, 102, 104, 106,
                  108, 110, 112, 114, 116, 118, 120

           -------------------------------------------------
          |                Calculation Setup                |
           -------------------------------------------------

          program call               : "c:\Users\Andre\Proyectos doctorado\kras-pancreatic-gC3N4-ai\tools\xtb\xtb-6.7.1\bin\xtb.exe" "c:\Users\Andre\Proyectos doctorado\nano-qsar-ai-therapeutics\calculations\tnbc\Alpelisib\Alpelisib_B36N36_phys_complex.xyz" --gfn 2 --sp --chrg 0 --uhf 0 --etemp 300 --iterations 500 --norestart
          coordinate file            : c:\Users\Andre\Proyectos doctorado\nano-qsar-ai-therapeutics\calculations\tnbc\Alpelisib\Alpelisib_B36N36_phys_complex.xyz
          omp threads                :                    16


molecular fragmentation (1/2 indicates fragments):
111111111111111111111111111111111111111111111111122222222222222222222222
2222222222222222222222222222222222222222222222222
# atoms in fragment 1/2:    49    72
 fragment masses (1/2) :      369.48      893.44
CMA distance (Bohr)    :  22.637
constraining FC (au)   :  0.0500

           -------------------------------------------------
          |                 G F N 2 - x T B                 |
           -------------------------------------------------

        Reference                      10.1021/acs.jctc.8b01176
      * Hamiltonian:
        H0-scaling (s, p, d)           1.850000    2.230000    2.230000
        zeta-weighting                 0.500000
      * Dispersion:
        s8                             2.700000
        a1                             0.520000
        a2                             5.000000
        s9                             5.000000
      * Repulsion:
        kExp                           1.500000    1.000000
        rExp                           1.000000
      * Coulomb:
        alpha                          2.000000
        third order                    shell-resolved
        anisotropic                    true
        a3                             3.000000
        a5                             4.000000
        cn-shift                       1.200000
        cn-exp                         4.000000
        max-rad                        5.000000


          ...................................................
          :                      SETUP                      :
          :.................................................:
          :  # basis functions                 421          :
          :  # atomic orbitals                 420          :
          :  # shells                          220          :
          :  # electrons                       424          :
          :  max. iterations                   500          :
          :  Hamiltonian                  GFN2-xTB          :
          :  restarted?                      false          :
          :  GBSA solvation                  false          :
          :  PC potential                    false          :
          :  electronic temp.          300.0000000     K    :
          :  accuracy                    1.0000000          :
          :  -> integral cutoff          0.2500000E+02      :
          :  -> integral neglect         0.1000000E-07      :
          :  -> SCF convergence          0.1000000E-05 Eh   :
          :  -> wf. convergence          0.1000000E-03 e    :
          :  Broyden damping             0.4000000          :
          :  net charge                          0          :
          :  unpaired electrons                  0          :
          ...................................................

 iter      E             dE          RMSdq      gap      omega  full diag
   1   -226.0210585 -0.226021E+03  0.110E+01    0.61       0.0  T
   2   -226.4753322 -0.454274E+00  0.673E+00    0.41       1.0  T
   3   -223.5017270  0.297361E+01  0.440E+00    0.15       1.0  T
   4   -226.6833426 -0.318162E+01  0.129E+00    0.27       1.0  T
   5   -226.8849195 -0.201577E+00  0.790E-01    0.40       1.0  T
   6   -226.9584054 -0.734859E-01  0.552E-01    0.66       1.0  T
   7   -226.9707516 -0.123462E-01  0.401E-01    0.84       1.0  T
   8   -226.9680266  0.272508E-02  0.307E-01    0.72       1.0  T
   9   -226.9747179 -0.669137E-02  0.148E-01    0.74       1.0  T
  10   -226.9788030 -0.408506E-02  0.472E-02    0.72       1.0  T
  11   -226.9791702 -0.367259E-03  0.235E-02    0.72       1.0  T
  12   -226.9791951 -0.248475E-04  0.159E-02    0.71       1.0  T
  13   -226.9791959 -0.840816E-06  0.812E-03    0.71       1.1  T
  14   -226.9792061 -0.101808E-04  0.222E-03    0.71       4.1  T
  15   -226.9792067 -0.617353E-06  0.102E-03    0.71       8.9  T
  16   -226.9792068 -0.489370E-07  0.652E-04    0.71      13.9  T
  17   -226.9792068 -0.328038E-08  0.270E-04    0.71      33.6  T

   *** convergence criteria satisfied after 17 iterations ***

         #    Occupation            Energy/Eh            Energy/eV
      -------------------------------------------------------------
         1        2.0000           -0.7285069             -19.8237
       ...           ...                  ...                  ...
       206        2.0000           -0.3296995              -8.9716
       207        2.0000           -0.3270713              -8.9001
       208        2.0000           -0.3259653              -8.8700
       209        2.0000           -0.3229096              -8.7868
       210        2.0000           -0.3176252              -8.6430
       211        2.0000           -0.3156800              -8.5901
       212        2.0000           -0.3116566              -8.4806 (HOMO)
       213        0.0000           -0.2856629              -7.7733 (LUMO)
       214                         -0.2776246              -7.5545
       215                         -0.2665862              -7.2542
       216                         -0.2570880              -6.9957
       217                         -0.2539969              -6.9116
       ...                                ...                  ...
       420                          1.0290280              28.0013
      -------------------------------------------------------------
                  HL-Gap            0.0259936 Eh            0.7073 eV
             Fermi-level           -0.2986521 Eh           -8.1267 eV

 SCC (total)                   0 d,  0 h,  0 min,  0.552 sec
 SCC setup                      ...        0 min,  0.001 sec (  0.181%)
 Dispersion                     ...        0 min,  0.003 sec (  0.543%)
 classical contributions        ...        0 min,  0.000 sec (  0.000%)
 integral evaluation            ...        0 min,  0.011 sec (  1.993%)
 iterations                     ...        0 min,  0.503 sec ( 91.123%)
 molecular gradient             ...        0 min,  0.031 sec (  5.616%)
 printout                       ...        0 min,  0.003 sec (  0.543%)

         :::::::::::::::::::::::::::::::::::::::::::::::::::::
         ::                     SUMMARY                     ::
         :::::::::::::::::::::::::::::::::::::::::::::::::::::
         :: total energy            -224.580556364715 Eh    ::
         :: gradient norm              0.103479732845 Eh/a0 ::
         :: HOMO-LUMO gap              0.707322413715 eV    ::
         ::.................................................::
         :: SCC energy              -226.965012338905 Eh    ::
         :: -> isotropic ES            0.709033892823 Eh    ::
         :: -> anisotropic ES         -0.020774910838 Eh    ::
         :: -> anisotropic XC          0.116732745485 Eh    ::
         :: -> dispersion             -0.195713708796 Eh    ::
         :: repulsion energy           2.384455974190 Eh    ::
         :: add. restraining           0.000000000000 Eh    ::
         :: total charge               0.000000000000 e     ::
         :::::::::::::::::::::::::::::::::::::::::::::::::::::

           -------------------------------------------------
          |                Property Printout                |
           -------------------------------------------------

    * Orbital Energies and Occupations

         #    Occupation            Energy/Eh            Energy/eV
      -------------------------------------------------------------
         1        2.0000           -0.7285069             -19.8237
       ...           ...                  ...                  ...
       200        2.0000           -0.3424291              -9.3180
       201        2.0000           -0.3411171              -9.2823
       202        2.0000           -0.3369395              -9.1686
       203        2.0000           -0.3348269              -9.1111
       204        2.0000           -0.3327132              -9.0536
       205        2.0000           -0.3309064              -9.0044
       206        2.0000           -0.3296995              -8.9716
       207        2.0000           -0.3270713              -8.9001
       208        2.0000           -0.3259653              -8.8700
       209        2.0000           -0.3229096              -8.7868
       210        2.0000           -0.3176252              -8.6430
       211        2.0000           -0.3156800              -8.5901
       212        2.0000           -0.3116566              -8.4806 (HOMO)
       213        0.0000           -0.2856629              -7.7733 (LUMO)
       214                         -0.2776246              -7.5545
       215                         -0.2665862              -7.2542
       216                         -0.2570880              -6.9957
       217                         -0.2539969              -6.9116
       218                         -0.2477405              -6.7414
       219                         -0.2418665              -6.5815
       220                         -0.2373831              -6.4595
       221                         -0.2353295              -6.4036
       222                         -0.2328516              -6.3362
       223                         -0.2315663              -6.3012
       ...                                ...                  ...
       420                          1.0290280              28.0013
      -------------------------------------------------------------
                  HL-Gap            0.0259936 Eh            0.7073 eV
             Fermi-level           -0.2986521 Eh           -8.1267 eV

     #   Z          covCN         q      C6AA      α(0)
     1   6 C        3.759    -0.095    22.358     6.741
     2   6 C        3.901     0.037    19.906     6.342
     3   6 C        3.759    -0.095    22.371     6.743
     4   6 C        1.910     0.108    28.433     8.611
     5   7 N        0.911    -0.232    26.074     7.385
     6   6 C        2.959    -0.001    28.050     8.687
     7   6 C        2.926    -0.023    28.579     8.767
     8   6 C        2.909    -0.041    29.015     8.833
     9   6 C        2.933     0.096    25.877     8.343
    10   7 N        1.834    -0.243    27.182     7.726
    11   6 C        2.887     0.050    26.869     8.498
    12   6 C        3.197     0.047    26.416     8.378
    13   7 N        1.956    -0.307    28.776     7.955
    14   6 C        2.933     0.176    24.224     8.072
    15   7 N        2.729    -0.182    24.928     7.415
    16   6 C        2.690     0.320    21.567     7.600
    17   8 O        0.858    -0.449    22.691     6.387
    18   7 N        2.758    -0.144    24.116     7.294
    19   6 C        3.771     0.003    20.568     6.463
    20   6 C        3.829    -0.059    21.607     6.614
    21   6 C        3.834    -0.068    21.767     6.638
    22   6 C        3.818     0.053    19.672     6.312
    23   6 C        3.751    -0.115    22.771     6.805
    24  16 S        2.326     0.007   140.772    19.969
    25   6 C        2.961     0.014    27.692     8.631
    26   6 C        3.780    -0.111    22.635     6.778
    27   1 H        0.924     0.044     2.396     2.421
    28   1 H        0.924     0.045     2.388     2.416
    29   1 H        0.924     0.043     2.413     2.429
    30   1 H        0.924     0.041     2.434     2.440
    31   1 H        0.924     0.046     2.375     2.410
    32   1 H        0.924     0.043     2.414     2.430
    33   1 H        0.925     0.038     2.480     2.463
    34   1 H        0.925     0.055     2.253     2.347
    35   1 H        0.925     0.037     2.483     2.464
    36   1 H        0.860     0.201     1.102     1.644
    37   1 H        0.924     0.040     2.444     2.445
    38   1 H        0.924     0.041     2.430     2.438
    39   1 H        0.924     0.044     2.396     2.421
    40   1 H        0.924     0.044     2.391     2.418
    41   1 H        0.924     0.048     2.341     2.393
    42   1 H        0.924     0.044     2.397     2.421
    43   1 H        0.924     0.048     2.347     2.396
    44   1 H        0.924     0.045     2.383     2.414
    45   1 H        0.924     0.044     2.394     2.419
    46   1 H        0.924     0.066     2.133     2.284
    47   1 H        0.924     0.071     2.079     2.255
    48   1 H        0.924     0.054     2.275     2.359
    49   1 H        0.924     0.071     2.080     2.255
    50   5 B        2.781     0.076    20.191     7.513
    51   7 N        2.774    -0.228    25.979     7.570
    52   5 B        2.788     0.092    19.935     7.464
    53   7 N        2.524    -0.314    28.122     7.876
    54   5 B        2.779     0.084    20.074     7.491
    55   7 N        2.655    -0.270    26.978     7.714
    56   5 B        2.849     0.241    17.673     7.019
    57   7 N        2.529    -0.272    27.079     7.728
    58   5 B        3.195     0.150    18.927     7.256
    59   7 N        2.979    -0.110    23.389     7.183
    60   5 B        2.644     0.373    16.322     6.813
    61   7 N        2.669    -0.213    25.634     7.520
    62   5 B        3.181     0.023    20.988     7.641
    63   7 N        2.888    -0.223    25.864     7.553
    64   5 B        3.009     0.209    18.074     7.092
    65   7 N        2.660    -0.163    24.532     7.356
    66   5 B        2.906     0.319    16.612     6.802
    67   7 N        3.156    -0.082    22.829     7.096
    68   5 B        2.779     0.094    19.909     7.461
    69   7 N        3.037    -0.127    23.738     7.236
    70   5 B        2.758     0.090    20.005     7.484
    71   7 N        2.634    -0.310    27.984     7.857
    72   5 B        3.040     0.226    17.832     7.044
    73   7 N        2.981    -0.002    21.297     6.854
    74   5 B        2.582     0.325    17.308     7.087
    75   7 N        2.596    -0.360    29.283     8.037
    76   5 B        3.287     0.340    16.334     6.740
    77   7 N        2.784    -0.254    26.594     7.659
    78   5 B        2.559     0.320    17.593     7.184
    79   7 N        2.579    -0.368    29.508     8.067
    80   5 B        2.530     0.301    18.224     7.377
    81   7 N        2.665    -0.205    25.457     7.493
    82   5 B        2.698     0.196    18.507     7.220
    83   7 N        2.844    -0.167    24.603     7.367
    84   5 B        2.758     0.082    20.130     7.507
    85   7 N        2.672    -0.174    24.770     7.392
    86   5 B        2.877     0.110    19.574     7.385
    87   7 N        2.663    -0.144    24.117     7.294
    88   5 B        2.594     0.312    17.389     7.086
    89   7 N        2.519    -0.355    29.177     8.022
    90   5 B        2.684     0.184    18.717     7.268
    91   7 N        3.008    -0.130    23.804     7.246
    92   5 B        2.677     0.210    18.359     7.202
    93   7 N        2.716    -0.248    26.455     7.639
    94   5 B        2.647     0.164    19.164     7.380
    95   7 N        2.825    -0.206    25.471     7.496
    96   5 B        3.321     0.230    17.779     7.031
    97   7 N        2.531    -0.286    27.403     7.774
    98   5 B        2.950     0.036    20.772     7.604
    99   7 N        2.783    -0.185    25.002     7.426
   100   5 B        2.796     0.085    20.038     7.481
   101   7 N        2.673    -0.156    24.367     7.331
   102   5 B        3.021     0.211    18.052     7.087
   103   7 N        3.272     0.016    20.977     6.802
   104   5 B        2.869     0.305    16.807     6.844
   105   7 N        3.154    -0.116    23.528     7.204
   106   5 B        3.263     0.320    16.583     6.791
   107   7 N        2.833    -0.061    22.410     7.031
   108   5 B        3.303     0.231    17.764     7.029
   109   7 N        2.656    -0.183    24.968     7.421
   110   5 B        2.838     0.112    19.564     7.387
   111   7 N        2.834    -0.225    25.903     7.559
   112   5 B        2.863     0.253    17.503     6.984
   113   7 N        2.654    -0.230    26.045     7.580
   114   5 B        3.011     0.115    19.483     7.363
   115   7 N        3.153    -0.086    22.905     7.108
   116   5 B        2.674     0.203    18.476     7.227
   117   7 N        2.696    -0.231    26.044     7.579
   118   5 B        2.585     0.369    16.725     6.963
   119   7 N        2.881    -0.180    24.894     7.410
   120   5 B        2.825     0.106    19.672     7.408
   121   7 N        2.827    -0.253    26.554     7.653

 Mol. C6AA /au·bohr⁶  :     254996.948978
 Mol. C8AA /au·bohr⁸  :    7120265.244600
 Mol. α(0) /au        :        791.219117


Wiberg/Mayer (AO) data.
largest (>0.10) Wiberg bond orders for each atom

 ---------------------------------------------------------------------------
     #   Z sym  total        # sym  WBO       # sym  WBO       # sym  WBO
 ---------------------------------------------------------------------------
     1   6 C    3.991 --    29 H    0.985    27 H    0.984    28 H    0.983
                             2 C    0.963
     2   6 C    3.988 --     4 C    0.999     3 C    0.976     1 C    0.963
                             6 C    0.961
     3   6 C    3.993 --    30 H    0.986    32 H    0.985    31 H    0.980
                             2 C    0.976
     4   6 C    3.929 --     5 N    2.862     2 C    0.999
     5   7 N    3.010 --     4 C    2.862
     6   6 C    3.976 --    11 C    1.402     7 C    1.399     2 C    0.961
     7   6 C    3.988 --     8 C    1.457     6 C    1.399    33 H    0.966
     8   6 C    3.988 --     7 C    1.457     9 C    1.365    34 H    0.966
                            11 C    0.109
     9   6 C    3.978 --     8 C    1.365    10 N    1.365    12 C    1.075
    10   7 N    3.046 --    11 C    1.443     9 C    1.365
    11   6 C    3.981 --    10 N    1.443     6 C    1.402    35 H    0.963
                             8 C    0.109
    12   6 C    3.968 --    25 C    1.514    13 N    1.191     9 C    1.075
    13   7 N    3.044 --    14 C    1.533    12 C    1.191    24 S    0.131
    14   6 C    3.951 --    13 N    1.533    24 S    1.150    15 N    1.129
    15   7 N    3.453 --    14 C    1.129    16 C    1.102    36 H    0.920
                            17 O    0.112
    16   6 C    3.959 --    17 O    1.612    18 N    1.171    15 N    1.102
    17   8 O    1.993 --    16 C    1.612    18 N    0.164    15 N    0.112
    18   7 N    3.410 --    16 C    1.171    19 C    0.984    22 C    0.965
                            17 O    0.164
    19   6 C    3.978 --    20 C    1.003    18 N    0.984    38 H    0.971
                            37 H    0.969
    20   6 C    3.995 --    21 C    1.007    19 C    1.003    39 H    0.979
                            40 H    0.977
    21   6 C    3.995 --    20 C    1.007    22 C    0.994    42 H    0.978
                            41 H    0.976
    22   6 C    3.969 --    23 C    1.007    21 C    0.994    18 N    0.965
                            43 H    0.960
    23   6 C    3.991 --    22 C    1.007    45 H    0.985    44 H    0.983
                            46 H    0.981
    24  16 S    2.673 --    25 C    1.169    14 C    1.150    13 N    0.131
    25   6 C    3.943 --    12 C    1.514    24 S    1.169    26 C    1.042
    26   6 C    3.991 --    25 C    1.042    48 H    0.982    49 H    0.962
                            47 H    0.962
    27   1 H    0.997 --     1 C    0.984
    28   1 H    0.998 --     1 C    0.983
    29   1 H    0.998 --     1 C    0.985
    30   1 H    0.998 --     3 C    0.986
    31   1 H    0.998 --     3 C    0.980
    32   1 H    0.998 --     3 C    0.985
    33   1 H    0.998 --     7 C    0.966
    34   1 H    0.996 --     8 C    0.966
    35   1 H    0.998 --    11 C    0.963
    36   1 H    0.959 --    15 N    0.920
    37   1 H    0.998 --    19 C    0.969
    38   1 H    0.998 --    19 C    0.971
    39   1 H    0.998 --    20 C    0.979
    40   1 H    0.997 --    20 C    0.977
    41   1 H    0.998 --    21 C    0.976
    42   1 H    0.998 --    21 C    0.978
    43   1 H    0.997 --    22 C    0.960
    44   1 H    0.997 --    23 C    0.983
    45   1 H    0.998 --    23 C    0.985
    46   1 H    0.995 --    23 C    0.981
    47   1 H    0.994 --    26 C    0.962
    48   1 H    0.997 --    26 C    0.982
    49   1 H    0.994 --    26 C    0.962
    50   5 B    3.477 --   119 N    1.282   102 B    1.000    96 B    0.970
    51   7 N    3.397 --    96 B    1.143   109 N    1.007   108 B    1.001
    52   5 B    3.465 --    97 N    1.276   120 B    0.978   108 B    0.958
    53   7 N    3.530 --   112 B    1.152   110 B    1.150    80 B    1.018
    54   5 B    3.464 --    87 N    1.241   116 B    0.995    90 B    0.990
    55   7 N    3.264 --    76 B    1.200   118 B    0.968   113 N    0.888
    56   5 B    3.408 --    89 N    1.177    63 N    1.033    72 B    0.963
    57   7 N    3.568 --    70 B    1.277    58 B    1.158   114 B    0.973
    58   5 B    3.393 --    57 N    1.158   100 B    0.932    98 B    0.640
                            62 B    0.294
    59   7 N    3.323 --    64 B    1.113   103 N    1.043   115 N    0.945
    60   5 B    3.433 --    61 N    1.187    71 N    1.126    99 N    0.962
    61   7 N    3.446 --    60 B    1.187    88 B    1.086   101 N    0.967
    62   5 B    3.456 --    98 B    1.284   114 B    1.004   112 B    0.626
                            58 B    0.294
    63   7 N    3.428 --    66 B    1.233    56 B    1.033    77 N    0.929
    64   5 B    3.390 --    59 N    1.113    83 N    1.039   110 B    1.005
    65   7 N    3.510 --    68 B    1.205    88 B    1.124    85 N    0.999
    66   5 B    3.514 --    63 N    1.233    91 N    1.072   111 N    1.001
    67   7 N    3.349 --   116 B    1.141   119 N    0.990    69 N    0.982
    68   5 B    3.413 --    65 N    1.205    86 B    1.008   100 B    0.927
    69   7 N    3.327 --   104 B    1.136    67 N    0.982    73 N    0.973
    70   5 B    3.464 --    57 N    1.277    84 B    0.978    94 B    0.932
    71   7 N    3.217 --    60 B    1.126    74 B    1.067    99 N    0.792
    72   5 B    3.368 --    85 N    1.152    77 N    0.991    56 B    0.963
    73   7 N    3.096 --    91 N    1.013    69 N    0.973   117 N    0.938
    74   5 B    3.511 --   111 N    1.246    71 N    1.067    89 N    0.989
    75   7 N    3.434 --    80 B    1.201   108 B    1.062    96 B    0.926
    76   5 B    3.481 --    55 N    1.200    93 N    1.043    79 N    0.980
    77   7 N    3.281 --    82 B    1.168    72 B    0.991    63 N    0.929
    78   5 B    3.523 --   113 N    1.211   117 N    1.121   105 N    1.032
    79   7 N    3.431 --    92 B    1.221   106 B    0.993    76 B    0.980
    80   5 B    3.519 --    75 N    1.201   121 N    1.099    53 N    1.018
    81   7 N    3.442 --   118 B    1.261    92 B    0.997   107 N    0.990
    82   5 B    3.445 --    77 N    1.168   109 N    1.124   120 B    0.923
    83   7 N    3.470 --    84 B    1.260    64 B    1.039   115 N    0.984
    84   5 B    3.421 --    83 N    1.260    70 B    0.978    92 B    0.959
    85   7 N    3.511 --   120 B    1.171    72 B    1.152    65 N    0.999
    86   5 B    3.347 --    98 B    1.009    68 B    1.008    97 N    0.963
    87   7 N    3.509 --    54 B    1.241    90 B    1.093    93 N    1.036
    88   5 B    3.515 --    65 N    1.124    89 N    1.103    61 N    1.086
    89   7 N    3.477 --    56 B    1.177    88 B    1.103    74 B    0.989
    90   5 B    3.464 --    95 N    1.179    87 N    1.093    54 B    0.990
    91   7 N    3.262 --    66 B    1.072    73 N    1.013   105 N    0.975
    92   5 B    3.391 --    79 N    1.221    81 N    0.997    84 B    0.959
    93   7 N    3.373 --    76 B    1.043    87 N    1.036   106 B    0.985
    94   5 B    3.453 --   107 N    1.191   101 N    1.079    70 B    0.932
    95   7 N    3.407 --    90 B    1.179   102 B    1.073   103 N    0.959
    96   5 B    3.365 --    51 N    1.143    50 B    0.970    75 N    0.926
                           108 B    0.127
    97   7 N    3.561 --    52 B    1.276   112 B    1.105    86 B    0.963
    98   5 B    3.367 --    62 B    1.284    86 B    1.009    58 B    0.640
                           112 B    0.186
    99   7 N    2.986 --   107 N    1.045    60 B    0.962    71 N    0.792
   100   5 B    3.455 --   101 N    1.266    58 B    0.932    68 B    0.927
   101   7 N    3.480 --   100 B    1.266    94 B    1.079    61 N    0.967
   102   5 B    3.443 --   121 N    1.131    95 N    1.073    50 B    1.000
   103   7 N    3.187 --    59 N    1.043    95 N    0.959   121 N    0.950
   104   5 B    3.523 --   109 N    1.163    69 N    1.136   119 N    0.994
   105   7 N    3.215 --    78 B    1.032   111 N    0.984    91 N    0.975
   106   5 B    3.507 --   115 N    1.265    79 N    0.993    93 N    0.985
   107   7 N    3.440 --    94 B    1.191    99 N    1.045    81 N    0.990
   108   5 B    3.327 --    75 N    1.062    51 N    1.001    52 B    0.958
                            96 B    0.127
   109   7 N    3.491 --   104 B    1.163    82 B    1.124    51 N    1.007
   110   5 B    3.385 --    53 N    1.150    64 B    1.005   114 B    1.002
   111   7 N    3.446 --    74 B    1.246    66 B    1.001   105 N    0.984
   112   5 B    3.444 --    53 N    1.152    97 N    1.105    62 B    0.626
                            98 B    0.186   114 B    0.120
   113   7 N    3.332 --    78 B    1.211   118 B    1.036    55 N    0.888
   114   5 B    3.333 --    62 B    1.004   110 B    1.002    57 N    0.973
                           112 B    0.120
   115   7 N    3.440 --   106 B    1.265    83 N    0.984    59 N    0.945
   116   5 B    3.445 --    67 N    1.141   117 N    1.116    54 B    0.995
   117   7 N    3.393 --    78 B    1.121   116 B    1.116    73 N    0.938
   118   5 B    3.439 --    81 N    1.261   113 N    1.036    55 N    0.968
   119   7 N    3.475 --    50 B    1.282   104 B    0.994    67 N    0.990
   120   5 B    3.360 --    85 N    1.171    52 B    0.978    82 B    0.923
   121   7 N    3.418 --   102 B    1.131    80 B    1.099   103 N    0.950
 ---------------------------------------------------------------------------

Topologies differ in total number of bonds
Writing topology from bond orders to xtbtopo.mol

molecular dipole:
                 x           y           z       tot (Debye)
 q only:        0.602       3.381      -5.473
   full:       -0.987       3.078      -3.884      12.844
molecular quadrupole (traceless):
                xx          xy          yy          xz          yz          zz
 q only:       25.783     -17.612      34.310     -47.312      27.203     -60.094
  q+dip:       46.962     -17.570      60.500     -56.157      51.544    -107.461
   full:       51.922     -17.404      58.535     -53.499      54.544    -110.457


           -------------------------------------------------
          | TOTAL ENERGY             -224.580556364715 Eh   |
          | GRADIENT NORM               0.103479732845 Eh/α |
          | HOMO-LUMO GAP               0.707322413715 eV   |
           -------------------------------------------------

------------------------------------------------------------------------
 * finished run on 2026/08/31 at 21:13:32.575     
------------------------------------------------------------------------
 total:
 * wall-time:     0 d,  0 h,  0 min,  0.606 sec
 *  cpu-time:     0 d,  0 h,  0 min,  6.078 sec
 * ratio c/w:    10.030 speedup
 SCF:
 * wall-time:     0 d,  0 h,  0 min,  0.554 sec
 *  cpu-time:     0 d,  0 h,  0 min,  5.500 sec
 * ratio c/w:     9.928 speedup

normal termination of xtb
