113
Paclitaxel - ETKDG+MMFF conformer
C     -1.889027     -4.788092     -4.928691
C     -1.505474     -3.371905     -4.629458
O     -1.264938     -2.524934     -5.477843
O     -1.442435     -3.181914     -3.284565
C     -1.203452     -1.833361     -2.893737
C     -2.419112     -0.892707     -3.045639
O     -3.495360     -1.353193     -3.450888
C     -2.314198      0.607865     -2.656506
C     -0.859777      1.151656     -2.596599
C     -2.976327      1.321286     -3.904794
O     -2.004376      1.540112     -4.934262
C     -3.620490      2.653548     -3.568615
C     -4.766501      2.419940     -2.612416
O     -5.701861      1.438368     -3.121245
C     -5.568293      0.628451     -1.928938
C     -4.474026      1.560906     -1.354347
O     -4.751714      2.228211     -0.078899
C     -5.962688      2.809117      0.151654
C     -5.991819      3.379726      1.537373
O     -6.900228      2.872406     -0.626438
C     -2.982339      0.990034     -1.257379
C     -2.861101      0.185878      0.140161
O     -2.423641      1.258133      1.068246
C     -3.012652      1.374652      2.281086
O     -3.841348      0.601005      2.733243
C     -2.509077      2.571451      3.003401
C     -3.099947      2.898809      4.231383
C     -2.666977      4.018818      4.943269
C     -1.641042      4.813883      4.434486
C     -1.044990      4.491337      3.215637
C     -1.475942      3.372634      2.498956
C     -2.104559     -1.151266      0.618612
O     -2.960488     -1.719226      1.665930
C     -0.758461     -0.959865      1.359690
C      0.473043     -0.815724      0.466346
O      1.587380     -1.496291      1.068901
C      2.208214     -0.820265      2.071670
O      1.839005      0.248483      2.551161
C      3.424664     -1.581822      2.592781
O      3.952687     -0.917015      3.760896
C      4.510778     -1.723234      1.493912
N      5.331140     -0.520276      1.361295
C      4.902975      0.571548      0.642562
O      3.853305      0.582338      0.009227
C      5.763938      1.783164      0.703003
C      7.146566      1.700206      0.913012
C      7.915314      2.865435      0.962500
C      7.309702      4.111037      0.796290
C      5.936028      4.196977      0.572198
C      5.163902      3.035367      0.520955
C      5.440725     -2.912893      1.707854
C      5.991508     -3.221435      2.961717
C      6.858031     -4.306485      3.113258
C      7.195519     -5.091581      2.013758
C      6.671667     -4.790082      0.759588
C      5.804970     -3.706303      0.606188
C      0.313610     -1.326552     -0.958936
C      1.546450     -1.079859     -1.807088
C     -0.866524     -1.826445     -1.421281
C     -1.944463     -2.295229     -0.423569
C     -3.353537     -2.726020     -0.912976
C     -1.383684     -3.621125      0.196705
H     -2.845803     -5.021026     -4.454253
H     -2.000411     -4.912754     -6.009526
H     -1.108523     -5.465782     -4.574425
H     -0.406591     -1.425303     -3.517234
H     -0.836230      2.239273     -2.741145
H     -0.410569      0.999014     -1.616218
H     -0.207494      0.716916     -3.358637
H     -3.740286      0.689205     -4.368930
H     -2.493486      1.683747     -5.765710
H     -2.889418      3.349187     -3.140834
H     -3.983379      3.135098     -4.485181
H     -5.279334      3.369011     -2.419802
H     -5.271489     -0.390002     -2.170827
H     -6.510264      0.569320     -1.376843
H     -5.152210      4.065729      1.675512
H     -5.957936      2.571703      2.271550
H     -6.919292      3.942556      1.677444
H     -2.445284      1.927852     -1.029268
H     -3.910339     -0.029353      0.387591
H     -3.899053      2.283023      4.640070
H     -3.126958      4.268442      5.896519
H     -1.301128      5.683774      4.991817
H     -0.239395      5.108924      2.825393
H     -0.990291      3.136387      1.555647
H     -3.271308     -1.004929      2.261137
H     -0.795551     -0.122275      2.063971
H     -0.604188     -1.808850      2.043322
H      0.705498      0.255455      0.378936
H      3.062722     -2.562437      2.924011
H      3.587674     -0.008167      3.736904
H      4.006551     -1.881347      0.532603
H      6.057125     -0.401602      2.055957
H      7.644218      0.739567      1.012628
H      8.989281      2.802066      1.121612
H      7.911181      5.016364      0.832392
H      5.466521      5.167689      0.433741
H      4.093082      3.107988      0.341834
H      5.755952     -2.621816      3.838497
H      7.271044     -4.537072      4.092188
H      7.870037     -5.935324      2.133685
H      6.939957     -5.396764     -0.101618
H      5.416621     -3.481871     -0.385735
H      2.419089     -1.553824     -1.346049
H      1.481207     -1.507036     -2.809541
H      1.750916     -0.009423     -1.899201
H     -3.903850     -3.249590     -0.120306
H     -3.314905     -3.422588     -1.754597
H     -3.982451     -1.879166     -1.179966
H     -1.356583     -4.416761     -0.559114
H     -2.008758     -3.980327      1.022165
H     -0.364173     -3.530584      0.584040
