      -----------------------------------------------------------      
     |                   =====================                   |     
     |                           x T B                           |     
     |                   =====================                   |     
     |                         S. Grimme                         |     
     |          Mulliken Center for Theoretical Chemistry        |     
     |                    University of Bonn                     |     
      -----------------------------------------------------------      

   * xtb version 6.7.1pre (5071a88) compiled by 'Marcel@Raven' on 2024-07-23

   xtb is free software: you can redistribute it and/or modify it under
   the terms of the GNU Lesser General Public License as published by
   the Free Software Foundation, either version 3 of the License, or
   (at your option) any later version.
   
   xtb is distributed in the hope that it will be useful,
   but WITHOUT ANY WARRANTY; without even the implied warranty of
   MERCHANTABILITY or FITNESS FOR A PARTICULAR PURPOSE.  See the
   GNU Lesser General Public License for more details.
   
   Cite this work as:
   * C. Bannwarth, E. Caldeweyher, S. Ehlert, A. Hansen, P. Pracht,
     J. Seibert, S. Spicher, S. Grimme, WIREs Comput. Mol. Sci., 2020, 11,
     e01493. DOI: 10.1002/wcms.1493
   
   for GFN2-xTB:
   * C. Bannwarth, S. Ehlert and S. Grimme., J. Chem. Theory Comput., 2019,
     15, 1652-1671. DOI: 10.1021/acs.jctc.8b01176
   for GFN1-xTB:
   * S. Grimme, C. Bannwarth, P. Shushkov, J. Chem. Theory Comput., 2017,
     13, 1989-2009. DOI: 10.1021/acs.jctc.7b00118
   for GFN0-xTB:
   * P. Pracht, E. Caldeweyher, S. Ehlert, S. Grimme, ChemRxiv, 2019, preprint.
     DOI: 10.26434/chemrxiv.8326202.v1
   for GFN-FF:
   * S. Spicher and S. Grimme, Angew. Chem. Int. Ed., 2020, 59, 15665-15673.
     DOI: 10.1002/anie.202004239
   
   for ALPB and GBSA implicit solvation:
   * S. Ehlert, M. Stahn, S. Spicher, S. Grimme, J. Chem. Theory Comput.,
     2021, 17, 4250-4261. DOI: 10.1021/acs.jctc.1c00471
   
   for ddCOSMO and CPCM-X implicit solvation:
   * M. Stahn, S. Ehlert, S. Grimme, J. Phys. Chem. A,
     2023, XX, XXXX-XXXX. DOI: 10.1021/acs.jpca.3c04382
   
   for DFT-D4:
   * E. Caldeweyher, C. Bannwarth and S. Grimme, J. Chem. Phys., 2017,
     147, 034112. DOI: 10.1063/1.4993215
   * E. Caldeweyher, S. Ehlert, A. Hansen, H. Neugebauer, S. Spicher,
     C. Bannwarth and S. Grimme, J. Chem. Phys., 2019, 150, 154122.
     DOI: 10.1063/1.5090222
   * E. Caldeweyher, J.-M. Mewes, S. Ehlert and S. Grimme, Phys. Chem. Chem. Phys.
     2020, 22, 8499-8512. DOI: 10.1039/D0CP00502A
   
   for sTDA-xTB:
   * S. Grimme and C. Bannwarth, J. Chem. Phys., 2016, 145, 054103.
     DOI: 10.1063/1.4959605
   
   in the mass-spec context:
   * V. Asgeirsson, C. Bauer and S. Grimme, Chem. Sci., 2017, 8, 4879.
     DOI: 10.1039/c7sc00601b
   * J. Koopman and S. Grimme, ACS Omega 2019, 4, 12, 15120-15133.
     DOI: 10.1021/acsomega.9b02011
   
   for metadynamics refer to:
   * S. Grimme, J. Chem. Theory Comput., 2019, 155, 2847-2862
     DOI: 10.1021/acs.jctc.9b00143
   
   for SPH calculations refer to:
   * S. Spicher and S. Grimme, J. Chem. Theory Comput., 2021, 17, 1701-1714
     DOI: 10.1021/acs.jctc.0c01306
   
   for ONIOM refer to:
   * C. Plett, A. Katbashev, S. Ehlert, S. Grimme, M. Bursch,
     Phys. Chem. Chem. Phys., 2023, 25, 17860-17868. DOI: 10.1039/D3CP02178E
   
   for DIPRO refer to:
   * J. Kohn, N. Gildemeister, S. Grimme, D. Fazzi, A. Hansen,
     J. Chem. Phys., 2023, just accepted.
   
   for PTB refer to:
   * S. Grimme, M. Mueller, A. Hansen, J. Chem. Phys., 2023, 158, 124111.
     DOI: 10.1063/5.0137838
   
   with help from (in alphabetical order)
   P. Atkinson, C. Bannwarth, F. Bohle, G. Brandenburg, E. Caldeweyher
   M. Checinski, S. Dohm, S. Ehlert, S. Ehrlich, I. Gerasimov, C. Hölzer
   A. Katbashev, J. Kohn, J. Koopman, C. Lavigne, S. Lehtola, F. März, M. Müller,
   F. Musil, H. Neugebauer, J. Pisarek, C. Plett, P. Pracht, F. Pultar,
   J. Seibert, P. Shushkov, S. Spicher, M. Stahn, M. Steiner, T. Strunk,
   J. Stückrath, T. Rose, and J. Unsleber
   
 * started run on 2026/08/31 at 22:25:10.330     
   ID    Z sym.   atoms
    1    6 C      1, 2, 5, 6, 8-10, 12, 13, 15, 16, 18, 19, 21, 22, 24,
                  26-32, 34, 35, 37, 39, 41, 43, 45-62
    2    8 O      3, 4, 7, 11, 14, 17, 20, 23, 25, 33, 36, 38, 40, 44
    3    7 N      42, 115, 117, 119, 121, 123, 125, 127, 129, 131, 133, 135,
                  137, 139, 141, 143, 145, 147, 149, 151, 153, 155, 157, 159,
                  161, 163, 165, 167, 169, 171, 173, 175, 177, 179, 181, 183,
                  185
    4    1 H      63-113
    5    5 B      114, 116, 118, 120, 122, 124, 126, 128, 130, 132, 134, 136,
                  138, 140, 142, 144, 146, 148, 150, 152, 154, 156, 158, 160,
                  162, 164, 166, 168, 170, 172, 174, 176, 178, 180, 182, 184

           -------------------------------------------------
          |                Calculation Setup                |
           -------------------------------------------------

          program call               : "c:\Users\Andre\Proyectos doctorado\kras-pancreatic-gC3N4-ai\tools\xtb\xtb-6.7.1\bin\xtb.exe" "c:\Users\Andre\Proyectos doctorado\nano-qsar-ai-therapeutics\calculations\tnbc\Paclitaxel\Paclitaxel_opt_90deg.xyz" --opt vloose --gfn 2 --chrg 0 --uhf 0 --etemp 300 --iterations 500 --cycles 15 --norestart
          coordinate file            : c:\Users\Andre\Proyectos doctorado\nano-qsar-ai-therapeutics\calculations\tnbc\Paclitaxel\Paclitaxel_opt_90deg.xyz
          omp threads                :                    16


molecular fragmentation (1/2 indicates fragments):
111111111111111111111111111111111111111111111111111111111111111111111111
111111111111111111111111111111111111111112222222222222222222222222222222
22222222222222222222222222222222222222222
# atoms in fragment 1/2:   113    72
 fragment masses (1/2) :      853.91      893.44
CMA distance (Bohr)    :  25.706
constraining FC (au)   :  0.0500

           -------------------------------------------------
          |                 G F N 2 - x T B                 |
           -------------------------------------------------

        Reference                      10.1021/acs.jctc.8b01176
      * Hamiltonian:
        H0-scaling (s, p, d)           1.850000    2.230000    2.230000
        zeta-weighting                 0.500000
      * Dispersion:
        s8                             2.700000
        a1                             0.520000
        a2                             5.000000
        s9                             5.000000
      * Repulsion:
        kExp                           1.500000    1.000000
        rExp                           1.000000
      * Coulomb:
        alpha                          2.000000
        third order                    shell-resolved
        anisotropic                    true
        a3                             3.000000
        a5                             4.000000
        cn-shift                       1.200000
        cn-exp                         4.000000
        max-rad                        5.000000


          ...................................................
          :                      SETUP                      :
          :.................................................:
          :  # basis functions                 587          :
          :  # atomic orbitals                 587          :
          :  # shells                          319          :
          :  # electrons                       616          :
          :  max. iterations                   500          :
          :  Hamiltonian                  GFN2-xTB          :
          :  restarted?                      false          :
          :  GBSA solvation                  false          :
          :  PC potential                    false          :
          :  electronic temp.          300.0000000     K    :
          :  accuracy                    1.0000000          :
          :  -> integral cutoff          0.2500000E+02      :
          :  -> integral neglect         0.1000000E-07      :
          :  -> SCF convergence          0.1000000E-05 Eh   :
          :  -> wf. convergence          0.1000000E-03 e    :
          :  Broyden damping             0.4000000          :
          :  net charge                          0          :
          :  unpaired electrons                  0          :
          ...................................................

 iter      E             dE          RMSdq      gap      omega  full diag
   1   -339.0655017 -0.339066E+03  0.934E+00    0.59       0.0  T
   2   -339.5506010 -0.485099E+00  0.557E+00    0.04       1.0  T
   3   -329.5910350  0.995957E+01  0.466E+00    0.08       1.0  T
   4   -288.2655841  0.413255E+02  0.651E+00    0.09       1.0  T
   5   -338.6026502 -0.503371E+02  0.195E+00    0.12       1.0  T
   6   -339.9991747 -0.139652E+01  0.117E+00    0.59       1.0  T
   7   -340.0798682 -0.806935E-01  0.841E-01    0.11       1.0  T
   8   -340.1665962 -0.867281E-01  0.733E-01    0.37       1.0  T
   9   -340.1697000 -0.310374E-02  0.584E-01    0.17       1.0  T
  10   -340.1575945  0.121055E-01  0.415E-01    0.13       1.0  T
  11   -340.1853743 -0.277797E-01  0.262E-01    0.31       1.0  T
  12   -340.1906388 -0.526450E-02  0.196E-01    0.25       1.0  T
  13   -340.1922855 -0.164676E-02  0.174E-01    0.27       1.0  T
  14   -340.1958726 -0.358705E-02  0.143E-01    0.33       1.0  T
  15   -340.1976768 -0.180429E-02  0.110E-01    0.37       1.0  T
  16   -340.1998484 -0.217155E-02  0.715E-02    0.44       1.0  T
  17   -340.2007749 -0.926483E-03  0.458E-02    0.50       1.0  T
  18   -340.2012967 -0.521841E-03  0.303E-02    0.54       1.0  T
  19   -340.2015118 -0.215081E-03  0.175E-02    0.56       1.0  T
  20   -340.2015932 -0.814217E-04  0.100E-02    0.52       1.0  T
  21   -340.2016204 -0.272173E-04  0.512E-03    0.50       1.4  T
  22   -340.2016276 -0.715216E-05  0.217E-03    0.48       3.4  T
  23   -340.2016286 -0.102092E-05  0.985E-04    0.48       7.5  T
  24   -340.2016287 -0.100719E-06  0.466E-04    0.47      15.8  T
  25   -340.2016287 -0.941350E-08  0.299E-04    0.47      24.6  T

   *** convergence criteria satisfied after 25 iterations ***

         #    Occupation            Energy/Eh            Energy/eV
      -------------------------------------------------------------
         1        2.0000           -0.7461580             -20.3040
       ...           ...                  ...                  ...
       302        2.0000           -0.3243078              -8.8249
       303        2.0000           -0.3214827              -8.7480
       304        2.0000           -0.3198843              -8.7045
       305        2.0000           -0.3171173              -8.6292
       306        2.0000           -0.3120433              -8.4911
       307        2.0000           -0.3103985              -8.4464
       308        1.9998           -0.3034746              -8.2580 (HOMO)
       309        0.0002           -0.2860650              -7.7842 (LUMO)
       310        0.0000           -0.2804907              -7.6325
       311                         -0.2748023              -7.4778
       312                         -0.2719428              -7.3999
       313                         -0.2658470              -7.2341
       ...                                ...                  ...
       587                          0.9864413              26.8424
      -------------------------------------------------------------
                  HL-Gap            0.0174097 Eh            0.4737 eV
             Fermi-level           -0.2947708 Eh           -8.0211 eV

 SCC (total)                   0 d,  0 h,  0 min,  2.242 sec
 SCC setup                      ...        0 min,  0.001 sec (  0.045%)
 Dispersion                     ...        0 min,  0.010 sec (  0.446%)
 classical contributions        ...        0 min,  0.000 sec (  0.000%)
 integral evaluation            ...        0 min,  0.026 sec (  1.160%)
 iterations                     ...        0 min,  2.114 sec ( 94.291%)
 molecular gradient             ...        0 min,  0.085 sec (  3.791%)
 printout                       ...        0 min,  0.006 sec (  0.268%)

         :::::::::::::::::::::::::::::::::::::::::::::::::::::
         ::                     SUMMARY                     ::
         :::::::::::::::::::::::::::::::::::::::::::::::::::::
         :: total energy            -336.693793452342 Eh    ::
         :: gradient norm              0.152579887236 Eh/a0 ::
         :: HOMO-LUMO gap              0.473741193648 eV    ::
         ::.................................................::
         :: SCC energy              -340.181442518021 Eh    ::
         :: -> isotropic ES            0.969633785718 Eh    ::
         :: -> anisotropic ES         -0.028427790547 Eh    ::
         :: -> anisotropic XC          0.107407353427 Eh    ::
         :: -> dispersion             -0.292611840001 Eh    ::
         :: repulsion energy           3.487649065678 Eh    ::
         :: add. restraining           0.000000000000 Eh    ::
         :: total charge              -0.000000000010 e     ::
         :::::::::::::::::::::::::::::::::::::::::::::::::::::

      ----------------------------------------------------------- 
     |                   =====================                   |
     |                        A N C O P T                        |
     |                   =====================                   |
     |               Approximate Normal Coordinate               |
     |                Rational Function Optimizer                |
      ----------------------------------------------------------- 
      ----------------------------------------------------------- 
     |                   =====================                   |
     |                        A N C O P T                        |
     |                   =====================                   |
     |               Approximate Normal Coordinate               |
     |                Rational Function Optimizer                |
      ----------------------------------------------------------- 

          ...................................................
          :                      SETUP                      :
          :.................................................:
          :   optimization level            normal          :
          :   max. optcycles                    15          :
          :   ANC micro-cycles                  15          :
          :   degrees of freedom               549          :
          :.................................................:
          :   RF solver                   davidson          :
          :   write xtbopt.log                true          :
          :   linear?                        false          :
          :   energy convergence         0.5000000E-05 Eh   :
          :   grad. convergence          0.1000000E-02 Eh/α :
          :   maxmium RF displ.          1.0000000          :
          :   Hlow (freq-cutoff)         0.1000000E-01      :
          :   Hmax (freq-cutoff)         5.0000000          :
          :   S6 in model hess.         20.0000000          :
          ...................................................

generating ANC from exact Hessian ...
Using Lindh-Hessian (1995)
 Shifting diagonal of input Hessian by   1.008563652283249E-002
 Lowest  eigenvalues of input Hessian
    0.010000    0.010005    0.010017    0.010038    0.010046    0.010063
    0.000000    0.000000    0.000000    0.000000    0.000000    0.010095
    0.000000    0.010138    0.010190    0.010225    0.010296    0.010345
 Highest eigenvalues
    2.260728    2.267030    2.274249    2.274402    2.314980    2.316891
 

........................................................................
.............................. CYCLE    1 ..............................
........................................................................

 iter      E             dE          RMSdq      gap      omega  full diag
   1   -340.2016287 -0.340202E+03  0.176E-04    0.47       0.0  T
   2   -340.2016287 -0.420943E-08  0.263E-04    0.47      28.0  T
   3   -340.2016287 -0.527825E-08  0.197E-04    0.47      37.3  T
     SCC iter.                  ...        0 min,  0.250 sec
     gradient                   ...        0 min,  0.077 sec
 * total energy  :  -336.6937935 Eh     change       -0.2223760E-07 Eh
   gradient norm :     0.1525780 Eh/α   predicted     0.0000000E+00 (-100.00%)
   displ. norm   :     0.4652972 α      lambda       -0.3861726E-01
   maximum displ.:     0.1003514 α      in ANC's #103, #66, #70, ...

........................................................................
.............................. CYCLE    2 ..............................
........................................................................

 iter      E             dE          RMSdq      gap      omega  full diag
   1   -340.3282964 -0.340328E+03  0.143E-01    0.54       0.0  T
   2   -340.3286573 -0.360911E-03  0.845E-02    0.55       1.0  T
   3   -340.3286290  0.283405E-04  0.364E-02    0.55       1.0  T
   4   -340.3287061 -0.771566E-04  0.730E-03    0.55       1.0  T
   5   -340.3287071 -0.100513E-05  0.556E-03    0.54       1.3  T
   6   -340.3287136 -0.643846E-05  0.312E-03    0.54       2.4  T
   7   -340.3287153 -0.175446E-05  0.182E-03    0.55       4.0  T
   8   -340.3287158 -0.505206E-06  0.980E-04    0.54       7.5  T
   9   -340.3287160 -0.160737E-06  0.497E-04    0.54      14.8  T
     SCC iter.                  ...        0 min,  0.770 sec
     gradient                   ...        0 min,  0.085 sec
 * total energy  :  -336.7206252 Eh     change       -0.2683171E-01 Eh
   gradient norm :     0.0563754 Eh/α   predicted    -0.2352500E-01 ( -12.32%)
   displ. norm   :     0.4951822 α      lambda       -0.1362859E-01
   maximum displ.:     0.1214780 α      in ANC's #66, #70, #90, ...

........................................................................
.............................. CYCLE    3 ..............................
........................................................................

 iter      E             dE          RMSdq      gap      omega  full diag
   1   -340.3955656 -0.340396E+03  0.966E-02    0.58       0.0  T
   2   -340.3957437 -0.178073E-03  0.565E-02    0.58       1.0  T
   3   -340.3957346  0.915860E-05  0.247E-02    0.58       1.0  T
   4   -340.3957627 -0.281710E-04  0.571E-03    0.58       1.3  T
   5   -340.3957632 -0.435764E-06  0.450E-03    0.58       1.6  T
   6   -340.3957691 -0.591622E-05  0.202E-03    0.58       3.6  T
   7   -340.3957698 -0.713452E-06  0.117E-03    0.58       6.3  T
   8   -340.3957700 -0.151816E-06  0.734E-04    0.58      10.0  T
   9   -340.3957701 -0.115964E-06  0.292E-04    0.58      25.2  T
     SCC iter.                  ...        0 min,  0.822 sec
     gradient                   ...        0 min,  0.083 sec
 * total energy  :  -336.7296758 Eh     change       -0.9050624E-02 Eh
   gradient norm :     0.0244167 Eh/α   predicted    -0.8485201E-02 (  -6.25%)
   displ. norm   :     0.4681300 α      lambda       -0.4795677E-02
   maximum displ.:     0.1184170 α      in ANC's #40, #38, #70, ...

........................................................................
.............................. CYCLE    4 ..............................
........................................................................

 iter      E             dE          RMSdq      gap      omega  full diag
   1   -340.4098409 -0.340410E+03  0.656E-02    0.57       0.0  T
   2   -340.4099218 -0.808618E-04  0.395E-02    0.58       1.0  T
   3   -340.4099169  0.486610E-05  0.148E-02    0.58       1.0  T
   4   -340.4099239 -0.697705E-05  0.485E-03    0.57       1.5  T
   5   -340.4099262 -0.229891E-05  0.307E-03    0.57       2.4  T
   6   -340.4099288 -0.257757E-05  0.137E-03    0.57       5.4  T
   7   -340.4099292 -0.386695E-06  0.628E-04    0.57      11.7  T
   8   -340.4099292 -0.115584E-07  0.417E-04    0.57      17.6  T
     SCC iter.                  ...        0 min,  0.651 sec
     gradient                   ...        0 min,  0.086 sec
 * total energy  :  -336.7330467 Eh     change       -0.3370857E-02 Eh
   gradient norm :     0.0125386 Eh/α   predicted    -0.2923382E-02 ( -13.27%)
   displ. norm   :     0.4515739 α      lambda       -0.2369666E-02
   maximum displ.:     0.1289617 α      in ANC's #25, #23, #38, ...

........................................................................
.............................. CYCLE    5 ..............................
........................................................................

 iter      E             dE          RMSdq      gap      omega  full diag
   1   -340.4145896 -0.340415E+03  0.541E-02    0.57       0.0  T
   2   -340.4146236 -0.339998E-04  0.329E-02    0.57       1.0  T
   3   -340.4146160  0.761139E-05  0.109E-02    0.57       1.0  T
   4   -340.4146237 -0.769137E-05  0.421E-03    0.56       1.7  T
   5   -340.4146251 -0.144406E-05  0.315E-03    0.56       2.3  T
   6   -340.4146280 -0.291680E-05  0.990E-04    0.56       7.4  T
   7   -340.4146281 -0.112953E-06  0.555E-04    0.56      13.2  T
   8   -340.4146282 -0.269866E-07  0.264E-04    0.56      27.8  T
     SCC iter.                  ...        0 min,  0.658 sec
     gradient                   ...        0 min,  0.076 sec
 * total energy  :  -336.7346747 Eh     change       -0.1628053E-02 Eh
   gradient norm :     0.0097364 Eh/α   predicted    -0.1426467E-02 ( -12.38%)
   displ. norm   :     0.3911944 α      lambda       -0.1149425E-02
   maximum displ.:     0.1452870 α      in ANC's #25, #23, #29, ...

........................................................................
.............................. CYCLE    6 ..............................
........................................................................

 iter      E             dE          RMSdq      gap      omega  full diag
   1   -340.4147738 -0.340415E+03  0.416E-02    0.55       0.0  T
   2   -340.4147824 -0.862921E-05  0.249E-02    0.55       1.0  T
   3   -340.4147740  0.838686E-05  0.795E-03    0.55       1.0  T
   4   -340.4147814 -0.745230E-05  0.340E-03    0.55       2.2  T
   5   -340.4147833 -0.188295E-05  0.189E-03    0.55       3.9  T
   6   -340.4147842 -0.889365E-06  0.930E-04    0.55       7.9  T
   7   -340.4147844 -0.167551E-06  0.355E-04    0.55      20.7  T
     SCC iter.                  ...        0 min,  0.580 sec
     gradient                   ...        0 min,  0.077 sec
 * total energy  :  -336.7354870 Eh     change       -0.8123024E-03 Eh
   gradient norm :     0.0097469 Eh/α   predicted    -0.6626648E-03 ( -18.42%)
   displ. norm   :     0.3813031 α      lambda       -0.7651551E-03
   maximum displ.:     0.1562098 α      in ANC's #25, #21, #29, ...

........................................................................
.............................. CYCLE    7 ..............................
........................................................................

 iter      E             dE          RMSdq      gap      omega  full diag
   1   -340.4156601 -0.340416E+03  0.354E-02    0.54       0.0  T
   2   -340.4156645 -0.436846E-05  0.211E-02    0.54       1.0  T
   3   -340.4156522  0.123189E-04  0.883E-03    0.54       1.0  T
   4   -340.4156648 -0.126408E-04  0.271E-03    0.54       2.7  T
   5   -340.4156659 -0.102806E-05  0.155E-03    0.54       4.7  T
   6   -340.4156664 -0.524844E-06  0.873E-04    0.54       8.4  T
   7   -340.4156665 -0.153512E-06  0.362E-04    0.54      20.3  T
     SCC iter.                  ...        0 min,  0.548 sec
     gradient                   ...        0 min,  0.081 sec
 * total energy  :  -336.7360345 Eh     change       -0.5474483E-03 Eh
   gradient norm :     0.0068900 Eh/α   predicted    -0.4382019E-03 ( -19.96%)
   displ. norm   :     0.3538011 α      lambda       -0.5185706E-03
   maximum displ.:     0.1383329 α      in ANC's #25, #21, #10, ...

........................................................................
.............................. CYCLE    8 ..............................
........................................................................

 iter      E             dE          RMSdq      gap      omega  full diag
   1   -340.4169114 -0.340417E+03  0.325E-02    0.54       0.0  T
   2   -340.4169165 -0.509245E-05  0.194E-02    0.54       1.0  T
   3   -340.4169052  0.112705E-04  0.878E-03    0.54       1.0  T
   4   -340.4169170 -0.118012E-04  0.265E-03    0.54       2.8  T
   5   -340.4169180 -0.959701E-06  0.135E-03    0.54       5.5  T
   6   -340.4169183 -0.369228E-06  0.815E-04    0.54       9.0  T
   7   -340.4169185 -0.131977E-06  0.395E-04    0.54      18.6  T
     SCC iter.                  ...        0 min,  0.669 sec
     gradient                   ...        0 min,  0.086 sec
 * total energy  :  -336.7364003 Eh     change       -0.3658498E-03 Eh
   gradient norm :     0.0056443 Eh/α   predicted    -0.2917444E-03 ( -20.26%)
   displ. norm   :     0.2925368 α      lambda       -0.3187288E-03
   maximum displ.:     0.1273957 α      in ANC's #10, #21, #25, ...

........................................................................
.............................. CYCLE    9 ..............................
........................................................................

 iter      E             dE          RMSdq      gap      omega  full diag
   1   -340.4185005 -0.340419E+03  0.263E-02    0.53       0.0  T
   2   -340.4185034 -0.291028E-05  0.157E-02    0.54       1.0  T
   3   -340.4184972  0.626980E-05  0.615E-03    0.53       1.2  T
   4   -340.4185034 -0.619593E-05  0.218E-03    0.54       3.4  T
   5   -340.4185043 -0.916516E-06  0.892E-04    0.54       8.2  T
   6   -340.4185044 -0.141911E-06  0.528E-04    0.54      13.9  T
     SCC iter.                  ...        0 min,  0.521 sec
     gradient                   ...        0 min,  0.093 sec
 * total energy  :  -336.7366264 Eh     change       -0.2260375E-03 Eh
   gradient norm :     0.0050889 Eh/α   predicted    -0.1730100E-03 ( -23.46%)
   displ. norm   :     0.2630708 α      lambda       -0.2228431E-03
   maximum displ.:     0.1309780 α      in ANC's #10, #21, #13, ...

........................................................................
.............................. CYCLE   10 ..............................
........................................................................

 iter      E             dE          RMSdq      gap      omega  full diag
   1   -340.4197173 -0.340420E+03  0.230E-02    0.54       0.0  T
   2   -340.4197191 -0.171849E-05  0.137E-02    0.54       1.0  T
   3   -340.4197137  0.538486E-05  0.555E-03    0.54       1.3  T
   4   -340.4197184 -0.471091E-05  0.220E-03    0.54       3.3  T
   5   -340.4197194 -0.100183E-05  0.122E-03    0.54       6.0  T
   6   -340.4197198 -0.410836E-06  0.440E-04    0.54      16.7  T
   7   -340.4197198 -0.144404E-07  0.233E-04    0.54      31.5  T
     SCC iter.                  ...        0 min,  0.657 sec
     gradient                   ...        0 min,  0.077 sec
 * total energy  :  -336.7367932 Eh     change       -0.1667990E-03 Eh
   gradient norm :     0.0041648 Eh/α   predicted    -0.1191425E-03 ( -28.57%)
   displ. norm   :     0.2998425 α      lambda       -0.2157788E-03
   maximum displ.:     0.1560640 α      in ANC's #10, #21, #13, ...

........................................................................
.............................. CYCLE   11 ..............................
........................................................................

 iter      E             dE          RMSdq      gap      omega  full diag
   1   -340.4199098 -0.340420E+03  0.254E-02    0.54       0.0  T
   2   -340.4199117 -0.194423E-05  0.150E-02    0.54       1.0  T
   3   -340.4199077  0.400199E-05  0.463E-03    0.54       1.6  T
   4   -340.4199110 -0.328892E-05  0.209E-03    0.54       3.5  T
   5   -340.4199121 -0.108256E-05  0.951E-04    0.54       7.7  T
   6   -340.4199123 -0.211877E-06  0.496E-04    0.54      14.8  T
   7   -340.4199123 -0.285382E-07  0.293E-04    0.54      25.1  T
     SCC iter.                  ...        0 min,  1.056 sec
     gradient                   ...        0 min,  0.094 sec
 * total energy  :  -336.7369623 Eh     change       -0.1691206E-03 Eh
   gradient norm :     0.0045236 Eh/α   predicted    -0.1175901E-03 ( -30.47%)
   displ. norm   :     0.3681903 α      lambda       -0.2413338E-03
   maximum displ.:     0.1942069 α      in ANC's #10, #21, #14, ...

........................................................................
.............................. CYCLE   12 ..............................
........................................................................

 iter      E             dE          RMSdq      gap      omega  full diag
   1   -340.4195335 -0.340420E+03  0.289E-02    0.54       0.0  T
   2   -340.4195358 -0.231695E-05  0.170E-02    0.54       1.0  T
   3   -340.4195304  0.540841E-05  0.557E-03    0.54       1.3  T
   4   -340.4195356 -0.516453E-05  0.197E-03    0.54       3.7  T
   5   -340.4195363 -0.698352E-06  0.109E-03    0.54       6.8  T
   6   -340.4195366 -0.291991E-06  0.563E-04    0.54      13.1  T
   7   -340.4195366 -0.482866E-07  0.305E-04    0.54      24.1  T
     SCC iter.                  ...        0 min,  0.851 sec
     gradient                   ...        0 min,  0.111 sec
 * total energy  :  -336.7371544 Eh     change       -0.1920826E-03 Eh
   gradient norm :     0.0047454 Eh/α   predicted    -0.1370269E-03 ( -28.66%)
   displ. norm   :     0.4305914 α      lambda       -0.2534568E-03
   maximum displ.:     0.2280012 α      in ANC's #10, #14, #21, ...

........................................................................
.............................. CYCLE   13 ..............................
........................................................................

 iter      E             dE          RMSdq      gap      omega  full diag
   1   -340.4180962 -0.340418E+03  0.342E-02    0.54       0.0  T
   2   -340.4181002 -0.404402E-05  0.201E-02    0.54       1.0  T
   3   -340.4180940  0.619216E-05  0.598E-03    0.54       1.2  T
   4   -340.4180990 -0.499466E-05  0.274E-03    0.54       2.7  T
   5   -340.4181007 -0.162340E-05  0.130E-03    0.54       5.7  T
   6   -340.4181011 -0.456245E-06  0.596E-04    0.54      12.3  T
   7   -340.4181012 -0.431911E-07  0.358E-04    0.54      20.5  T
     SCC iter.                  ...        0 min,  1.012 sec
     gradient                   ...        0 min,  0.095 sec
 * total energy  :  -336.7373544 Eh     change       -0.2000008E-03 Eh
   gradient norm :     0.0052050 Eh/α   predicted    -0.1502306E-03 ( -24.89%)
   displ. norm   :     0.4528496 α      lambda       -0.2523193E-03
   maximum displ.:     0.2429671 α      in ANC's #10, #14, #13, ...

........................................................................
.............................. CYCLE   14 ..............................
........................................................................

 iter      E             dE          RMSdq      gap      omega  full diag
   1   -340.4184353 -0.340418E+03  0.339E-02    0.55       0.0  T
   2   -340.4184386 -0.328897E-05  0.200E-02    0.54       1.0  T
   3   -340.4184312  0.745307E-05  0.658E-03    0.55       1.1  T
   4   -340.4184380 -0.682465E-05  0.246E-03    0.54       3.0  T
   5   -340.4184392 -0.121573E-05  0.125E-03    0.54       5.9  T
   6   -340.4184396 -0.408077E-06  0.606E-04    0.54      12.1  T
   7   -340.4184397 -0.497240E-07  0.349E-04    0.54      21.1  T
     SCC iter.                  ...        0 min,  1.099 sec
     gradient                   ...        0 min,  0.132 sec
 * total energy  :  -336.7375458 Eh     change       -0.1914350E-03 Eh
   gradient norm :     0.0049296 Eh/α   predicted    -0.1520322E-03 ( -20.58%)
   displ. norm   :     0.4767449 α      lambda       -0.2358232E-03
   maximum displ.:     0.2556669 α      in ANC's #10, #14, #13, ...

........................................................................
.............................. CYCLE   15 ..............................
........................................................................

 iter      E             dE          RMSdq      gap      omega  full diag
   1   -340.4172709 -0.340417E+03  0.373E-02    0.55       0.0  T
   2   -340.4172753 -0.442152E-05  0.220E-02    0.55       1.0  T
   3   -340.4172668  0.858780E-05  0.722E-03    0.55       1.0  T
   4   -340.4172746 -0.780995E-05  0.279E-03    0.55       2.6  T
   5   -340.4172761 -0.150074E-05  0.141E-03    0.55       5.2  T
   6   -340.4172766 -0.522647E-06  0.665E-04    0.55      11.1  T
   7   -340.4172767 -0.663948E-07  0.357E-04    0.55      20.6  T
     SCC iter.                  ...        0 min,  2.235 sec
     gradient                   ...        0 min,  1.780 sec
 * total energy  :  -336.7377293 Eh     change       -0.1834902E-03 Eh
   gradient norm :     0.0047280 Eh/α   predicted    -0.1447137E-03 ( -21.13%)
   displ. norm   :     0.4874662 α      lambda       -0.2602315E-03
   maximum displ.:     0.2588795 α      in ANC's #10, #14, #13, ...

   *** FAILED TO CONVERGE GEOMETRY OPTIMIZATION IN 15 ITERATIONS ***


 ANCopt (total)                0 d,  0 h,  0 min, 16.352 sec
 optimizer setup                ...        0 min,  0.003 sec (  0.018%)
 model hessian                  ...        0 min,  0.172 sec (  1.052%)
 ANC generation                 ...        0 min,  0.046 sec (  0.281%)
 coordinate transformation      ...        0 min,  0.006 sec (  0.037%)
 single point calculation       ...        0 min, 16.056 sec ( 98.190%)
 optimization log               ...        0 min,  0.052 sec (  0.318%)
 hessian update                 ...        0 min,  0.006 sec (  0.037%)
 rational function              ...        0 min,  0.008 sec (  0.049%)

================
 final structure:
================
185
 xtb: 6.7.1pre (5071a88)
C            4.68102721751061       -1.95780910833631        8.69039076494225
C            3.31318402966041       -1.44085091503729        9.03973096101557
O            2.52048003095152       -0.98097044295426        8.26515564902381
O            3.09607264288422       -1.53040736136889       10.36124148613146
C            1.78250331962222       -1.20311646448305       10.79921492607878
C            0.86914679968754       -2.41384558934427       10.60793258882721
O            1.30082364439268       -3.40359588657980       10.07452985496685
C           -0.60888507043823       -2.29158366849296       11.01400385496297
C           -1.12800968044570       -0.84620760096718       11.06666338747318
C           -1.33464277663065       -2.97262703693523        9.79858584825436
O           -1.42206914769019       -2.00862623032518        8.77613816402676
C           -2.69738284073111       -3.55758693567900       10.16288406424929
C           -2.45131185188515       -4.72756851487906       11.09631531366365
O           -1.52798089118775       -5.68745443150717       10.57336168528383
C           -0.58570004486593       -5.46886543920890       11.62432146843679
C           -1.50114951001343       -4.41691702954383       12.26802982837290
O           -2.04511123458061       -4.74430955935455       13.55468711256682
C           -2.57024259820783       -5.94963772836212       13.84090404157074
C           -3.04586397408666       -5.97598346608808       15.27128259856105
O           -2.64991084343252       -6.87422166817320       13.08233109509534
C           -1.02848720995617       -2.94072529574252       12.37812291923906
C           -0.25288126100552       -2.83755350628923       13.75677666709126
O           -1.34176779391716       -2.45984760857262       14.63076063426442
C           -1.51289535395940       -3.04024426351353       15.81149475363500
O           -0.76730688951294       -3.87627804008434       16.28118759245311
C           -2.70626326137355       -2.53084082602063       16.52351983761094
C           -3.03826635156601       -3.11030595289772       17.74667039137786
C           -4.12588944763339       -2.64560698198306       18.46020271739824
C           -4.88180616468258       -1.59704765030358       17.95988028409784
C           -4.55105174504946       -1.01377531536223       16.74634592166468
C           -3.46680471529440       -1.47600524818178       16.02454626387830
C            1.01406885661168       -2.03196895329152       14.28234064864720
O            1.57085380639674       -2.85311453499537       15.29541180287301
C            0.67790984087912       -0.67154899547694       14.93190336539271
C            0.73222330884658        0.57132299105245       14.03586052531458
O            1.52275071732232        1.59934312099088       14.68117795447479
C            0.94083653540130        2.22208640960661       15.68048323080920
O           -0.13158927877212        1.95311961372205       16.16956222807017
C            1.77145243833849        3.37949877718558       16.22742244581217
O            1.15810669882704        3.85684534078951       17.39186912419449
C            1.85833817670116        4.47617486290475       15.12250743636367
N            0.60812198099078        5.19750658916501       15.04759354500444
C           -0.44302075542295        4.71814032562961       14.33844143762809
O           -0.36894182564436        3.69792331071980       13.67622349553502
C           -1.67354406210975        5.55245968815254       14.40635189339311
C           -1.61834298324065        6.93423654272561       14.56673919595071
C           -2.78768671852289        7.67221870918088       14.60433666206974
C           -4.01495410058075        7.04003121269013       14.48670309329157
C           -4.07428792742284        5.66670753537820       14.31401174893137
C           -2.90789029026000        4.92583928719678       14.26681854216412
C            2.98553318360944        5.44803450519504       15.34912874423333
C            3.17466312577477        6.04211563764515       16.59080684125091
C            4.19754867118818        6.95615275276741       16.77472739504165
C            5.03277152180263        7.28829683976293       15.72131503216148
C            4.84424907713935        6.70314623779203       14.48059787408401
C            3.82438671323026        5.78653765992084       14.29543469466427
C            1.22979523181038        0.36719636734110       12.62881954991844
C            1.03231928822309        1.57336995855467       11.76402629386668
C            1.72259951133357       -0.81351061328711       12.24089560921460
C            2.16291357326094       -1.82789746123895       13.27093643330577
C            2.60951708423141       -3.19898320920090       12.76009101039179
C            3.39112107068697       -1.21672196147518       13.97986564700733
H            4.77145251949573       -2.98538173979271        9.03285718143110
H            4.82470870902168       -1.90716940997795        7.61600455966421
H            5.43499126509769       -1.35931823546746        9.19669651402907
H            1.39703124662733       -0.41665924863008       10.13941016328132
H           -2.20966921640757       -0.86716635596369       10.95375088064922
H           -0.88685125851625       -0.38059324533471       12.01231353549240
H           -0.73967546364894       -0.25748680085276       10.24497852776442
H           -0.72550406970118       -3.81924383230505        9.46475465906097
H           -1.32840740798081       -2.42711214706325        7.91660756702648
H           -3.35211174823760       -2.82373933290819       10.63381869642423
H           -3.18086669303331       -3.91729286521740        9.25320761113946
H           -3.39023476416626       -5.20425673565502       11.39479489480948
H            0.36477809466857       -5.09435655504502       11.24110540245032
H           -0.42201471999295       -6.36921178380043       12.21795467246359
H           -3.71153862192425       -5.13766096557546       15.46163084561390
H           -2.18777543157358       -5.88457121382767       15.93486226756132
H           -3.55754061201242       -6.91614274420610       15.45670084877722
H           -1.95960334851240       -2.40919288970897       12.61386068344558
H            0.02433526310620       -3.87250825756926       14.00049654544222
H           -2.42662112092305       -3.91850814590951       18.11771457587551
H           -4.38142170254957       -3.09540804427493       19.40759189845216
H           -5.72936507581385       -1.22986354173953       18.51974501764526
H           -5.13929382037593       -0.19230668264825       16.36585721903671
H           -3.19914530379027       -1.02156192279021       15.08381892050153
H            0.87155597704787       -3.25674962392307       15.83876746023593
H           -0.28941307470763       -0.70059903444011       15.43380579484809
H            1.42887684485147       -0.54982469143505       15.71730462348902
H           -0.27655429787335        1.00264159138651       13.95251659183044
H            2.78573878743555        3.02677751146284       16.45601317037835
H            0.31094359035542        3.37979558991843       17.46575288640858
H            1.99306976791086        3.96499947097083       14.16313229027436
H            0.45947509265340        5.90403106959036       15.75053625704942
H           -0.66525004519736        7.43950968220438       14.63103282386058
H           -2.74118686023399        8.74492235328772       14.72329687183647
H           -4.92465994061457        7.62123097056516       14.52163524587363
H           -5.03053072411292        5.17536012317991       14.21181662201543
H           -2.93012291558958        3.85563856751831       14.12521688239453
H            2.52921722806735        5.77237981149191       17.41304459575992
H            4.34346650441102        7.41073330446411       17.74365651174493
H            5.83095342384940        8.00132270606447       15.86714241494082
H            5.49165820591128        6.95977099101493       13.65524628429391
H            3.67510158674011        5.32994995152973       13.32738517679719
H            1.51811678578488        2.41482280125848       12.25544651205840
H            1.46455674532552        1.45763719204830       10.77637109900367
H           -0.01810414516234        1.83952906832787       11.67158014210918
H            3.05482521154156       -3.73437000658852       13.59467208123024
H            3.34918873327141       -3.09928757805922       11.97409358612497
H            1.77931832500020       -3.79274031097470       12.39825555416363
H            4.23177929159961       -1.23697372016781       13.29053664154747
H            3.63873234743803       -1.80613196102572       14.85739301019938
H            3.21897731678237       -0.18676715364864       14.27163615594396
B            3.45881241299285       -1.45306156537102        1.67952418657938
N            3.46363374697617        1.13190587736827        0.98697439947517
B            2.54628276497419        2.35319816295572       -1.22167190094598
N            2.31305905815577       -0.65199332165790       -2.68593090255875
B            0.68033962503476       -3.56379729928410        2.75031991152858
N           -2.94328212517203       -2.66130808094824        1.73286701793880
B           -1.04690727710831        4.07918257505349        1.84802224404335
N           -0.59565886613389        0.00101261365026       -3.91425786313249
B           -0.44955144615894        1.42837954690120       -4.06579043468290
N            1.22482103231681       -3.79408736092883       -1.69223963591785
B           -3.83985219327687        2.19880987527953       -0.48812469872930
N           -2.76513085752036        2.75231400342900       -1.20184283113359
B            1.43363847870127        0.80133376502082       -4.85321927214999
N           -0.24993042085040        3.36078575715373        2.85519416479582
B            0.91840259765739       -2.89074115653694       -2.77034635183599
N           -0.48531056326821        3.75716870809970       -0.98992540251028
B           -0.82355211041866        2.18153573517069        3.30685354262334
N            1.62709834449504       -1.26591021522159        3.51994730785966
B           -0.23456262817427        3.45751494827367       -2.35775351594711
N            1.27688772184029        0.07414642469169        3.82632437486298
B           -1.57720612337574       -0.57539928370459       -3.05996272987661
N           -3.83621535056855        1.76927475943031        0.83825310076706
B            0.33172180290742        4.49092264954630        1.20756604561495
N            0.02277705767318       -0.00827418425525        4.48498802218092
B           -2.71580825977657        2.22059499996768        1.61289277695239
N            3.78290501015802       -0.13772080075635       -0.71380833084245
B           -2.25172872028206       -3.64626767071532        1.03744821435630
N            1.04530811518861        3.73178669004468        2.26416167647221
B           -1.84046367470446       -0.77937687639904        3.24822511149332
N           -2.42750328225528       -3.61145412844891       -0.42296178659898
B            3.03263580161610       -1.08084837713106       -1.45317496939865
N           -3.14971786196762       -1.26219824610784       -0.36450118314379
B            2.03089111023486        2.92186159770796        1.59592012964195
N           -0.48981485420059       -2.91359696947131       -2.39790430516035
B           -1.65587650742299       -2.12699482024027       -2.46384266565892
N            0.59199707647271        3.95882648028400       -0.08494758891670
B            1.10829023470439        2.94720576518528       -3.15366043463079
N            0.07527523620267       -4.36367816086899        1.76509281121367
B           -1.78023975303571        3.44248714202048       -0.39396833618983
N           -2.01817709375690        3.41147262828421        1.04410826633404
B            1.46421368068874       -4.21263574524451        1.55037797467662
N           -0.82242371884402        1.06594728391603        4.22254644186965
B           -2.65381850420447       -2.41325713203474       -1.15079166329369
N           -1.07211812538996       -4.49028170529982        1.02772979809572
B           -2.48845326341592        0.47760996724907       -2.09096106007880
N            2.35523997900543       -3.88762982400163        0.50766735851308
B            3.91822750226846       -0.20243246710710        0.77851899383491
N            1.94324634962239        1.94664155779608       -2.42945631402481
B            1.02677941754033        2.23796514796666       -4.59227740735866
N           -4.18110299390494        0.81844750986010       -0.33983107142484
B           -1.32025791551264        2.43836328854010       -3.09572488603363
N           -2.34524958995890        1.91857307516952       -2.29131990853154
B            3.07591093818426       -2.64635312049915        0.65433988337154
N            2.34663356849571       -3.68030821666515       -0.91769272596104
B            2.21218359263815        0.55264739099347        2.85034399487259
N           -2.04619002336946        0.61148955098396        3.62130881540109
B           -1.09189933052929       -4.19205006777465       -0.40465802370478
N           -3.20815159181707        0.03025701720687       -0.94287463275805
B            3.45341421413479        1.25327293159168       -0.46741985512913
N            2.58310809387210        1.63807167348972        1.97717247668050
B            1.49549353211420       -1.56742692811630       -3.47211559865865
N           -2.11639447331679        1.75091721985558        2.77654821406157
B            2.06093712886322        0.69983733846909       -3.17192101200714
N           -2.72980818660323       -1.34707329380916        2.34417900939665
B            0.68603520063383       -0.55516626965054       -4.45093955478985
N           -0.15547773976909       -3.77005561617482       -1.31796809675796
B            0.46897326157496       -2.10633399822764        3.47565651529455
N           -0.60856268747163       -1.20396669644687        3.86723776199264
B           -3.22255820575592       -1.45836184885820        1.02033420081944
N            2.66228468955971       -0.85258687234498        2.66374030409974
B            1.88041367607732        3.33361545616324       -0.07307677168901
N            2.88831828724439       -2.33778855493514       -0.74272247676638
 
 Bond Distances (Angstroems)
 ---------------------------
C1-C2=1.5034         C1-H63=1.0869        C1-H64=1.0851        C1-H65=1.0877        C2-C1=1.5034         C2-O3=1.1999         
C2-O4=1.3422         O3-C2=1.1999         O4-C2=1.3422         O4-C5=1.4228         C5-O4=1.4228         C5-C6=1.5286         
C5-C59=1.4946        C5-H66=1.0966        C6-C5=1.5286         C6-O7=1.2044         C6-C8=1.5377         O7-C6=1.2044         
C8-C6=1.5377         C8-C9=1.5367         C8-C10=1.5709        C8-C21=1.5679        C9-C8=1.5367         C9-H67=1.0877        
C9-H68=1.0813        C9-H69=1.0828        C10-C8=1.5709        C10-O11=1.4080       C10-C12=1.5271       C10-H70=1.0951       
O11-C10=1.4080       O11-H71=0.9606       C12-C10=1.5271       C12-C13=1.5168       C12-H72=1.0904       C12-H73=1.0912       
C13-C12=1.5168       C13-O14=1.4309       C13-C16=1.5402       C13-H74=1.0945       O14-C13=1.4309       O14-C15=1.4284       
C15-O14=1.4284       C15-C16=1.5359       C15-H75=1.0911       C15-H76=1.0908       C16-C13=1.5402       C16-C15=1.5359       
C16-O17=1.4348       C16-C21=1.5539       O17-C16=1.4348       O17-C18=1.3455       C18-O17=1.3455       C18-C19=1.5076       
C18-O20=1.1986       C19-C18=1.5076       C19-H77=1.0873       C19-H78=1.0886       C19-H79=1.0863       O20-C18=1.1986       
C21-C8=1.5679        C21-C16=1.5539       C21-C22=1.5852       C21-H80=1.0978       C22-C21=1.5852       C22-O23=1.4464       
C22-C32=1.5907       C22-H81=1.0988       O23-C22=1.4464       O23-C24=1.3268       C24-O23=1.3268       C24-O25=1.2147       
C24-C26=1.4801       O25-C24=1.2147       C26-C24=1.4801       C26-C27=1.3936       C26-C31=1.3929       C27-C26=1.3936       
C27-C28=1.3813       C27-H82=1.0793       C28-C27=1.3813       C28-C29=1.3861       C28-H83=1.0794       C29-C28=1.3861       
C29-C30=1.3865       C29-H84=1.0801       C30-C29=1.3865       C30-C31=1.3821       C30-H85=1.0796       C31-C26=1.3929       
C31-C30=1.3821       C31-H86=1.0785       C32-C22=1.5907       C32-O33=1.4180       C32-C34=1.5446       C32-C60=1.5442       
O33-C32=1.4180       O33-H87=0.9732       C34-C32=1.5446       C34-C35=1.5332       C34-H88=1.0902       C34-H89=1.0934       
C35-C34=1.5332       C35-O36=1.4485       C35-C57=1.5063       C35-H90=1.1003       O36-C35=1.4485       O36-C37=1.3134       
C37-O36=1.3134       C37-O38=1.2090       C37-C39=1.5260       O38-C37=1.2090       C39-C37=1.5260       C39-O40=1.4000       
C39-C41=1.5592       C39-H91=1.0979       O40-C39=1.4000       O40-H92=0.9750       C41-C39=1.5592       C41-N42=1.4453       
C41-C51=1.5055       C41-H93=1.0954       N42-C41=1.4453       N42-C43=1.3556       N42-H94=1.0077       C43-N42=1.3556       
C43-O44=1.2185       C43-C45=1.4883       O44-C43=1.2185       C45-C43=1.4883       C45-C46=1.3921       C45-C50=1.3913       
C46-C45=1.3921       C46-C47=1.3833       C46-H95=1.0807       C47-C46=1.3833       C47-C48=1.3855       C47-H96=1.0803       
C48-C47=1.3855       C48-C49=1.3854       C48-H97=1.0801       C49-C48=1.3854       C49-C50=1.3826       C49-H98=1.0799       
C50-C45=1.3913       C50-C49=1.3826       C50-H99=1.0798       C51-C41=1.5055       C51-C52=1.3894       C51-C56=1.3887       
C52-C51=1.3894       C52-C53=1.3840       C52-H100=1.0796      C53-C52=1.3840       C53-C54=1.3848       C53-H101=1.0802      
C54-C53=1.3848       C54-C55=1.3847       C54-H102=1.0802      C55-C54=1.3847       C55-C56=1.3837       C55-H103=1.0799      
C56-C51=1.3887       C56-C55=1.3837       C56-H104=1.0807      C57-C35=1.5063       C57-C58=1.4972       C57-C59=1.3369       
C58-C57=1.4972       C58-H105=1.0888      C58-H106=1.0843      C58-H107=1.0876      C59-C5=1.4946        C59-C57=1.3369       
C59-C60=1.5112       C60-C32=1.5442       C60-C59=1.5112       C60-C61=1.5298       C60-C62=1.5442       C61-C60=1.5298       
C61-H108=1.0870      C61-H109=1.0839      C61-H110=1.0829      C62-C60=1.5442       C62-H111=1.0873      C62-H112=1.0857      
C62-H113=1.0842      H63-C1=1.0869        H64-C1=1.0851        H65-C1=1.0877        H66-C5=1.0966        H67-C9=1.0877        
H68-C9=1.0813        H69-C9=1.0828        H70-C10=1.0951       H71-O11=0.9606       H72-C12=1.0904       H73-C12=1.0912       
H74-C13=1.0945       H75-C15=1.0911       H76-C15=1.0908       H77-C19=1.0873       H78-C19=1.0886       H79-C19=1.0863       
H80-C21=1.0978       H81-C22=1.0988       H82-C27=1.0793       H83-C28=1.0794       H84-C29=1.0801       H85-C30=1.0796       
H86-C31=1.0785       H87-O33=0.9732       H88-C34=1.0902       H89-C34=1.0934       H90-C35=1.1003       H91-C39=1.0979       
H92-O40=0.9750       H93-C41=1.0954       H94-N42=1.0077       H95-C46=1.0807       H96-C47=1.0803       H97-C48=1.0801       
H98-C49=1.0799       H99-C50=1.0798       H100-C52=1.0796      H101-C53=1.0802      H102-C54=1.0802      H103-C55=1.0799      
H104-C56=1.0807      H105-C58=1.0888      H106-C58=1.0843      H107-C58=1.0876      H108-C61=1.0870      H109-C61=1.0839      
H110-C61=1.0829      H111-C62=1.0873      H112-C62=1.0857      H113-C62=1.0842      B114-B160=1.6084     B114-B166=1.6191     
B114-N183=1.4013     N115-B160=1.4250     N115-B172=1.4595     N115-N173=1.4185     B116-N161=1.4099     B116-B172=1.6130     
B116-B184=1.6504     N117-B144=1.4904     N117-B174=1.4576     N117-B176=1.4585     B118-N151=1.4059     B118-B154=1.5733     
B118-B180=1.6416     N119-B140=1.3900     N119-N177=1.4651     N119-B182=1.4258     B120-N127=1.4716     B120-B136=1.5749     
B120-N153=1.4267     N121-B122=1.4428     N121-B134=1.4232     N121-B178=1.4967     B122-N121=1.4428     B122-B126=2.1353     
B122-B162=1.7641     B122-B164=1.6490     N123-B128=1.4395     N123-N167=1.3680     N123-N179=1.4303     B124-N125=1.4038     
B124-N135=1.3942     B124-N163=1.4296     N125-B124=1.4038     N125-B152=1.4488     N125-N165=1.4347     B126-B122=2.1353     
B126-B162=1.5158     B126-B176=1.7974     B126-B178=1.6003     N127-B120=1.4716     N127-B130=1.3870     N127-N141=1.4713     
B128-N123=1.4395     B128-N147=1.4568     B128-B174=1.6052     B128-N179=2.0089     N129-B132=1.4225     N129-N149=1.4214     
N129-B152=1.4598     B130-N127=1.3870     B130-N155=1.4433     B130-N169=2.0146     B130-N175=1.4622     N131-N133=1.4185     
N131-B180=1.4316     N131-N183=1.4055     B132-N129=1.4225     B132-B150=1.6423     B132-B164=1.6619     N133-N131=1.4185     
N133-N137=1.4190     N133-B168=1.4340     B134-N121=1.4232     B134-B148=1.6640     B134-B158=1.6965     N135-B124=1.3942     
N135-B138=1.4349     N135-N163=1.5527     B136-B120=1.5749     B136-N141=1.4839     B136-N149=1.4218     N137-N133=1.4190     
N137-N155=1.3918     N137-N181=1.4866     B138-N135=1.4349     B138-N153=1.4928     B138-N175=1.3907     N139-B144=1.4139     
N139-B160=1.4998     N139-B172=1.4506     B140-N119=1.3900     B140-N143=1.4714     B140-N157=1.4505     B140-B170=1.9294     
N141-N127=1.4713     N141-B136=1.4839     N141-B146=1.4401     B142-N169=1.4547     B142-N177=1.3894     B142-N181=1.4426     
N143-B140=1.4714     N143-B156=1.4201     N143-B170=1.4565     B144-N117=1.4904     B144-N139=1.4139     B144-N185=1.4510     
N145-B156=1.4796     N145-N171=1.4172     N145-B182=1.4006     B146-N141=1.4401     B146-N173=1.4486     B146-B184=1.7256     
N147-B128=1.4568     N147-B148=1.4081     N147-N179=1.4183     B148-B134=1.6640     B148-N147=1.4081     B148-B156=1.6739     
N149-N129=1.4214     N149-B136=1.4218     N149-B184=1.4321     B150-B132=1.6423     B150-N161=1.4909     B150-B162=1.6060     
N151-B118=1.4059     N151-B154=1.4135     N151-N157=1.3698     B152-N125=1.4488     B152-N129=1.4598     B152-N153=1.4580     
N153-B120=1.4267     N153-B138=1.4928     N153-B152=1.4580     B154-B118=1.5733     B154-N151=1.4135     B154-N159=1.4095     
N155-B130=1.4433     N155-N137=1.3918     N155-N169=1.4372     B156-N143=1.4201     B156-N145=1.4796     B156-B148=1.6739     
N157-B140=1.4505     N157-N151=1.3698     N157-B170=1.4632     B158-B134=1.6965     B158-N165=1.4619     B158-N171=1.4270     
N159-B154=1.4095     N159-B166=1.4428     N159-N167=1.4404     B160-B114=1.6084     B160-N115=1.4250     B160-N139=1.4998     
B160-B172=1.9717     N161-B116=1.4099     N161-B150=1.4909     N161-B176=1.4559     B162-B122=1.7641     B162-B126=1.5158     
B162-B150=1.6060     N163-B124=1.4296     N163-N135=1.5527     N163-N171=1.3898     B164-B122=1.6490     B164-B132=1.6619     
B164-N165=1.4028     N165-N125=1.4347     N165-B158=1.4619     N165-B164=1.4028     B166-B114=1.6191     B166-N159=1.4428     
B166-N185=1.4430     N167-N123=1.3680     N167-N159=1.4404     N167-N185=1.4582     B168-N133=1.4340     B168-N173=1.4416     
B168-N183=1.4873     N169-B130=2.0146     N169-B142=1.4547     N169-N155=1.4372     N169-N175=1.4202     B170-B140=1.9294     
B170-N143=1.4565     B170-N157=1.4632     B170-N179=1.3744     N171-N145=1.4172     N171-B158=1.4270     N171-N163=1.3898     
B172-N115=1.4595     B172-B116=1.6130     B172-N139=1.4506     B172-B160=1.9717     N173-N115=1.4185     N173-B146=1.4486     
N173-B168=1.4416     B174-N117=1.4576     B174-B128=1.6052     B174-B178=1.6242     N175-B130=1.4622     N175-B138=1.3907     
N175-N169=1.4202     B176-N117=1.4585     B176-B126=1.7974     B176-N161=1.4559     N177-N119=1.4651     N177-B142=1.3894     
N177-B182=1.4170     B178-N121=1.4967     B178-B126=1.6003     B178-B174=1.6242     N179-N123=1.4303     N179-B128=2.0089     
N179-N147=1.4183     N179-B170=1.3744     B180-B118=1.6416     B180-N131=1.4316     B180-N181=1.4590     N181-N137=1.4866     
N181-B142=1.4426     N181-B180=1.4590     B182-N119=1.4258     B182-N145=1.4006     B182-N177=1.4170     N183-B114=1.4013     
N183-N131=1.4055     N183-B168=1.4873     B184-B116=1.6504     B184-B146=1.7256     B184-N149=1.4321     N185-B144=1.4510     
N185-B166=1.4430     N185-N167=1.4582     
 B  B  Rav=1.6893 sigma=0.1391  Rmin=1.5158  Rmax=2.1353    24
 C  H  Rav=1.0865 sigma=0.0062  Rmin=1.0785  Rmax=1.1003    47
 C  C  Rav=1.4715 sigma=0.0756  Rmin=1.3369  Rmax=1.5907    47
 N  H  Rav=1.0077 sigma=0.0000  Rmin=1.0077  Rmax=1.0077     1
 N  B  Rav=1.4559 sigma=0.1011  Rmin=1.3744  Rmax=2.0146    68
 N  C  Rav=1.4005 sigma=0.0449  Rmin=1.3556  Rmax=1.4453     2
 N  N  Rav=1.4302 sigma=0.0403  Rmin=1.3680  Rmax=1.5527    21
 O  H  Rav=0.9696 sigma=0.0064  Rmin=0.9606  Rmax=0.9750     3
 O  C  Rav=1.3374 sigma=0.0962  Rmin=1.1986  Rmax=1.4485    19
 
 selected bond angles (degree)
 --------------------
H63-C1-C2=109.12               H64-C1-C2=109.54               H64-C1-H63=110.19              H65-C1-C2=109.47               
H65-C1-H63=108.41              H65-C1-H64=110.09              O3-C2-C1=125.65                O4-C2-C1=110.67                
O4-C2-O3=123.66                C5-O4-C2=115.92                C6-C5-O4=109.32                C59-C5-O4=113.20               
C59-C5-C6=107.65               H66-C5-O4=107.72               H66-C5-C6=106.42               H66-C5-C59=112.29              
O7-C6-C5=119.48                C8-C6-C5=118.58                C8-C6-O7=121.79                C9-C8-C6=114.11                
C10-C8-C6=101.85               C10-C8-C9=106.15               C21-C8-C6=117.01               C21-C8-C9=105.62               
C21-C8-C10=111.72              H67-C9-C8=108.32               H68-C9-C8=111.08               H68-C9-H67=108.71              
H69-C9-C8=111.36               H69-C9-H67=106.76              H69-C9-H68=110.46              O11-C10-C8=107.08              
C12-C10-C8=113.19              C12-C10-O11=112.34             H70-C10-C8=108.30              H70-C10-O11=110.03             
H70-C10-C12=105.84             
 
 selected dihedral angles (degree)
 ---------------------------------
O3-C2-C1-H63=235.96           O3-C2-C1-H64=356.66           O3-C2-C1-H65=117.46           O4-C2-C1-H63= 57.46           
O4-C2-C1-H64=178.16           O4-C2-C1-H65=298.96           C5-O4-C2-C1=186.39            C5-O4-C2-O3=  7.86            
C6-C5-O4-C2= 81.99            C59-C5-O4-C2=201.98           H66-C5-O4-C2=326.74           O7-C6-C5-O4=355.70            
O7-C6-C5-C59=232.36           O7-C6-C5-H66=111.78           C8-C6-C5-O4=180.08            C8-C6-C5-C59= 56.74           
C8-C6-C5-H66=296.15           C9-C8-C6-C5= 22.07            C9-C8-C6-O7=206.55            C10-C8-C6-C5=135.98           
C10-C8-C6-O7=320.46           C21-C8-C6-C5=258.07           C21-C8-C6-O7= 82.55           H67-C9-C8-C6=157.15           
H67-C9-C8-C10= 45.82          H67-C9-C8-C21=287.07          H68-C9-C8-C6=276.48           H68-C9-C8-C10=165.15          
H68-C9-C8-C21= 46.40          H69-C9-C8-C6= 40.05           H69-C9-C8-C10=288.72          H69-C9-C8-C21=169.97          
O11-C10-C8-C6=278.48          O11-C10-C8-C9= 38.17          O11-C10-C8-C21=152.82         C12-C10-C8-C6=154.13          
C12-C10-C8-C9=273.82          C12-C10-C8-C21= 28.47         H70-C10-C8-C6= 37.10          H70-C10-C8-C9=156.79          
H70-C10-C8-C21=271.44         
 
 CMA Distance (Angstroems)
 ---------------------------
R(CMA): 13.5486
           -------------------------------------------------
          |                Final Singlepoint                |
           -------------------------------------------------

          ...................................................
          :                      SETUP                      :
          :.................................................:
          :  # basis functions                 587          :
          :  # atomic orbitals                 587          :
          :  # shells                          319          :
          :  # electrons                       616          :
          :  max. iterations                   500          :
          :  Hamiltonian                  GFN2-xTB          :
          :  restarted?                      false          :
          :  GBSA solvation                  false          :
          :  PC potential                    false          :
          :  electronic temp.          300.0000000     K    :
          :  accuracy                    1.0000000          :
          :  -> integral cutoff          0.2500000E+02      :
          :  -> integral neglect         0.1000000E-07      :
          :  -> SCF convergence          0.1000000E-05 Eh   :
          :  -> wf. convergence          0.1000000E-03 e    :
          :  Broyden damping             0.4000000          :
          :  net charge                          0          :
          :  unpaired electrons                  0          :
          ...................................................

 iter      E             dE          RMSdq      gap      omega  full diag
   1   -340.4193638 -0.340419E+03  0.365E-02    0.55       0.0  T
   2   -340.4193678 -0.398949E-05  0.216E-02    0.55       1.0  T
   3   -340.4193606  0.718635E-05  0.653E-03    0.55       1.1  T
   4   -340.4193667 -0.614743E-05  0.278E-03    0.55       2.6  T
   5   -340.4193685 -0.180091E-05  0.125E-03    0.55       5.9  T
   6   -340.4193689 -0.384538E-06  0.633E-04    0.55      11.6  T
   7   -340.4193690 -0.494399E-07  0.374E-04    0.55      19.7  T

   *** convergence criteria satisfied after 7 iterations ***

         #    Occupation            Energy/Eh            Energy/eV
      -------------------------------------------------------------
         1        2.0000           -0.7532972             -20.4983
       ...           ...                  ...                  ...
       302        2.0000           -0.3244512              -8.8288
       303        2.0000           -0.3216293              -8.7520
       304        2.0000           -0.3201812              -8.7126
       305        2.0000           -0.3176619              -8.6440
       306        2.0000           -0.3124265              -8.5016
       307        2.0000           -0.3106401              -8.4529
       308        2.0000           -0.3041133              -8.2753 (HOMO)
       309        0.0000           -0.2838956              -7.7252 (LUMO)
       310        0.0000           -0.2805402              -7.6339
       311                         -0.2721032              -7.4043
       312                         -0.2667566              -7.2588
       313                         -0.2615854              -7.1181
       ...                                ...                  ...
       587                          0.9864137              26.8417
      -------------------------------------------------------------
                  HL-Gap            0.0202177 Eh            0.5502 eV
             Fermi-level           -0.2940176 Eh           -8.0006 eV

 SCC (total)                   0 d,  0 h,  0 min,  7.798 sec
 SCC setup                      ...        0 min,  0.132 sec (  1.693%)
 Dispersion                     ...        0 min,  0.063 sec (  0.808%)
 classical contributions        ...        0 min,  0.028 sec (  0.359%)
 integral evaluation            ...        0 min,  0.055 sec (  0.705%)
 iterations                     ...        0 min,  7.195 sec ( 92.267%)
 molecular gradient             ...        0 min,  0.309 sec (  3.963%)
 printout                       ...        0 min,  0.016 sec (  0.205%)

         :::::::::::::::::::::::::::::::::::::::::::::::::::::
         ::                     SUMMARY                     ::
         :::::::::::::::::::::::::::::::::::::::::::::::::::::
         :: total energy            -336.737941080071 Eh    ::
         :: gradient norm              0.005184470953 Eh/a0 ::
         :: HOMO-LUMO gap              0.550152089751 eV    ::
         ::.................................................::
         :: SCC energy              -340.398957830405 Eh    ::
         :: -> isotropic ES            0.965150703250 Eh    ::
         :: -> anisotropic ES         -0.035346578430 Eh    ::
         :: -> anisotropic XC          0.100049390571 Eh    ::
         :: -> dispersion             -0.297273978337 Eh    ::
         :: repulsion energy           3.661016750333 Eh    ::
         :: add. restraining           0.000000000000 Eh    ::
         :: total charge              -0.000000000086 e     ::
         :::::::::::::::::::::::::::::::::::::::::::::::::::::

           -------------------------------------------------
          |                Property Printout                |
           -------------------------------------------------

    * Orbital Energies and Occupations

         #    Occupation            Energy/Eh            Energy/eV
      -------------------------------------------------------------
         1        2.0000           -0.7532972             -20.4983
       ...           ...                  ...                  ...
       296        2.0000           -0.3369224              -9.1681
       297        2.0000           -0.3356119              -9.1325
       298        2.0000           -0.3317496              -9.0274
       299        2.0000           -0.3295631              -8.9679
       300        2.0000           -0.3267329              -8.8909
       301        2.0000           -0.3257555              -8.8643
       302        2.0000           -0.3244512              -8.8288
       303        2.0000           -0.3216293              -8.7520
       304        2.0000           -0.3201812              -8.7126
       305        2.0000           -0.3176619              -8.6440
       306        2.0000           -0.3124265              -8.5016
       307        2.0000           -0.3106401              -8.4529
       308        2.0000           -0.3041133              -8.2753 (HOMO)
       309        0.0000           -0.2838956              -7.7252 (LUMO)
       310        0.0000           -0.2805402              -7.6339
       311                         -0.2721032              -7.4043
       312                         -0.2667566              -7.2588
       313                         -0.2615854              -7.1181
       314                         -0.2612271              -7.1084
       315                         -0.2480918              -6.7509
       316                         -0.2432103              -6.6181
       317                         -0.2425271              -6.5995
       318                         -0.2413754              -6.5682
       319                         -0.2360406              -6.4230
       ...                                ...                  ...
       587                          0.9864137              26.8417
      -------------------------------------------------------------
                  HL-Gap            0.0202177 Eh            0.5502 eV
             Fermi-level           -0.2940176 Eh           -8.0006 eV

     #   Z          covCN         q      C6AA      α(0)
     1   6 C        3.754    -0.152    23.489     6.911
     2   6 C        2.719     0.365    20.812     7.468
     3   8 O        0.856    -0.404    21.757     6.254
     4   8 O        1.705    -0.252    18.178     5.756
     5   6 C        3.766     0.094    19.069     6.224
     6   6 C        2.829     0.234    23.101     7.876
     7   8 O        0.857    -0.339    20.503     6.071
     8   6 C        3.890    -0.014    20.778     6.480
     9   6 C        3.762    -0.131    23.057     6.845
    10   6 C        3.746     0.111    18.823     6.188
    11   8 O        1.656    -0.438    21.601     6.274
    12   6 C        3.802    -0.088    22.180     6.705
    13   6 C        4.067     0.105    18.778     6.155
    14   8 O        1.743    -0.316    19.264     5.926
    15   6 C        4.008     0.069    19.347     6.249
    16   6 C        3.828     0.128    18.486     6.118
    17   8 O        1.704    -0.293    18.876     5.866
    18   6 C        2.695     0.366    20.796     7.464
    19   6 C        3.753    -0.147    23.407     6.899
    20   8 O        0.856    -0.392    21.518     6.219
    21   6 C        3.844    -0.046    21.361     6.574
    22   6 C        3.720     0.082    19.332     6.280
    23   8 O        1.705    -0.261    18.326     5.780
    24   6 C        2.711     0.360    20.898     7.483
    25   8 O        0.857    -0.442    22.534     6.364
    26   6 C        2.974    -0.020    28.497     8.756
    27   6 C        2.925    -0.020    28.505     8.756
    28   6 C        2.918    -0.025    28.637     8.775
    29   6 C        2.921    -0.020    28.504     8.755
    30   6 C        2.919    -0.025    28.618     8.773
    31   6 C        2.920    -0.021    28.530     8.759
    32   6 C        3.774     0.135    18.418     6.115
    33   8 O        1.656    -0.464    22.123     6.349
    34   6 C        3.802    -0.081    22.036     6.683
    35   6 C        3.765     0.109    18.824     6.184
    36   8 O        1.702    -0.251    18.162     5.754
    37   6 C        2.725     0.352    21.026     7.507
    38   8 O        0.856    -0.424    22.166     6.312
    39   6 C        3.727     0.085    19.262     6.266
    40   8 O        1.655    -0.441    21.660     6.283
    41   6 C        3.800     0.039    19.916     6.354
    42   7 N        2.695    -0.181    24.911     7.413
    43   6 C        2.761     0.274    22.375     7.746
    44   8 O        0.859    -0.448    22.669     6.384
    45   6 C        2.977    -0.019    28.481     8.754
    46   6 C        2.921    -0.033    28.822     8.804
    47   6 C        2.919    -0.027    28.684     8.783
    48   6 C        2.920    -0.025    28.627     8.774
    49   6 C        2.918    -0.027    28.670     8.780
    50   6 C        2.925    -0.018    28.460     8.749
    51   6 C        2.976     0.000    28.024     8.683
    52   6 C        2.923    -0.038    28.937     8.821
    53   6 C        2.920    -0.029    28.720     8.788
    54   6 C        2.920    -0.030    28.738     8.791
    55   6 C        2.919    -0.028    28.710     8.787
    56   6 C        2.924    -0.036    28.892     8.815
    57   6 C        2.948    -0.005    28.152     8.702
    58   6 C        3.758    -0.123    22.910     6.824
    59   6 C        2.967    -0.024    28.598     8.772
    60   6 C        3.910     0.018    20.206     6.389
    61   6 C        3.763    -0.119    22.827     6.810
    62   6 C        3.768    -0.117    22.776     6.802
    63   1 H        0.925     0.084     1.940     2.178
    64   1 H        0.925     0.080     1.983     2.202
    65   1 H        0.925     0.078     2.002     2.213
    66   1 H        0.924     0.093     1.847     2.125
    67   1 H        0.925     0.064     2.153     2.295
    68   1 H        0.925     0.049     2.335     2.390
    69   1 H        0.925     0.076     2.025     2.225
    70   1 H        0.924     0.060     2.204     2.322
    71   1 H        0.805     0.306     0.703     1.317
    72   1 H        0.924     0.050     2.325     2.385
    73   1 H        0.924     0.067     2.118     2.276
    74   1 H        0.924     0.049     2.329     2.386
    75   1 H        0.924     0.058     2.219     2.330
    76   1 H        0.924     0.060     2.204     2.321
    77   1 H        0.925     0.069     2.100     2.266
    78   1 H        0.925     0.092     1.857     2.131
    79   1 H        0.925     0.078     1.998     2.210
    80   1 H        0.924     0.088     1.894     2.152
    81   1 H        0.923     0.073     2.057     2.243
    82   1 H        0.926     0.063     2.168     2.302
    83   1 H        0.926     0.046     2.369     2.407
    84   1 H        0.926     0.045     2.384     2.415
    85   1 H        0.926     0.046     2.374     2.409
    86   1 H        0.926     0.055     2.258     2.350
    87   1 H        0.804     0.318     0.668     1.284
    88   1 H        0.925     0.054     2.270     2.356
    89   1 H        0.924     0.073     2.056     2.242
    90   1 H        0.923     0.074     2.042     2.235
    91   1 H        0.923     0.055     2.261     2.351
    92   1 H        0.804     0.317     0.673     1.289
    93   1 H        0.924     0.069     2.098     2.265
    94   1 H        0.860     0.184     1.192     1.710
    95   1 H        0.926     0.034     2.530     2.487
    96   1 H        0.926     0.037     2.483     2.464
    97   1 H        0.926     0.039     2.467     2.456
    98   1 H        0.926     0.040     2.446     2.446
    99   1 H        0.926     0.056     2.248     2.345
   100   1 H        0.926     0.058     2.218     2.329
   101   1 H        0.926     0.037     2.488     2.467
   102   1 H        0.926     0.036     2.502     2.474
   103   1 H        0.926     0.038     2.478     2.462
   104   1 H        0.926     0.036     2.496     2.471
   105   1 H        0.925     0.074     2.040     2.233
   106   1 H        0.925     0.053     2.284     2.364
   107   1 H        0.925     0.075     2.037     2.232
   108   1 H        0.925     0.065     2.139     2.287
   109   1 H        0.925     0.064     2.151     2.293
   110   1 H        0.925     0.028     2.620     2.531
   111   1 H        0.925     0.050     2.325     2.385
   112   1 H        0.925     0.067     2.124     2.279
   113   1 H        0.925     0.048     2.339     2.391
   114   5 B        2.781     0.076    20.205     7.516
   115   7 N        2.772    -0.228    25.983     7.571
   116   5 B        2.788     0.092    19.938     7.464
   117   7 N        2.523    -0.314    28.131     7.877
   118   5 B        2.779     0.084    20.065     7.490
   119   7 N        2.655    -0.271    27.019     7.720
   120   5 B        2.849     0.240    17.678     7.020
   121   7 N        2.529    -0.273    27.092     7.730
   122   5 B        3.196     0.150    18.932     7.257
   123   7 N        2.980    -0.110    23.391     7.183
   124   5 B        2.644     0.372    16.327     6.814
   125   7 N        2.669    -0.213    25.647     7.521
   126   5 B        3.182     0.021    21.007     7.644
   127   7 N        2.888    -0.222    25.836     7.549
   128   5 B        3.009     0.208    18.084     7.094
   129   7 N        2.660    -0.163    24.539     7.357
   130   5 B        2.905     0.319    16.616     6.803
   131   7 N        3.164    -0.072    22.634     7.066
   132   5 B        2.778     0.093    19.918     7.462
   133   7 N        3.045    -0.118    23.558     7.209
   134   5 B        2.758     0.090    20.007     7.484
   135   7 N        2.634    -0.310    27.975     7.855
   136   5 B        3.040     0.225    17.843     7.046
   137   7 N        2.982     0.005    21.173     6.834
   138   5 B        2.582     0.325    17.314     7.089
   139   7 N        2.595    -0.360    29.290     8.038
   140   5 B        3.287     0.340    16.340     6.741
   141   7 N        2.784    -0.254    26.598     7.660
   142   5 B        2.560     0.319    17.604     7.185
   143   7 N        2.579    -0.369    29.528     8.070
   144   5 B        2.529     0.301    18.229     7.378
   145   7 N        2.665    -0.205    25.465     7.495
   146   5 B        2.698     0.194    18.524     7.223
   147   7 N        2.844    -0.167    24.613     7.368
   148   5 B        2.758     0.082    20.136     7.508
   149   7 N        2.672    -0.174    24.776     7.393
   150   5 B        2.877     0.110    19.581     7.386
   151   7 N        2.663    -0.144    24.129     7.295
   152   5 B        2.594     0.312    17.390     7.086
   153   7 N        2.519    -0.355    29.180     8.022
   154   5 B        2.683     0.184    18.723     7.269
   155   7 N        3.009    -0.127    23.748     7.238
   156   5 B        2.677     0.210    18.363     7.203
   157   7 N        2.716    -0.249    26.475     7.642
   158   5 B        2.647     0.164    19.167     7.380
   159   7 N        2.825    -0.206    25.473     7.496
   160   5 B        3.322     0.230    17.784     7.032
   161   7 N        2.531    -0.286    27.414     7.776
   162   5 B        2.949     0.035    20.788     7.607
   163   7 N        2.783    -0.186    25.020     7.429
   164   5 B        2.796     0.084    20.045     7.483
   165   7 N        2.673    -0.156    24.378     7.333
   166   5 B        3.021     0.211    18.052     7.087
   167   7 N        3.272     0.014    20.996     6.806
   168   5 B        2.874     0.303    16.830     6.848
   169   7 N        3.154    -0.116    23.516     7.202
   170   5 B        3.263     0.320    16.587     6.792
   171   7 N        2.833    -0.061    22.420     7.032
   172   5 B        3.304     0.231    17.771     7.030
   173   7 N        2.656    -0.181    24.932     7.416
   174   5 B        2.839     0.112    19.571     7.388
   175   7 N        2.834    -0.224    25.880     7.556
   176   5 B        2.863     0.252    17.506     6.985
   177   7 N        2.654    -0.231    26.051     7.580
   178   5 B        3.012     0.114    19.493     7.365
   179   7 N        3.153    -0.086    22.906     7.108
   180   5 B        2.675     0.200    18.516     7.234
   181   7 N        2.699    -0.232    26.086     7.586
   182   5 B        2.585     0.369    16.728     6.963
   183   7 N        2.886    -0.179    24.868     7.407
   184   5 B        2.825     0.105    19.683     7.411
   185   7 N        2.827    -0.253    26.558     7.654

 Mol. C6AA /au·bohr⁶  :     498837.975747
 Mol. C8AA /au·bohr⁸  :   13108169.938857
 Mol. α(0) /au        :       1093.801940


Wiberg/Mayer (AO) data.
largest (>0.10) Wiberg bond orders for each atom

 ---------------------------------------------------------------------------
     #   Z sym  total        # sym  WBO       # sym  WBO       # sym  WBO
 ---------------------------------------------------------------------------
     1   6 C    3.988 --     2 C    0.988    64 H    0.982    63 H    0.964
                            65 H    0.963
     2   6 C    3.914 --     3 O    1.765     4 O    1.112     1 C    0.988
     3   8 O    2.050 --     2 C    1.765     4 O    0.167
     4   8 O    2.309 --     2 C    1.112     5 C    0.942     3 O    0.167
     5   6 C    3.939 --    59 C    0.982     6 C    0.943     4 O    0.942
                            66 H    0.911
     6   6 C    3.907 --     7 O    1.866     8 C    0.954     5 C    0.943
     7   8 O    2.104 --     6 C    1.866
     8   6 C    3.982 --     9 C    0.996     6 C    0.954    21 C    0.952
                            10 C    0.940
     9   6 C    3.987 --     8 C    0.996    67 H    0.977    69 H    0.976
                            68 H    0.976
    10   6 C    3.955 --    11 O    0.999    12 C    0.986    70 H    0.954
                             8 C    0.940
    11   8 O    1.965 --    10 C    0.999    71 H    0.892
    12   6 C    3.994 --    13 C    0.995    10 C    0.986    72 H    0.968
                            73 H    0.967
    13   6 C    3.950 --    12 C    0.995    14 O    0.968    74 H    0.960
                            16 C    0.957
    14   8 O    2.041 --    15 C    0.978    13 C    0.968
    15   6 C    3.949 --    14 O    0.978    16 C    0.973    76 H    0.969
                            75 H    0.960
    16   6 C    3.919 --    15 C    0.973    21 C    0.970    13 C    0.957
                            17 O    0.926
    17   8 O    2.286 --    18 C    1.100    16 C    0.926    20 O    0.167
    18   6 C    3.912 --    20 O    1.776    17 O    1.100    19 C    0.985
    19   6 C    3.989 --    18 C    0.985    79 H    0.982    77 H    0.967
                            78 H    0.955
    20   8 O    2.058 --    18 C    1.776    17 O    0.167
    21   6 C    3.978 --    16 C    0.970    22 C    0.961     8 C    0.952
                            80 H    0.948
    22   6 C    3.897 --    21 C    0.961    81 H    0.953    32 C    0.931
                            23 O    0.918
    23   8 O    2.333 --    24 C    1.152    22 C    0.918    25 O    0.168
    24   6 C    3.911 --    25 O    1.663    23 O    1.152    26 C    1.007
    25   8 O    2.021 --    24 C    1.663    23 O    0.168
    26   6 C    3.986 --    31 C    1.385    27 C    1.384    24 C    1.007
                            29 C    0.102
    27   6 C    3.987 --    28 C    1.455    26 C    1.384    82 H    0.965
                            30 C    0.107
    28   6 C    3.991 --    27 C    1.455    29 C    1.433    83 H    0.970
                            31 C    0.107
    29   6 C    3.990 --    28 C    1.433    30 C    1.432    84 H    0.971
                            26 C    0.102
    30   6 C    3.992 --    31 C    1.456    29 C    1.432    85 H    0.970
                            27 C    0.107
    31   6 C    3.990 --    30 C    1.456    26 C    1.385    86 H    0.966
                            28 C    0.107
    32   6 C    3.948 --    33 O    0.995    34 C    0.975    60 C    0.946
                            22 C    0.931
    33   8 O    1.957 --    32 C    0.995    87 H    0.839
    34   6 C    3.989 --    35 C    0.986    32 C    0.975    88 H    0.970
                            89 H    0.966
    35   6 C    3.912 --    57 C    0.992    34 C    0.986    90 H    0.944
                            36 O    0.896
    36   8 O    2.335 --    37 C    1.184    35 C    0.896    38 O    0.172
    37   6 C    3.918 --    38 O    1.711    36 O    1.184    39 C    0.940
    38   8 O    2.037 --    37 C    1.711    36 O    0.172
    39   6 C    3.963 --    40 O    1.017    91 H    0.945    37 C    0.940
                            41 C    0.923
    40   8 O    1.963 --    39 C    1.017    92 H    0.857
    41   6 C    3.968 --    51 C    0.989    42 N    0.987    93 H    0.952
                            39 C    0.923
    42   7 N    3.438 --    43 C    1.232    41 C    0.987    94 H    0.932
                            44 O    0.187
    43   6 C    3.947 --    44 O    1.658    42 N    1.232    45 C    0.989
    44   8 O    1.993 --    43 C    1.658    42 N    0.187
    45   6 C    3.986 --    50 C    1.398    46 C    1.394    43 C    0.989
                            48 C    0.106
    46   6 C    3.992 --    47 C    1.451    45 C    1.394    95 H    0.967
                            49 C    0.110
    47   6 C    3.992 --    46 C    1.451    48 C    1.434    96 H    0.970
                            50 C    0.109
    48   6 C    3.991 --    49 C    1.438    47 C    1.434    97 H    0.971
                            45 C    0.106
    49   6 C    3.992 --    50 C    1.448    48 C    1.438    98 H    0.970
                            46 C    0.110
    50   6 C    3.988 --    49 C    1.448    45 C    1.398    99 H    0.967
                            47 C    0.109
    51   6 C    3.986 --    56 C    1.415    52 C    1.414    41 C    0.989
                            54 C    0.110
    52   6 C    3.989 --    53 C    1.444    51 C    1.414   100 H    0.964
                            55 C    0.112
    53   6 C    3.992 --    52 C    1.444    54 C    1.439   101 H    0.971
                            56 C    0.111
    54   6 C    3.990 --    55 C    1.439    53 C    1.439   102 H    0.971
                            51 C    0.110
    55   6 C    3.991 --    56 C    1.443    54 C    1.439   103 H    0.971
                            52 C    0.112
    56   6 C    3.990 --    55 C    1.443    51 C    1.415   104 H    0.968
                            53 C    0.111
    57   6 C    3.981 --    59 C    1.808    58 C    1.031    35 C    0.992
    58   6 C    3.990 --    57 C    1.031   106 H    0.976   107 H    0.962
                           105 H    0.958
    59   6 C    3.976 --    57 C    1.808    60 C    0.986     5 C    0.982
    60   6 C    3.987 --    61 C    1.000    59 C    0.986    62 C    0.975
                            32 C    0.946
    61   6 C    3.991 --    60 C    1.000   108 H    0.979   109 H    0.978
                           110 H    0.977
    62   6 C    3.988 --   111 H    0.984   113 H    0.982   112 H    0.980
                            60 C    0.975
    63   1 H    0.993 --     1 C    0.964
    64   1 H    0.993 --     1 C    0.982
    65   1 H    0.994 --     1 C    0.963
    66   1 H    0.991 --     5 C    0.911
    67   1 H    0.996 --     9 C    0.977
    68   1 H    0.998 --     9 C    0.976
    69   1 H    0.994 --     9 C    0.976
    70   1 H    0.996 --    10 C    0.954
    71   1 H    0.906 --    11 O    0.892
    72   1 H    0.997 --    12 C    0.968
    73   1 H    0.995 --    12 C    0.967
    74   1 H    0.997 --    13 C    0.960
    75   1 H    0.996 --    15 C    0.960
    76   1 H    0.996 --    15 C    0.969
    77   1 H    0.995 --    19 C    0.967
    78   1 H    0.991 --    19 C    0.955
    79   1 H    0.993 --    19 C    0.982
    80   1 H    0.992 --    21 C    0.948
    81   1 H    0.994 --    22 C    0.953
    82   1 H    0.996 --    27 C    0.965
    83   1 H    0.997 --    28 C    0.970
    84   1 H    0.998 --    29 C    0.971
    85   1 H    0.997 --    30 C    0.970
    86   1 H    0.997 --    31 C    0.966
    87   1 H    0.898 --    33 O    0.839
    88   1 H    0.997 --    34 C    0.970
    89   1 H    0.994 --    34 C    0.966
    90   1 H    0.994 --    35 C    0.944
    91   1 H    0.997 --    39 C    0.945
    92   1 H    0.899 --    40 O    0.857
    93   1 H    0.995 --    41 C    0.952
    94   1 H    0.966 --    42 N    0.932
    95   1 H    0.999 --    46 C    0.967
    96   1 H    0.998 --    47 C    0.970
    97   1 H    0.998 --    48 C    0.971
    98   1 H    0.998 --    49 C    0.970
    99   1 H    0.997 --    50 C    0.967
   100   1 H    0.997 --    52 C    0.964
   101   1 H    0.998 --    53 C    0.971
   102   1 H    0.998 --    54 C    0.971
   103   1 H    0.998 --    55 C    0.971
   104   1 H    0.999 --    56 C    0.968
   105   1 H    0.994 --    58 C    0.958
   106   1 H    0.997 --    58 C    0.976
   107   1 H    0.994 --    58 C    0.962
   108   1 H    0.995 --    61 C    0.979
   109   1 H    0.996 --    61 C    0.978
   110   1 H    0.999 --    61 C    0.977
   111   1 H    0.997 --    62 C    0.984
   112   1 H    0.995 --    62 C    0.980
   113   1 H    0.998 --    62 C    0.982
   114   5 B    3.478 --   183 N    1.284   166 B    1.000   160 B    0.970
   115   7 N    3.396 --   160 B    1.141   173 N    1.006   172 B    1.002
   116   5 B    3.463 --   161 N    1.276   184 B    0.978   172 B    0.958
   117   7 N    3.530 --   176 B    1.152   174 B    1.150   144 B    1.018
   118   5 B    3.463 --   151 N    1.240   180 B    0.996   154 B    0.989
   119   7 N    3.262 --   140 B    1.201   182 B    0.967   177 N    0.888
   120   5 B    3.408 --   153 N    1.175   127 N    1.036   136 B    0.963
   121   7 N    3.568 --   134 B    1.277   122 B    1.158   178 B    0.973
   122   5 B    3.393 --   121 N    1.158   164 B    0.932   162 B    0.640
                           126 B    0.294
   123   7 N    3.324 --   128 B    1.114   167 N    1.043   179 N    0.945
   124   5 B    3.433 --   125 N    1.187   135 N    1.127   163 N    0.961
   125   7 N    3.445 --   124 B    1.187   152 B    1.085   165 N    0.967
   126   5 B    3.457 --   162 B    1.285   178 B    1.004   176 B    0.627
                           122 B    0.294
   127   7 N    3.429 --   130 B    1.233   120 B    1.036   141 N    0.928
   128   5 B    3.391 --   123 N    1.114   147 N    1.038   174 B    1.005
   129   7 N    3.510 --   132 B    1.206   152 B    1.123   149 N    0.998
   130   5 B    3.515 --   127 N    1.233   155 N    1.074   175 N    1.000
   131   7 N    3.369 --   180 B    1.156   183 N    0.994   133 N    0.984
   132   5 B    3.414 --   129 N    1.206   150 B    1.008   164 B    0.926
   133   7 N    3.345 --   168 B    1.147   131 N    0.984   137 N    0.973
   134   5 B    3.464 --   121 N    1.277   148 B    0.978   158 B    0.932
   135   7 N    3.217 --   124 B    1.127   138 B    1.065   163 N    0.793
   136   5 B    3.368 --   149 N    1.151   141 N    0.994   120 B    0.963
   137   7 N    3.100 --   155 N    1.014   133 N    0.973   181 N    0.940
   138   5 B    3.511 --   175 N    1.249   135 N    1.065   153 N    0.989
   139   7 N    3.433 --   144 B    1.200   172 B    1.062   160 B    0.926
   140   5 B    3.481 --   119 N    1.201   157 N    1.043   143 N    0.980
   141   7 N    3.280 --   146 B    1.164   136 B    0.994   127 N    0.928
   142   5 B    3.524 --   177 N    1.208   181 N    1.124   169 N    1.033
   143   7 N    3.430 --   156 B    1.221   170 B    0.993   140 B    0.980
   144   5 B    3.519 --   139 N    1.200   185 N    1.099   117 N    1.018
   145   7 N    3.441 --   182 B    1.261   156 B    0.997   171 N    0.990
   146   5 B    3.447 --   141 N    1.164   173 N    1.128   184 B    0.924
   147   7 N    3.469 --   148 B    1.260   128 B    1.038   179 N    0.984
   148   5 B    3.421 --   147 N    1.260   134 B    0.978   156 B    0.959
   149   7 N    3.510 --   184 B    1.171   136 B    1.151   129 N    0.998
   150   5 B    3.347 --   162 B    1.009   132 B    1.008   161 N    0.963
   151   7 N    3.508 --   118 B    1.240   154 B    1.094   157 N    1.034
   152   5 B    3.515 --   129 N    1.123   153 N    1.105   125 N    1.085
   153   7 N    3.477 --   120 B    1.175   152 B    1.105   138 B    0.989
   154   5 B    3.464 --   159 N    1.179   151 N    1.094   118 B    0.989
   155   7 N    3.264 --   130 B    1.074   137 N    1.014   169 N    0.975
   156   5 B    3.391 --   143 N    1.221   145 N    0.997   148 B    0.959
   157   7 N    3.372 --   140 B    1.043   151 N    1.034   170 B    0.987
   158   5 B    3.454 --   171 N    1.191   165 N    1.079   134 B    0.932
   159   7 N    3.407 --   154 B    1.179   166 B    1.074   167 N    0.959
   160   5 B    3.365 --   115 N    1.141   114 B    0.970   139 N    0.926
                           172 B    0.127
   161   7 N    3.560 --   116 B    1.276   176 B    1.106   150 B    0.963
   162   5 B    3.367 --   126 B    1.285   150 B    1.009   122 B    0.640
                           176 B    0.186
   163   7 N    2.986 --   171 N    1.044   124 B    0.961   135 N    0.793
   164   5 B    3.455 --   165 N    1.266   122 B    0.932   132 B    0.926
   165   7 N    3.480 --   164 B    1.266   158 B    1.079   125 N    0.967
   166   5 B    3.442 --   185 N    1.130   159 N    1.074   114 B    1.000
   167   7 N    3.184 --   123 N    1.043   159 N    0.959   185 N    0.950
   168   5 B    3.525 --   173 N    1.159   133 N    1.147   183 N    0.985
   169   7 N    3.217 --   142 B    1.033   175 N    0.984   155 N    0.975
   170   5 B    3.507 --   179 N    1.264   143 N    0.993   157 N    0.987
   171   7 N    3.439 --   158 B    1.191   163 N    1.044   145 N    0.990
   172   5 B    3.327 --   139 N    1.062   115 N    1.002   116 B    0.958
                           160 B    0.127
   173   7 N    3.491 --   168 B    1.159   146 B    1.128   115 N    1.006
   174   5 B    3.386 --   117 N    1.150   128 B    1.005   178 B    1.002
   175   7 N    3.447 --   138 B    1.249   130 B    1.000   169 N    0.984
   176   5 B    3.444 --   117 N    1.152   161 N    1.106   126 B    0.627
                           162 B    0.186   178 B    0.120
   177   7 N    3.331 --   142 B    1.208   182 B    1.038   119 N    0.888
   178   5 B    3.334 --   126 B    1.004   174 B    1.002   121 N    0.973
                           176 B    0.120
   179   7 N    3.439 --   170 B    1.264   147 N    0.984   123 N    0.945
   180   5 B    3.449 --   131 N    1.156   181 N    1.104   118 B    0.996
   181   7 N    3.387 --   142 B    1.124   180 B    1.104   137 N    0.940
   182   5 B    3.439 --   145 N    1.261   177 N    1.038   119 N    0.967
   183   7 N    3.475 --   114 B    1.284   131 N    0.994   168 B    0.985
   184   5 B    3.360 --   149 N    1.171   116 B    0.978   146 B    0.924
   185   7 N    3.417 --   166 B    1.130   144 B    1.099   167 N    0.950
 ---------------------------------------------------------------------------

Topologies differ in total number of bonds
Writing topology from bond orders to xtbtopo.mol

molecular dipole:
                 x           y           z       tot (Debye)
 q only:        1.427       4.938      -2.650
   full:       -0.661       4.120      -0.206      10.618
molecular quadrupole (traceless):
                xx          xy          yy          xz          yz          zz
 q only:      -11.930      -2.143     -48.672     -27.823      93.547      60.602
  q+dip:       -7.357      -1.271     -40.671     -48.254     102.436      48.028
   full:       -3.544       0.020     -43.264     -42.178     101.901      46.808

           -------------------------------------------------
          |                Geometry Summary                 |
           -------------------------------------------------

      molecular mass/u    :     1747.3462630
   center of mass at/Å    :       -0.0334410      -0.0589388       6.7299603
  moments of inertia/u·Å² :        0.2926836E+05   0.1000644E+06   0.1109243E+06
rotational constants/cm⁻¹ :        0.5759678E-03   0.1684678E-03   0.1519742E-03

 * 192 selected distances

     #   Z          #   Z                                           value/Å
     2   6 C        3   8 O                                       1.1999320
     2   6 C        4   8 O                                       1.3422176
     4   8 O        5   6 C                                       1.4228158
     6   6 C        7   8 O                                       1.2043543
     8   6 C        9   6 C                                       1.5366769
    10   6 C       11   8 O                                       1.4079562
    10   6 C       12   6 C                                       1.5270731
    12   6 C       13   6 C                                       1.5168066
    13   6 C       14   8 O                                       1.4308745
    14   8 O       15   6 C                                       1.4283526
    13   6 C       16   6 C                                       1.5402039
    15   6 C       16   6 C                                       1.5359050
    16   6 C       17   8 O                                       1.4347709
    17   8 O       18   6 C                                       1.3455480
    18   6 C       20   8 O                                       1.1985974
    22   6 C       23   8 O                                       1.4464384
    23   8 O       24   6 C                                       1.3267548
    24   6 C       25   8 O                                       1.2146877
    26   6 C       27   6 C                                       1.3935937
    27   6 C       28   6 C                                       1.3813030
    28   6 C       29   6 C                                       1.3860771
    29   6 C       30   6 C                                       1.3864599
    26   6 C       31   6 C                                       1.3928662
    30   6 C       31   6 C                                       1.3821155
    32   6 C       33   8 O                                       1.4179574
    34   6 C       35   6 C                                       1.5331582
    35   6 C       36   8 O                                       1.4485144
    36   8 O       37   6 C                                       1.3134096
    37   6 C       38   8 O                                       1.2089825
    39   6 C       40   8 O                                       1.3999961
    41   6 C       42   7 N                                       1.4453278
    42   7 N       43   6 C                                       1.3555774
    43   6 C       44   8 O                                       1.2185497
    45   6 C       46   6 C                                       1.3921490
    46   6 C       47   6 C                                       1.3832557
    47   6 C       48   6 C                                       1.3855267
    48   6 C       49   6 C                                       1.3854101
    45   6 C       50   6 C                                       1.3913065
    49   6 C       50   6 C                                       1.3826051
    51   6 C       52   6 C                                       1.3894126
    52   6 C       53   6 C                                       1.3840469
    53   6 C       54   6 C                                       1.3847725
    54   6 C       55   6 C                                       1.3846737
    51   6 C       56   6 C                                       1.3887156
    55   6 C       56   6 C                                       1.3836821
    57   6 C       59   6 C                                       1.3369407
    60   6 C       61   6 C                                       1.5298020
     1   6 C       63   1 H                                       1.0869065
     1   6 C       64   1 H                                       1.0851335
     1   6 C       65   1 H                                       1.0876575
     5   6 C       66   1 H                                       1.0965611
     9   6 C       67   1 H                                       1.0877390
     9   6 C       68   1 H                                       1.0812995
     9   6 C       69   1 H                                       1.0828490
    10   6 C       70   1 H                                       1.0951043
    11   8 O       71   1 H                                       0.9605707 (min)
    12   6 C       72   1 H                                       1.0904045
    12   6 C       73   1 H                                       1.0911721
    13   6 C       74   1 H                                       1.0944853
    15   6 C       75   1 H                                       1.0911097
    15   6 C       76   1 H                                       1.0907873
    19   6 C       77   1 H                                       1.0872626
    19   6 C       78   1 H                                       1.0885818
    19   6 C       79   1 H                                       1.0863207
    21   6 C       80   1 H                                       1.0977598
    22   6 C       81   1 H                                       1.0988084
    27   6 C       82   1 H                                       1.0793399
    28   6 C       83   1 H                                       1.0794277
    29   6 C       84   1 H                                       1.0801060
    30   6 C       85   1 H                                       1.0796348
    31   6 C       86   1 H                                       1.0784843
    33   8 O       87   1 H                                       0.9732288
    34   6 C       88   1 H                                       1.0901669
    34   6 C       89   1 H                                       1.0934457
    35   6 C       90   1 H                                       1.1002793
    39   6 C       91   1 H                                       1.0979267
    40   8 O       92   1 H                                       0.9750491
    41   6 C       93   1 H                                       1.0953784
    42   7 N       94   1 H                                       1.0076713
    46   6 C       95   1 H                                       1.0806577
    47   6 C       96   1 H                                       1.0802810
    48   6 C       97   1 H                                       1.0800826
    49   6 C       98   1 H                                       1.0799383
    50   6 C       99   1 H                                       1.0797570
    52   6 C      100   1 H                                       1.0795522
    53   6 C      101   1 H                                       1.0801663
    54   6 C      102   1 H                                       1.0801695
    55   6 C      103   1 H                                       1.0799075
    56   6 C      104   1 H                                       1.0806843
    58   6 C      105   1 H                                       1.0888233
    58   6 C      106   1 H                                       1.0842907
    58   6 C      107   1 H                                       1.0875553
    61   6 C      108   1 H                                       1.0869518
    61   6 C      109   1 H                                       1.0839029
    61   6 C      110   1 H                                       1.0829139
    62   6 C      111   1 H                                       1.0873321
    62   6 C      112   1 H                                       1.0857117
    62   6 C      113   1 H                                       1.0842373
   121   7 N      122   5 B                                       1.4428050
   124   5 B      125   7 N                                       1.4038471
   120   5 B      127   7 N                                       1.4716188
   123   7 N      128   5 B                                       1.4395281
   127   7 N      130   5 B                                       1.3869640
   129   7 N      132   5 B                                       1.4225403
   131   7 N      133   7 N                                       1.4185438
   121   7 N      134   5 B                                       1.4232028
   124   5 B      135   7 N                                       1.3941994
   120   5 B      136   5 B                                       1.5749072
   133   7 N      137   7 N                                       1.4189520
   135   7 N      138   5 B                                       1.4349457
   119   7 N      140   5 B                                       1.3899637
   136   5 B      141   7 N                                       1.4838759
   140   5 B      143   7 N                                       1.4713621
   117   7 N      144   5 B                                       1.4904345
   139   7 N      144   5 B                                       1.4138801
   141   7 N      146   5 B                                       1.4401040
   128   5 B      147   7 N                                       1.4568158
   134   5 B      148   5 B                                       1.6640305
   147   7 N      148   5 B                                       1.4081161
   136   5 B      149   7 N                                       1.4217811
   132   5 B      150   5 B                                       1.6422964
   118   5 B      151   7 N                                       1.4059108
   125   7 N      152   5 B                                       1.4487964
   129   7 N      152   5 B                                       1.4598052
   120   5 B      153   7 N                                       1.4267024
   138   5 B      153   7 N                                       1.4927810
   152   5 B      153   7 N                                       1.4579577
   118   5 B      154   5 B                                       1.5733121
   151   7 N      154   5 B                                       1.4135299
   130   5 B      155   7 N                                       1.4432715
   137   7 N      155   7 N                                       1.3918305
   143   7 N      156   5 B                                       1.4200815
   145   7 N      156   5 B                                       1.4795627
   148   5 B      156   5 B                                       1.6738990 (max)
   140   5 B      157   7 N                                       1.4504950
   151   7 N      157   7 N                                       1.3697608
   154   5 B      159   7 N                                       1.4095398
   114   5 B      160   5 B                                       1.6083986
   115   7 N      160   5 B                                       1.4249801
   139   7 N      160   5 B                                       1.4998470
   116   5 B      161   7 N                                       1.4098527
   150   5 B      161   7 N                                       1.4908898
   126   5 B      162   5 B                                       1.5157622
   150   5 B      162   5 B                                       1.6060154
   124   5 B      163   7 N                                       1.4296306
   122   5 B      164   5 B                                       1.6490072
   132   5 B      164   5 B                                       1.6619286
   158   5 B      165   7 N                                       1.4618571
   164   5 B      165   7 N                                       1.4028035
   114   5 B      166   5 B                                       1.6191237
   159   7 N      166   5 B                                       1.4427916
   123   7 N      167   7 N                                       1.3679665
   133   7 N      168   5 B                                       1.4339734
   142   5 B      169   7 N                                       1.4546562
   155   7 N      169   7 N                                       1.4372275
   143   7 N      170   5 B                                       1.4564563
   157   7 N      170   5 B                                       1.4632391
   158   5 B      171   7 N                                       1.4269524
   163   7 N      171   7 N                                       1.3897988
   115   7 N      172   5 B                                       1.4594853
   116   5 B      172   5 B                                       1.6129537
   139   7 N      172   5 B                                       1.4505638
   146   5 B      173   7 N                                       1.4485903
   168   5 B      173   7 N                                       1.4415824
   117   7 N      174   5 B                                       1.4575729
   128   5 B      174   5 B                                       1.6052025
   130   5 B      175   7 N                                       1.4622236
   138   5 B      175   7 N                                       1.3906791
   169   7 N      175   7 N                                       1.4201567
   117   7 N      176   5 B                                       1.4584918
   161   7 N      176   5 B                                       1.4558936
   142   5 B      177   7 N                                       1.3894289
   121   7 N      178   5 B                                       1.4966971
   126   5 B      178   5 B                                       1.6002601
   174   5 B      178   5 B                                       1.6241894
   123   7 N      179   7 N                                       1.4303432
   147   7 N      179   7 N                                       1.4182966
   170   5 B      179   7 N                                       1.3744455
   118   5 B      180   5 B                                       1.6416421
   131   7 N      180   5 B                                       1.4316172
   142   5 B      181   7 N                                       1.4425788
   180   5 B      181   7 N                                       1.4590020
   119   7 N      182   5 B                                       1.4257553
   145   7 N      182   5 B                                       1.4005553
   177   7 N      182   5 B                                       1.4169521
   114   5 B      183   7 N                                       1.4013237
   131   7 N      183   7 N                                       1.4055382
   168   5 B      183   7 N                                       1.4873116
   116   5 B      184   5 B                                       1.6504154
   149   7 N      184   5 B                                       1.4321478
   144   5 B      185   7 N                                       1.4510235
   166   5 B      185   7 N                                       1.4429784

 * 9 distinct bonds (by element types)

   Z      Z             #   av. dist./Å        max./Å        min./Å
   5 B    5 B          17     1.6190202     1.6738990     1.5157622
   1 H    6 C          47     1.0865329     1.1002793     1.0784843
   6 C    6 C          26     1.4236361     1.5402039     1.3369407
   1 H    7 N           1     1.0076713     1.0076713     1.0076713
   5 B    7 N          66     1.4390795     1.4998470     1.3744455
   6 C    7 N           2     1.4004526     1.4453278     1.3555774
   7 N    7 N          11     1.4062195     1.4372275     1.3679665
   1 H    8 O           3     0.9696162     0.9750491     0.9605707
   6 C    8 O          19     1.3374058     1.4485144     1.1985974


optimized geometry written to: xtbopt.xyz


           -------------------------------------------------
          | TOTAL ENERGY             -336.737941080071 Eh   |
          | GRADIENT NORM               0.005184470953 Eh/α |
          | HOMO-LUMO GAP               0.550152089751 eV   |
           -------------------------------------------------

------------------------------------------------------------------------
 * finished run on 2026/08/31 at 22:25:36.833     
------------------------------------------------------------------------
 total:
 * wall-time:     0 d,  0 h,  0 min, 26.502 sec
 *  cpu-time:     0 d,  0 h,  2 min, 57.391 sec
 * ratio c/w:     6.693 speedup
 SCF:
 * wall-time:     0 d,  0 h,  0 min,  2.245 sec
 *  cpu-time:     0 d,  0 h,  0 min, 19.438 sec
 * ratio c/w:     8.658 speedup
 ANC optimizer:
 * wall-time:     0 d,  0 h,  0 min, 24.163 sec
 *  cpu-time:     0 d,  0 h,  2 min, 37.359 sec
 * ratio c/w:     6.512 speedup

normal termination of xtb
