      -----------------------------------------------------------      
     |                   =====================                   |     
     |                           x T B                           |     
     |                   =====================                   |     
     |                         S. Grimme                         |     
     |          Mulliken Center for Theoretical Chemistry        |     
     |                    University of Bonn                     |     
      -----------------------------------------------------------      

   * xtb version 6.7.1pre (5071a88) compiled by 'Marcel@Raven' on 2024-07-23

   xtb is free software: you can redistribute it and/or modify it under
   the terms of the GNU Lesser General Public License as published by
   the Free Software Foundation, either version 3 of the License, or
   (at your option) any later version.
   
   xtb is distributed in the hope that it will be useful,
   but WITHOUT ANY WARRANTY; without even the implied warranty of
   MERCHANTABILITY or FITNESS FOR A PARTICULAR PURPOSE.  See the
   GNU Lesser General Public License for more details.
   
   Cite this work as:
   * C. Bannwarth, E. Caldeweyher, S. Ehlert, A. Hansen, P. Pracht,
     J. Seibert, S. Spicher, S. Grimme, WIREs Comput. Mol. Sci., 2020, 11,
     e01493. DOI: 10.1002/wcms.1493
   
   for GFN2-xTB:
   * C. Bannwarth, S. Ehlert and S. Grimme., J. Chem. Theory Comput., 2019,
     15, 1652-1671. DOI: 10.1021/acs.jctc.8b01176
   for GFN1-xTB:
   * S. Grimme, C. Bannwarth, P. Shushkov, J. Chem. Theory Comput., 2017,
     13, 1989-2009. DOI: 10.1021/acs.jctc.7b00118
   for GFN0-xTB:
   * P. Pracht, E. Caldeweyher, S. Ehlert, S. Grimme, ChemRxiv, 2019, preprint.
     DOI: 10.26434/chemrxiv.8326202.v1
   for GFN-FF:
   * S. Spicher and S. Grimme, Angew. Chem. Int. Ed., 2020, 59, 15665-15673.
     DOI: 10.1002/anie.202004239
   
   for ALPB and GBSA implicit solvation:
   * S. Ehlert, M. Stahn, S. Spicher, S. Grimme, J. Chem. Theory Comput.,
     2021, 17, 4250-4261. DOI: 10.1021/acs.jctc.1c00471
   
   for ddCOSMO and CPCM-X implicit solvation:
   * M. Stahn, S. Ehlert, S. Grimme, J. Phys. Chem. A,
     2023, XX, XXXX-XXXX. DOI: 10.1021/acs.jpca.3c04382
   
   for DFT-D4:
   * E. Caldeweyher, C. Bannwarth and S. Grimme, J. Chem. Phys., 2017,
     147, 034112. DOI: 10.1063/1.4993215
   * E. Caldeweyher, S. Ehlert, A. Hansen, H. Neugebauer, S. Spicher,
     C. Bannwarth and S. Grimme, J. Chem. Phys., 2019, 150, 154122.
     DOI: 10.1063/1.5090222
   * E. Caldeweyher, J.-M. Mewes, S. Ehlert and S. Grimme, Phys. Chem. Chem. Phys.
     2020, 22, 8499-8512. DOI: 10.1039/D0CP00502A
   
   for sTDA-xTB:
   * S. Grimme and C. Bannwarth, J. Chem. Phys., 2016, 145, 054103.
     DOI: 10.1063/1.4959605
   
   in the mass-spec context:
   * V. Asgeirsson, C. Bauer and S. Grimme, Chem. Sci., 2017, 8, 4879.
     DOI: 10.1039/c7sc00601b
   * J. Koopman and S. Grimme, ACS Omega 2019, 4, 12, 15120-15133.
     DOI: 10.1021/acsomega.9b02011
   
   for metadynamics refer to:
   * S. Grimme, J. Chem. Theory Comput., 2019, 155, 2847-2862
     DOI: 10.1021/acs.jctc.9b00143
   
   for SPH calculations refer to:
   * S. Spicher and S. Grimme, J. Chem. Theory Comput., 2021, 17, 1701-1714
     DOI: 10.1021/acs.jctc.0c01306
   
   for ONIOM refer to:
   * C. Plett, A. Katbashev, S. Ehlert, S. Grimme, M. Bursch,
     Phys. Chem. Chem. Phys., 2023, 25, 17860-17868. DOI: 10.1039/D3CP02178E
   
   for DIPRO refer to:
   * J. Kohn, N. Gildemeister, S. Grimme, D. Fazzi, A. Hansen,
     J. Chem. Phys., 2023, just accepted.
   
   for PTB refer to:
   * S. Grimme, M. Mueller, A. Hansen, J. Chem. Phys., 2023, 158, 124111.
     DOI: 10.1063/5.0137838
   
   with help from (in alphabetical order)
   P. Atkinson, C. Bannwarth, F. Bohle, G. Brandenburg, E. Caldeweyher
   M. Checinski, S. Dohm, S. Ehlert, S. Ehrlich, I. Gerasimov, C. Hölzer
   A. Katbashev, J. Kohn, J. Koopman, C. Lavigne, S. Lehtola, F. März, M. Müller,
   F. Musil, H. Neugebauer, J. Pisarek, C. Plett, P. Pracht, F. Pultar,
   J. Seibert, P. Shushkov, S. Spicher, M. Stahn, M. Steiner, T. Strunk,
   J. Stückrath, T. Rose, and J. Unsleber
   
 * started run on 2026/08/31 at 22:25:36.918     
   ID    Z sym.   atoms
    1    6 C      1, 2, 5, 6, 8-10, 12, 13, 15, 16, 18, 19, 21, 22, 24,
                  26-32, 34, 35, 37, 39, 41, 43, 45-62
    2    8 O      3, 4, 7, 11, 14, 17, 20, 23, 25, 33, 36, 38, 40, 44
    3    7 N      42, 115, 117, 119, 121, 123, 125, 127, 129, 131, 133, 135,
                  137, 139, 141, 143, 145, 147, 149, 151, 153, 155, 157, 159,
                  161, 163, 165, 167, 169, 171, 173, 175, 177, 179, 181, 183,
                  185
    4    1 H      63-113
    5    5 B      114, 116, 118, 120, 122, 124, 126, 128, 130, 132, 134, 136,
                  138, 140, 142, 144, 146, 148, 150, 152, 154, 156, 158, 160,
                  162, 164, 166, 168, 170, 172, 174, 176, 178, 180, 182, 184

           -------------------------------------------------
          |                Calculation Setup                |
           -------------------------------------------------

          program call               : "c:\Users\Andre\Proyectos doctorado\kras-pancreatic-gC3N4-ai\tools\xtb\xtb-6.7.1\bin\xtb.exe" "c:\Users\Andre\Proyectos doctorado\nano-qsar-ai-therapeutics\calculations\tnbc\Paclitaxel\Paclitaxel_opt_180deg.xyz" --opt vloose --gfn 2 --chrg 0 --uhf 0 --etemp 300 --iterations 500 --cycles 15 --norestart
          coordinate file            : c:\Users\Andre\Proyectos doctorado\nano-qsar-ai-therapeutics\calculations\tnbc\Paclitaxel\Paclitaxel_opt_180deg.xyz
          omp threads                :                    16


molecular fragmentation (1/2 indicates fragments):
111111111111111111111111111111111111111111111111111111111111111111111111
111111111111111111111111111111111111111112222222222222222222222222222222
22222222222222222222222222222222222222222
# atoms in fragment 1/2:   113    72
 fragment masses (1/2) :      853.91      893.44
CMA distance (Bohr)    :  25.707
constraining FC (au)   :  0.0500

           -------------------------------------------------
          |                 G F N 2 - x T B                 |
           -------------------------------------------------

        Reference                      10.1021/acs.jctc.8b01176
      * Hamiltonian:
        H0-scaling (s, p, d)           1.850000    2.230000    2.230000
        zeta-weighting                 0.500000
      * Dispersion:
        s8                             2.700000
        a1                             0.520000
        a2                             5.000000
        s9                             5.000000
      * Repulsion:
        kExp                           1.500000    1.000000
        rExp                           1.000000
      * Coulomb:
        alpha                          2.000000
        third order                    shell-resolved
        anisotropic                    true
        a3                             3.000000
        a5                             4.000000
        cn-shift                       1.200000
        cn-exp                         4.000000
        max-rad                        5.000000


          ...................................................
          :                      SETUP                      :
          :.................................................:
          :  # basis functions                 587          :
          :  # atomic orbitals                 587          :
          :  # shells                          319          :
          :  # electrons                       616          :
          :  max. iterations                   500          :
          :  Hamiltonian                  GFN2-xTB          :
          :  restarted?                      false          :
          :  GBSA solvation                  false          :
          :  PC potential                    false          :
          :  electronic temp.          300.0000000     K    :
          :  accuracy                    1.0000000          :
          :  -> integral cutoff          0.2500000E+02      :
          :  -> integral neglect         0.1000000E-07      :
          :  -> SCF convergence          0.1000000E-05 Eh   :
          :  -> wf. convergence          0.1000000E-03 e    :
          :  Broyden damping             0.4000000          :
          :  net charge                          0          :
          :  unpaired electrons                  0          :
          ...................................................

 iter      E             dE          RMSdq      gap      omega  full diag
   1   -339.0682750 -0.339068E+03  0.934E+00    0.59       0.0  T
   2   -339.5437275 -0.475452E+00  0.557E+00    0.04       1.0  T
   3   -328.2623959  0.112813E+02  0.479E+00    0.05       1.0  T
   4   -275.8586797  0.524037E+02  0.676E+00    0.04       1.0  T
   5   -328.3066179 -0.524479E+02  0.346E+00    0.12       1.0  T
   6   -339.0060591 -0.106994E+02  0.182E+00    0.12       1.0  T
   7   -339.7698069 -0.763748E+00  0.134E+00    0.20       1.0  T
   8   -340.0681642 -0.298357E+00  0.926E-01    0.23       1.0  T
   9   -340.1734863 -0.105322E+00  0.803E-01    0.38       1.0  T
  10   -340.1512927  0.221936E-01  0.719E-01    0.21       1.0  T
  11   -340.1586973 -0.740464E-02  0.575E-01    0.37       1.0  T
  12   -340.1851058 -0.264084E-01  0.299E-01    0.35       1.0  T
  13   -340.1912280 -0.612219E-02  0.239E-01    0.33       1.0  T
  14   -340.1928831 -0.165514E-02  0.215E-01    0.34       1.0  T
  15   -340.1963043 -0.342120E-02  0.142E-01    0.38       1.0  T
  16   -340.1987209 -0.241665E-02  0.921E-02    0.42       1.0  T
  17   -340.1992777 -0.556782E-03  0.751E-02    0.44       1.0  T
  18   -340.2001928 -0.915084E-03  0.580E-02    0.48       1.0  T
  19   -340.2005518 -0.358936E-03  0.489E-02    0.50       1.0  T
  20   -340.2009077 -0.355926E-03  0.403E-02    0.52       1.0  T
  21   -340.2013459 -0.438259E-03  0.242E-02    0.56       1.0  T
  22   -340.2015061 -0.160198E-03  0.163E-02    0.59       1.0  T
  23   -340.2015883 -0.821296E-04  0.913E-03    0.56       1.0  T
  24   -340.2016175 -0.292270E-04  0.403E-03    0.50       1.8  T
  25   -340.2016220 -0.454484E-05  0.205E-03    0.48       3.6  T
  26   -340.2016229 -0.852276E-06  0.101E-03    0.47       7.3  T
  27   -340.2016230 -0.673930E-07  0.576E-04    0.47      12.8  T
  28   -340.2016230 -0.277449E-07  0.328E-04    0.47      22.4  T

   *** convergence criteria satisfied after 28 iterations ***

         #    Occupation            Energy/Eh            Energy/eV
      -------------------------------------------------------------
         1        2.0000           -0.7460576             -20.3013
       ...           ...                  ...                  ...
       302        2.0000           -0.3242984              -8.8246
       303        2.0000           -0.3214898              -8.7482
       304        2.0000           -0.3197844              -8.7018
       305        2.0000           -0.3175379              -8.6406
       306        2.0000           -0.3122240              -8.4960
       307        2.0000           -0.3105270              -8.4499
       308        1.9998           -0.3035362              -8.2596 (HOMO)
       309        0.0002           -0.2862336              -7.7888 (LUMO)
       310        0.0000           -0.2803887              -7.6298
       311                         -0.2749538              -7.4819
       312                         -0.2716895              -7.3930
       313                         -0.2654077              -7.2221
       ...                                ...                  ...
       587                          0.9865545              26.8455
      -------------------------------------------------------------
                  HL-Gap            0.0173026 Eh            0.4708 eV
             Fermi-level           -0.2948856 Eh           -8.0242 eV

 SCC (total)                   0 d,  0 h,  0 min, 12.106 sec
 SCC setup                      ...        0 min,  0.001 sec (  0.008%)
 Dispersion                     ...        0 min,  0.018 sec (  0.149%)
 classical contributions        ...        0 min,  0.001 sec (  0.008%)
 integral evaluation            ...        0 min,  0.037 sec (  0.306%)
 iterations                     ...        0 min, 11.461 sec ( 94.672%)
 molecular gradient             ...        0 min,  0.523 sec (  4.320%)
 printout                       ...        0 min,  0.065 sec (  0.537%)

         :::::::::::::::::::::::::::::::::::::::::::::::::::::
         ::                     SUMMARY                     ::
         :::::::::::::::::::::::::::::::::::::::::::::::::::::
         :: total energy            -336.693789301446 Eh    ::
         :: gradient norm              0.152523389559 Eh/a0 ::
         :: HOMO-LUMO gap              0.470828365562 eV    ::
         ::.................................................::
         :: SCC energy              -340.181438367125 Eh    ::
         :: -> isotropic ES            0.969689010793 Eh    ::
         :: -> anisotropic ES         -0.028509236178 Eh    ::
         :: -> anisotropic XC          0.107503898853 Eh    ::
         :: -> dispersion             -0.292583277133 Eh    ::
         :: repulsion energy           3.487649065678 Eh    ::
         :: add. restraining           0.000000000000 Eh    ::
         :: total charge               0.000000000013 e     ::
         :::::::::::::::::::::::::::::::::::::::::::::::::::::

      ----------------------------------------------------------- 
     |                   =====================                   |
     |                        A N C O P T                        |
     |                   =====================                   |
     |               Approximate Normal Coordinate               |
     |                Rational Function Optimizer                |
      ----------------------------------------------------------- 
      ----------------------------------------------------------- 
     |                   =====================                   |
     |                        A N C O P T                        |
     |                   =====================                   |
     |               Approximate Normal Coordinate               |
     |                Rational Function Optimizer                |
      ----------------------------------------------------------- 

          ...................................................
          :                      SETUP                      :
          :.................................................:
          :   optimization level            normal          :
          :   max. optcycles                    15          :
          :   ANC micro-cycles                  15          :
          :   degrees of freedom               549          :
          :.................................................:
          :   RF solver                   davidson          :
          :   write xtbopt.log                true          :
          :   linear?                        false          :
          :   energy convergence         0.5000000E-05 Eh   :
          :   grad. convergence          0.1000000E-02 Eh/α :
          :   maxmium RF displ.          1.0000000          :
          :   Hlow (freq-cutoff)         0.1000000E-01      :
          :   Hmax (freq-cutoff)         5.0000000          :
          :   S6 in model hess.         20.0000000          :
          ...................................................

generating ANC from exact Hessian ...
Using Lindh-Hessian (1995)
 Shifting diagonal of input Hessian by   1.008625772492150E-002
 Lowest  eigenvalues of input Hessian
    0.010000    0.010006    0.010018    0.010039    0.010046    0.010064
    0.000000    0.000000    0.000000    0.000000    0.000000    0.010096
    0.000000    0.010139    0.010191    0.010226    0.010297    0.010346
 Highest eigenvalues
    2.260728    2.267026    2.274249    2.274403    2.314980    2.316892
 

........................................................................
.............................. CYCLE    1 ..............................
........................................................................

 iter      E             dE          RMSdq      gap      omega  full diag
   1   -340.2016230 -0.340202E+03  0.218E-04    0.47       0.0  T
   2   -340.2016230 -0.469879E-08  0.183E-04    0.47      40.2  T
   3   -340.2016230 -0.255704E-08  0.120E-04    0.47      61.4  T
     SCC iter.                  ...        0 min,  0.760 sec
     gradient                   ...        0 min,  0.442 sec
 * total energy  :  -336.6937893 Eh     change       -0.1421262E-07 Eh
   gradient norm :     0.1525193 Eh/α   predicted     0.0000000E+00 (-100.00%)
   displ. norm   :     0.4651122 α      lambda       -0.3858374E-01
   maximum displ.:     0.1002255 α      in ANC's #103, #66, #70, ...

........................................................................
.............................. CYCLE    2 ..............................
........................................................................

 iter      E             dE          RMSdq      gap      omega  full diag
   1   -340.3282639 -0.340328E+03  0.143E-01    0.54       0.0  T
   2   -340.3286236 -0.359712E-03  0.844E-02    0.55       1.0  T
   3   -340.3285984  0.251728E-04  0.362E-02    0.55       1.0  T
   4   -340.3286765 -0.781001E-04  0.624E-03    0.55       1.2  T
   5   -340.3286796 -0.310731E-05  0.352E-03    0.54       2.1  T
   6   -340.3286806 -0.959188E-06  0.202E-03    0.54       3.6  T
   7   -340.3286808 -0.171070E-06  0.123E-03    0.54       6.0  T
   8   -340.3286810 -0.206116E-06  0.689E-04    0.54      10.7  T
   9   -340.3286810 -0.686219E-07  0.398E-04    0.54      18.5  T
     SCC iter.                  ...        0 min,  3.103 sec
     gradient                   ...        0 min,  0.260 sec
 * total energy  :  -336.7205942 Eh     change       -0.2680490E-01 Eh
   gradient norm :     0.0563006 Eh/α   predicted    -0.2350132E-01 ( -12.32%)
   displ. norm   :     0.4952067 α      lambda       -0.1360166E-01
   maximum displ.:     0.1217460 α      in ANC's #66, #70, #90, ...

........................................................................
.............................. CYCLE    3 ..............................
........................................................................

 iter      E             dE          RMSdq      gap      omega  full diag
   1   -340.3954891 -0.340395E+03  0.964E-02    0.58       0.0  T
   2   -340.3956657 -0.176598E-03  0.563E-02    0.58       1.0  T
   3   -340.3956582  0.742804E-05  0.244E-02    0.58       1.0  T
   4   -340.3956878 -0.295974E-04  0.470E-03    0.58       1.6  T
   5   -340.3956887 -0.877327E-06  0.311E-03    0.58       2.4  T
   6   -340.3956898 -0.106180E-05  0.226E-03    0.58       3.3  T
   7   -340.3956911 -0.128225E-05  0.940E-04    0.58       7.8  T
   8   -340.3956911 -0.818868E-07  0.515E-04    0.58      14.3  T
   9   -340.3956912 -0.357496E-07  0.302E-04    0.58      24.4  T
     SCC iter.                  ...        0 min,  2.751 sec
     gradient                   ...        0 min,  0.181 sec
 * total energy  :  -336.7296251 Eh     change       -0.9030875E-02 Eh
   gradient norm :     0.0243502 Eh/α   predicted    -0.8468600E-02 (  -6.23%)
   displ. norm   :     0.4681878 α      lambda       -0.4781574E-02
   maximum displ.:     0.1197708 α      in ANC's #40, #38, #70, ...

........................................................................
.............................. CYCLE    4 ..............................
........................................................................

 iter      E             dE          RMSdq      gap      omega  full diag
   1   -340.4097531 -0.340410E+03  0.652E-02    0.57       0.0  T
   2   -340.4098329 -0.798055E-04  0.392E-02    0.58       1.0  T
   3   -340.4098286  0.433204E-05  0.146E-02    0.58       1.0  T
   4   -340.4098367 -0.814294E-05  0.429E-03    0.57       1.7  T
   5   -340.4098396 -0.281499E-05  0.169E-03    0.57       4.3  T
   6   -340.4098398 -0.261609E-06  0.114E-03    0.57       6.4  T
   7   -340.4098401 -0.232054E-06  0.607E-04    0.57      12.1  T
   8   -340.4098401 -0.435234E-07  0.331E-04    0.57      22.2  T
     SCC iter.                  ...        0 min,  1.104 sec
     gradient                   ...        0 min,  0.299 sec
 * total energy  :  -336.7329868 Eh     change       -0.3361761E-02 Eh
   gradient norm :     0.0124804 Eh/α   predicted    -0.2914915E-02 ( -13.29%)
   displ. norm   :     0.4516505 α      lambda       -0.2364591E-02
   maximum displ.:     0.1272112 α      in ANC's #25, #23, #38, ...

........................................................................
.............................. CYCLE    5 ..............................
........................................................................

 iter      E             dE          RMSdq      gap      omega  full diag
   1   -340.4144701 -0.340414E+03  0.536E-02    0.57       0.0  T
   2   -340.4145036 -0.335192E-04  0.326E-02    0.57       1.0  T
   3   -340.4144966  0.697930E-05  0.107E-02    0.57       1.0  T
   4   -340.4145039 -0.724550E-05  0.404E-03    0.57       1.8  T
   5   -340.4145048 -0.949790E-06  0.317E-03    0.57       2.3  T
   6   -340.4145079 -0.307370E-05  0.934E-04    0.57       7.9  T
   7   -340.4145080 -0.985299E-07  0.498E-04    0.57      14.8  T
   8   -340.4145080 -0.177260E-07  0.214E-04    0.57      34.3  T
     SCC iter.                  ...        0 min,  1.486 sec
     gradient                   ...        0 min,  0.082 sec
 * total energy  :  -336.7346116 Eh     change       -0.1624794E-02 Eh
   gradient norm :     0.0096552 Eh/α   predicted    -0.1423494E-02 ( -12.39%)
   displ. norm   :     0.3914363 α      lambda       -0.1148264E-02
   maximum displ.:     0.1432760 α      in ANC's #25, #23, #29, ...

........................................................................
.............................. CYCLE    6 ..............................
........................................................................

 iter      E             dE          RMSdq      gap      omega  full diag
   1   -340.4146371 -0.340415E+03  0.411E-02    0.56       0.0  T
   2   -340.4146454 -0.836077E-05  0.246E-02    0.56       1.0  T
   3   -340.4146386  0.682935E-05  0.755E-03    0.55       1.0  T
   4   -340.4146458 -0.717421E-05  0.276E-03    0.55       2.7  T
   5   -340.4146470 -0.122247E-05  0.117E-03    0.55       6.3  T
   6   -340.4146471 -0.128822E-06  0.798E-04    0.55       9.2  T
   7   -340.4146473 -0.131923E-06  0.355E-04    0.55      20.7  T
     SCC iter.                  ...        0 min,  0.788 sec
     gradient                   ...        0 min,  0.151 sec
 * total energy  :  -336.7354235 Eh     change       -0.8118862E-03 Eh
   gradient norm :     0.0096609 Eh/α   predicted    -0.6621036E-03 ( -18.45%)
   displ. norm   :     0.3819964 α      lambda       -0.7668963E-03
   maximum displ.:     0.1539755 α      in ANC's #25, #21, #29, ...

........................................................................
.............................. CYCLE    7 ..............................
........................................................................

 iter      E             dE          RMSdq      gap      omega  full diag
   1   -340.4154781 -0.340415E+03  0.349E-02    0.55       0.0  T
   2   -340.4154824 -0.429549E-05  0.208E-02    0.55       1.0  T
   3   -340.4154716  0.107600E-04  0.855E-03    0.55       1.0  T
   4   -340.4154828 -0.111972E-04  0.257E-03    0.55       2.9  T
   5   -340.4154836 -0.787329E-06  0.152E-03    0.55       4.8  T
   6   -340.4154841 -0.486063E-06  0.865E-04    0.55       8.5  T
   7   -340.4154843 -0.161161E-06  0.315E-04    0.55      23.3  T
     SCC iter.                  ...        0 min,  0.770 sec
     gradient                   ...        0 min,  0.092 sec
 * total energy  :  -336.7359725 Eh     change       -0.5490101E-03 Eh
   gradient norm :     0.0068751 Eh/α   predicted    -0.4394020E-03 ( -19.96%)
   displ. norm   :     0.3545738 α      lambda       -0.5211814E-03
   maximum displ.:     0.1366623 α      in ANC's #21, #25, #10, ...

........................................................................
.............................. CYCLE    8 ..............................
........................................................................

 iter      E             dE          RMSdq      gap      omega  full diag
   1   -340.4166866 -0.340417E+03  0.320E-02    0.54       0.0  T
   2   -340.4166916 -0.500207E-05  0.191E-02    0.54       1.0  T
   3   -340.4166805  0.110527E-04  0.877E-03    0.54       1.0  T
   4   -340.4166921 -0.115717E-04  0.265E-03    0.54       2.8  T
   5   -340.4166932 -0.105887E-05  0.123E-03    0.54       6.0  T
   6   -340.4166934 -0.280795E-06  0.712E-04    0.54      10.3  T
   7   -340.4166935 -0.839242E-07  0.339E-04    0.54      21.7  T
     SCC iter.                  ...        0 min,  0.757 sec
     gradient                   ...        0 min,  0.084 sec
 * total energy  :  -336.7363402 Eh     change       -0.3676923E-03 Eh
   gradient norm :     0.0058087 Eh/α   predicted    -0.2933559E-03 ( -20.22%)
   displ. norm   :     0.2924856 α      lambda       -0.3206917E-03
   maximum displ.:     0.1273931 α      in ANC's #10, #21, #25, ...

........................................................................
.............................. CYCLE    9 ..............................
........................................................................

 iter      E             dE          RMSdq      gap      omega  full diag
   1   -340.4182668 -0.340418E+03  0.257E-02    0.54       0.0  T
   2   -340.4182697 -0.288999E-05  0.154E-02    0.54       1.0  T
   3   -340.4182626  0.710847E-05  0.632E-03    0.54       1.2  T
   4   -340.4182678 -0.525563E-05  0.307E-03    0.54       2.4  T
   5   -340.4182700 -0.215712E-05  0.155E-03    0.54       4.7  T
   6   -340.4182707 -0.677650E-06  0.486E-04    0.54      15.1  T
   7   -340.4182707 -0.489962E-08  0.302E-04    0.54      24.3  T
     SCC iter.                  ...        0 min,  0.786 sec
     gradient                   ...        0 min,  0.090 sec
 * total energy  :  -336.7365682 Eh     change       -0.2279363E-03 Eh
   gradient norm :     0.0052963 Eh/α   predicted    -0.1740706E-03 ( -23.63%)
   displ. norm   :     0.2639488 α      lambda       -0.2267908E-03
   maximum displ.:     0.1315160 α      in ANC's #10, #21, #13, ...

........................................................................
.............................. CYCLE   10 ..............................
........................................................................

 iter      E             dE          RMSdq      gap      omega  full diag
   1   -340.4194560 -0.340419E+03  0.225E-02    0.54       0.0  T
   2   -340.4194577 -0.169335E-05  0.134E-02    0.54       1.0  T
   3   -340.4194534  0.429229E-05  0.522E-03    0.54       1.4  T
   4   -340.4194578 -0.443200E-05  0.158E-03    0.54       4.7  T
   5   -340.4194582 -0.423756E-06  0.730E-04    0.54      10.1  T
   6   -340.4194583 -0.885443E-07  0.446E-04    0.54      16.5  T
     SCC iter.                  ...        0 min,  0.644 sec
     gradient                   ...        0 min,  0.109 sec
 * total energy  :  -336.7367385 Eh     change       -0.1703583E-03 Eh
   gradient norm :     0.0043242 Eh/α   predicted    -0.1213056E-03 ( -28.79%)
   displ. norm   :     0.3042760 α      lambda       -0.2221764E-03
   maximum displ.:     0.1585061 α      in ANC's #10, #21, #13, ...

........................................................................
.............................. CYCLE   11 ..............................
........................................................................

 iter      E             dE          RMSdq      gap      omega  full diag
   1   -340.4196403 -0.340420E+03  0.248E-02    0.54       0.0  T
   2   -340.4196422 -0.195601E-05  0.147E-02    0.54       1.0  T
   3   -340.4196400  0.218243E-05  0.400E-03    0.54       1.8  T
   4   -340.4196424 -0.233270E-05  0.143E-03    0.54       5.2  T
   5   -340.4196427 -0.331496E-06  0.546E-04    0.54      13.5  T
   6   -340.4196427  0.322109E-08  0.432E-04    0.54      17.0  T
     SCC iter.                  ...        0 min,  0.588 sec
     gradient                   ...        0 min,  0.106 sec
 * total energy  :  -336.7369140 Eh     change       -0.1754331E-03 Eh
   gradient norm :     0.0045643 Eh/α   predicted    -0.1213740E-03 ( -30.81%)
   displ. norm   :     0.3808196 α      lambda       -0.2522114E-03
   maximum displ.:     0.2007451 α      in ANC's #10, #21, #14, ...

........................................................................
.............................. CYCLE   12 ..............................
........................................................................

 iter      E             dE          RMSdq      gap      omega  full diag
   1   -340.4190612 -0.340419E+03  0.292E-02    0.55       0.0  T
   2   -340.4190638 -0.257731E-05  0.172E-02    0.54       1.0  T
   3   -340.4190590  0.480688E-05  0.549E-03    0.54       1.3  T
   4   -340.4190634 -0.439491E-05  0.214E-03    0.54       3.4  T
   5   -340.4190641 -0.702833E-06  0.129E-03    0.54       5.7  T
   6   -340.4190646 -0.457758E-06  0.537E-04    0.54      13.7  T
   7   -340.4190646 -0.396909E-07  0.255E-04    0.54      28.8  T
     SCC iter.                  ...        0 min,  0.964 sec
     gradient                   ...        0 min,  0.099 sec
 * total energy  :  -336.7371165 Eh     change       -0.2025610E-03 Eh
   gradient norm :     0.0048895 Eh/α   predicted    -0.1443952E-03 ( -28.72%)
   displ. norm   :     0.4423527 α      lambda       -0.2669921E-03
   maximum displ.:     0.2350640 α      in ANC's #10, #21, #14, ...

........................................................................
.............................. CYCLE   13 ..............................
........................................................................

 iter      E             dE          RMSdq      gap      omega  full diag
   1   -340.4178194 -0.340418E+03  0.337E-02    0.55       0.0  T
   2   -340.4178232 -0.383580E-05  0.198E-02    0.55       1.0  T
   3   -340.4178188  0.445194E-05  0.560E-03    0.55       1.3  T
   4   -340.4178231 -0.429720E-05  0.218E-03    0.55       3.4  T
   5   -340.4178239 -0.859512E-06  0.825E-04    0.55       8.9  T
   6   -340.4178240 -0.950434E-07  0.532E-04    0.55      13.8  T
     SCC iter.                  ...        0 min,  0.784 sec
     gradient                   ...        0 min,  0.102 sec
 * total energy  :  -336.7373303 Eh     change       -0.2137970E-03 Eh
   gradient norm :     0.0050559 Eh/α   predicted    -0.1596196E-03 ( -25.34%)
   displ. norm   :     0.4678464 α      lambda       -0.2627575E-03
   maximum displ.:     0.2519810 α      in ANC's #10, #14, #13, ...

........................................................................
.............................. CYCLE   14 ..............................
........................................................................

 iter      E             dE          RMSdq      gap      omega  full diag
   1   -340.4177584 -0.340418E+03  0.345E-02    0.55       0.0  T
   2   -340.4177618 -0.342716E-05  0.204E-02    0.55       1.0  T
   3   -340.4177558  0.601756E-05  0.647E-03    0.55       1.1  T
   4   -340.4177622 -0.643109E-05  0.193E-03    0.55       3.8  T
   5   -340.4177628 -0.552969E-06  0.751E-04    0.55       9.8  T
   6   -340.4177628 -0.140341E-08  0.627E-04    0.55      11.7  T
     SCC iter.                  ...        0 min,  0.600 sec
     gradient                   ...        0 min,  0.119 sec
 * total energy  :  -336.7375379 Eh     change       -0.2075517E-03 Eh
   gradient norm :     0.0047531 Eh/α   predicted    -0.1601408E-03 ( -22.84%)
   displ. norm   :     0.4995523 α      lambda       -0.2562743E-03
   maximum displ.:     0.2697343 α      in ANC's #10, #14, #13, ...

........................................................................
.............................. CYCLE   15 ..............................
........................................................................

 iter      E             dE          RMSdq      gap      omega  full diag
   1   -340.4168433 -0.340417E+03  0.378E-02    0.56       0.0  T
   2   -340.4168479 -0.464973E-05  0.223E-02    0.55       1.0  T
   3   -340.4168400  0.787100E-05  0.718E-03    0.55       1.0  T
   4   -340.4168468 -0.674156E-05  0.307E-03    0.55       2.4  T
   5   -340.4168485 -0.169005E-05  0.163E-03    0.55       4.5  T
   6   -340.4168492 -0.729736E-06  0.621E-04    0.55      11.8  T
   7   -340.4168493 -0.552803E-07  0.256E-04    0.55      28.7  T
     SCC iter.                  ...        0 min,  0.750 sec
     gradient                   ...        0 min,  0.089 sec
 * total energy  :  -336.7377425 Eh     change       -0.2046149E-03 Eh
   gradient norm :     0.0049333 Eh/α   predicted    -0.1601192E-03 ( -21.75%)
   displ. norm   :     0.5249498 α      lambda       -0.2951591E-03
   maximum displ.:     0.2809204 α      in ANC's #10, #14, #13, ...

   *** FAILED TO CONVERGE GEOMETRY OPTIMIZATION IN 15 ITERATIONS ***


 ANCopt (total)                0 d,  0 h,  0 min, 20.751 sec
 optimizer setup                ...        0 min,  0.002 sec (  0.010%)
 model hessian                  ...        0 min,  0.228 sec (  1.099%)
 ANC generation                 ...        0 min,  0.188 sec (  0.906%)
 coordinate transformation      ...        0 min,  0.007 sec (  0.034%)
 single point calculation       ...        0 min, 20.230 sec ( 97.489%)
 optimization log               ...        0 min,  0.050 sec (  0.241%)
 hessian update                 ...        0 min,  0.031 sec (  0.149%)
 rational function              ...        0 min,  0.005 sec (  0.024%)

================
 final structure:
================
185
 xtb: 6.7.1pre (5071a88)
C            1.95175223746316        4.66830014646112        8.67815125722771
C            1.45667554615826        3.29370279234695        9.03195719991842
O            1.03657385274392        2.48055030872077        8.25718641938146
O            1.51915962958232        3.09323961281434       10.35809696757638
C            1.19915187324622        1.77931611946287       10.79968670709732
C            2.41214201022111        0.86888000419664       10.61101122648742
O            3.40332372100297        1.30274528420488       10.08183242098426
C            2.29014580826064       -0.60955991574576       11.01376835485442
C            0.84530033002192       -1.13009105102100       11.06663958815324
C            2.97122303411490       -1.33458560516867        9.79644421343097
O            2.00945453885319       -1.43093591972473        8.77246758873385
C            3.55913098448563       -2.69585664126696       10.16161610287111
C            4.72858178904087       -2.44836187271055       11.09527089317802
O            5.68700609240879       -1.52296073596745       10.57302444669265
C            5.46727744326643       -0.58222609245778       11.62513644906163
C            4.41649542204968       -1.49969457428355       12.26775824054514
O            4.74471998512238       -2.04365006375069       13.55434424293300
C            5.95083383511650       -2.56689699729569       13.83977569299542
C            5.98055029724438       -3.03944989021124       15.27119565076889
O            6.87436303510017       -2.64740466343207       13.07977734811260
C            2.93952675500988       -1.02949374142806       12.37752038129181
C            2.83512676488599       -0.25413573872972       13.75624335874661
O            2.45826685186821       -1.34383745470919       14.62953737519356
C            3.03760935750073       -1.51491503208668       15.81079291218325
O            3.87269100416627       -0.76898710126545       16.28160036436013
C            2.52774453482286       -2.70863710037737       16.52191520943555
C            3.10676706815637       -3.04129042141373       17.74509262540053
C            2.64163751304417       -4.12912612089833       18.45803149462728
C            1.59304349659109       -4.88453758086183       17.95703979140619
C            1.01011939369100       -4.55307327464723       16.74352685214238
C            1.47277980480660       -3.46861079057043       16.02231015132177
C            2.02795028355377        1.01187346940708       14.28222212276826
O            2.84853033137071        1.56879401715181       15.29569722505239
C            0.66777244997100        0.67327397656099       14.93115283175019
C           -0.57578233116546        0.73123418734796       14.03620889927977
O           -1.60113980825333        1.52527908038143       14.68171628066480
C           -2.22310468372470        0.94586207543652       15.68279674894115
O           -1.95316328157334       -0.12498786153854       16.17490598511022
C           -3.38052082607775        1.77727932848685       16.22872423826647
O           -3.85752616056759        1.16524499566376       17.39395889791210
C           -4.47736120792236        1.86311474702059       15.12386538543375
N           -5.19746312609223        0.61223948928689       15.04868430512091
C           -4.71347207292591       -0.43993419426867       14.34431883712285
O           -3.68922145752934       -0.36615628101530       13.68805930004440
C           -5.54680637703839       -1.67107168126520       14.40897111799132
C           -6.92931621933080       -1.61749462287629       14.56372830591355
C           -7.66601962307528       -2.78779064377403       14.59793950178564
C           -7.03184018936936       -4.01424712871532       14.48244650960913
C           -5.65768980009668       -4.07196218685025       14.31540651486267
C           -4.91805257669416       -2.90465237492151       14.27167974986440
C           -5.45051648172244        2.98914681673642       15.35023330597439
C           -6.04743239048839        3.17564967027580       16.59095751934557
C           -6.96318196524223        4.19708934541197       16.77445408217774
C           -7.29421000617134        5.03340428610040       15.72155826103373
C           -6.70616902866794        4.84756274132377       14.48180676703000
C           -5.78783257414631        3.82917674539264       14.29708247829242
C           -0.37133125227642        1.22729643294791       12.62878815494445
C           -1.57703483839365        1.02915818683257       11.76357565657651
C            0.80915145366221        1.72090441152653       12.24121064391440
C            1.82229704659886        2.16176873577539       13.27221753943852
C            3.19245968845188        2.61232740483736       12.76228609763762
C            1.20832540018211        3.38775790173468       13.98262607730358
H            2.98070692005353        4.77214882425604        9.01234620506244
H            1.89147090683820        4.81017980888437        7.60424055900692
H            1.34796141883535        5.41430533581008        9.18906292331874
H            0.41436924236338        1.38850013351032       10.14104272118398
H            0.86761381011579       -2.21175572566742       10.95379515906109
H            0.37927052065918       -0.88918949841534       12.01214846510106
H            0.25579341518175       -0.74283464707372       10.24502439380487
H            3.81680462593572       -0.72464874770784        9.46302035250694
H            2.41385000937923       -1.26256930035996        7.91845116530348
H            2.82618288458858       -3.35205861674466       10.63184153453843
H            3.91924785418451       -3.17787184787388        9.25136559052513
H            5.20675359210664       -3.38682943308282       11.39267702044844
H            5.09152290544665        0.36817043267814       11.24311411447701
H            6.36728403740942       -0.41786469274018       12.21900338950070
H            5.14359677246126       -3.70598644150854       15.46478564377925
H            5.88924914457687       -2.18023293840575       15.93337134050603
H            6.92195306061661       -3.54938132714535       15.45558977515262
H            2.40921449008765       -1.96147852341234       12.61268345103173
H            3.86970722666914        0.02404267128183       14.00044570543900
H            3.91497860249900       -2.42983942040369       18.11640244834562
H            3.09106158200747       -4.38512804807002       19.40546709690000
H            1.22547998181882       -5.73226751684030       18.51643646975208
H            0.18852992420995       -5.14092360013763       16.36268990279091
H            1.01851786392160       -3.20041905969845       15.08163404878921
H            3.25151061039158        0.86952119167721       15.83961729460835
H            0.69690200175188       -0.29603752182022       15.42902782325405
H            0.54642449800297        1.42079477125669       15.71990374494752
H           -1.01062524813927       -0.27602266414631       13.95399901690028
H           -3.02759642009584        2.79184161044424       16.45600037720028
H           -3.37876318840087        0.31914961386443       17.46943370468809
H           -3.96594526364875        1.99845970735726       14.16467881133716
H           -5.90838944931252        0.46503468778986       15.74744044068519
H           -7.43614210036245       -0.66508896987285       14.62606815103587
H           -8.73931278954000       -2.74264934731511       14.71235166597337
H           -7.61217404695846       -4.92464094448706       14.51442453681205
H           -5.16475561422075       -5.02758349231776       14.21478412805832
H           -3.84717049513951       -2.92530445152180       14.13452740986021
H           -5.77851579311615        2.52928179959116       17.41275666415824
H           -7.42013757753536        4.34095387090574       17.74258640805851
H           -8.00874118658845        5.83033187877874       15.86702120958064
H           -6.96204014583881        5.49575479979119       13.65683572481277
H           -5.32906130921764        3.68176330127944       13.32977363337206
H           -2.41805986538475        1.51751974432281       12.25315509689732
H           -1.46010252064298        1.45876201412931       10.77493359750711
H           -1.84459135258063       -0.02109975223921       11.67381116448421
H            3.72548202467622        3.06075776101290       13.59669008448296
H            3.09083164243558        3.35054746700958       11.97515145058721
H            3.78968375684705        1.78375926617688       12.40242455779678
H            1.22665923048972        4.22925946716572       13.29423936031324
H            1.79709313129607        3.63573364627663       14.86047718464259
H            0.17880498799448        3.21312903625461       14.27411799406186
B            3.46145793389810       -1.45801541733571        1.66520592352929
N            3.45303863242691        1.12626647101820        0.98519081677382
B            2.55335282575869        2.37210591747915       -1.21299933608150
N            2.30702951699992       -0.62744103715757       -2.69625005597928
B            0.69205312301172       -3.56786805081698        2.72229662215419
N           -2.93799999392005       -2.65912878343184        1.72241335396403
B           -1.03509853821192        4.08339331688442        1.87736924665862
N           -0.60198328096458        0.03571384480597       -3.91387277701568
B           -0.45360793293716        1.46409130562896       -4.05533970852692
N            1.22181399674680       -3.77670224832455       -1.72028962643777
B           -3.83331128785189        2.21505287551328       -0.46321485013042
N           -2.76046411164360        2.77237644262218       -1.17680814796867
B            1.42581058521570        0.84080412126023       -4.85093308909571
N           -0.23620693193952        3.36022676918172        2.87904227712752
B            0.91335181006086       -2.86525652082050       -2.79174783620530
N           -0.48011593923071        3.77481095814111       -0.96502986265617
B           -0.80435860017454        2.17494512388489        3.32331883579170
N            1.66077033797896       -1.28753309232941        3.54494341052634
B           -0.23282648460989        3.48281818370651       -2.33495242897638
N            1.31031537104726        0.05445446759552        3.86131203593007
B           -1.58152003590908       -0.54494015162670       -3.06034969936543
N           -3.82561625333829        1.77741654260098        0.86033251606121
B            0.34255742777189        4.49523122682451        1.23425172774578
N            0.04044706313701       -0.02917754991726        4.48915752045997
B           -2.70336414749560        2.22471527934337        1.63519803644334
N            3.77983859640298       -0.12654120872009       -0.72452630480965
B           -2.24861820941570       -3.64000818837253        1.01902355577405
N            1.05700979814653        3.72953519262094        2.28528528320172
B           -1.82323019240526       -0.78781844995099        3.24116174808814
N           -2.42812678917944       -3.59750015377735       -0.44061529644438
B            3.02863070844348       -1.06428393621865       -1.46741577057248
N           -3.14861306422428       -1.24804225692807       -0.36677531443756
B            2.03627770334544        2.91835282058989        1.61250566953334
N           -0.49371505903568       -2.88833194604955       -2.41546719619660
B           -1.65936748499170       -2.10031920187874       -2.47385927318935
N            0.59939872835221        3.96901843184609       -0.06132251343176
B            1.10839129584341        2.97590236395399       -3.13580650434955
N            0.08047489413883       -4.36206533073037        1.73643037318046
B           -1.77369796956507        3.45784959061691       -0.36711075876715
N           -2.00812939373071        3.41973222850780        1.07137061534804
B            1.46961636753826       -4.21464702881896        1.51793925458292
N           -0.79575146510814        1.04887090965881        4.22061266406640
B           -2.65505996050626       -2.39436779453624       -1.16081875782904
N           -1.06922566153258       -4.48440724106523        1.00220175608718
B           -2.48879334272418        0.50313668964086       -2.08215157059771
N            2.35866828631956       -3.88584649867656        0.47535374241227
B            3.91453867307800       -0.20275800543678        0.76770139350611
N            1.94519978827592        1.97066739669782       -2.42034107221470
B            1.02238726729930        2.27600213283826       -4.57875233335059
N           -4.17562623278937        0.83414672864218       -0.32311922400719
B           -1.32079554471843        2.46915189056036       -3.07665528511434
N           -2.34402254588338        1.94518696953717       -2.27260508173923
B            3.07788276564240       -2.64385614047615        0.63080504133812
N            2.34529989695565       -3.66656155323888       -0.94775180603747
B            2.21827842494628        0.53706038476448        2.85467267414107
N           -2.02221201262359        0.59973111492791        3.62497840716004
B           -1.09251744256293       -4.17822438291868       -0.42889156563911
N           -3.20627117062669        0.04882002526127       -0.93541651992631
B            3.45712425161082        1.26442245282613       -0.46742762382711
N            2.58013233449180        1.62627168801114        1.98320423027493
B            1.48859259305353       -1.53761160465927       -3.48707531438837
N           -2.10046302785973        1.74782147058271        2.79382555436352
B            2.05747749032237        0.72866026003683       -3.17159097069249
N           -2.71843960141360       -1.34844311280940        2.33880896644202
B            0.67774114665000       -0.51812446666027       -4.45709670587501
N           -0.15778211650998       -3.75195201518226       -1.34167271533122
B            0.48705854638636       -2.11633288118524        3.46083633480700
N           -0.58613338290706       -1.21716857312433        3.84649360324820
B           -3.21775905719133       -1.45209877188844        1.01703192572922
N            2.67436596095250       -0.86377870279643        2.66173417561434
B            1.88689758130405        3.34212073495390       -0.05524341357773
N            2.88568184795777       -2.32528429676532       -0.76337856137152
 
 Bond Distances (Angstroems)
 ---------------------------
C1-C2=1.5033         C1-H63=1.0868        C1-H64=1.0849        C1-H65=1.0873        C2-C1=1.5033         C2-O3=1.1992         
C2-O4=1.3427         O3-C2=1.1992         O4-C2=1.3427         O4-C5=1.4226         C5-O4=1.4226         C5-C6=1.5283         
C5-C59=1.4945        C5-H66=1.0966        C6-C5=1.5283         C6-O7=1.2045         C6-C8=1.5372         O7-C6=1.2045         
C8-C6=1.5372         C8-C9=1.5367         C8-C10=1.5721        C8-C21=1.5678        C9-C8=1.5367         C9-H67=1.0878        
C9-H68=1.0813        C9-H69=1.0828        C10-C8=1.5721        C10-O11=1.4081       C10-C12=1.5271       C10-H70=1.0946       
O11-C10=1.4081       O11-H71=0.9598       C12-C10=1.5271       C12-C13=1.5168       C12-H72=1.0904       C12-H73=1.0911       
C13-C12=1.5168       C13-O14=1.4310       C13-C16=1.5402       C13-H74=1.0944       O14-C13=1.4310       O14-C15=1.4284       
C15-O14=1.4284       C15-C16=1.5359       C15-H75=1.0910       C15-H76=1.0907       C16-C13=1.5402       C16-C15=1.5359       
C16-O17=1.4349       C16-C21=1.5539       O17-C16=1.4349       O17-C18=1.3454       C18-O17=1.3454       C18-C19=1.5077       
C18-O20=1.1987       C19-C18=1.5077       C19-H77=1.0873       C19-H78=1.0886       C19-H79=1.0864       O20-C18=1.1987       
C21-C8=1.5678        C21-C16=1.5539       C21-C22=1.5852       C21-H80=1.0978       C22-C21=1.5852       C22-O23=1.4464       
C22-C32=1.5909       C22-H81=1.0988       O23-C22=1.4464       O23-C24=1.3268       C24-O23=1.3268       C24-O25=1.2147       
C24-C26=1.4801       O25-C24=1.2147       C26-C24=1.4801       C26-C27=1.3936       C26-C31=1.3929       C27-C26=1.3936       
C27-C28=1.3813       C27-H82=1.0793       C28-C27=1.3813       C28-C29=1.3861       C28-H83=1.0794       C29-C28=1.3861       
C29-C30=1.3865       C29-H84=1.0801       C30-C29=1.3865       C30-C31=1.3821       C30-H85=1.0796       C31-C26=1.3929       
C31-C30=1.3821       C31-H86=1.0785       C32-C22=1.5909       C32-O33=1.4180       C32-C34=1.5446       C32-C60=1.5442       
O33-C32=1.4180       O33-H87=0.9733       C34-C32=1.5446       C34-C35=1.5332       C34-H88=1.0901       C34-H89=1.0935       
C35-C34=1.5332       C35-O36=1.4486       C35-C57=1.5062       C35-H90=1.1002       O36-C35=1.4486       O36-C37=1.3133       
C37-O36=1.3133       C37-O38=1.2090       C37-C39=1.5261       O38-C37=1.2090       C39-C37=1.5261       C39-O40=1.4000       
C39-C41=1.5592       C39-H91=1.0980       O40-C39=1.4000       O40-H92=0.9751       C41-C39=1.5592       C41-N42=1.4453       
C41-C51=1.5054       C41-H93=1.0954       N42-C41=1.4453       N42-C43=1.3555       N42-H94=1.0076       C43-N42=1.3555       
C43-O44=1.2187       C43-C45=1.4881       O44-C43=1.2187       C45-C43=1.4881       C45-C46=1.3922       C45-C50=1.3914       
C46-C45=1.3922       C46-C47=1.3833       C46-H95=1.0807       C47-C46=1.3833       C47-C48=1.3855       C47-H96=1.0803       
C48-C47=1.3855       C48-C49=1.3855       C48-H97=1.0801       C49-C48=1.3855       C49-C50=1.3826       C49-H98=1.0800       
C50-C45=1.3914       C50-C49=1.3826       C50-H99=1.0798       C51-C41=1.5054       C51-C52=1.3894       C51-C56=1.3887       
C52-C51=1.3894       C52-C53=1.3841       C52-H100=1.0796      C53-C52=1.3841       C53-C54=1.3848       C53-H101=1.0802      
C54-C53=1.3848       C54-C55=1.3847       C54-H102=1.0802      C55-C54=1.3847       C55-C56=1.3837       C55-H103=1.0799      
C56-C51=1.3887       C56-C55=1.3837       C56-H104=1.0807      C57-C35=1.5062       C57-C58=1.4972       C57-C59=1.3369       
C58-C57=1.4972       C58-H105=1.0888      C58-H106=1.0843      C58-H107=1.0875      C59-C5=1.4945        C59-C57=1.3369       
C59-C60=1.5112       C60-C32=1.5442       C60-C59=1.5112       C60-C61=1.5298       C60-C62=1.5442       C61-C60=1.5298       
C61-H108=1.0869      C61-H109=1.0839      C61-H110=1.0829      C62-C60=1.5442       C62-H111=1.0874      C62-H112=1.0857      
C62-H113=1.0841      H63-C1=1.0868        H64-C1=1.0849        H65-C1=1.0873        H66-C5=1.0966        H67-C9=1.0878        
H68-C9=1.0813        H69-C9=1.0828        H70-C10=1.0946       H71-O11=0.9598       H72-C12=1.0904       H73-C12=1.0911       
H74-C13=1.0944       H75-C15=1.0910       H76-C15=1.0907       H77-C19=1.0873       H78-C19=1.0886       H79-C19=1.0864       
H80-C21=1.0978       H81-C22=1.0988       H82-C27=1.0793       H83-C28=1.0794       H84-C29=1.0801       H85-C30=1.0796       
H86-C31=1.0785       H87-O33=0.9733       H88-C34=1.0901       H89-C34=1.0935       H90-C35=1.1002       H91-C39=1.0980       
H92-O40=0.9751       H93-C41=1.0954       H94-N42=1.0076       H95-C46=1.0807       H96-C47=1.0803       H97-C48=1.0801       
H98-C49=1.0800       H99-C50=1.0798       H100-C52=1.0796      H101-C53=1.0802      H102-C54=1.0802      H103-C55=1.0799      
H104-C56=1.0807      H105-C58=1.0888      H106-C58=1.0843      H107-C58=1.0875      H108-C61=1.0869      H109-C61=1.0839      
H110-C61=1.0829      H111-C62=1.0874      H112-C62=1.0857      H113-C62=1.0841      B114-B160=1.6083     B114-B166=1.6197     
B114-N183=1.4020     N115-B160=1.4236     N115-B172=1.4592     N115-N173=1.4170     B116-N161=1.4102     B116-B172=1.6123     
B116-B184=1.6509     N117-B144=1.4905     N117-B174=1.4573     N117-B176=1.4585     B118-N151=1.4060     B118-B154=1.5727     
B118-B180=1.6415     N119-B140=1.3900     N119-N177=1.4649     N119-B182=1.4257     B120-N127=1.4712     B120-B136=1.5752     
B120-N153=1.4272     N121-B122=1.4430     N121-B134=1.4231     N121-B178=1.4965     B122-N121=1.4430     B122-B126=2.1339     
B122-B162=1.7640     B122-B164=1.6492     N123-B128=1.4401     N123-N167=1.3679     N123-N179=1.4308     B124-N125=1.4039     
B124-N135=1.3940     B124-N163=1.4296     N125-B124=1.4039     N125-B152=1.4489     N125-N165=1.4347     B126-B122=2.1339     
B126-B162=1.5155     B126-B176=1.7977     B126-B178=1.6004     N127-B120=1.4712     N127-B130=1.3875     N127-N141=1.4702     
B128-N123=1.4401     B128-N147=1.4567     B128-B174=1.6053     B128-N179=2.0090     N129-B132=1.4224     N129-N149=1.4212     
N129-B152=1.4599     B130-N127=1.3875     B130-N155=1.4399     B130-N169=2.0138     B130-N175=1.4638     N131-N133=1.4226     
N131-B180=1.4393     N131-N183=1.4096     B132-N129=1.4224     B132-B150=1.6423     B132-B164=1.6617     N133-N131=1.4226     
N133-N137=1.4191     N133-B168=1.4390     B134-N121=1.4231     B134-B148=1.6641     B134-B158=1.6966     N135-B124=1.3940     
N135-B138=1.4353     N135-N163=1.5533     B136-B120=1.5752     B136-N141=1.4837     B136-N149=1.4218     N137-N133=1.4191     
N137-N155=1.3905     N137-N181=1.4889     B138-N135=1.4353     B138-N153=1.4931     B138-N175=1.3904     N139-B144=1.4126     
N139-B160=1.5002     N139-B172=1.4509     B140-N119=1.3900     B140-N143=1.4712     B140-N157=1.4506     B140-B170=1.9294     
N141-N127=1.4702     N141-B136=1.4837     N141-B146=1.4386     B142-N169=1.4533     B142-N177=1.3892     B142-N181=1.4426     
N143-B140=1.4712     N143-B156=1.4205     N143-B170=1.4564     B144-N117=1.4905     B144-N139=1.4126     B144-N185=1.4513     
N145-B156=1.4792     N145-N171=1.4172     N145-B182=1.4005     B146-N141=1.4386     B146-N173=1.4501     B146-B184=1.7272     
N147-B128=1.4567     N147-B148=1.4082     N147-N179=1.4184     B148-B134=1.6641     B148-N147=1.4082     B148-B156=1.6739     
N149-N129=1.4212     N149-B136=1.4218     N149-B184=1.4320     B150-B132=1.6423     B150-N161=1.4909     B150-B162=1.6060     
N151-B118=1.4060     N151-B154=1.4139     N151-N157=1.3696     B152-N125=1.4489     B152-N129=1.4599     B152-N153=1.4580     
N153-B120=1.4272     N153-B138=1.4931     N153-B152=1.4580     B154-B118=1.5727     B154-N151=1.4139     B154-N159=1.4091     
N155-B130=1.4399     N155-N137=1.3905     N155-N169=1.4355     B156-N143=1.4205     B156-N145=1.4792     B156-B148=1.6739     
N157-B140=1.4506     N157-N151=1.3696     N157-B170=1.4637     B158-B134=1.6966     B158-N165=1.4618     B158-N171=1.4269     
N159-B154=1.4091     N159-B166=1.4436     N159-N167=1.4400     B160-B114=1.6083     B160-N115=1.4236     B160-N139=1.5002     
B160-B172=1.9716     N161-B116=1.4102     N161-B150=1.4909     N161-B176=1.4559     B162-B122=1.7640     B162-B126=1.5155     
B162-B150=1.6060     N163-B124=1.4296     N163-N135=1.5533     N163-N171=1.3897     B164-B122=1.6492     B164-B132=1.6617     
B164-N165=1.4029     N165-N125=1.4347     N165-B158=1.4618     N165-B164=1.4029     B166-B114=1.6197     B166-N159=1.4436     
B166-N185=1.4430     N167-N123=1.3679     N167-N159=1.4400     N167-N185=1.4577     B168-N133=1.4390     B168-N173=1.4411     
B168-N183=1.4858     N169-B130=2.0138     N169-B142=1.4533     N169-N155=1.4355     N169-N175=1.4195     B170-B140=1.9294     
B170-N143=1.4564     B170-N157=1.4637     B170-N179=1.3743     N171-N145=1.4172     N171-B158=1.4269     N171-N163=1.3897     
B172-N115=1.4592     B172-B116=1.6123     B172-N139=1.4509     B172-B160=1.9716     N173-N115=1.4170     N173-B146=1.4501     
N173-B168=1.4411     B174-N117=1.4573     B174-B128=1.6053     B174-B178=1.6241     N175-B130=1.4638     N175-B138=1.3904     
N175-N169=1.4195     B176-N117=1.4585     B176-B126=1.7977     B176-N161=1.4559     N177-N119=1.4649     N177-B142=1.3892     
N177-B182=1.4167     B178-N121=1.4965     B178-B126=1.6004     B178-B174=1.6241     N179-N123=1.4308     N179-B128=2.0090     
N179-N147=1.4184     N179-B170=1.3743     B180-B118=1.6415     B180-N131=1.4393     B180-N181=1.4522     N181-N137=1.4889     
N181-B142=1.4426     N181-B180=1.4522     B182-N119=1.4257     B182-N145=1.4005     B182-N177=1.4167     N183-B114=1.4020     
N183-N131=1.4096     N183-B168=1.4858     B184-B116=1.6509     B184-B146=1.7272     B184-N149=1.4320     N185-B144=1.4513     
N185-B166=1.4430     N185-N167=1.4577     
 B  B  Rav=1.6893 sigma=0.1390  Rmin=1.5155  Rmax=2.1339    24
 C  H  Rav=1.0865 sigma=0.0062  Rmin=1.0785  Rmax=1.1002    47
 C  C  Rav=1.4715 sigma=0.0756  Rmin=1.3369  Rmax=1.5909    47
 N  H  Rav=1.0076 sigma=0.0000  Rmin=1.0076  Rmax=1.0076     1
 N  B  Rav=1.4559 sigma=0.1010  Rmin=1.3743  Rmax=2.0138    68
 N  C  Rav=1.4004 sigma=0.0449  Rmin=1.3555  Rmax=1.4453     2
 N  N  Rav=1.4304 sigma=0.0405  Rmin=1.3679  Rmax=1.5533    21
 O  H  Rav=0.9694 sigma=0.0068  Rmin=0.9598  Rmax=0.9751     3
 O  C  Rav=1.3374 sigma=0.0962  Rmin=1.1987  Rmax=1.4486    19
 
 selected bond angles (degree)
 --------------------
H63-C1-C2=109.07               H64-C1-C2=109.53               H64-C1-H63=110.15              H65-C1-C2=109.51               
H65-C1-H63=108.40              H65-C1-H64=110.15              O3-C2-C1=125.69                O4-C2-C1=110.71                
O4-C2-O3=123.59                C5-O4-C2=115.72                C6-C5-O4=109.47                C59-C5-O4=113.22               
C59-C5-C6=107.63               H66-C5-O4=107.68               H66-C5-C6=106.35               H66-C5-C59=112.25              
O7-C6-C5=119.52                C8-C6-C5=118.53                C8-C6-O7=121.80                C9-C8-C6=114.17                
C10-C8-C6=101.91               C10-C8-C9=106.13               C21-C8-C6=116.91               C21-C8-C9=105.59               
C21-C8-C10=111.75              H67-C9-C8=108.30               H68-C9-C8=111.09               H68-C9-H67=108.73              
H69-C9-C8=111.38               H69-C9-H67=106.74              H69-C9-H68=110.44              O11-C10-C8=107.38              
C12-C10-C8=113.12              C12-C10-O11=112.08             H70-C10-C8=108.27              H70-C10-O11=110.14             
H70-C10-C12=105.79             
 
 selected dihedral angles (degree)
 ---------------------------------
O3-C2-C1-H63=238.20           O3-C2-C1-H64=358.82           O3-C2-C1-H65=119.72           O4-C2-C1-H63= 59.47           
O4-C2-C1-H64=180.09           O4-C2-C1-H65=300.99           C5-O4-C2-C1=185.91            C5-O4-C2-O3=  7.15            
C6-C5-O4-C2= 80.46            C59-C5-O4-C2=200.55           H66-C5-O4-C2=325.24           O7-C6-C5-O4=356.07            
O7-C6-C5-C59=232.63           O7-C6-C5-H66=112.14           C8-C6-C5-O4=180.47            C8-C6-C5-C59= 57.03           
C8-C6-C5-H66=296.54           C9-C8-C6-C5= 21.80            C9-C8-C6-O7=206.30            C10-C8-C6-C5=135.74           
C10-C8-C6-O7=320.24           C21-C8-C6-C5=257.86           C21-C8-C6-O7= 82.36           H67-C9-C8-C6=157.29           
H67-C9-C8-C10= 45.87          H67-C9-C8-C21=287.11          H68-C9-C8-C6=276.63           H68-C9-C8-C10=165.21          
H68-C9-C8-C21= 46.45          H69-C9-C8-C6= 40.20           H69-C9-C8-C10=288.78          H69-C9-C8-C21=170.02          
O11-C10-C8-C6=278.14          O11-C10-C8-C9= 37.91          O11-C10-C8-C21=152.53         C12-C10-C8-C6=153.95          
C12-C10-C8-C9=273.72          C12-C10-C8-C21= 28.34         H70-C10-C8-C6= 37.03          H70-C10-C8-C9=156.80          
H70-C10-C8-C21=271.43         
 
 CMA Distance (Angstroems)
 ---------------------------
R(CMA): 13.5480
           -------------------------------------------------
          |                Final Singlepoint                |
           -------------------------------------------------

          ...................................................
          :                      SETUP                      :
          :.................................................:
          :  # basis functions                 587          :
          :  # atomic orbitals                 587          :
          :  # shells                          319          :
          :  # electrons                       616          :
          :  max. iterations                   500          :
          :  Hamiltonian                  GFN2-xTB          :
          :  restarted?                      false          :
          :  GBSA solvation                  false          :
          :  PC potential                    false          :
          :  electronic temp.          300.0000000     K    :
          :  accuracy                    1.0000000          :
          :  -> integral cutoff          0.2500000E+02      :
          :  -> integral neglect         0.1000000E-07      :
          :  -> SCF convergence          0.1000000E-05 Eh   :
          :  -> wf. convergence          0.1000000E-03 e    :
          :  Broyden damping             0.4000000          :
          :  net charge                          0          :
          :  unpaired electrons                  0          :
          ...................................................

 iter      E             dE          RMSdq      gap      omega  full diag
   1   -340.4192784 -0.340419E+03  0.393E-02    0.56       0.0  T
   2   -340.4192836 -0.524375E-05  0.232E-02    0.56       1.0  T
   3   -340.4192775  0.609557E-05  0.676E-03    0.56       1.1  T
   4   -340.4192841 -0.659429E-05  0.227E-03    0.56       3.2  T
   5   -340.4192849 -0.767323E-06  0.890E-04    0.56       8.3  T
   6   -340.4192849  0.201181E-07  0.785E-04    0.56       9.4  T

   *** convergence criteria satisfied after 6 iterations ***

         #    Occupation            Energy/Eh            Energy/eV
      -------------------------------------------------------------
         1        2.0000           -0.7533268             -20.4991
       ...           ...                  ...                  ...
       302        2.0000           -0.3246451              -8.8340
       303        2.0000           -0.3218367              -8.7576
       304        2.0000           -0.3203027              -8.7159
       305        2.0000           -0.3178432              -8.6490
       306        2.0000           -0.3125940              -8.5061
       307        2.0000           -0.3107895              -8.4570
       308        2.0000           -0.3044243              -8.2838 (HOMO)
       309        0.0000           -0.2839098              -7.7256 (LUMO)
       310        0.0000           -0.2806188              -7.6360
       311                         -0.2721519              -7.4056
       312                         -0.2669918              -7.2652
       313                         -0.2618465              -7.1252
       ...                                ...                  ...
       587                          0.9868363              26.8532
      -------------------------------------------------------------
                  HL-Gap            0.0205145 Eh            0.5582 eV
             Fermi-level           -0.2941810 Eh           -8.0051 eV

 SCC (total)                   0 d,  0 h,  0 min,  0.838 sec
 SCC setup                      ...        0 min,  0.003 sec (  0.358%)
 Dispersion                     ...        0 min,  0.005 sec (  0.597%)
 classical contributions        ...        0 min,  0.000 sec (  0.000%)
 integral evaluation            ...        0 min,  0.027 sec (  3.222%)
 iterations                     ...        0 min,  0.701 sec ( 83.652%)
 molecular gradient             ...        0 min,  0.095 sec ( 11.337%)
 printout                       ...        0 min,  0.007 sec (  0.835%)

         :::::::::::::::::::::::::::::::::::::::::::::::::::::
         ::                     SUMMARY                     ::
         :::::::::::::::::::::::::::::::::::::::::::::::::::::
         :: total energy            -336.737973878538 Eh    ::
         :: gradient norm              0.006077969874 Eh/a0 ::
         :: HOMO-LUMO gap              0.558227696515 eV    ::
         ::.................................................::
         :: SCC energy              -340.398885267620 Eh    ::
         :: -> isotropic ES            0.965136223313 Eh    ::
         :: -> anisotropic ES         -0.035394988466 Eh    ::
         :: -> anisotropic XC          0.100236222255 Eh    ::
         :: -> dispersion             -0.297322489576 Eh    ::
         :: repulsion energy           3.660911389082 Eh    ::
         :: add. restraining           0.000000000000 Eh    ::
         :: total charge              -0.000000000090 e     ::
         :::::::::::::::::::::::::::::::::::::::::::::::::::::

           -------------------------------------------------
          |                Property Printout                |
           -------------------------------------------------

    * Orbital Energies and Occupations

         #    Occupation            Energy/Eh            Energy/eV
      -------------------------------------------------------------
         1        2.0000           -0.7533268             -20.4991
       ...           ...                  ...                  ...
       296        2.0000           -0.3371303              -9.1738
       297        2.0000           -0.3356597              -9.1338
       298        2.0000           -0.3321337              -9.0378
       299        2.0000           -0.3297420              -8.9727
       300        2.0000           -0.3269117              -8.8957
       301        2.0000           -0.3260774              -8.8730
       302        2.0000           -0.3246451              -8.8340
       303        2.0000           -0.3218367              -8.7576
       304        2.0000           -0.3203027              -8.7159
       305        2.0000           -0.3178432              -8.6490
       306        2.0000           -0.3125940              -8.5061
       307        2.0000           -0.3107895              -8.4570
       308        2.0000           -0.3044243              -8.2838 (HOMO)
       309        0.0000           -0.2839098              -7.7256 (LUMO)
       310        0.0000           -0.2806188              -7.6360
       311                         -0.2721519              -7.4056
       312                         -0.2669918              -7.2652
       313                         -0.2618465              -7.1252
       314                         -0.2608786              -7.0989
       315                         -0.2483085              -6.7568
       316                         -0.2432271              -6.6185
       317                         -0.2426680              -6.6033
       318                         -0.2410404              -6.5590
       319                         -0.2355802              -6.4105
       ...                                ...                  ...
       587                          0.9868363              26.8532
      -------------------------------------------------------------
                  HL-Gap            0.0205145 Eh            0.5582 eV
             Fermi-level           -0.2941810 Eh           -8.0051 eV

     #   Z          covCN         q      C6AA      α(0)
     1   6 C        3.754    -0.151    23.486     6.910
     2   6 C        2.720     0.365    20.808     7.467
     3   8 O        0.856    -0.403    21.750     6.253
     4   8 O        1.705    -0.253    18.188     5.758
     5   6 C        3.767     0.094    19.061     6.222
     6   6 C        2.829     0.234    23.102     7.876
     7   8 O        0.857    -0.340    20.516     6.073
     8   6 C        3.890    -0.015    20.790     6.482
     9   6 C        3.762    -0.131    23.058     6.845
    10   6 C        3.746     0.111    18.826     6.189
    11   8 O        1.656    -0.439    21.610     6.275
    12   6 C        3.802    -0.088    22.180     6.705
    13   6 C        4.067     0.105    18.782     6.156
    14   8 O        1.743    -0.316    19.263     5.926
    15   6 C        4.008     0.069    19.348     6.249
    16   6 C        3.828     0.128    18.486     6.118
    17   8 O        1.704    -0.293    18.873     5.865
    18   6 C        2.695     0.366    20.796     7.464
    19   6 C        3.753    -0.148    23.408     6.899
    20   8 O        0.856    -0.392    21.524     6.220
    21   6 C        3.844    -0.046    21.359     6.574
    22   6 C        3.720     0.081    19.333     6.280
    23   8 O        1.705    -0.261    18.327     5.780
    24   6 C        2.711     0.360    20.898     7.483
    25   8 O        0.857    -0.442    22.533     6.364
    26   6 C        2.974    -0.020    28.498     8.757
    27   6 C        2.925    -0.020    28.506     8.756
    28   6 C        2.918    -0.025    28.637     8.775
    29   6 C        2.921    -0.020    28.504     8.755
    30   6 C        2.919    -0.025    28.618     8.773
    31   6 C        2.920    -0.021    28.530     8.759
    32   6 C        3.774     0.135    18.418     6.115
    33   8 O        1.656    -0.464    22.122     6.349
    34   6 C        3.802    -0.081    22.037     6.683
    35   6 C        3.765     0.109    18.825     6.184
    36   8 O        1.702    -0.251    18.161     5.754
    37   6 C        2.725     0.352    21.024     7.506
    38   8 O        0.856    -0.424    22.170     6.313
    39   6 C        3.727     0.085    19.261     6.266
    40   8 O        1.655    -0.441    21.661     6.283
    41   6 C        3.800     0.039    19.914     6.354
    42   7 N        2.695    -0.180    24.908     7.412
    43   6 C        2.761     0.274    22.375     7.746
    44   8 O        0.859    -0.449    22.676     6.384
    45   6 C        2.977    -0.019    28.480     8.754
    46   6 C        2.921    -0.033    28.821     8.804
    47   6 C        2.919    -0.027    28.682     8.782
    48   6 C        2.920    -0.025    28.624     8.774
    49   6 C        2.918    -0.027    28.669     8.780
    50   6 C        2.925    -0.018    28.459     8.749
    51   6 C        2.976     0.000    28.024     8.683
    52   6 C        2.923    -0.038    28.936     8.821
    53   6 C        2.919    -0.029    28.719     8.788
    54   6 C        2.920    -0.030    28.738     8.791
    55   6 C        2.919    -0.028    28.708     8.786
    56   6 C        2.924    -0.036    28.891     8.815
    57   6 C        2.948    -0.005    28.149     8.702
    58   6 C        3.758    -0.123    22.906     6.824
    59   6 C        2.968    -0.024    28.599     8.772
    60   6 C        3.910     0.019    20.205     6.389
    61   6 C        3.763    -0.119    22.821     6.810
    62   6 C        3.768    -0.117    22.776     6.802
    63   1 H        0.925     0.084     1.940     2.178
    64   1 H        0.925     0.080     1.981     2.201
    65   1 H        0.925     0.077     2.007     2.215
    66   1 H        0.924     0.093     1.854     2.129
    67   1 H        0.925     0.064     2.153     2.294
    68   1 H        0.925     0.049     2.334     2.389
    69   1 H        0.925     0.075     2.031     2.228
    70   1 H        0.924     0.060     2.201     2.320
    71   1 H        0.805     0.308     0.699     1.313
    72   1 H        0.924     0.050     2.322     2.383
    73   1 H        0.924     0.068     2.108     2.271
    74   1 H        0.924     0.049     2.327     2.385
    75   1 H        0.924     0.058     2.217     2.329
    76   1 H        0.924     0.059     2.206     2.323
    77   1 H        0.925     0.069     2.100     2.266
    78   1 H        0.925     0.092     1.857     2.131
    79   1 H        0.925     0.078     1.998     2.211
    80   1 H        0.924     0.088     1.894     2.152
    81   1 H        0.923     0.073     2.058     2.243
    82   1 H        0.926     0.063     2.168     2.302
    83   1 H        0.926     0.046     2.369     2.407
    84   1 H        0.926     0.045     2.384     2.414
    85   1 H        0.926     0.046     2.373     2.409
    86   1 H        0.926     0.055     2.259     2.350
    87   1 H        0.804     0.318     0.669     1.284
    88   1 H        0.925     0.054     2.270     2.356
    89   1 H        0.924     0.073     2.056     2.242
    90   1 H        0.923     0.074     2.037     2.232
    91   1 H        0.923     0.055     2.263     2.353
    92   1 H        0.804     0.317     0.673     1.289
    93   1 H        0.924     0.069     2.099     2.266
    94   1 H        0.860     0.184     1.192     1.711
    95   1 H        0.926     0.034     2.530     2.487
    96   1 H        0.926     0.038     2.481     2.463
    97   1 H        0.926     0.039     2.466     2.456
    98   1 H        0.926     0.040     2.446     2.446
    99   1 H        0.926     0.056     2.250     2.346
   100   1 H        0.926     0.058     2.218     2.329
   101   1 H        0.926     0.037     2.489     2.467
   102   1 H        0.926     0.036     2.503     2.474
   103   1 H        0.926     0.038     2.478     2.462
   104   1 H        0.926     0.036     2.496     2.471
   105   1 H        0.925     0.074     2.038     2.233
   106   1 H        0.925     0.053     2.287     2.365
   107   1 H        0.925     0.075     2.037     2.232
   108   1 H        0.925     0.065     2.141     2.288
   109   1 H        0.925     0.064     2.154     2.295
   110   1 H        0.925     0.028     2.620     2.531
   111   1 H        0.925     0.050     2.326     2.385
   112   1 H        0.925     0.066     2.126     2.280
   113   1 H        0.925     0.049     2.336     2.390
   114   5 B        2.781     0.076    20.202     7.515
   115   7 N        2.775    -0.226    25.942     7.565
   116   5 B        2.788     0.092    19.931     7.463
   117   7 N        2.524    -0.314    28.130     7.877
   118   5 B        2.779     0.083    20.084     7.493
   119   7 N        2.655    -0.271    27.013     7.719
   120   5 B        2.849     0.240    17.681     7.021
   121   7 N        2.529    -0.273    27.090     7.730
   122   5 B        3.199     0.150    18.932     7.257
   123   7 N        2.979    -0.110    23.405     7.185
   124   5 B        2.644     0.372    16.328     6.814
   125   7 N        2.669    -0.213    25.645     7.521
   126   5 B        3.184     0.021    21.006     7.644
   127   7 N        2.889    -0.220    25.788     7.542
   128   5 B        3.009     0.209    18.077     7.092
   129   7 N        2.660    -0.163    24.535     7.357
   130   5 B        2.906     0.319    16.622     6.804
   131   7 N        3.153    -0.085    22.885     7.105
   132   5 B        2.779     0.093    19.919     7.463
   133   7 N        3.038    -0.123    23.662     7.225
   134   5 B        2.758     0.090    20.010     7.485
   135   7 N        2.634    -0.310    27.977     7.856
   136   5 B        3.041     0.226    17.841     7.045
   137   7 N        2.981     0.003    21.197     6.838
   138   5 B        2.581     0.325    17.319     7.090
   139   7 N        2.597    -0.360    29.292     8.038
   140   5 B        3.287     0.340    16.339     6.741
   141   7 N        2.785    -0.253    26.559     7.654
   142   5 B        2.560     0.319    17.608     7.186
   143   7 N        2.579    -0.369    29.540     8.072
   144   5 B        2.530     0.301    18.230     7.378
   145   7 N        2.665    -0.205    25.464     7.494
   146   5 B        2.698     0.195    18.510     7.220
   147   7 N        2.843    -0.168    24.615     7.369
   148   5 B        2.758     0.082    20.136     7.508
   149   7 N        2.672    -0.174    24.774     7.392
   150   5 B        2.877     0.110    19.578     7.386
   151   7 N        2.663    -0.145    24.138     7.297
   152   5 B        2.594     0.312    17.393     7.087
   153   7 N        2.519    -0.354    29.172     8.021
   154   5 B        2.684     0.183    18.727     7.270
   155   7 N        3.012    -0.120    23.599     7.215
   156   5 B        2.678     0.210    18.361     7.202
   157   7 N        2.715    -0.249    26.486     7.643
   158   5 B        2.647     0.164    19.168     7.381
   159   7 N        2.826    -0.207    25.485     7.498
   160   5 B        3.322     0.229    17.786     7.033
   161   7 N        2.531    -0.286    27.410     7.775
   162   5 B        2.950     0.035    20.787     7.607
   163   7 N        2.783    -0.186    25.026     7.430
   164   5 B        2.796     0.084    20.046     7.483
   165   7 N        2.673    -0.156    24.376     7.333
   166   5 B        3.021     0.211    18.052     7.087
   167   7 N        3.272     0.015    20.990     6.805
   168   5 B        2.867     0.305    16.806     6.844
   169   7 N        3.156    -0.114    23.470     7.195
   170   5 B        3.264     0.320    16.587     6.792
   171   7 N        2.833    -0.061    22.420     7.032
   172   5 B        3.304     0.231    17.769     7.030
   173   7 N        2.656    -0.182    24.942     7.417
   174   5 B        2.837     0.112    19.572     7.388
   175   7 N        2.837    -0.224    25.884     7.556
   176   5 B        2.861     0.252    17.505     6.985
   177   7 N        2.654    -0.230    26.031     7.578
   178   5 B        3.010     0.114    19.491     7.364
   179   7 N        3.153    -0.086    22.913     7.109
   180   5 B        2.674     0.202    18.494     7.230
   181   7 N        2.697    -0.229    26.020     7.576
   182   5 B        2.585     0.369    16.723     6.962
   183   7 N        2.880    -0.180    24.892     7.410
   184   5 B        2.824     0.106    19.675     7.409
   185   7 N        2.828    -0.253    26.557     7.654

 Mol. C6AA /au·bohr⁶  :     498839.111647
 Mol. C8AA /au·bohr⁸  :   13108131.300083
 Mol. α(0) /au        :       1093.802112


Wiberg/Mayer (AO) data.
largest (>0.10) Wiberg bond orders for each atom

 ---------------------------------------------------------------------------
     #   Z sym  total        # sym  WBO       # sym  WBO       # sym  WBO
 ---------------------------------------------------------------------------
     1   6 C    3.989 --     2 C    0.988    64 H    0.982    65 H    0.964
                            63 H    0.963
     2   6 C    3.914 --     3 O    1.766     4 O    1.110     1 C    0.988
     3   8 O    2.051 --     2 C    1.766     4 O    0.167
     4   8 O    2.307 --     2 C    1.110     5 C    0.943     3 O    0.167
     5   6 C    3.939 --    59 C    0.981     6 C    0.943     4 O    0.943
                            66 H    0.911
     6   6 C    3.908 --     7 O    1.865     8 C    0.954     5 C    0.943
     7   8 O    2.104 --     6 C    1.865
     8   6 C    3.982 --     9 C    0.996     6 C    0.954    21 C    0.952
                            10 C    0.939
     9   6 C    3.987 --     8 C    0.996    67 H    0.977    69 H    0.977
                            68 H    0.976
    10   6 C    3.955 --    11 O    1.000    12 C    0.987    70 H    0.955
                             8 C    0.939
    11   8 O    1.966 --    10 C    1.000    71 H    0.891
    12   6 C    3.994 --    13 C    0.995    10 C    0.987    72 H    0.968
                            73 H    0.967
    13   6 C    3.950 --    12 C    0.995    14 O    0.968    74 H    0.960
                            16 C    0.957
    14   8 O    2.041 --    15 C    0.978    13 C    0.968
    15   6 C    3.949 --    14 O    0.978    16 C    0.973    76 H    0.969
                            75 H    0.960
    16   6 C    3.919 --    15 C    0.973    21 C    0.970    13 C    0.957
                            17 O    0.926
    17   8 O    2.286 --    18 C    1.100    16 C    0.926    20 O    0.167
    18   6 C    3.912 --    20 O    1.775    17 O    1.100    19 C    0.985
    19   6 C    3.989 --    18 C    0.985    79 H    0.982    77 H    0.967
                            78 H    0.955
    20   8 O    2.057 --    18 C    1.775    17 O    0.167
    21   6 C    3.978 --    16 C    0.970    22 C    0.961     8 C    0.952
                            80 H    0.948
    22   6 C    3.897 --    21 C    0.961    81 H    0.953    32 C    0.931
                            23 O    0.918
    23   8 O    2.333 --    24 C    1.152    22 C    0.918    25 O    0.168
    24   6 C    3.911 --    25 O    1.663    23 O    1.152    26 C    1.006
    25   8 O    2.021 --    24 C    1.663    23 O    0.168
    26   6 C    3.986 --    31 C    1.385    27 C    1.384    24 C    1.006
                            29 C    0.102
    27   6 C    3.987 --    28 C    1.455    26 C    1.384    82 H    0.965
                            30 C    0.107
    28   6 C    3.991 --    27 C    1.455    29 C    1.433    83 H    0.970
                            31 C    0.107
    29   6 C    3.990 --    28 C    1.433    30 C    1.432    84 H    0.971
                            26 C    0.102
    30   6 C    3.992 --    31 C    1.456    29 C    1.432    85 H    0.970
                            27 C    0.107
    31   6 C    3.990 --    30 C    1.456    26 C    1.385    86 H    0.966
                            28 C    0.107
    32   6 C    3.948 --    33 O    0.995    34 C    0.975    60 C    0.946
                            22 C    0.931
    33   8 O    1.957 --    32 C    0.995    87 H    0.839
    34   6 C    3.989 --    35 C    0.986    32 C    0.975    88 H    0.970
                            89 H    0.966
    35   6 C    3.912 --    57 C    0.992    34 C    0.986    90 H    0.944
                            36 O    0.896
    36   8 O    2.335 --    37 C    1.184    35 C    0.896    38 O    0.172
    37   6 C    3.918 --    38 O    1.711    36 O    1.184    39 C    0.940
    38   8 O    2.037 --    37 C    1.711    36 O    0.172
    39   6 C    3.963 --    40 O    1.017    91 H    0.945    37 C    0.940
                            41 C    0.923
    40   8 O    1.963 --    39 C    1.017    92 H    0.857
    41   6 C    3.968 --    51 C    0.989    42 N    0.987    93 H    0.952
                            39 C    0.923
    42   7 N    3.439 --    43 C    1.232    41 C    0.987    94 H    0.932
                            44 O    0.187
    43   6 C    3.947 --    44 O    1.657    42 N    1.232    45 C    0.990
    44   8 O    1.993 --    43 C    1.657    42 N    0.187
    45   6 C    3.986 --    50 C    1.398    46 C    1.394    43 C    0.990
                            48 C    0.106
    46   6 C    3.992 --    47 C    1.451    45 C    1.394    95 H    0.967
                            49 C    0.110
    47   6 C    3.992 --    46 C    1.451    48 C    1.434    96 H    0.970
                            50 C    0.109
    48   6 C    3.991 --    49 C    1.438    47 C    1.434    97 H    0.971
                            45 C    0.106
    49   6 C    3.992 --    50 C    1.448    48 C    1.438    98 H    0.970
                            46 C    0.110
    50   6 C    3.988 --    49 C    1.448    45 C    1.398    99 H    0.967
                            47 C    0.109
    51   6 C    3.986 --    56 C    1.415    52 C    1.414    41 C    0.989
                            54 C    0.110
    52   6 C    3.989 --    53 C    1.444    51 C    1.414   100 H    0.964
                            55 C    0.112
    53   6 C    3.992 --    52 C    1.444    54 C    1.439   101 H    0.971
                            56 C    0.111
    54   6 C    3.990 --    55 C    1.439    53 C    1.439   102 H    0.971
                            51 C    0.110
    55   6 C    3.991 --    56 C    1.443    54 C    1.439   103 H    0.971
                            52 C    0.112
    56   6 C    3.990 --    55 C    1.443    51 C    1.415   104 H    0.968
                            53 C    0.111
    57   6 C    3.981 --    59 C    1.808    58 C    1.031    35 C    0.992
    58   6 C    3.990 --    57 C    1.031   106 H    0.976   107 H    0.962
                           105 H    0.958
    59   6 C    3.976 --    57 C    1.808    60 C    0.987     5 C    0.981
    60   6 C    3.987 --    61 C    1.000    59 C    0.987    62 C    0.975
                            32 C    0.946
    61   6 C    3.991 --    60 C    1.000   108 H    0.979   109 H    0.978
                           110 H    0.977
    62   6 C    3.988 --   111 H    0.984   113 H    0.982   112 H    0.980
                            60 C    0.975
    63   1 H    0.993 --     1 C    0.963
    64   1 H    0.993 --     1 C    0.982
    65   1 H    0.994 --     1 C    0.964
    66   1 H    0.991 --     5 C    0.911
    67   1 H    0.996 --     9 C    0.977
    68   1 H    0.998 --     9 C    0.976
    69   1 H    0.994 --     9 C    0.977
    70   1 H    0.996 --    10 C    0.955
    71   1 H    0.905 --    11 O    0.891
    72   1 H    0.997 --    12 C    0.968
    73   1 H    0.995 --    12 C    0.967
    74   1 H    0.997 --    13 C    0.960
    75   1 H    0.996 --    15 C    0.960
    76   1 H    0.996 --    15 C    0.969
    77   1 H    0.995 --    19 C    0.967
    78   1 H    0.991 --    19 C    0.955
    79   1 H    0.993 --    19 C    0.982
    80   1 H    0.992 --    21 C    0.948
    81   1 H    0.994 --    22 C    0.953
    82   1 H    0.996 --    27 C    0.965
    83   1 H    0.997 --    28 C    0.970
    84   1 H    0.998 --    29 C    0.971
    85   1 H    0.997 --    30 C    0.970
    86   1 H    0.997 --    31 C    0.966
    87   1 H    0.898 --    33 O    0.839
    88   1 H    0.997 --    34 C    0.970
    89   1 H    0.994 --    34 C    0.966
    90   1 H    0.994 --    35 C    0.944
    91   1 H    0.997 --    39 C    0.945
    92   1 H    0.899 --    40 O    0.857
    93   1 H    0.995 --    41 C    0.952
    94   1 H    0.966 --    42 N    0.932
    95   1 H    0.999 --    46 C    0.967
    96   1 H    0.998 --    47 C    0.970
    97   1 H    0.998 --    48 C    0.971
    98   1 H    0.998 --    49 C    0.970
    99   1 H    0.997 --    50 C    0.967
   100   1 H    0.997 --    52 C    0.964
   101   1 H    0.998 --    53 C    0.971
   102   1 H    0.998 --    54 C    0.971
   103   1 H    0.998 --    55 C    0.971
   104   1 H    0.999 --    56 C    0.968
   105   1 H    0.994 --    58 C    0.958
   106   1 H    0.997 --    58 C    0.976
   107   1 H    0.994 --    58 C    0.962
   108   1 H    0.995 --    61 C    0.979
   109   1 H    0.996 --    61 C    0.978
   110   1 H    0.999 --    61 C    0.977
   111   1 H    0.997 --    62 C    0.984
   112   1 H    0.995 --    62 C    0.980
   113   1 H    0.998 --    62 C    0.982
   114   5 B    3.479 --   183 N    1.284   166 B    1.000   160 B    0.970
   115   7 N    3.401 --   160 B    1.144   173 N    1.008   172 B    1.002
   116   5 B    3.464 --   161 N    1.275   184 B    0.978   172 B    0.958
   117   7 N    3.530 --   176 B    1.152   174 B    1.151   144 B    1.017
   118   5 B    3.464 --   151 N    1.241   180 B    0.996   154 B    0.990
   119   7 N    3.262 --   140 B    1.200   182 B    0.967   177 N    0.888
   120   5 B    3.409 --   153 N    1.174   127 N    1.037   136 B    0.962
   121   7 N    3.568 --   134 B    1.277   122 B    1.157   178 B    0.974
   122   5 B    3.393 --   121 N    1.157   164 B    0.932   162 B    0.640
                           126 B    0.295
   123   7 N    3.322 --   128 B    1.113   167 N    1.043   179 N    0.945
   124   5 B    3.433 --   125 N    1.187   135 N    1.128   163 N    0.961
   125   7 N    3.445 --   124 B    1.187   152 B    1.085   165 N    0.967
   126   5 B    3.457 --   162 B    1.285   178 B    1.004   176 B    0.626
                           122 B    0.295
   127   7 N    3.429 --   130 B    1.230   120 B    1.037   141 N    0.929
   128   5 B    3.390 --   123 N    1.113   147 N    1.038   174 B    1.005
   129   7 N    3.510 --   132 B    1.206   152 B    1.123   149 N    0.999
   130   5 B    3.515 --   127 N    1.230   155 N    1.082   175 N    0.995
   131   7 N    3.345 --   180 B    1.136   183 N    0.990   133 N    0.983
   132   5 B    3.415 --   129 N    1.206   150 B    1.008   164 B    0.927
   133   7 N    3.331 --   168 B    1.139   131 N    0.983   137 N    0.975
   134   5 B    3.464 --   121 N    1.277   148 B    0.978   158 B    0.932
   135   7 N    3.216 --   124 B    1.128   138 B    1.064   163 N    0.793
   136   5 B    3.368 --   149 N    1.151   141 N    0.993   120 B    0.962
   137   7 N    3.099 --   155 N    1.014   133 N    0.975   181 N    0.937
   138   5 B    3.512 --   175 N    1.250   135 N    1.064   153 N    0.988
   139   7 N    3.433 --   144 B    1.204   172 B    1.060   160 B    0.924
   140   5 B    3.481 --   119 N    1.200   157 N    1.042   143 N    0.980
   141   7 N    3.284 --   146 B    1.169   136 B    0.993   127 N    0.929
   142   5 B    3.525 --   177 N    1.208   181 N    1.121   169 N    1.036
   143   7 N    3.430 --   156 B    1.219   170 B    0.993   140 B    0.980
   144   5 B    3.520 --   139 N    1.204   185 N    1.098   117 N    1.017
   145   7 N    3.442 --   182 B    1.260   156 B    0.998   171 N    0.990
   146   5 B    3.446 --   141 N    1.169   173 N    1.123   184 B    0.923
   147   7 N    3.469 --   148 B    1.260   128 B    1.038   179 N    0.984
   148   5 B    3.421 --   147 N    1.260   134 B    0.978   156 B    0.959
   149   7 N    3.510 --   184 B    1.172   136 B    1.151   129 N    0.999
   150   5 B    3.347 --   162 B    1.009   132 B    1.008   161 N    0.963
   151   7 N    3.508 --   118 B    1.241   154 B    1.093   157 N    1.035
   152   5 B    3.515 --   129 N    1.123   153 N    1.106   125 N    1.085
   153   7 N    3.477 --   120 B    1.174   152 B    1.106   138 B    0.988
   154   5 B    3.464 --   159 N    1.180   151 N    1.093   118 B    0.990
   155   7 N    3.275 --   130 B    1.082   137 N    1.014   169 N    0.976
   156   5 B    3.391 --   143 N    1.219   145 N    0.998   148 B    0.959
   157   7 N    3.371 --   140 B    1.042   151 N    1.035   170 B    0.985
   158   5 B    3.454 --   171 N    1.191   165 N    1.079   134 B    0.932
   159   7 N    3.406 --   154 B    1.180   166 B    1.071   167 N    0.959
   160   5 B    3.365 --   115 N    1.144   114 B    0.970   139 N    0.924
                           172 B    0.127
   161   7 N    3.561 --   116 B    1.275   176 B    1.106   150 B    0.963
   162   5 B    3.368 --   126 B    1.285   150 B    1.009   122 B    0.640
                           176 B    0.187
   163   7 N    2.986 --   171 N    1.044   124 B    0.961   135 N    0.793
   164   5 B    3.455 --   165 N    1.266   122 B    0.932   132 B    0.927
   165   7 N    3.480 --   164 B    1.266   158 B    1.079   125 N    0.967
   166   5 B    3.442 --   185 N    1.131   159 N    1.071   114 B    1.000
   167   7 N    3.186 --   123 N    1.043   159 N    0.959   185 N    0.951
   168   5 B    3.523 --   173 N    1.162   133 N    1.139   183 N    0.993
   169   7 N    3.222 --   142 B    1.036   175 N    0.985   155 N    0.976
   170   5 B    3.507 --   179 N    1.265   143 N    0.993   157 N    0.985
   171   7 N    3.439 --   158 B    1.191   163 N    1.044   145 N    0.990
   172   5 B    3.327 --   139 N    1.060   115 N    1.002   116 B    0.958
                           160 B    0.127
   173   7 N    3.492 --   168 B    1.162   146 B    1.123   115 N    1.008
   174   5 B    3.386 --   117 N    1.151   128 B    1.005   178 B    1.002
   175   7 N    3.446 --   138 B    1.250   130 B    0.995   169 N    0.985
   176   5 B    3.444 --   117 N    1.152   161 N    1.106   126 B    0.626
                           162 B    0.187   178 B    0.119
   177   7 N    3.332 --   142 B    1.208   182 B    1.038   119 N    0.888
   178   5 B    3.333 --   126 B    1.004   174 B    1.002   121 N    0.974
                           176 B    0.119
   179   7 N    3.440 --   170 B    1.265   147 N    0.984   123 N    0.945
   180   5 B    3.447 --   131 N    1.136   181 N    1.123   118 B    0.996
   181   7 N    3.398 --   180 B    1.123   142 B    1.121   137 N    0.937
   182   5 B    3.439 --   145 N    1.260   177 N    1.038   119 N    0.967
   183   7 N    3.475 --   114 B    1.284   168 B    0.993   131 N    0.990
   184   5 B    3.360 --   149 N    1.172   116 B    0.978   146 B    0.923
   185   7 N    3.417 --   166 B    1.131   144 B    1.098   167 N    0.951
 ---------------------------------------------------------------------------

Topologies differ in total number of bonds
Writing topology from bond orders to xtbtopo.mol

molecular dipole:
                 x           y           z       tot (Debye)
 q only:       -1.178       1.636      -2.679
   full:       -2.879       0.393      -0.245       7.411
molecular quadrupole (traceless):
                xx          xy          yy          xz          yz          zz
 q only:      -66.716      -1.329       7.261    -102.131     -48.353      59.455
  q+dip:      -61.829      -2.453      14.991    -104.647     -59.335      46.838
   full:      -57.274      -1.961      11.660    -100.054     -57.090      45.614

           -------------------------------------------------
          |                Geometry Summary                 |
           -------------------------------------------------

      molecular mass/u    :     1747.3462630
   center of mass at/Å    :        0.0299142      -0.0342867       6.7302648
  moments of inertia/u·Å² :        0.2926561E+05   0.1009230E+06   0.1100443E+06
rotational constants/cm⁻¹ :        0.5760219E-03   0.1670346E-03   0.1531895E-03

 * 192 selected distances

     #   Z          #   Z                                           value/Å
     2   6 C        3   8 O                                       1.1991549
     2   6 C        4   8 O                                       1.3426603
     4   8 O        5   6 C                                       1.4226039
     6   6 C        7   8 O                                       1.2044545
     8   6 C        9   6 C                                       1.5366610
    10   6 C       11   8 O                                       1.4081230
    10   6 C       12   6 C                                       1.5271036
    12   6 C       13   6 C                                       1.5167665
    13   6 C       14   8 O                                       1.4309738
    14   8 O       15   6 C                                       1.4283565
    13   6 C       16   6 C                                       1.5401606
    15   6 C       16   6 C                                       1.5358563
    16   6 C       17   8 O                                       1.4348947
    17   8 O       18   6 C                                       1.3453510
    18   6 C       20   8 O                                       1.1987433
    22   6 C       23   8 O                                       1.4464149
    23   8 O       24   6 C                                       1.3267518
    24   6 C       25   8 O                                       1.2146727
    26   6 C       27   6 C                                       1.3935884
    27   6 C       28   6 C                                       1.3813089
    28   6 C       29   6 C                                       1.3860696
    29   6 C       30   6 C                                       1.3864642
    26   6 C       31   6 C                                       1.3928805
    30   6 C       31   6 C                                       1.3821242
    32   6 C       33   8 O                                       1.4179719
    34   6 C       35   6 C                                       1.5332035
    35   6 C       36   8 O                                       1.4486357
    36   8 O       37   6 C                                       1.3132885
    37   6 C       38   8 O                                       1.2090326
    39   6 C       40   8 O                                       1.3999615
    41   6 C       42   7 N                                       1.4452987
    42   7 N       43   6 C                                       1.3555249
    43   6 C       44   8 O                                       1.2186917
    45   6 C       46   6 C                                       1.3921760
    46   6 C       47   6 C                                       1.3832915
    47   6 C       48   6 C                                       1.3855389
    48   6 C       49   6 C                                       1.3854685
    45   6 C       50   6 C                                       1.3913669
    49   6 C       50   6 C                                       1.3826018
    51   6 C       52   6 C                                       1.3894203
    52   6 C       53   6 C                                       1.3840548
    53   6 C       54   6 C                                       1.3847715
    54   6 C       55   6 C                                       1.3846709
    51   6 C       56   6 C                                       1.3887258
    55   6 C       56   6 C                                       1.3836818
    57   6 C       59   6 C                                       1.3369386
    60   6 C       61   6 C                                       1.5298298
     1   6 C       63   1 H                                       1.0868389
     1   6 C       64   1 H                                       1.0849185
     1   6 C       65   1 H                                       1.0872525
     5   6 C       66   1 H                                       1.0965551
     9   6 C       67   1 H                                       1.0877640
     9   6 C       68   1 H                                       1.0812976
     9   6 C       69   1 H                                       1.0828378
    10   6 C       70   1 H                                       1.0946245
    11   8 O       71   1 H                                       0.9598058 (min)
    12   6 C       72   1 H                                       1.0903789
    12   6 C       73   1 H                                       1.0911366
    13   6 C       74   1 H                                       1.0944498
    15   6 C       75   1 H                                       1.0910483
    15   6 C       76   1 H                                       1.0907359
    19   6 C       77   1 H                                       1.0873084
    19   6 C       78   1 H                                       1.0886076
    19   6 C       79   1 H                                       1.0864026
    21   6 C       80   1 H                                       1.0977835
    22   6 C       81   1 H                                       1.0988062
    27   6 C       82   1 H                                       1.0793282
    28   6 C       83   1 H                                       1.0794227
    29   6 C       84   1 H                                       1.0801268
    30   6 C       85   1 H                                       1.0796362
    31   6 C       86   1 H                                       1.0784955
    33   8 O       87   1 H                                       0.9732547
    34   6 C       88   1 H                                       1.0900885
    34   6 C       89   1 H                                       1.0934537
    35   6 C       90   1 H                                       1.1001879
    39   6 C       91   1 H                                       1.0979740
    40   8 O       92   1 H                                       0.9750836
    41   6 C       93   1 H                                       1.0954011
    42   7 N       94   1 H                                       1.0076437
    46   6 C       95   1 H                                       1.0806644
    47   6 C       96   1 H                                       1.0803177
    48   6 C       97   1 H                                       1.0801051
    49   6 C       98   1 H                                       1.0799636
    50   6 C       99   1 H                                       1.0798268
    52   6 C      100   1 H                                       1.0795655
    53   6 C      101   1 H                                       1.0801786
    54   6 C      102   1 H                                       1.0801889
    55   6 C      103   1 H                                       1.0799076
    56   6 C      104   1 H                                       1.0806889
    58   6 C      105   1 H                                       1.0888105
    58   6 C      106   1 H                                       1.0842721
    58   6 C      107   1 H                                       1.0875137
    61   6 C      108   1 H                                       1.0869374
    61   6 C      109   1 H                                       1.0839180
    61   6 C      110   1 H                                       1.0829138
    62   6 C      111   1 H                                       1.0873534
    62   6 C      112   1 H                                       1.0857082
    62   6 C      113   1 H                                       1.0841473
   121   7 N      122   5 B                                       1.4430144
   124   5 B      125   7 N                                       1.4038612
   120   5 B      127   7 N                                       1.4712399
   123   7 N      128   5 B                                       1.4401060
   127   7 N      130   5 B                                       1.3874692
   129   7 N      132   5 B                                       1.4223572
   131   7 N      133   7 N                                       1.4226169
   121   7 N      134   5 B                                       1.4230788
   124   5 B      135   7 N                                       1.3940455
   120   5 B      136   5 B                                       1.5751657
   133   7 N      137   7 N                                       1.4190667
   135   7 N      138   5 B                                       1.4352501
   119   7 N      140   5 B                                       1.3900105
   136   5 B      141   7 N                                       1.4837131
   140   5 B      143   7 N                                       1.4712499
   117   7 N      144   5 B                                       1.4904946
   139   7 N      144   5 B                                       1.4126429
   141   7 N      146   5 B                                       1.4386157
   128   5 B      147   7 N                                       1.4566939
   134   5 B      148   5 B                                       1.6641021
   147   7 N      148   5 B                                       1.4082328
   136   5 B      149   7 N                                       1.4217526
   132   5 B      150   5 B                                       1.6423144
   118   5 B      151   7 N                                       1.4059551
   125   7 N      152   5 B                                       1.4488586
   129   7 N      152   5 B                                       1.4599064
   120   5 B      153   7 N                                       1.4271893
   138   5 B      153   7 N                                       1.4930903
   152   5 B      153   7 N                                       1.4579575
   118   5 B      154   5 B                                       1.5727062
   151   7 N      154   5 B                                       1.4139254
   130   5 B      155   7 N                                       1.4398798
   137   7 N      155   7 N                                       1.3905154
   143   7 N      156   5 B                                       1.4204646
   145   7 N      156   5 B                                       1.4792438
   148   5 B      156   5 B                                       1.6739008 (max)
   140   5 B      157   7 N                                       1.4506067
   151   7 N      157   7 N                                       1.3696244
   154   5 B      159   7 N                                       1.4090806
   114   5 B      160   5 B                                       1.6082500
   115   7 N      160   5 B                                       1.4235836
   139   7 N      160   5 B                                       1.5002323
   116   5 B      161   7 N                                       1.4102048
   150   5 B      161   7 N                                       1.4908511
   126   5 B      162   5 B                                       1.5154625
   150   5 B      162   5 B                                       1.6060355
   124   5 B      163   7 N                                       1.4295833
   122   5 B      164   5 B                                       1.6492377
   132   5 B      164   5 B                                       1.6617219
   158   5 B      165   7 N                                       1.4617594
   164   5 B      165   7 N                                       1.4028649
   114   5 B      166   5 B                                       1.6196709
   159   7 N      166   5 B                                       1.4435979
   123   7 N      167   7 N                                       1.3679059
   133   7 N      168   5 B                                       1.4389679
   142   5 B      169   7 N                                       1.4533421
   155   7 N      169   7 N                                       1.4355182
   143   7 N      170   5 B                                       1.4564446
   157   7 N      170   5 B                                       1.4636663
   158   5 B      171   7 N                                       1.4269477
   163   7 N      171   7 N                                       1.3897106
   115   7 N      172   5 B                                       1.4591794
   116   5 B      172   5 B                                       1.6123409
   139   7 N      172   5 B                                       1.4508703
   146   5 B      173   7 N                                       1.4500584
   168   5 B      173   7 N                                       1.4411028
   117   7 N      174   5 B                                       1.4572764
   128   5 B      174   5 B                                       1.6053111
   130   5 B      175   7 N                                       1.4637913
   138   5 B      175   7 N                                       1.3904444
   169   7 N      175   7 N                                       1.4195246
   117   7 N      176   5 B                                       1.4585048
   161   7 N      176   5 B                                       1.4558725
   142   5 B      177   7 N                                       1.3892231
   121   7 N      178   5 B                                       1.4965040
   126   5 B      178   5 B                                       1.6004382
   174   5 B      178   5 B                                       1.6241232
   123   7 N      179   7 N                                       1.4308211
   147   7 N      179   7 N                                       1.4183531
   170   5 B      179   7 N                                       1.3742664
   118   5 B      180   5 B                                       1.6414684
   131   7 N      180   5 B                                       1.4392994
   142   5 B      181   7 N                                       1.4426285
   180   5 B      181   7 N                                       1.4522291
   119   7 N      182   5 B                                       1.4257454
   145   7 N      182   5 B                                       1.4004796
   177   7 N      182   5 B                                       1.4167425
   114   5 B      183   7 N                                       1.4020342
   131   7 N      183   7 N                                       1.4096109
   168   5 B      183   7 N                                       1.4857966
   116   5 B      184   5 B                                       1.6509060
   149   7 N      184   5 B                                       1.4320235
   144   5 B      185   7 N                                       1.4512839
   166   5 B      185   7 N                                       1.4429752

 * 9 distinct bonds (by element types)

   Z      Z             #   av. dist./Å        max./Å        min./Å
   5 B    5 B          17     1.6190091     1.6739008     1.5154625
   1 H    6 C          47     1.0865073     1.1001879     1.0784955
   6 C    6 C          26     1.4236433     1.5401606     1.3369386
   1 H    7 N           1     1.0076437     1.0076437     1.0076437
   5 B    7 N          66     1.4390964     1.5002323     1.3742664
   6 C    7 N           2     1.4004118     1.4452987     1.3555249
   7 N    7 N          11     1.4066607     1.4355182     1.3679059
   1 H    8 O           3     0.9693814     0.9750836     0.9598058
   6 C    8 O          19     1.3374072     1.4486357     1.1987433


optimized geometry written to: xtbopt.xyz


           -------------------------------------------------
          | TOTAL ENERGY             -336.737973878538 Eh   |
          | GRADIENT NORM               0.006077969874 Eh/α |
          | HOMO-LUMO GAP               0.558227696515 eV   |
           -------------------------------------------------

------------------------------------------------------------------------
 * finished run on 2026/08/31 at 22:26:10.779     
------------------------------------------------------------------------
 total:
 * wall-time:     0 d,  0 h,  0 min, 33.859 sec
 *  cpu-time:     0 d,  0 h,  3 min, 34.641 sec
 * ratio c/w:     6.339 speedup
 SCF:
 * wall-time:     0 d,  0 h,  0 min, 12.108 sec
 *  cpu-time:     0 d,  0 h,  1 min,  9.391 sec
 * ratio c/w:     5.731 speedup
 ANC optimizer:
 * wall-time:     0 d,  0 h,  0 min, 21.607 sec
 *  cpu-time:     0 d,  0 h,  2 min, 24.375 sec
 * ratio c/w:     6.682 speedup

normal termination of xtb
