      -----------------------------------------------------------      
     |                   =====================                   |     
     |                           x T B                           |     
     |                   =====================                   |     
     |                         S. Grimme                         |     
     |          Mulliken Center for Theoretical Chemistry        |     
     |                    University of Bonn                     |     
      -----------------------------------------------------------      

   * xtb version 6.7.1pre (5071a88) compiled by 'Marcel@Raven' on 2024-07-23

   xtb is free software: you can redistribute it and/or modify it under
   the terms of the GNU Lesser General Public License as published by
   the Free Software Foundation, either version 3 of the License, or
   (at your option) any later version.
   
   xtb is distributed in the hope that it will be useful,
   but WITHOUT ANY WARRANTY; without even the implied warranty of
   MERCHANTABILITY or FITNESS FOR A PARTICULAR PURPOSE.  See the
   GNU Lesser General Public License for more details.
   
   Cite this work as:
   * C. Bannwarth, E. Caldeweyher, S. Ehlert, A. Hansen, P. Pracht,
     J. Seibert, S. Spicher, S. Grimme, WIREs Comput. Mol. Sci., 2020, 11,
     e01493. DOI: 10.1002/wcms.1493
   
   for GFN2-xTB:
   * C. Bannwarth, S. Ehlert and S. Grimme., J. Chem. Theory Comput., 2019,
     15, 1652-1671. DOI: 10.1021/acs.jctc.8b01176
   for GFN1-xTB:
   * S. Grimme, C. Bannwarth, P. Shushkov, J. Chem. Theory Comput., 2017,
     13, 1989-2009. DOI: 10.1021/acs.jctc.7b00118
   for GFN0-xTB:
   * P. Pracht, E. Caldeweyher, S. Ehlert, S. Grimme, ChemRxiv, 2019, preprint.
     DOI: 10.26434/chemrxiv.8326202.v1
   for GFN-FF:
   * S. Spicher and S. Grimme, Angew. Chem. Int. Ed., 2020, 59, 15665-15673.
     DOI: 10.1002/anie.202004239
   
   for ALPB and GBSA implicit solvation:
   * S. Ehlert, M. Stahn, S. Spicher, S. Grimme, J. Chem. Theory Comput.,
     2021, 17, 4250-4261. DOI: 10.1021/acs.jctc.1c00471
   
   for ddCOSMO and CPCM-X implicit solvation:
   * M. Stahn, S. Ehlert, S. Grimme, J. Phys. Chem. A,
     2023, XX, XXXX-XXXX. DOI: 10.1021/acs.jpca.3c04382
   
   for DFT-D4:
   * E. Caldeweyher, C. Bannwarth and S. Grimme, J. Chem. Phys., 2017,
     147, 034112. DOI: 10.1063/1.4993215
   * E. Caldeweyher, S. Ehlert, A. Hansen, H. Neugebauer, S. Spicher,
     C. Bannwarth and S. Grimme, J. Chem. Phys., 2019, 150, 154122.
     DOI: 10.1063/1.5090222
   * E. Caldeweyher, J.-M. Mewes, S. Ehlert and S. Grimme, Phys. Chem. Chem. Phys.
     2020, 22, 8499-8512. DOI: 10.1039/D0CP00502A
   
   for sTDA-xTB:
   * S. Grimme and C. Bannwarth, J. Chem. Phys., 2016, 145, 054103.
     DOI: 10.1063/1.4959605
   
   in the mass-spec context:
   * V. Asgeirsson, C. Bauer and S. Grimme, Chem. Sci., 2017, 8, 4879.
     DOI: 10.1039/c7sc00601b
   * J. Koopman and S. Grimme, ACS Omega 2019, 4, 12, 15120-15133.
     DOI: 10.1021/acsomega.9b02011
   
   for metadynamics refer to:
   * S. Grimme, J. Chem. Theory Comput., 2019, 155, 2847-2862
     DOI: 10.1021/acs.jctc.9b00143
   
   for SPH calculations refer to:
   * S. Spicher and S. Grimme, J. Chem. Theory Comput., 2021, 17, 1701-1714
     DOI: 10.1021/acs.jctc.0c01306
   
   for ONIOM refer to:
   * C. Plett, A. Katbashev, S. Ehlert, S. Grimme, M. Bursch,
     Phys. Chem. Chem. Phys., 2023, 25, 17860-17868. DOI: 10.1039/D3CP02178E
   
   for DIPRO refer to:
   * J. Kohn, N. Gildemeister, S. Grimme, D. Fazzi, A. Hansen,
     J. Chem. Phys., 2023, just accepted.
   
   for PTB refer to:
   * S. Grimme, M. Mueller, A. Hansen, J. Chem. Phys., 2023, 158, 124111.
     DOI: 10.1063/5.0137838
   
   with help from (in alphabetical order)
   P. Atkinson, C. Bannwarth, F. Bohle, G. Brandenburg, E. Caldeweyher
   M. Checinski, S. Dohm, S. Ehlert, S. Ehrlich, I. Gerasimov, C. Hölzer
   A. Katbashev, J. Kohn, J. Koopman, C. Lavigne, S. Lehtola, F. März, M. Müller,
   F. Musil, H. Neugebauer, J. Pisarek, C. Plett, P. Pracht, F. Pultar,
   J. Seibert, P. Shushkov, S. Spicher, M. Stahn, M. Steiner, T. Strunk,
   J. Stückrath, T. Rose, and J. Unsleber
   
 * started run on 2026/08/31 at 18:25:39.573     
   ID    Z sym.   atoms
    1    6 C      1, 2, 5, 6, 8-10, 12, 13, 15, 16, 18, 19, 21, 22, 24,
                  26-32, 34, 35, 37, 39, 41, 43, 45-62
    2    8 O      3, 4, 7, 11, 14, 17, 20, 23, 25, 33, 36, 38, 40, 44
    3    7 N      42
    4    1 H      63-113

           -------------------------------------------------
          |                Calculation Setup                |
           -------------------------------------------------

          program call               : "c:\Users\Andre\Proyectos doctorado\kras-pancreatic-gC3N4-ai\tools\xtb\xtb-6.7.1\bin\xtb.exe" "c:\Users\Andre\Proyectos doctorado\nano-qsar-ai-therapeutics\calculations\tnbc\Paclitaxel\Paclitaxel_drug.xyz" --gfn 2 --sp --chrg 0 --uhf 0 --iterations 500 --norestart
          coordinate file            : c:\Users\Andre\Proyectos doctorado\nano-qsar-ai-therapeutics\calculations\tnbc\Paclitaxel\Paclitaxel_drug.xyz
          omp threads                :                    16


           -------------------------------------------------
          |                 G F N 2 - x T B                 |
           -------------------------------------------------

        Reference                      10.1021/acs.jctc.8b01176
      * Hamiltonian:
        H0-scaling (s, p, d)           1.850000    2.230000    2.230000
        zeta-weighting                 0.500000
      * Dispersion:
        s8                             2.700000
        a1                             0.520000
        a2                             5.000000
        s9                             5.000000
      * Repulsion:
        kExp                           1.500000    1.000000
        rExp                           1.000000
      * Coulomb:
        alpha                          2.000000
        third order                    shell-resolved
        anisotropic                    true
        a3                             3.000000
        a5                             4.000000
        cn-shift                       1.200000
        cn-exp                         4.000000
        max-rad                        5.000000


          ...................................................
          :                      SETUP                      :
          :.................................................:
          :  # basis functions                 299          :
          :  # atomic orbitals                 299          :
          :  # shells                          175          :
          :  # electrons                       328          :
          :  max. iterations                   500          :
          :  Hamiltonian                  GFN2-xTB          :
          :  restarted?                      false          :
          :  GBSA solvation                  false          :
          :  PC potential                    false          :
          :  electronic temp.          300.0000000     K    :
          :  accuracy                    1.0000000          :
          :  -> integral cutoff          0.2500000E+02      :
          :  -> integral neglect         0.1000000E-07      :
          :  -> SCF convergence          0.1000000E-05 Eh   :
          :  -> wf. convergence          0.1000000E-03 e    :
          :  Broyden damping             0.4000000          :
          :  net charge                          0          :
          :  unpaired electrons                  0          :
          ...................................................

 iter      E             dE          RMSdq      gap      omega  full diag
   1   -188.2874989 -0.188287E+03  0.444E+00    3.05       0.0  T
   2   -188.5721946 -0.284696E+00  0.240E+00    2.78       1.0  T
   3   -188.5750264 -0.283183E-02  0.128E+00    2.79       1.0  T
   4   -188.6099625 -0.349361E-01  0.221E-01    2.69       1.0  T
   5   -188.6128965 -0.293402E-02  0.954E-02    2.70       1.0  T
   6   -188.6132909 -0.394338E-03  0.435E-02    2.73       1.0  T
   7   -188.6133290 -0.381068E-04  0.211E-02    2.73       1.0  T
   8   -188.6133330 -0.407234E-05  0.121E-02    2.74       1.0  T
   9   -188.6133453 -0.122351E-04  0.370E-03    2.74       2.5  T
  10   -188.6133457 -0.454998E-06  0.162E-03    2.73       5.8  T
  11   -188.6133458 -0.100113E-06  0.774E-04    2.73      12.2  T
  12   -188.6133458 -0.211669E-07  0.275E-04    2.73      34.2  T

   *** convergence criteria satisfied after 12 iterations ***

         #    Occupation            Energy/Eh            Energy/eV
      -------------------------------------------------------------
         1        2.0000           -0.7500431             -20.4097
       ...           ...                  ...                  ...
       158        2.0000           -0.4143966             -11.2763
       159        2.0000           -0.4096411             -11.1469
       160        2.0000           -0.4076730             -11.0933
       161        2.0000           -0.4032354             -10.9726
       162        2.0000           -0.3985522             -10.8452
       163        2.0000           -0.3957253             -10.7682
       164        2.0000           -0.3899920             -10.6122 (HOMO)
       165                         -0.2894962              -7.8776 (LUMO)
       166                         -0.2816897              -7.6652
       167                         -0.2687143              -7.3121
       168                         -0.2570801              -6.9955
       169                         -0.2487357              -6.7684
       ...                                ...                  ...
       299                          0.6467546              17.5991
      -------------------------------------------------------------
                  HL-Gap            0.1004959 Eh            2.7346 eV
             Fermi-level           -0.3397441 Eh           -9.2449 eV

 SCC (total)                   0 d,  0 h,  0 min,  0.215 sec
 SCC setup                      ...        0 min,  0.001 sec (  0.465%)
 Dispersion                     ...        0 min,  0.004 sec (  1.861%)
 classical contributions        ...        0 min,  0.000 sec (  0.000%)
 integral evaluation            ...        0 min,  0.009 sec (  4.186%)
 iterations                     ...        0 min,  0.179 sec ( 83.256%)
 molecular gradient             ...        0 min,  0.020 sec (  9.302%)
 printout                       ...        0 min,  0.002 sec (  0.930%)

         :::::::::::::::::::::::::::::::::::::::::::::::::::::
         ::                     SUMMARY                     ::
         :::::::::::::::::::::::::::::::::::::::::::::::::::::
         :: total energy            -186.485801395424 Eh    ::
         :: gradient norm              0.151657383424 Eh/a0 ::
         :: HOMO-LUMO gap              2.734631471042 eV    ::
         ::.................................................::
         :: SCC energy              -188.607433704197 Eh    ::
         :: -> isotropic ES            0.340472420283 Eh    ::
         :: -> anisotropic ES          0.001789431413 Eh    ::
         :: -> anisotropic XC          0.045084892676 Eh    ::
         :: -> dispersion             -0.147803685773 Eh    ::
         :: repulsion energy           2.121632308773 Eh    ::
         :: add. restraining           0.000000000000 Eh    ::
         :: total charge              -0.000000000000 e     ::
         :::::::::::::::::::::::::::::::::::::::::::::::::::::

           -------------------------------------------------
          |                Property Printout                |
           -------------------------------------------------

    * Orbital Energies and Occupations

         #    Occupation            Energy/Eh            Energy/eV
      -------------------------------------------------------------
         1        2.0000           -0.7500431             -20.4097
       ...           ...                  ...                  ...
       152        2.0000           -0.4213990             -11.4669
       153        2.0000           -0.4199991             -11.4288
       154        2.0000           -0.4195219             -11.4158
       155        2.0000           -0.4172574             -11.3542
       156        2.0000           -0.4159275             -11.3180
       157        2.0000           -0.4145257             -11.2798
       158        2.0000           -0.4143966             -11.2763
       159        2.0000           -0.4096411             -11.1469
       160        2.0000           -0.4076730             -11.0933
       161        2.0000           -0.4032354             -10.9726
       162        2.0000           -0.3985522             -10.8452
       163        2.0000           -0.3957253             -10.7682
       164        2.0000           -0.3899920             -10.6122 (HOMO)
       165                         -0.2894962              -7.8776 (LUMO)
       166                         -0.2816897              -7.6652
       167                         -0.2687143              -7.3121
       168                         -0.2570801              -6.9955
       169                         -0.2487357              -6.7684
       170                         -0.2460934              -6.6965
       171                         -0.2427476              -6.6055
       172                         -0.2409406              -6.5563
       173                         -0.2376424              -6.4666
       174                         -0.2353103              -6.4031
       175                         -0.2332713              -6.3476
       ...                                ...                  ...
       299                          0.6467546              17.5991
      -------------------------------------------------------------
                  HL-Gap            0.1004959 Eh            2.7346 eV
             Fermi-level           -0.3397441 Eh           -9.2449 eV

     #   Z          covCN         q      C6AA      α(0)
     1   6 C        3.752    -0.143    23.323     6.887
     2   6 C        2.721     0.360    20.884     7.481
     3   8 O        0.856    -0.407    21.831     6.264
     4   8 O        1.704    -0.249    18.126     5.748
     5   6 C        3.762     0.103    18.922     6.201
     6   6 C        2.822     0.225    23.269     7.904
     7   8 O        0.856    -0.342    20.559     6.079
     8   6 C        3.878    -0.003    20.581     6.450
     9   6 C        3.752    -0.118    22.821     6.812
    10   6 C        3.736     0.114    18.801     6.188
    11   8 O        1.652    -0.444    21.728     6.292
    12   6 C        3.801    -0.079    22.012     6.680
    13   6 C        4.057     0.106    18.764     6.153
    14   8 O        1.721    -0.322    19.378     5.944
    15   6 C        4.000     0.071    19.319     6.244
    16   6 C        3.790     0.123    18.594     6.141
    17   8 O        1.697    -0.294    18.892     5.868
    18   6 C        2.693     0.362    20.864     7.476
    19   6 C        3.752    -0.142    23.291     6.882
    20   8 O        0.856    -0.395    21.587     6.229
    21   6 C        3.816    -0.043    21.339     6.575
    22   6 C        3.693     0.082    19.386     6.300
    23   8 O        1.694    -0.277    18.595     5.822
    24   6 C        2.703     0.357    20.939     7.490
    25   8 O        0.856    -0.429    22.275     6.328
    26   6 C        2.964    -0.014    28.370     8.737
    27   6 C        2.917    -0.019    28.476     8.751
    28   6 C        2.910    -0.026    28.650     8.777
    29   6 C        2.912    -0.019    28.489     8.752
    30   6 C        2.911    -0.025    28.625     8.773
    31   6 C        2.913    -0.018    28.447     8.746
    32   6 C        3.758     0.130    18.519     6.135
    33   8 O        1.647    -0.473    22.327     6.378
    34   6 C        3.800    -0.070    21.846     6.655
    35   6 C        3.752     0.115    18.761     6.177
    36   8 O        1.702    -0.259    18.287     5.774
    37   6 C        2.712     0.343    21.169     7.531
    38   8 O        0.856    -0.408    21.840     6.266
    39   6 C        3.720     0.082    19.323     6.278
    40   8 O        1.649    -0.443    21.700     6.288
    41   6 C        3.789     0.042    19.880     6.350
    42   7 N        2.687    -0.185    25.000     7.426
    43   6 C        2.756     0.270    22.431     7.756
    44   8 O        0.858    -0.444    22.570     6.370
    45   6 C        2.967    -0.016    28.407     8.742
    46   6 C        2.913    -0.033    28.816     8.802
    47   6 C        2.911    -0.027    28.685     8.782
    48   6 C        2.912    -0.024    28.603     8.770
    49   6 C        2.911    -0.027    28.676     8.781
    50   6 C        2.916    -0.017    28.427     8.743
    51   6 C        2.961    -0.001    28.046     8.687
    52   6 C        2.914    -0.036    28.895     8.815
    53   6 C        2.910    -0.029    28.725     8.788
    54   6 C        2.912    -0.029    28.714     8.787
    55   6 C        2.910    -0.028    28.704     8.785
    56   6 C        2.915    -0.035    28.867     8.810
    57   6 C        2.940    -0.007    28.193     8.708
    58   6 C        3.752    -0.114    22.737     6.800
    59   6 C        2.957    -0.022    28.549     8.764
    60   6 C        3.895     0.021    20.168     6.384
    61   6 C        3.758    -0.107    22.590     6.776
    62   6 C        3.759    -0.107    22.591     6.776
    63   1 H        0.924     0.083     1.950     2.184
    64   1 H        0.924     0.077     2.014     2.219
    65   1 H        0.924     0.079     1.985     2.203
    66   1 H        0.924     0.082     1.957     2.188
    67   1 H        0.924     0.062     2.180     2.309
    68   1 H        0.925     0.044     2.402     2.424
    69   1 H        0.924     0.068     2.105     2.269
    70   1 H        0.924     0.062     2.179     2.308
    71   1 H        0.804     0.298     0.726     1.338
    72   1 H        0.924     0.049     2.333     2.389
    73   1 H        0.924     0.061     2.186     2.312
    74   1 H        0.924     0.055     2.260     2.351
    75   1 H        0.925     0.061     2.183     2.311
    76   1 H        0.924     0.062     2.172     2.305
    77   1 H        0.924     0.073     2.051     2.240
    78   1 H        0.924     0.089     1.892     2.151
    79   1 H        0.924     0.080     1.983     2.202
    80   1 H        0.923     0.090     1.881     2.145
    81   1 H        0.923     0.078     1.996     2.209
    82   1 H        0.925     0.061     2.189     2.314
    83   1 H        0.925     0.046     2.371     2.408
    84   1 H        0.925     0.045     2.388     2.416
    85   1 H        0.925     0.046     2.376     2.410
    86   1 H        0.925     0.056     2.243     2.342
    87   1 H        0.803     0.316     0.674     1.289
    88   1 H        0.924     0.050     2.318     2.381
    89   1 H        0.923     0.072     2.062     2.246
    90   1 H        0.923     0.066     2.132     2.283
    91   1 H        0.924     0.072     2.064     2.247
    92   1 H        0.803     0.310     0.692     1.306
    93   1 H        0.924     0.072     2.065     2.247
    94   1 H        0.860     0.182     1.205     1.720
    95   1 H        0.925     0.034     2.525     2.485
    96   1 H        0.925     0.038     2.479     2.462
    97   1 H        0.925     0.039     2.465     2.455
    98   1 H        0.925     0.040     2.446     2.446
    99   1 H        0.925     0.057     2.234     2.337
   100   1 H        0.925     0.055     2.255     2.348
   101   1 H        0.925     0.038     2.476     2.460
   102   1 H        0.925     0.036     2.500     2.473
   103   1 H        0.925     0.038     2.476     2.461
   104   1 H        0.925     0.035     2.514     2.480
   105   1 H        0.924     0.068     2.103     2.268
   106   1 H        0.924     0.046     2.372     2.409
   107   1 H        0.924     0.070     2.085     2.258
   108   1 H        0.924     0.061     2.183     2.311
   109   1 H        0.924     0.057     2.232     2.336
   110   1 H        0.925     0.029     2.606     2.525
   111   1 H        0.924     0.049     2.327     2.386
   112   1 H        0.924     0.062     2.179     2.308
   113   1 H        0.924     0.041     2.439     2.442

 Mol. C6AA /au·bohr⁶  :     138005.003810
 Mol. C8AA /au·bohr⁸  :    3235347.209400
 Mol. α(0) /au        :        565.175499


Wiberg/Mayer (AO) data.
largest (>0.10) Wiberg bond orders for each atom

 ---------------------------------------------------------------------------
     #   Z sym  total        # sym  WBO       # sym  WBO       # sym  WBO
 ---------------------------------------------------------------------------
     1   6 C    3.989 --     2 C    0.997    64 H    0.982    63 H    0.963
                            65 H    0.961
     2   6 C    3.914 --     3 O    1.759     4 O    1.107     1 C    0.997
     3   8 O    2.036 --     2 C    1.759     4 O    0.165
     4   8 O    2.308 --     2 C    1.107     5 C    0.950     3 O    0.165
     5   6 C    3.940 --    59 C    0.973     4 O    0.950     6 C    0.944
                            66 H    0.923
     6   6 C    3.906 --     7 O    1.864     8 C    0.957     5 C    0.944
     7   8 O    2.084 --     6 C    1.864
     8   6 C    3.979 --     9 C    0.997     6 C    0.957    21 C    0.947
                            10 C    0.944
     9   6 C    3.987 --     8 C    0.997    68 H    0.979    67 H    0.978
                            69 H    0.977
    10   6 C    3.954 --    12 C    0.993    11 O    0.986    70 H    0.960
                             8 C    0.944
    11   8 O    1.946 --    10 C    0.986    71 H    0.896
    12   6 C    3.994 --    13 C    0.998    10 C    0.993    72 H    0.967
                            73 H    0.965
    13   6 C    3.950 --    12 C    0.998    14 O    0.963    74 H    0.959
                            16 C    0.959
    14   8 O    2.029 --    15 C    0.974    13 C    0.963
    15   6 C    3.947 --    16 C    0.976    14 O    0.974    76 H    0.968
                            75 H    0.962
    16   6 C    3.915 --    15 C    0.976    21 C    0.962    13 C    0.959
                            17 O    0.921
    17   8 O    2.280 --    18 C    1.101    16 C    0.921    20 O    0.167
    18   6 C    3.913 --    20 O    1.769    17 O    1.101    19 C    0.994
    19   6 C    3.989 --    18 C    0.994    79 H    0.980    77 H    0.966
                            78 H    0.957
    20   8 O    2.047 --    18 C    1.769    17 O    0.167
    21   6 C    3.971 --    16 C    0.962    22 C    0.961    80 H    0.951
                             8 C    0.947
    22   6 C    3.895 --    21 C    0.961    81 H    0.956    32 C    0.935
                            23 O    0.914
    23   8 O    2.305 --    24 C    1.134    22 C    0.914    25 O    0.167
    24   6 C    3.911 --    25 O    1.679    23 O    1.134    26 C    1.010
    25   8 O    2.040 --    24 C    1.679    23 O    0.167
    26   6 C    3.985 --    27 C    1.384    31 C    1.383    24 C    1.010
    27   6 C    3.987 --    28 C    1.450    26 C    1.384    82 H    0.966
                            30 C    0.108
    28   6 C    3.990 --    27 C    1.450    29 C    1.434    83 H    0.970
                            31 C    0.109
    29   6 C    3.989 --    28 C    1.434    30 C    1.432    84 H    0.970
    30   6 C    3.991 --    31 C    1.453    29 C    1.432    85 H    0.970
                            27 C    0.108
    31   6 C    3.988 --    30 C    1.453    26 C    1.383    86 H    0.967
                            28 C    0.109
    32   6 C    3.947 --    34 C    0.982    33 O    0.979    60 C    0.952
                            22 C    0.935
    33   8 O    1.936 --    32 C    0.979    87 H    0.839
    34   6 C    3.987 --    35 C    0.985    32 C    0.982    88 H    0.969
                            89 H    0.965
    35   6 C    3.919 --    57 C    0.987    34 C    0.985    90 H    0.942
                            36 O    0.917
    36   8 O    2.315 --    37 C    1.145    35 C    0.917    38 O    0.171
    37   6 C    3.918 --    38 O    1.735    36 O    1.145    39 C    0.953
    38   8 O    2.044 --    37 C    1.735    36 O    0.171
    39   6 C    3.960 --    40 O    1.000    37 C    0.953    91 H    0.942
                            41 C    0.937
    40   8 O    1.951 --    39 C    1.000    92 H    0.875
    41   6 C    3.967 --    42 N    0.985    51 C    0.984    93 H    0.952
                            39 C    0.937
    42   7 N    3.422 --    43 C    1.214    41 C    0.985    94 H    0.934
                            44 O    0.185
    43   6 C    3.947 --    44 O    1.668    42 N    1.214    45 C    0.998
    44   8 O    1.995 --    43 C    1.668    42 N    0.185
    45   6 C    3.986 --    50 C    1.395    46 C    1.393    43 C    0.998
                            48 C    0.104
    46   6 C    3.991 --    47 C    1.449    45 C    1.393    95 H    0.967
                            49 C    0.110
    47   6 C    3.991 --    46 C    1.449    48 C    1.434    96 H    0.971
                            50 C    0.110
    48   6 C    3.990 --    49 C    1.438    47 C    1.434    97 H    0.971
                            45 C    0.104
    49   6 C    3.991 --    50 C    1.446    48 C    1.438    98 H    0.970
                            46 C    0.110
    50   6 C    3.987 --    49 C    1.446    45 C    1.395    99 H    0.967
                            47 C    0.110
    51   6 C    3.983 --    52 C    1.417    56 C    1.412    41 C    0.984
                            54 C    0.110
    52   6 C    3.988 --    53 C    1.441    51 C    1.417   100 H    0.966
                            55 C    0.112
    53   6 C    3.991 --    52 C    1.441    54 C    1.440   101 H    0.971
                            56 C    0.112
    54   6 C    3.990 --    53 C    1.440    55 C    1.438   102 H    0.971
                            51 C    0.110
    55   6 C    3.990 --    56 C    1.444    54 C    1.438   103 H    0.971
                            52 C    0.112
    56   6 C    3.989 --    55 C    1.444    51 C    1.412   104 H    0.969
                            53 C    0.112
    57   6 C    3.978 --    59 C    1.816    58 C    1.027    35 C    0.987
    58   6 C    3.990 --    57 C    1.027   106 H    0.977   107 H    0.963
                           105 H    0.963
    59   6 C    3.972 --    57 C    1.816    60 C    0.979     5 C    0.973
    60   6 C    3.983 --    61 C    0.997    59 C    0.979    62 C    0.974
                            32 C    0.952
    61   6 C    3.990 --    60 C    0.997   109 H    0.981   108 H    0.980
                           110 H    0.979
    62   6 C    3.988 --   111 H    0.984   113 H    0.984   112 H    0.981
                            60 C    0.974
    63   1 H    0.993 --     1 C    0.963
    64   1 H    0.993 --     1 C    0.982
    65   1 H    0.994 --     1 C    0.961
    66   1 H    0.993 --     5 C    0.923
    67   1 H    0.996 --     9 C    0.978
    68   1 H    0.998 --     9 C    0.979
    69   1 H    0.995 --     9 C    0.977
    70   1 H    0.996 --    10 C    0.960
    71   1 H    0.911 --    11 O    0.896
    72   1 H    0.998 --    12 C    0.967
    73   1 H    0.996 --    12 C    0.965
    74   1 H    0.997 --    13 C    0.959
    75   1 H    0.996 --    15 C    0.962
    76   1 H    0.996 --    15 C    0.968
    77   1 H    0.995 --    19 C    0.966
    78   1 H    0.992 --    19 C    0.957
    79   1 H    0.993 --    19 C    0.980
    80   1 H    0.992 --    21 C    0.951
    81   1 H    0.994 --    22 C    0.956
    82   1 H    0.996 --    27 C    0.966
    83   1 H    0.997 --    28 C    0.970
    84   1 H    0.998 --    29 C    0.970
    85   1 H    0.997 --    30 C    0.970
    86   1 H    0.997 --    31 C    0.967
    87   1 H    0.899 --    33 O    0.839
    88   1 H    0.997 --    34 C    0.969
    89   1 H    0.994 --    34 C    0.965
    90   1 H    0.995 --    35 C    0.942
    91   1 H    0.994 --    39 C    0.942
    92   1 H    0.904 --    40 O    0.875
    93   1 H    0.994 --    41 C    0.952
    94   1 H    0.967 --    42 N    0.934
    95   1 H    0.999 --    46 C    0.967
    96   1 H    0.998 --    47 C    0.971
    97   1 H    0.998 --    48 C    0.971
    98   1 H    0.998 --    49 C    0.970
    99   1 H    0.997 --    50 C    0.967
   100   1 H    0.997 --    52 C    0.966
   101   1 H    0.998 --    53 C    0.971
   102   1 H    0.998 --    54 C    0.971
   103   1 H    0.998 --    55 C    0.971
   104   1 H    0.999 --    56 C    0.969
   105   1 H    0.995 --    58 C    0.963
   106   1 H    0.998 --    58 C    0.977
   107   1 H    0.994 --    58 C    0.963
   108   1 H    0.996 --    61 C    0.980
   109   1 H    0.996 --    61 C    0.981
   110   1 H    0.999 --    61 C    0.979
   111   1 H    0.997 --    62 C    0.984
   112   1 H    0.996 --    62 C    0.981
   113   1 H    0.998 --    62 C    0.984
 ---------------------------------------------------------------------------

Topologies differ in total number of bonds
Writing topology from bond orders to xtbtopo.mol

molecular dipole:
                 x           y           z       tot (Debye)
 q only:        3.148       0.566       1.441
   full:        3.241       1.081       1.700       9.698
molecular quadrupole (traceless):
                xx          xy          yy          xz          yz          zz
 q only:      -17.149      -4.987      37.917      -9.992      16.049     -20.768
  q+dip:      -15.074      -7.173      40.530     -10.547      18.075     -25.455
   full:      -15.374      -7.097      38.649     -11.212      16.420     -23.275


           -------------------------------------------------
          | TOTAL ENERGY             -186.485801395424 Eh   |
          | GRADIENT NORM               0.151657383424 Eh/α |
          | HOMO-LUMO GAP               2.734631471042 eV   |
           -------------------------------------------------

------------------------------------------------------------------------
 * finished run on 2026/08/31 at 18:25:39.961     
------------------------------------------------------------------------
 total:
 * wall-time:     0 d,  0 h,  0 min,  0.386 sec
 *  cpu-time:     0 d,  0 h,  0 min,  2.812 sec
 * ratio c/w:     7.286 speedup
 SCF:
 * wall-time:     0 d,  0 h,  0 min,  0.215 sec
 *  cpu-time:     0 d,  0 h,  0 min,  2.406 sec
 * ratio c/w:    11.192 speedup

normal termination of xtb
