      -----------------------------------------------------------      
     |                   =====================                   |     
     |                           x T B                           |     
     |                   =====================                   |     
     |                         S. Grimme                         |     
     |          Mulliken Center for Theoretical Chemistry        |     
     |                    University of Bonn                     |     
      -----------------------------------------------------------      

   * xtb version 6.7.1pre (5071a88) compiled by 'Marcel@Raven' on 2024-07-23

   xtb is free software: you can redistribute it and/or modify it under
   the terms of the GNU Lesser General Public License as published by
   the Free Software Foundation, either version 3 of the License, or
   (at your option) any later version.
   
   xtb is distributed in the hope that it will be useful,
   but WITHOUT ANY WARRANTY; without even the implied warranty of
   MERCHANTABILITY or FITNESS FOR A PARTICULAR PURPOSE.  See the
   GNU Lesser General Public License for more details.
   
   Cite this work as:
   * C. Bannwarth, E. Caldeweyher, S. Ehlert, A. Hansen, P. Pracht,
     J. Seibert, S. Spicher, S. Grimme, WIREs Comput. Mol. Sci., 2020, 11,
     e01493. DOI: 10.1002/wcms.1493
   
   for GFN2-xTB:
   * C. Bannwarth, S. Ehlert and S. Grimme., J. Chem. Theory Comput., 2019,
     15, 1652-1671. DOI: 10.1021/acs.jctc.8b01176
   for GFN1-xTB:
   * S. Grimme, C. Bannwarth, P. Shushkov, J. Chem. Theory Comput., 2017,
     13, 1989-2009. DOI: 10.1021/acs.jctc.7b00118
   for GFN0-xTB:
   * P. Pracht, E. Caldeweyher, S. Ehlert, S. Grimme, ChemRxiv, 2019, preprint.
     DOI: 10.26434/chemrxiv.8326202.v1
   for GFN-FF:
   * S. Spicher and S. Grimme, Angew. Chem. Int. Ed., 2020, 59, 15665-15673.
     DOI: 10.1002/anie.202004239
   
   for ALPB and GBSA implicit solvation:
   * S. Ehlert, M. Stahn, S. Spicher, S. Grimme, J. Chem. Theory Comput.,
     2021, 17, 4250-4261. DOI: 10.1021/acs.jctc.1c00471
   
   for ddCOSMO and CPCM-X implicit solvation:
   * M. Stahn, S. Ehlert, S. Grimme, J. Phys. Chem. A,
     2023, XX, XXXX-XXXX. DOI: 10.1021/acs.jpca.3c04382
   
   for DFT-D4:
   * E. Caldeweyher, C. Bannwarth and S. Grimme, J. Chem. Phys., 2017,
     147, 034112. DOI: 10.1063/1.4993215
   * E. Caldeweyher, S. Ehlert, A. Hansen, H. Neugebauer, S. Spicher,
     C. Bannwarth and S. Grimme, J. Chem. Phys., 2019, 150, 154122.
     DOI: 10.1063/1.5090222
   * E. Caldeweyher, J.-M. Mewes, S. Ehlert and S. Grimme, Phys. Chem. Chem. Phys.
     2020, 22, 8499-8512. DOI: 10.1039/D0CP00502A
   
   for sTDA-xTB:
   * S. Grimme and C. Bannwarth, J. Chem. Phys., 2016, 145, 054103.
     DOI: 10.1063/1.4959605
   
   in the mass-spec context:
   * V. Asgeirsson, C. Bauer and S. Grimme, Chem. Sci., 2017, 8, 4879.
     DOI: 10.1039/c7sc00601b
   * J. Koopman and S. Grimme, ACS Omega 2019, 4, 12, 15120-15133.
     DOI: 10.1021/acsomega.9b02011
   
   for metadynamics refer to:
   * S. Grimme, J. Chem. Theory Comput., 2019, 155, 2847-2862
     DOI: 10.1021/acs.jctc.9b00143
   
   for SPH calculations refer to:
   * S. Spicher and S. Grimme, J. Chem. Theory Comput., 2021, 17, 1701-1714
     DOI: 10.1021/acs.jctc.0c01306
   
   for ONIOM refer to:
   * C. Plett, A. Katbashev, S. Ehlert, S. Grimme, M. Bursch,
     Phys. Chem. Chem. Phys., 2023, 25, 17860-17868. DOI: 10.1039/D3CP02178E
   
   for DIPRO refer to:
   * J. Kohn, N. Gildemeister, S. Grimme, D. Fazzi, A. Hansen,
     J. Chem. Phys., 2023, just accepted.
   
   for PTB refer to:
   * S. Grimme, M. Mueller, A. Hansen, J. Chem. Phys., 2023, 158, 124111.
     DOI: 10.1063/5.0137838
   
   with help from (in alphabetical order)
   P. Atkinson, C. Bannwarth, F. Bohle, G. Brandenburg, E. Caldeweyher
   M. Checinski, S. Dohm, S. Ehlert, S. Ehrlich, I. Gerasimov, C. Hölzer
   A. Katbashev, J. Kohn, J. Koopman, C. Lavigne, S. Lehtola, F. März, M. Müller,
   F. Musil, H. Neugebauer, J. Pisarek, C. Plett, P. Pracht, F. Pultar,
   J. Seibert, P. Shushkov, S. Spicher, M. Stahn, M. Steiner, T. Strunk,
   J. Stückrath, T. Rose, and J. Unsleber
   
 * started run on 2026/08/31 at 22:26:10.862     
   ID    Z sym.   atoms
    1    6 C      1, 2, 5, 6, 8-10, 12, 13, 15, 16, 18, 19, 21, 22, 24,
                  26-32, 34, 35, 37, 39, 41, 43, 45-62
    2    8 O      3, 4, 7, 11, 14, 17, 20, 23, 25, 33, 36, 38, 40, 44
    3    7 N      42, 115, 117, 119, 121, 123, 125, 127, 129, 131, 133, 135,
                  137, 139, 141, 143, 145, 147, 149, 151, 153, 155, 157, 159,
                  161, 163, 165, 167, 169, 171, 173, 175, 177, 179, 181, 183,
                  185
    4    1 H      63-113
    5    5 B      114, 116, 118, 120, 122, 124, 126, 128, 130, 132, 134, 136,
                  138, 140, 142, 144, 146, 148, 150, 152, 154, 156, 158, 160,
                  162, 164, 166, 168, 170, 172, 174, 176, 178, 180, 182, 184

           -------------------------------------------------
          |                Calculation Setup                |
           -------------------------------------------------

          program call               : "c:\Users\Andre\Proyectos doctorado\kras-pancreatic-gC3N4-ai\tools\xtb\xtb-6.7.1\bin\xtb.exe" "c:\Users\Andre\Proyectos doctorado\nano-qsar-ai-therapeutics\calculations\tnbc\Paclitaxel\Paclitaxel_opt_270deg.xyz" --opt vloose --gfn 2 --chrg 0 --uhf 0 --etemp 300 --iterations 500 --cycles 15 --norestart
          coordinate file            : c:\Users\Andre\Proyectos doctorado\nano-qsar-ai-therapeutics\calculations\tnbc\Paclitaxel\Paclitaxel_opt_270deg.xyz
          omp threads                :                    16


molecular fragmentation (1/2 indicates fragments):
111111111111111111111111111111111111111111111111111111111111111111111111
111111111111111111111111111111111111111112222222222222222222222222222222
22222222222222222222222222222222222222222
# atoms in fragment 1/2:   113    72
 fragment masses (1/2) :      853.91      893.44
CMA distance (Bohr)    :  25.707
constraining FC (au)   :  0.0500

           -------------------------------------------------
          |                 G F N 2 - x T B                 |
           -------------------------------------------------

        Reference                      10.1021/acs.jctc.8b01176
      * Hamiltonian:
        H0-scaling (s, p, d)           1.850000    2.230000    2.230000
        zeta-weighting                 0.500000
      * Dispersion:
        s8                             2.700000
        a1                             0.520000
        a2                             5.000000
        s9                             5.000000
      * Repulsion:
        kExp                           1.500000    1.000000
        rExp                           1.000000
      * Coulomb:
        alpha                          2.000000
        third order                    shell-resolved
        anisotropic                    true
        a3                             3.000000
        a5                             4.000000
        cn-shift                       1.200000
        cn-exp                         4.000000
        max-rad                        5.000000


          ...................................................
          :                      SETUP                      :
          :.................................................:
          :  # basis functions                 587          :
          :  # atomic orbitals                 587          :
          :  # shells                          319          :
          :  # electrons                       616          :
          :  max. iterations                   500          :
          :  Hamiltonian                  GFN2-xTB          :
          :  restarted?                      false          :
          :  GBSA solvation                  false          :
          :  PC potential                    false          :
          :  electronic temp.          300.0000000     K    :
          :  accuracy                    1.0000000          :
          :  -> integral cutoff          0.2500000E+02      :
          :  -> integral neglect         0.1000000E-07      :
          :  -> SCF convergence          0.1000000E-05 Eh   :
          :  -> wf. convergence          0.1000000E-03 e    :
          :  Broyden damping             0.4000000          :
          :  net charge                          0          :
          :  unpaired electrons                  0          :
          ...................................................

 iter      E             dE          RMSdq      gap      omega  full diag
   1   -339.0666717 -0.339067E+03  0.934E+00    0.59       0.0  T
   2   -339.5378470 -0.471175E+00  0.557E+00    0.03       1.0  T
   3   -327.7075066  0.118303E+02  0.486E+00    0.12       1.0  T
   4   -268.8236674  0.588838E+02  0.698E+00    0.09       1.0  T
   5   -324.1077309 -0.552841E+02  0.390E+00    0.07       1.0  T
   6   -339.5727237 -0.154650E+02  0.158E+00    0.03       1.0  T
   7   -339.7571788 -0.184455E+00  0.133E+00    0.17       1.0  T
   8   -340.0935116 -0.336333E+00  0.912E-01    0.22       1.0  T
   9   -340.1573893 -0.638777E-01  0.791E-01    0.29       1.0  T
  10   -340.1356573  0.217320E-01  0.701E-01    0.17       1.0  T
  11   -340.1653681 -0.297108E-01  0.499E-01    0.43       1.0  T
  12   -340.1912805 -0.259123E-01  0.256E-01    0.42       1.0  T
  13   -340.1945639 -0.328348E-02  0.202E-01    0.40       1.0  T
  14   -340.1959584 -0.139445E-02  0.167E-01    0.40       1.0  T
  15   -340.1975902 -0.163182E-02  0.997E-02    0.42       1.0  T
  16   -340.1988809 -0.129074E-02  0.762E-02    0.44       1.0  T
  17   -340.1991581 -0.277115E-03  0.688E-02    0.45       1.0  T
  18   -340.1996735 -0.515458E-03  0.593E-02    0.47       1.0  T
  19   -340.2001542 -0.480728E-03  0.488E-02    0.50       1.0  T
  20   -340.2004579 -0.303639E-03  0.406E-02    0.52       1.0  T
  21   -340.2010508 -0.592957E-03  0.197E-02    0.57       1.0  T
  22   -340.2012100 -0.159185E-03  0.106E-02    0.54       1.0  T
  23   -340.2012315 -0.214593E-04  0.695E-03    0.50       1.1  T
  24   -340.2012366 -0.511066E-05  0.434E-03    0.49       1.7  T
  25   -340.2012398 -0.317684E-05  0.279E-03    0.49       2.6  T
  26   -340.2012417 -0.187684E-05  0.138E-03    0.48       5.3  T
  27   -340.2012421 -0.492325E-06  0.430E-04    0.47      17.1  T
  28   -340.2012422 -0.322841E-07  0.194E-04    0.47      37.9  T

   *** convergence criteria satisfied after 28 iterations ***

         #    Occupation            Energy/Eh            Energy/eV
      -------------------------------------------------------------
         1        2.0000           -0.7459396             -20.2981
       ...           ...                  ...                  ...
       302        2.0000           -0.3242005              -8.8219
       303        2.0000           -0.3213608              -8.7447
       304        2.0000           -0.3196499              -8.6981
       305        2.0000           -0.3174937              -8.6394
       306        2.0000           -0.3123550              -8.4996
       307        2.0000           -0.3104957              -8.4490
       308        1.9998           -0.3034567              -8.2575 (HOMO)
       309        0.0002           -0.2863278              -7.7914 (LUMO)
       310        0.0000           -0.2801854              -7.6242
       311                         -0.2746152              -7.4727
       312                         -0.2718077              -7.3963
       313                         -0.2655750              -7.2267
       ...                                ...                  ...
       587                          0.9866129              26.8471
      -------------------------------------------------------------
                  HL-Gap            0.0171289 Eh            0.4661 eV
             Fermi-level           -0.2948927 Eh           -8.0244 eV

 SCC (total)                   0 d,  0 h,  0 min,  2.897 sec
 SCC setup                      ...        0 min,  0.003 sec (  0.104%)
 Dispersion                     ...        0 min,  0.010 sec (  0.345%)
 classical contributions        ...        0 min,  0.000 sec (  0.000%)
 integral evaluation            ...        0 min,  0.028 sec (  0.967%)
 iterations                     ...        0 min,  2.761 sec ( 95.305%)
 molecular gradient             ...        0 min,  0.089 sec (  3.072%)
 printout                       ...        0 min,  0.006 sec (  0.207%)

         :::::::::::::::::::::::::::::::::::::::::::::::::::::
         ::                     SUMMARY                     ::
         :::::::::::::::::::::::::::::::::::::::::::::::::::::
         :: total energy            -336.693424923356 Eh    ::
         :: gradient norm              0.152716482457 Eh/a0 ::
         :: HOMO-LUMO gap              0.466101667992 eV    ::
         ::.................................................::
         :: SCC energy              -340.181073989035 Eh    ::
         :: -> isotropic ES            0.969738562695 Eh    ::
         :: -> anisotropic ES         -0.028309590799 Eh    ::
         :: -> anisotropic XC          0.107357709081 Eh    ::
         :: -> dispersion             -0.292686013934 Eh    ::
         :: repulsion energy           3.487649065678 Eh    ::
         :: add. restraining           0.000000000000 Eh    ::
         :: total charge               0.000000000050 e     ::
         :::::::::::::::::::::::::::::::::::::::::::::::::::::

      ----------------------------------------------------------- 
     |                   =====================                   |
     |                        A N C O P T                        |
     |                   =====================                   |
     |               Approximate Normal Coordinate               |
     |                Rational Function Optimizer                |
      ----------------------------------------------------------- 
      ----------------------------------------------------------- 
     |                   =====================                   |
     |                        A N C O P T                        |
     |                   =====================                   |
     |               Approximate Normal Coordinate               |
     |                Rational Function Optimizer                |
      ----------------------------------------------------------- 

          ...................................................
          :                      SETUP                      :
          :.................................................:
          :   optimization level            normal          :
          :   max. optcycles                    15          :
          :   ANC micro-cycles                  15          :
          :   degrees of freedom               549          :
          :.................................................:
          :   RF solver                   davidson          :
          :   write xtbopt.log                true          :
          :   linear?                        false          :
          :   energy convergence         0.5000000E-05 Eh   :
          :   grad. convergence          0.1000000E-02 Eh/α :
          :   maxmium RF displ.          1.0000000          :
          :   Hlow (freq-cutoff)         0.1000000E-01      :
          :   Hmax (freq-cutoff)         5.0000000          :
          :   S6 in model hess.         20.0000000          :
          ...................................................

generating ANC from exact Hessian ...
Using Lindh-Hessian (1995)
 Shifting diagonal of input Hessian by   1.008615307692627E-002
 Lowest  eigenvalues of input Hessian
    0.010000    0.010006    0.010017    0.010039    0.010047    0.010064
    0.000000    0.000000    0.000000    0.000000    0.000000    0.010096
    0.000000    0.010139    0.010191    0.010226    0.010297    0.010345
 Highest eigenvalues
    2.260727    2.267038    2.274249    2.274403    2.314980    2.316891
 

........................................................................
.............................. CYCLE    1 ..............................
........................................................................

 iter      E             dE          RMSdq      gap      omega  full diag
   1   -340.2012422 -0.340201E+03  0.118E-04    0.47       0.0  T
   2   -340.2012422  0.679563E-09  0.180E-04    0.47      40.8  T
   3   -340.2012422 -0.601904E-08  0.976E-05    0.47      75.3  T
     SCC iter.                  ...        0 min,  0.333 sec
     gradient                   ...        0 min,  0.077 sec
 * total energy  :  -336.6934249 Eh     change       -0.6452410E-08 Eh
   gradient norm :     0.1527145 Eh/α   predicted     0.0000000E+00 (-100.00%)
   displ. norm   :     0.4652008 α      lambda       -0.3862217E-01
   maximum displ.:     0.1006599 α      in ANC's #103, #70, #66, ...

........................................................................
.............................. CYCLE    2 ..............................
........................................................................

 iter      E             dE          RMSdq      gap      omega  full diag
   1   -340.3279914 -0.340328E+03  0.143E-01    0.53       0.0  T
   2   -340.3283529 -0.361430E-03  0.844E-02    0.54       1.0  T
   3   -340.3283273  0.255831E-04  0.362E-02    0.54       1.0  T
   4   -340.3284048 -0.775029E-04  0.654E-03    0.54       1.1  T
   5   -340.3284069 -0.213858E-05  0.435E-03    0.54       1.7  T
   6   -340.3284082 -0.128563E-05  0.312E-03    0.54       2.4  T
   7   -340.3284098 -0.164054E-05  0.173E-03    0.54       4.3  T
   8   -340.3284104 -0.528632E-06  0.748E-04    0.54       9.8  T
   9   -340.3284104 -0.537526E-07  0.442E-04    0.54      16.6  T
     SCC iter.                  ...        0 min,  1.217 sec
     gradient                   ...        0 min,  0.109 sec
 * total energy  :  -336.7202607 Eh     change       -0.2683575E-01 Eh
   gradient norm :     0.0563360 Eh/α   predicted    -0.2352661E-01 ( -12.33%)
   displ. norm   :     0.4956291 α      lambda       -0.1362537E-01
   maximum displ.:     0.1225669 α      in ANC's #66, #70, #43, ...

........................................................................
.............................. CYCLE    3 ..............................
........................................................................

 iter      E             dE          RMSdq      gap      omega  full diag
   1   -340.3953113 -0.340395E+03  0.965E-02    0.57       0.0  T
   2   -340.3954886 -0.177258E-03  0.564E-02    0.58       1.0  T
   3   -340.3954806  0.802627E-05  0.245E-02    0.58       1.0  T
   4   -340.3955090 -0.284453E-04  0.530E-03    0.57       1.4  T
   5   -340.3955086  0.423875E-06  0.443E-03    0.57       1.7  T
   6   -340.3955132 -0.461847E-05  0.212E-03    0.57       3.5  T
   7   -340.3955141 -0.854727E-06  0.100E-03    0.57       7.3  T
   8   -340.3955141 -0.667839E-07  0.646E-04    0.57      11.4  T
   9   -340.3955142 -0.972822E-07  0.286E-04    0.57      25.7  T
     SCC iter.                  ...        0 min,  1.136 sec
     gradient                   ...        0 min,  0.077 sec
 * total energy  :  -336.7293128 Eh     change       -0.9052163E-02 Eh
   gradient norm :     0.0243469 Eh/α   predicted    -0.8486213E-02 (  -6.25%)
   displ. norm   :     0.4692646 α      lambda       -0.4802724E-02
   maximum displ.:     0.1211197 α      in ANC's #40, #38, #70, ...

........................................................................
.............................. CYCLE    4 ..............................
........................................................................

 iter      E             dE          RMSdq      gap      omega  full diag
   1   -340.4096447 -0.340410E+03  0.654E-02    0.57       0.0  T
   2   -340.4097250 -0.802940E-04  0.393E-02    0.57       1.0  T
   3   -340.4097204  0.460820E-05  0.147E-02    0.57       1.0  T
   4   -340.4097278 -0.740866E-05  0.467E-03    0.57       1.6  T
   5   -340.4097303 -0.249985E-05  0.266E-03    0.57       2.8  T
   6   -340.4097318 -0.148837E-05  0.141E-03    0.57       5.2  T
   7   -340.4097322 -0.408782E-06  0.635E-04    0.57      11.6  T
   8   -340.4097322 -0.241467E-07  0.394E-04    0.57      18.6  T
     SCC iter.                  ...        0 min,  0.737 sec
     gradient                   ...        0 min,  0.074 sec
 * total energy  :  -336.7326929 Eh     change       -0.3380062E-02 Eh
   gradient norm :     0.0124834 Eh/α   predicted    -0.2930229E-02 ( -13.31%)
   displ. norm   :     0.4534066 α      lambda       -0.2382538E-02
   maximum displ.:     0.1286910 α      in ANC's #25, #38, #23, ...

........................................................................
.............................. CYCLE    5 ..............................
........................................................................

 iter      E             dE          RMSdq      gap      omega  full diag
   1   -340.4143970 -0.340414E+03  0.539E-02    0.56       0.0  T
   2   -340.4144307 -0.337248E-04  0.328E-02    0.56       1.0  T
   3   -340.4144236  0.711420E-05  0.107E-02    0.56       1.0  T
   4   -340.4144317 -0.804117E-05  0.380E-03    0.56       1.9  T
   5   -340.4144327 -0.107054E-05  0.276E-03    0.56       2.7  T
   6   -340.4144350 -0.227110E-05  0.103E-03    0.56       7.1  T
   7   -340.4144351 -0.138300E-06  0.593E-04    0.56      12.4  T
   8   -340.4144352 -0.276875E-07  0.331E-04    0.56      22.2  T
     SCC iter.                  ...        0 min,  0.625 sec
     gradient                   ...        0 min,  0.077 sec
 * total energy  :  -336.7343333 Eh     change       -0.1640365E-02 Eh
   gradient norm :     0.0097045 Eh/α   predicted    -0.1436191E-02 ( -12.45%)
   displ. norm   :     0.3943963 α      lambda       -0.1165219E-02
   maximum displ.:     0.1450399 α      in ANC's #25, #23, #29, ...

........................................................................
.............................. CYCLE    6 ..............................
........................................................................

 iter      E             dE          RMSdq      gap      omega  full diag
   1   -340.4145432 -0.340415E+03  0.416E-02    0.55       0.0  T
   2   -340.4145517 -0.852510E-05  0.249E-02    0.55       1.0  T
   3   -340.4145445  0.725741E-05  0.778E-03    0.55       1.0  T
   4   -340.4145523 -0.778427E-05  0.278E-03    0.55       2.6  T
   5   -340.4145534 -0.108522E-05  0.125E-03    0.55       5.9  T
   6   -340.4145534 -0.465059E-07  0.102E-03    0.55       7.2  T
   7   -340.4145537 -0.252796E-06  0.380E-04    0.55      19.4  T
   8   -340.4145537 -0.145686E-07  0.196E-04    0.55      37.5  T
     SCC iter.                  ...        0 min,  0.998 sec
     gradient                   ...        0 min,  0.104 sec
 * total energy  :  -336.7351591 Eh     change       -0.8258626E-03 Eh
   gradient norm :     0.0097549 Eh/α   predicted    -0.6732354E-03 ( -18.48%)
   displ. norm   :     0.3862640 α      lambda       -0.7844864E-03
   maximum displ.:     0.1562539 α      in ANC's #25, #21, #29, ...

........................................................................
.............................. CYCLE    7 ..............................
........................................................................

 iter      E             dE          RMSdq      gap      omega  full diag
   1   -340.4153323 -0.340415E+03  0.356E-02    0.54       0.0  T
   2   -340.4153366 -0.432262E-05  0.213E-02    0.54       1.0  T
   3   -340.4153254  0.112520E-04  0.880E-03    0.54       1.0  T
   4   -340.4153377 -0.123307E-04  0.230E-03    0.54       3.2  T
   5   -340.4153384 -0.664615E-06  0.108E-03    0.54       6.8  T
   6   -340.4153384 -0.488905E-08  0.947E-04    0.54       7.8  T
   7   -340.4153386 -0.242128E-06  0.349E-04    0.54      21.1  T
     SCC iter.                  ...        0 min,  1.212 sec
     gradient                   ...        0 min,  0.090 sec
 * total energy  :  -336.7357213 Eh     change       -0.5621669E-03 Eh
   gradient norm :     0.0070792 Eh/α   predicted    -0.4507665E-03 ( -19.82%)
   displ. norm   :     0.3579369 α      lambda       -0.5343413E-03
   maximum displ.:     0.1412526 α      in ANC's #21, #25, #10, ...

........................................................................
.............................. CYCLE    8 ..............................
........................................................................

 iter      E             dE          RMSdq      gap      omega  full diag
   1   -340.4164957 -0.340416E+03  0.327E-02    0.54       0.0  T
   2   -340.4165008 -0.510402E-05  0.196E-02    0.54       1.0  T
   3   -340.4164889  0.118993E-04  0.905E-03    0.53       1.0  T
   4   -340.4165010 -0.121668E-04  0.287E-03    0.53       2.6  T
   5   -340.4165021 -0.102210E-05  0.168E-03    0.53       4.4  T
   6   -340.4165027 -0.674203E-06  0.765E-04    0.53       9.6  T
   7   -340.4165028 -0.762415E-07  0.409E-04    0.53      18.0  T
     SCC iter.                  ...        0 min,  0.728 sec
     gradient                   ...        0 min,  0.149 sec
 * total energy  :  -336.7360984 Eh     change       -0.3770769E-03 Eh
   gradient norm :     0.0061248 Eh/α   predicted    -0.3014033E-03 ( -20.07%)
   displ. norm   :     0.2942644 α      lambda       -0.3295135E-03
   maximum displ.:     0.1280505 α      in ANC's #10, #21, #25, ...

........................................................................
.............................. CYCLE    9 ..............................
........................................................................

 iter      E             dE          RMSdq      gap      omega  full diag
   1   -340.4180941 -0.340418E+03  0.262E-02    0.53       0.0  T
   2   -340.4180971 -0.306417E-05  0.157E-02    0.53       1.0  T
   3   -340.4180908  0.630738E-05  0.621E-03    0.53       1.2  T
   4   -340.4180967 -0.584398E-05  0.240E-03    0.53       3.1  T
   5   -340.4180979 -0.116864E-05  0.108E-03    0.53       6.8  T
   6   -340.4180981 -0.281315E-06  0.548E-04    0.53      13.4  T
   7   -340.4180982 -0.223421E-07  0.366E-04    0.53      20.1  T
     SCC iter.                  ...        0 min,  0.873 sec
     gradient                   ...        0 min,  0.273 sec
 * total energy  :  -336.7363326 Eh     change       -0.2342102E-03 Eh
   gradient norm :     0.0055253 Eh/α   predicted    -0.1790309E-03 ( -23.56%)
   displ. norm   :     0.2634899 α      lambda       -0.2325198E-03
   maximum displ.:     0.1319809 α      in ANC's #10, #21, #13, ...

........................................................................
.............................. CYCLE   10 ..............................
........................................................................

 iter      E             dE          RMSdq      gap      omega  full diag
   1   -340.4193309 -0.340419E+03  0.228E-02    0.53       0.0  T
   2   -340.4193327 -0.179886E-05  0.136E-02    0.53       1.0  T
   3   -340.4193273  0.543942E-05  0.566E-03    0.53       1.3  T
   4   -340.4193320 -0.466351E-05  0.233E-03    0.53       3.2  T
   5   -340.4193331 -0.110256E-05  0.124E-03    0.53       5.9  T
   6   -340.4193335 -0.404264E-06  0.440E-04    0.53      16.7  T
   7   -340.4193335 -0.127479E-07  0.245E-04    0.53      30.0  T
     SCC iter.                  ...        0 min,  0.644 sec
     gradient                   ...        0 min,  0.079 sec
 * total energy  :  -336.7365071 Eh     change       -0.1744696E-03 Eh
   gradient norm :     0.0043897 Eh/α   predicted    -0.1243416E-03 ( -28.73%)
   displ. norm   :     0.3054572 α      lambda       -0.2271143E-03
   maximum displ.:     0.1603531 α      in ANC's #10, #21, #13, ...

........................................................................
.............................. CYCLE   11 ..............................
........................................................................

 iter      E             dE          RMSdq      gap      omega  full diag
   1   -340.4194336 -0.340419E+03  0.256E-02    0.54       0.0  T
   2   -340.4194357 -0.214496E-05  0.151E-02    0.54       1.0  T
   3   -340.4194326  0.311274E-05  0.450E-03    0.54       1.6  T
   4   -340.4194353 -0.266973E-05  0.203E-03    0.54       3.6  T
   5   -340.4194361 -0.815316E-06  0.950E-04    0.54       7.7  T
   6   -340.4194363 -0.182522E-06  0.498E-04    0.54      14.8  T
     SCC iter.                  ...        0 min,  0.606 sec
     gradient                   ...        0 min,  0.082 sec
 * total energy  :  -336.7366856 Eh     change       -0.1785349E-03 Eh
   gradient norm :     0.0047350 Eh/α   predicted    -0.1241534E-03 ( -30.46%)
   displ. norm   :     0.3802174 α      lambda       -0.2568654E-03
   maximum displ.:     0.2027718 α      in ANC's #10, #21, #14, ...

........................................................................
.............................. CYCLE   12 ..............................
........................................................................

 iter      E             dE          RMSdq      gap      omega  full diag
   1   -340.4189435 -0.340419E+03  0.297E-02    0.54       0.0  T
   2   -340.4189461 -0.257859E-05  0.175E-02    0.54       1.0  T
   3   -340.4189372  0.896542E-05  0.672E-03    0.54       1.1  T
   4   -340.4189439 -0.674158E-05  0.317E-03    0.54       2.3  T
   5   -340.4189465 -0.261330E-05  0.149E-03    0.54       4.9  T
   6   -340.4189471 -0.599408E-06  0.503E-04    0.54      14.6  T
   7   -340.4189471 -0.131685E-07  0.289E-04    0.54      25.5  T
     SCC iter.                  ...        0 min,  0.641 sec
     gradient                   ...        0 min,  0.076 sec
 * total energy  :  -336.7368903 Eh     change       -0.2046726E-03 Eh
   gradient norm :     0.0050205 Eh/α   predicted    -0.1470015E-03 ( -28.18%)
   displ. norm   :     0.4388841 α      lambda       -0.2687119E-03
   maximum displ.:     0.2363828 α      in ANC's #10, #21, #14, ...

........................................................................
.............................. CYCLE   13 ..............................
........................................................................

 iter      E             dE          RMSdq      gap      omega  full diag
   1   -340.4175006 -0.340418E+03  0.346E-02    0.55       0.0  T
   2   -340.4175050 -0.443592E-05  0.203E-02    0.54       1.0  T
   3   -340.4174986  0.635885E-05  0.625E-03    0.54       1.2  T
   4   -340.4175032 -0.453478E-05  0.311E-03    0.54       2.4  T
   5   -340.4175052 -0.201250E-05  0.162E-03    0.54       4.5  T
   6   -340.4175060 -0.770920E-06  0.584E-04    0.54      12.6  T
   7   -340.4175060 -0.306640E-07  0.334E-04    0.54      22.0  T
     SCC iter.                  ...        0 min,  0.715 sec
     gradient                   ...        0 min,  0.089 sec
 * total energy  :  -336.7371026 Eh     change       -0.2123817E-03 Eh
   gradient norm :     0.0053804 Eh/α   predicted    -0.1602372E-03 ( -24.55%)
   displ. norm   :     0.4586732 α      lambda       -0.2667926E-03
   maximum displ.:     0.2514887 α      in ANC's #10, #14, #21, ...

........................................................................
.............................. CYCLE   14 ..............................
........................................................................

 iter      E             dE          RMSdq      gap      omega  full diag
   1   -340.4177874 -0.340418E+03  0.345E-02    0.55       0.0  T
   2   -340.4177910 -0.365590E-05  0.204E-02    0.55       1.0  T
   3   -340.4177821  0.890081E-05  0.724E-03    0.55       1.0  T
   4   -340.4177902 -0.802672E-05  0.274E-03    0.55       2.7  T
   5   -340.4177916 -0.142562E-05  0.152E-03    0.55       4.8  T
   6   -340.4177923 -0.655685E-06  0.624E-04    0.55      11.8  T
   7   -340.4177923 -0.454691E-07  0.344E-04    0.55      21.4  T
     SCC iter.                  ...        0 min,  0.998 sec
     gradient                   ...        0 min,  0.087 sec
 * total energy  :  -336.7373067 Eh     change       -0.2040594E-03 Eh
   gradient norm :     0.0051324 Eh/α   predicted    -0.1614609E-03 ( -20.88%)
   displ. norm   :     0.4915514 α      lambda       -0.2551444E-03
   maximum displ.:     0.2703384 α      in ANC's #10, #14, #13, ...

........................................................................
.............................. CYCLE   15 ..............................
........................................................................

 iter      E             dE          RMSdq      gap      omega  full diag
   1   -340.4163554 -0.340416E+03  0.386E-02    0.55       0.0  T
   2   -340.4163608 -0.538468E-05  0.228E-02    0.55       1.0  T
   3   -340.4163510  0.979718E-05  0.795E-03    0.55       1.0  T
   4   -340.4163602 -0.914306E-05  0.297E-03    0.55       2.5  T
   5   -340.4163617 -0.153370E-05  0.156E-03    0.55       4.7  T
   6   -340.4163624 -0.642080E-06  0.745E-04    0.55       9.9  T
   7   -340.4163624 -0.894761E-07  0.372E-04    0.55      19.8  T
     SCC iter.                  ...        0 min,  0.802 sec
     gradient                   ...        0 min,  0.114 sec
 * total energy  :  -336.7375038 Eh     change       -0.1971393E-03 Eh
   gradient norm :     0.0058745 Eh/α   predicted    -0.1583990E-03 ( -19.65%)
   displ. norm   :     0.4941985 α      lambda       -0.3005435E-03
   maximum displ.:     0.2696573 α      in ANC's #10, #14, #13, ...

   *** FAILED TO CONVERGE GEOMETRY OPTIMIZATION IN 15 ITERATIONS ***


 ANCopt (total)                0 d,  0 h,  0 min, 14.790 sec
 optimizer setup                ...        0 min,  0.002 sec (  0.014%)
 model hessian                  ...        0 min,  0.177 sec (  1.197%)
 ANC generation                 ...        0 min,  0.056 sec (  0.379%)
 coordinate transformation      ...        0 min,  0.005 sec (  0.034%)
 single point calculation       ...        0 min, 14.461 sec ( 97.776%)
 optimization log               ...        0 min,  0.055 sec (  0.372%)
 hessian update                 ...        0 min,  0.018 sec (  0.122%)
 rational function              ...        0 min,  0.010 sec (  0.068%)

================
 final structure:
================
185
 xtb: 6.7.1pre (5071a88)
C           -4.65743949746378        1.92580762728307        8.66106201049437
C           -3.28944482167299        1.42786492648106        9.03334299508919
O           -2.47812033915454        0.97471985211708        8.27405371472831
O           -3.09157836772367        1.52430013046009       10.35842194485130
C           -1.78021193433772        1.20485819240834       10.80809720593385
C           -0.86991474155656        2.41733834555819       10.61805045370743
O           -1.30232926091327        3.40718353351359       10.08485229516453
C            0.60822608726225        2.29528999325731       11.02141216772270
C            1.12829740379153        0.85017765809427       11.07383944985408
C            1.33333606183768        2.97641182181312        9.80349525255582
O            1.43155945564167        2.01693392884296        8.77744494856764
C            2.69487587160993        3.56321047125477       10.16921961325962
C            2.44807116639831        4.73280985384976       11.10286494377802
O            1.52310082499886        5.69186839238474       10.58082859144478
C            0.58214547926829        5.47209898875448       11.63274455618321
C            1.49935313665347        4.42115361796508       12.27530320181791
O            2.04346026349040        4.74947941308619       13.56196362671828
C            2.56833040240021        5.95496403665243       13.84640623355106
C            3.04124201260375        5.98531387635527       15.27769683554434
O            2.65036416893215        6.87784176922055       13.08571723597875
C            1.02812565680313        2.94455573669577       12.38507231399067
C            0.25276464876421        2.84027313115157       13.76388941274962
O            1.34229942630862        2.46215511991953       14.63685131453637
C            1.51442038636603        3.04143966700085       15.81797417762767
O            0.76956556893256        3.87718138625187       16.28914024555625
C            2.70844478982966        2.53079463147178       16.52806543306458
C            3.04231515200576        3.10951131756769       17.75103574320526
C            4.13050873953498        2.64378885629534       18.46304640474081
C            4.88501906083474        1.59498612265295       17.96117372277125
C            4.55231909811802        1.01235714927959       16.74785650617093
C            3.46744994971176        1.47555176989027       16.02760562661516
C           -1.01419787932069        2.03473831523391       14.29006453872229
O           -1.57027007763884        2.85670266426813       15.30291949676089
C           -0.67722911873927        0.67445413951806       14.93973490188108
C           -0.73377347489879       -0.56888213676323       14.04457749878232
O           -1.52591689917917       -1.59572480078511       14.69009505770275
C           -0.94379815589281       -2.22049538285537       15.68759487463860
O            0.12890577235829       -1.95261641555094       16.17667702314717
C           -1.77403406598886       -3.37897796064997       16.23295560208554
O           -1.16018582985630       -3.85743674138462       17.39673744604141
C           -1.86020794434227       -4.47420793276608       15.12639263615597
N           -0.60966364742330       -5.19473377761217       15.05075955231746
C            0.44129942691425       -4.71328711284351       14.34303078704869
O            0.36692412669030       -3.69108909768877       13.68369411603041
C            1.67236225832178       -5.54674835131429       14.40868221324496
C            1.61865285750859       -6.92885379052686       14.56672408934661
C            2.78890533462981       -7.66557354191878       14.60240024659521
C            4.01533940548972       -7.03174918705559       14.48514323011470
C            4.07316974458418       -5.65803164229535       14.31481790024303
C            2.90591753916047       -4.91840974319469       14.26960242120168
C           -2.98678776840965       -5.44718958267470       15.35097195263014
C           -3.17490741589625       -6.04450982132670       16.59119727543458
C           -4.19684405867429       -6.96001000979081       16.77311643095302
C           -5.03194988824202       -7.29039467955711       15.71909491551838
C           -4.84428756659219       -6.70220676240690       14.47973644163718
C           -3.82541398182047       -5.78410879818240       14.29659691953216
C           -1.23087056872024       -0.36489053901730       12.63754931209841
C           -1.03444211738120       -1.57109999871193       11.77257855315146
C           -1.72389736192523        0.81577411935616       12.24971125971033
C           -2.16409408580232        1.82968990848284       13.28002824509382
C           -2.61318631548165        3.19933443415876       12.76768901953295
C           -3.39075843460287        1.21714064815582       13.99038926184082
H           -4.76204361679527        2.95688226613685        8.98845783586377
H           -4.78701985803620        1.85874482355624        7.58577654847385
H           -5.41158770432368        1.32676805532212        9.16631452465803
H           -1.38717376313931        0.41857015076806       10.15222455837133
H            2.21006417388446        0.87230868201298       10.96174627506138
H            0.88648739045335        0.38379315586843       12.01894056811070
H            0.74163651344213        0.26085520407300       10.25175377822490
H            0.72462289829515        3.82309647928948        9.47128120799472
H            1.22570042965830        2.41265748471252        7.92997106458788
H            3.35095685537260        2.82985860489384       10.63900076384451
H            3.17663207649985        3.92316303987367        9.25880466278570
H            3.38688066144417        5.21043342271362       11.40006745666370
H           -0.36826348937050        5.09645607203755       11.25053159312376
H            0.41757019139072        6.37198849736392       12.22669262345961
H            3.70788058467612        5.14855291345175       15.47138158580508
H            2.18240764658182        5.89434862523783       15.94038851859926
H            3.55139686069284        6.92678867398883       15.46122284397766
H            1.95982463038275        2.41379253487171       12.62035106243006
H           -0.02422624805424        3.87510301659902       14.00839378085634
H            2.43131602826540        3.91784634393333       18.12279666052628
H            4.38741009168864        3.09291601060495       19.41036810782174
H            5.73312458093510        1.22701721641304       18.51976087395315
H            5.13954019849510        0.19057926661106       16.36645329430516
H            3.19826318093790        1.02142364781958       15.08715417176187
H           -0.87044983177353        3.25806183818688       15.84739387478556
H            0.29114155612836        0.70340589027859       15.43930080998257
H           -1.42607657917190        0.55328379551255       15.72711301140347
H            0.27413699006095       -1.00199221905483       13.96176839611383
H           -2.78850610244304       -3.02715549212660       16.46206082263786
H           -0.31324391278586       -3.37996439121478       17.47033328857585
H           -1.99471828943179       -3.96173107882030       14.16768822553612
H           -0.46172445551352       -5.90444760818682       15.75058284112789
H            0.66624277174124       -7.43543558594504       14.63060167220755
H            2.74375825045015       -8.73855242207986       14.71957137159719
H            4.92569566833262       -7.61205114573417       14.51850103300255
H            5.02879644959911       -5.16539488076701       14.21296682828745
H            2.92649374691771       -3.84787302904878       14.12990101917501
H           -2.52937428641427       -5.77615520420313       17.41382009483608
H           -4.34207988342568       -7.41724024661271       17.74087608574469
H           -5.82940136150722       -8.00457669346675       15.86339509463638
H           -5.49144979389580       -6.95772578723080       13.65389529302793
H           -3.67649958914638       -5.32519685522811       13.32961254120451
H           -1.52447469831962       -2.41120641152572       12.26205797265062
H           -1.46394458769154       -1.45368087717752       10.78396192194633
H            0.01532344003806       -1.84058223636032       11.68291294817519
H           -3.06340325443477        3.73370721685647       13.60021842821692
H           -3.34941334067810        3.09679809302139       11.97881806624009
H           -1.78351443593185        3.79565690608431       12.40899770469854
H           -4.23213490710440        1.23594685389345       13.30186544380046
H           -3.63848700960795        1.80636589389187       14.86801247177433
H           -3.21702498481819        0.18754297246586       14.28207741388438
B            3.46052053320154       -1.45447198363796        1.63673425862104
N            3.45643279570315        1.13034293349059        0.95067044189139
B            2.53167971290600        2.36546780838049       -1.24504962534813
N            2.27694785260222       -0.63686710331767       -2.71681681072154
B            0.69505156396940       -3.55714264831259        2.72166061765954
N           -2.93742585050283       -2.64906795472842        1.74591493952436
B           -1.03087426507743        4.09196390118884        1.86595883312077
N           -0.64081085919067        0.02616412444869       -3.91498130410947
B           -0.49365901702885        1.45390268260179       -4.06304590622107
N            1.19484138512201       -3.78210649405941       -1.72350541048762
B           -3.84733313672255        2.21887596076144       -0.44954233705383
N           -2.77869318076572        2.77267971883125       -1.17211119147745
B            1.38098842988609        0.82574091678738       -4.87014081157615
N           -0.22542184249363        3.37115414311883        2.86548738015625
B            0.87951145750834       -2.87327415106681       -2.79529208741284
N           -0.49623750969837        3.77351195198648       -0.98006824613598
B           -0.79393812270796        2.18804124568303        3.31539443278143
N            1.66913119496552       -1.27403979148310        3.52366347040340
B           -0.25902996273240        3.47750097269985       -2.35087300295456
N            1.32381663640799        0.06923483208295        3.83872359829942
B           -1.61487846187726       -0.55105644390011       -3.05280708962982
N           -3.83102900924614        1.78542402875587        0.87528628095755
B            0.34247113506001        4.49944329860026        1.21101638356554
N            0.05971527196329       -0.01190123836304        4.48130897406995
B           -2.70344812191208        2.23409979417309        1.64137790078060
N            3.76535803437633       -0.13085249653361       -0.75752824467125
B           -2.25557443550015       -3.63332899592058        1.04090741005417
N            1.06399511167552        3.73526635683703        2.25871410707517
B           -1.81603074622410       -0.77361415591253        3.25578547189544
N           -2.44546363282429       -3.59454195902515       -0.41775562854797
B            3.00722358506986       -1.07055291478037       -1.49228872009838
N           -3.16269775916359       -1.24404652118313       -0.34538690012376
B            2.03871306269212        2.92325661707159        1.58064243847926
N           -0.52463589812417       -2.89348683351979       -2.40848183160234
B           -1.68991956179770       -2.10443127034169       -2.46082934117064
N            0.58983938029697        3.96984032712437       -0.08495384104514
B            1.07549969021935        2.96653963871264       -3.16025248620416
N            0.07732473390166       -4.35554226789063        1.74297346153552
B           -1.78576257606502        3.45994171434338       -0.37156660992449
N           -2.00943393474705        3.42591116102562        1.06876337665937
B            1.46466828645437       -4.20854128873011        1.51450508625889
N           -0.77864170114324        1.06572897286309        4.21736026243643
B           -2.67626121326743       -2.39323016770382       -1.13960305596677
N           -1.07768568654053       -4.48023094531508        1.01737883335916
B           -2.51482954742195        0.50062152664417       -2.07176410222786
N            2.34716065394591       -3.88493327311648        0.46434837945124
B            3.91020666884481       -0.20210446831038        0.73355955617923
N            1.91542939561379        1.96198136350736       -2.44732890573922
B            0.97923123154966        2.26219225223789       -4.60040926648937
N           -4.18925045943170        0.83854210465337       -0.30236864962365
B           -1.35329291027113        2.46249252166112       -3.08157346910288
N           -2.37088021828563        1.94198696823796       -2.26830285881914
B            3.06942117918839       -2.64388480076521        0.60994539076627
N            2.32424795658798       -3.67091101433841       -0.95970475848997
B            2.22692010300173        0.54579074794788        2.82521692898903
N           -2.00904832181816        0.61565926851965        3.63229761252453
B           -1.11078203276783       -4.17716722392823       -0.41410410563688
N           -3.22412832640749        0.05070859280539       -0.91832042412375
B            3.44167761985627        1.26024190071003       -0.50301391669481
N            2.58768980027479        1.63326422621350        1.95195517002624
B            1.45121651017996       -1.54839631923720       -3.49865884732480
N           -2.09296872932428        1.75958585389678        2.79698488427471
B            2.02332706228376        0.71755339188672       -3.19525077170128
N           -2.71507874546371       -1.33688558927685        2.35813501338482
B            0.63446615471709       -0.53082422067413       -4.46578985458419
N           -0.18186096189477       -3.75438805166272       -1.33466683084910
B            0.49529460143649       -2.10291342556384        3.45700453419385
N           -0.57305634167467       -1.20126159207008        3.85113415105708
B           -3.22181140891562       -1.44352558639541        1.03969721704958
N            2.67839706035103       -0.85614518486918        2.63451114156448
B            1.87672174469201        3.34200976378696       -0.08656206024421
N            2.86835135178137       -2.32957343162534       -0.78401306826668
 
 Bond Distances (Angstroems)
 ---------------------------
C1-C2=1.5026         C1-H63=1.0869        C1-H64=1.0851        C1-H65=1.0876        C2-C1=1.5026         C2-O3=1.2000         
C2-O4=1.3432         O3-C2=1.2000         O4-C2=1.3432         O4-C5=1.4227         C5-O4=1.4227         C5-C6=1.5280         
C5-C59=1.4943        C5-H66=1.0968        C6-C5=1.5280         C6-O7=1.2046         C6-C8=1.5370         O7-C6=1.2046         
C8-C6=1.5370         C8-C9=1.5367         C8-C10=1.5726        C8-C21=1.5676        C9-C8=1.5367         C9-H67=1.0878        
C9-H68=1.0813        C9-H69=1.0829        C10-C8=1.5726        C10-O11=1.4082       C10-C12=1.5270       C10-H70=1.0944       
O11-C10=1.4082       O11-H71=0.9577       C12-C10=1.5270       C12-C13=1.5168       C12-H72=1.0904       C12-H73=1.0911       
C13-C12=1.5168       C13-O14=1.4310       C13-C16=1.5401       C13-H74=1.0944       O14-C13=1.4310       O14-C15=1.4284       
C15-O14=1.4284       C15-C16=1.5358       C15-H75=1.0911       C15-H76=1.0907       C16-C13=1.5401       C16-C15=1.5358       
C16-O17=1.4350       C16-C21=1.5538       O17-C16=1.4350       O17-C18=1.3452       C18-O17=1.3452       C18-C19=1.5077       
C18-O20=1.1988       C19-C18=1.5077       C19-H77=1.0872       C19-H78=1.0886       C19-H79=1.0864       O20-C18=1.1988       
C21-C8=1.5676        C21-C16=1.5538       C21-C22=1.5853       C21-H80=1.0978       C22-C21=1.5853       C22-O23=1.4464       
C22-C32=1.5909       C22-H81=1.0988       O23-C22=1.4464       O23-C24=1.3267       C24-O23=1.3267       C24-O25=1.2146       
C24-C26=1.4801       O25-C24=1.2146       C26-C24=1.4801       C26-C27=1.3936       C26-C31=1.3929       C27-C26=1.3936       
C27-C28=1.3813       C27-H82=1.0793       C28-C27=1.3813       C28-C29=1.3861       C28-H83=1.0794       C29-C28=1.3861       
C29-C30=1.3865       C29-H84=1.0801       C30-C29=1.3865       C30-C31=1.3821       C30-H85=1.0796       C31-C26=1.3929       
C31-C30=1.3821       C31-H86=1.0785       C32-C22=1.5909       C32-O33=1.4180       C32-C34=1.5447       C32-C60=1.5442       
O33-C32=1.4180       O33-H87=0.9733       C34-C32=1.5447       C34-C35=1.5331       C34-H88=1.0900       C34-H89=1.0934       
C35-C34=1.5331       C35-O36=1.4487       C35-C57=1.5061       C35-H90=1.1001       O36-C35=1.4487       O36-C37=1.3131       
C37-O36=1.3131       C37-O38=1.2090       C37-C39=1.5260       O38-C37=1.2090       C39-C37=1.5260       C39-O40=1.4000       
C39-C41=1.5593       C39-H91=1.0979       O40-C39=1.4000       O40-H92=0.9750       C41-C39=1.5593       C41-N42=1.4452       
C41-C51=1.5054       C41-H93=1.0954       N42-C41=1.4452       N42-C43=1.3554       N42-H94=1.0076       C43-N42=1.3554       
C43-O44=1.2187       C43-C45=1.4881       O44-C43=1.2187       C45-C43=1.4881       C45-C46=1.3921       C45-C50=1.3913       
C46-C45=1.3921       C46-C47=1.3833       C46-H95=1.0806       C47-C46=1.3833       C47-C48=1.3855       C47-H96=1.0803       
C48-C47=1.3855       C48-C49=1.3854       C48-H97=1.0801       C49-C48=1.3854       C49-C50=1.3826       C49-H98=1.0799       
C50-C45=1.3913       C50-C49=1.3826       C50-H99=1.0798       C51-C41=1.5054       C51-C52=1.3894       C51-C56=1.3887       
C52-C51=1.3894       C52-C53=1.3840       C52-H100=1.0796      C53-C52=1.3840       C53-C54=1.3847       C53-H101=1.0801      
C54-C53=1.3847       C54-C55=1.3846       C54-H102=1.0802      C55-C54=1.3846       C55-C56=1.3837       C55-H103=1.0799      
C56-C51=1.3887       C56-C55=1.3837       C56-H104=1.0807      C57-C35=1.5061       C57-C58=1.4972       C57-C59=1.3370       
C58-C57=1.4972       C58-H105=1.0888      C58-H106=1.0843      C58-H107=1.0875      C59-C5=1.4943        C59-C57=1.3370       
C59-C60=1.5111       C60-C32=1.5442       C60-C59=1.5111       C60-C61=1.5297       C60-C62=1.5442       C61-C60=1.5297       
C61-H108=1.0869      C61-H109=1.0839      C61-H110=1.0829      C62-C60=1.5442       C62-H111=1.0874      C62-H112=1.0857      
C62-H113=1.0841      H63-C1=1.0869        H64-C1=1.0851        H65-C1=1.0876        H66-C5=1.0968        H67-C9=1.0878        
H68-C9=1.0813        H69-C9=1.0829        H70-C10=1.0944       H71-O11=0.9577       H72-C12=1.0904       H73-C12=1.0911       
H74-C13=1.0944       H75-C15=1.0911       H76-C15=1.0907       H77-C19=1.0872       H78-C19=1.0886       H79-C19=1.0864       
H80-C21=1.0978       H81-C22=1.0988       H82-C27=1.0793       H83-C28=1.0794       H84-C29=1.0801       H85-C30=1.0796       
H86-C31=1.0785       H87-O33=0.9733       H88-C34=1.0900       H89-C34=1.0934       H90-C35=1.1001       H91-C39=1.0979       
H92-O40=0.9750       H93-C41=1.0954       H94-N42=1.0076       H95-C46=1.0806       H96-C47=1.0803       H97-C48=1.0801       
H98-C49=1.0799       H99-C50=1.0798       H100-C52=1.0796      H101-C53=1.0801      H102-C54=1.0802      H103-C55=1.0799      
H104-C56=1.0807      H105-C58=1.0888      H106-C58=1.0843      H107-C58=1.0875      H108-C61=1.0869      H109-C61=1.0839      
H110-C61=1.0829      H111-C62=1.0874      H112-C62=1.0857      H113-C62=1.0841      B114-B160=1.6082     B114-B166=1.6192     
B114-N183=1.4019     N115-B160=1.4242     N115-B172=1.4596     N115-N173=1.4178     B116-N161=1.4100     B116-B172=1.6125     
B116-B184=1.6507     N117-B144=1.4903     N117-B174=1.4574     N117-B176=1.4587     B118-N151=1.4060     B118-B154=1.5728     
B118-B180=1.6418     N119-B140=1.3895     N119-N177=1.4649     N119-B182=1.4258     B120-N127=1.4722     B120-B136=1.5751     
B120-N153=1.4271     N121-B122=1.4429     N121-B134=1.4231     N121-B178=1.4966     B122-N121=1.4429     B122-B126=2.1355     
B122-B162=1.7639     B122-B164=1.6491     N123-B128=1.4402     N123-N167=1.3680     N123-N179=1.4308     B124-N125=1.4039     
B124-N135=1.3940     B124-N163=1.4296     N125-B124=1.4039     N125-B152=1.4488     N125-N165=1.4346     B126-B122=2.1355     
B126-B162=1.5158     B126-B176=1.7971     B126-B178=1.6003     N127-B120=1.4722     N127-B130=1.3876     N127-N141=1.4708     
B128-N123=1.4402     B128-N147=1.4566     B128-B174=1.6053     B128-N179=2.0091     N129-B132=1.4223     N129-N149=1.4210     
N129-B152=1.4600     B130-N127=1.3876     B130-N155=1.4399     B130-N169=2.0123     B130-N175=1.4628     N131-N133=1.4223     
N131-B180=1.4385     N131-N183=1.4085     B132-N129=1.4223     B132-B150=1.6423     B132-B164=1.6618     N133-N131=1.4223     
N133-N137=1.4204     N133-B168=1.4387     B134-N121=1.4231     B134-B148=1.6640     B134-B158=1.6966     N135-B124=1.3940     
N135-B138=1.4351     N135-N163=1.5530     B136-B120=1.5751     B136-N141=1.4840     B136-N149=1.4217     N137-N133=1.4204     
N137-N155=1.3906     N137-N181=1.4873     B138-N135=1.4351     B138-N153=1.4933     B138-N175=1.3904     N139-B144=1.4134     
N139-B160=1.4998     N139-B172=1.4508     B140-N119=1.3895     B140-N143=1.4715     B140-N157=1.4509     B140-B170=1.9296     
N141-N127=1.4708     N141-B136=1.4840     N141-B146=1.4385     B142-N169=1.4523     B142-N177=1.3897     B142-N181=1.4430     
N143-B140=1.4715     N143-B156=1.4204     N143-B170=1.4563     B144-N117=1.4903     B144-N139=1.4134     B144-N185=1.4512     
N145-B156=1.4792     N145-N171=1.4172     N145-B182=1.4006     B146-N141=1.4385     B146-N173=1.4503     B146-B184=1.7266     
N147-B128=1.4566     N147-B148=1.4083     N147-N179=1.4184     B148-B134=1.6640     B148-N147=1.4083     B148-B156=1.6739     
N149-N129=1.4210     N149-B136=1.4217     N149-B184=1.4319     B150-B132=1.6423     B150-N161=1.4909     B150-B162=1.6061     
N151-B118=1.4060     N151-B154=1.4137     N151-N157=1.3697     B152-N125=1.4488     B152-N129=1.4600     B152-N153=1.4580     
N153-B120=1.4271     N153-B138=1.4933     N153-B152=1.4580     B154-B118=1.5728     B154-N151=1.4137     B154-N159=1.4094     
N155-B130=1.4399     N155-N137=1.3906     N155-N169=1.4348     B156-N143=1.4204     B156-N145=1.4792     B156-B148=1.6739     
N157-B140=1.4509     N157-N151=1.3697     N157-B170=1.4636     B158-B134=1.6966     B158-N165=1.4618     B158-N171=1.4269     
N159-B154=1.4094     N159-B166=1.4433     N159-N167=1.4402     B160-B114=1.6082     B160-N115=1.4242     B160-N139=1.4998     
B160-B172=1.9716     N161-B116=1.4100     N161-B150=1.4909     N161-B176=1.4559     B162-B122=1.7639     B162-B126=1.5158     
B162-B150=1.6061     N163-B124=1.4296     N163-N135=1.5530     N163-N171=1.3898     B164-B122=1.6491     B164-B132=1.6618     
B164-N165=1.4028     N165-N125=1.4346     N165-B158=1.4618     N165-B164=1.4028     B166-B114=1.6192     B166-N159=1.4433     
B166-N185=1.4430     N167-N123=1.3680     N167-N159=1.4402     N167-N185=1.4581     B168-N133=1.4387     B168-N173=1.4406     
B168-N183=1.4851     N169-B130=2.0123     N169-B142=1.4523     N169-N155=1.4348     N169-N175=1.4189     B170-B140=1.9296     
B170-N143=1.4563     B170-N157=1.4636     B170-N179=1.3744     N171-N145=1.4172     N171-B158=1.4269     N171-N163=1.3898     
B172-N115=1.4596     B172-B116=1.6125     B172-N139=1.4508     B172-B160=1.9716     N173-N115=1.4178     N173-B146=1.4503     
N173-B168=1.4406     B174-N117=1.4574     B174-B128=1.6053     B174-B178=1.6242     N175-B130=1.4628     N175-B138=1.3904     
N175-N169=1.4189     B176-N117=1.4587     B176-B126=1.7971     B176-N161=1.4559     N177-N119=1.4649     N177-B142=1.3897     
N177-B182=1.4165     B178-N121=1.4966     B178-B126=1.6003     B178-B174=1.6242     N179-N123=1.4308     N179-B128=2.0091     
N179-N147=1.4184     N179-B170=1.3744     B180-B118=1.6418     B180-N131=1.4385     B180-N181=1.4525     N181-N137=1.4873     
N181-B142=1.4430     N181-B180=1.4525     B182-N119=1.4258     B182-N145=1.4006     B182-N177=1.4165     N183-B114=1.4019     
N183-N131=1.4085     N183-B168=1.4851     B184-B116=1.6507     B184-B146=1.7266     B184-N149=1.4319     N185-B144=1.4512     
N185-B166=1.4430     N185-N167=1.4581     
 B  B  Rav=1.6893 sigma=0.1391  Rmin=1.5158  Rmax=2.1355    24
 C  H  Rav=1.0865 sigma=0.0062  Rmin=1.0785  Rmax=1.1001    47
 C  C  Rav=1.4715 sigma=0.0756  Rmin=1.3370  Rmax=1.5909    47
 N  H  Rav=1.0076 sigma=0.0000  Rmin=1.0076  Rmax=1.0076     1
 N  B  Rav=1.4559 sigma=0.1009  Rmin=1.3744  Rmax=2.0123    68
 N  C  Rav=1.4003 sigma=0.0449  Rmin=1.3554  Rmax=1.4452     2
 N  N  Rav=1.4303 sigma=0.0403  Rmin=1.3680  Rmax=1.5530    21
 O  H  Rav=0.9687 sigma=0.0078  Rmin=0.9577  Rmax=0.9750     3
 O  C  Rav=1.3375 sigma=0.0962  Rmin=1.1988  Rmax=1.4487    19
 
 selected bond angles (degree)
 --------------------
H63-C1-C2=109.11               H64-C1-C2=109.50               H64-C1-H63=110.22              H65-C1-C2=109.49               
H65-C1-H63=108.41              H65-C1-H64=110.09              O3-C2-C1=125.72                O4-C2-C1=110.78                
O4-C2-O3=123.48                C5-O4-C2=115.56                C6-C5-O4=109.37                C59-C5-O4=113.46               
C59-C5-C6=107.71               H66-C5-O4=107.59               H66-C5-C6=106.32               H66-C5-C59=112.13              
O7-C6-C5=119.55                C8-C6-C5=118.51                C8-C6-O7=121.78                C9-C8-C6=114.15                
C10-C8-C6=101.88               C10-C8-C9=106.12               C21-C8-C6=116.94               C21-C8-C9=105.61               
C21-C8-C10=111.77              H67-C9-C8=108.29               H68-C9-C8=111.08               H68-C9-H67=108.74              
H69-C9-C8=111.41               H69-C9-H67=106.73              H69-C9-H68=110.42              O11-C10-C8=107.54              
C12-C10-C8=113.08              C12-C10-O11=111.97             H70-C10-C8=108.28              H70-C10-O11=110.17             
H70-C10-C12=105.74             
 
 selected dihedral angles (degree)
 ---------------------------------
O3-C2-C1-H63=236.56           O3-C2-C1-H64=357.27           O3-C2-C1-H65=118.05           O4-C2-C1-H63= 58.07           
O4-C2-C1-H64=178.78           O4-C2-C1-H65=299.57           C5-O4-C2-C1=186.00            C5-O4-C2-O3=  7.48            
C6-C5-O4-C2= 81.82            C59-C5-O4-C2=202.09           H66-C5-O4-C2=326.74           O7-C6-C5-O4=356.23            
O7-C6-C5-C59=232.50           O7-C6-C5-H66=112.13           C8-C6-C5-O4=180.78            C8-C6-C5-C59= 57.05           
C8-C6-C5-H66=296.68           C9-C8-C6-C5= 21.89            C9-C8-C6-O7=206.56            C10-C8-C6-C5=135.80           
C10-C8-C6-O7=320.46           C21-C8-C6-C5=257.93           C21-C8-C6-O7= 82.59           H67-C9-C8-C6=157.30           
H67-C9-C8-C10= 45.94          H67-C9-C8-C21=287.15          H68-C9-C8-C6=276.65           H68-C9-C8-C10=165.28          
H68-C9-C8-C21= 46.50          H69-C9-C8-C6= 40.22           H69-C9-C8-C10=288.85          H69-C9-C8-C21=170.06          
O11-C10-C8-C6=278.14          O11-C10-C8-C9= 37.87          O11-C10-C8-C21=152.52         C12-C10-C8-C6=154.00          
C12-C10-C8-C9=273.73          C12-C10-C8-C21= 28.38         H70-C10-C8-C6= 37.16          H70-C10-C8-C9=156.89          
H70-C10-C8-C21=271.54         
 
 CMA Distance (Angstroems)
 ---------------------------
R(CMA): 13.5592
           -------------------------------------------------
          |                Final Singlepoint                |
           -------------------------------------------------

          ...................................................
          :                      SETUP                      :
          :.................................................:
          :  # basis functions                 587          :
          :  # atomic orbitals                 587          :
          :  # shells                          319          :
          :  # electrons                       616          :
          :  max. iterations                   500          :
          :  Hamiltonian                  GFN2-xTB          :
          :  restarted?                      false          :
          :  GBSA solvation                  false          :
          :  PC potential                    false          :
          :  electronic temp.          300.0000000     K    :
          :  accuracy                    1.0000000          :
          :  -> integral cutoff          0.2500000E+02      :
          :  -> integral neglect         0.1000000E-07      :
          :  -> SCF convergence          0.1000000E-05 Eh   :
          :  -> wf. convergence          0.1000000E-03 e    :
          :  Broyden damping             0.4000000          :
          :  net charge                          0          :
          :  unpaired electrons                  0          :
          ...................................................

 iter      E             dE          RMSdq      gap      omega  full diag
   1   -340.4193605 -0.340419E+03  0.382E-02    0.55       0.0  T
   2   -340.4193656 -0.503978E-05  0.225E-02    0.55       1.0  T
   3   -340.4193576  0.793751E-05  0.705E-03    0.55       1.0  T
   4   -340.4193648 -0.715883E-05  0.288E-03    0.55       2.6  T
   5   -340.4193667 -0.190210E-05  0.124E-03    0.55       5.9  T
   6   -340.4193670 -0.320421E-06  0.742E-04    0.55       9.9  T
   7   -340.4193671 -0.782321E-07  0.425E-04    0.55      17.3  T

   *** convergence criteria satisfied after 7 iterations ***

         #    Occupation            Energy/Eh            Energy/eV
      -------------------------------------------------------------
         1        2.0000           -0.7534095             -20.5013
       ...           ...                  ...                  ...
       302        2.0000           -0.3245602              -8.8317
       303        2.0000           -0.3217745              -8.7559
       304        2.0000           -0.3201875              -8.7127
       305        2.0000           -0.3178162              -8.6482
       306        2.0000           -0.3126410              -8.5074
       307        2.0000           -0.3107896              -8.4570
       308        2.0000           -0.3043724              -8.2824 (HOMO)
       309        0.0000           -0.2840083              -7.7283 (LUMO)
       310        0.0000           -0.2805403              -7.6339
       311                         -0.2722189              -7.4075
       312                         -0.2668459              -7.2612
       313                         -0.2617949              -7.1238
       ...                                ...                  ...
       587                          0.9863806              26.8408
      -------------------------------------------------------------
                  HL-Gap            0.0203641 Eh            0.5541 eV
             Fermi-level           -0.2942019 Eh           -8.0056 eV

 SCC (total)                   0 d,  0 h,  0 min,  0.771 sec
 SCC setup                      ...        0 min,  0.002 sec (  0.259%)
 Dispersion                     ...        0 min,  0.004 sec (  0.519%)
 classical contributions        ...        0 min,  0.002 sec (  0.259%)
 integral evaluation            ...        0 min,  0.025 sec (  3.243%)
 iterations                     ...        0 min,  0.651 sec ( 84.436%)
 molecular gradient             ...        0 min,  0.080 sec ( 10.376%)
 printout                       ...        0 min,  0.007 sec (  0.908%)

         :::::::::::::::::::::::::::::::::::::::::::::::::::::
         ::                     SUMMARY                     ::
         :::::::::::::::::::::::::::::::::::::::::::::::::::::
         :: total energy            -336.737718687995 Eh    ::
         :: gradient norm              0.006837404517 Eh/a0 ::
         :: HOMO-LUMO gap              0.554136188091 eV    ::
         ::.................................................::
         :: SCC energy              -340.398982536749 Eh    ::
         :: -> isotropic ES            0.965138032589 Eh    ::
         :: -> anisotropic ES         -0.035233057173 Eh    ::
         :: -> anisotropic XC          0.100079453461 Eh    ::
         :: -> dispersion             -0.297373056977 Eh    ::
         :: repulsion energy           3.661263848754 Eh    ::
         :: add. restraining           0.000000000000 Eh    ::
         :: total charge              -0.000000000054 e     ::
         :::::::::::::::::::::::::::::::::::::::::::::::::::::

           -------------------------------------------------
          |                Property Printout                |
           -------------------------------------------------

    * Orbital Energies and Occupations

         #    Occupation            Energy/Eh            Energy/eV
      -------------------------------------------------------------
         1        2.0000           -0.7534095             -20.5013
       ...           ...                  ...                  ...
       296        2.0000           -0.3370361              -9.1712
       297        2.0000           -0.3356374              -9.1332
       298        2.0000           -0.3320242              -9.0348
       299        2.0000           -0.3296324              -8.9698
       300        2.0000           -0.3270421              -8.8993
       301        2.0000           -0.3260668              -8.8727
       302        2.0000           -0.3245602              -8.8317
       303        2.0000           -0.3217745              -8.7559
       304        2.0000           -0.3201875              -8.7127
       305        2.0000           -0.3178162              -8.6482
       306        2.0000           -0.3126410              -8.5074
       307        2.0000           -0.3107896              -8.4570
       308        2.0000           -0.3043724              -8.2824 (HOMO)
       309        0.0000           -0.2840083              -7.7283 (LUMO)
       310        0.0000           -0.2805403              -7.6339
       311                         -0.2722189              -7.4075
       312                         -0.2668459              -7.2612
       313                         -0.2617949              -7.1238
       314                         -0.2609696              -7.1013
       315                         -0.2485386              -6.7631
       316                         -0.2433705              -6.6224
       317                         -0.2426503              -6.6029
       318                         -0.2410267              -6.5587
       319                         -0.2357763              -6.4158
       ...                                ...                  ...
       587                          0.9863806              26.8408
      -------------------------------------------------------------
                  HL-Gap            0.0203641 Eh            0.5541 eV
             Fermi-level           -0.2942019 Eh           -8.0056 eV

     #   Z          covCN         q      C6AA      α(0)
     1   6 C        3.754    -0.151    23.470     6.908
     2   6 C        2.721     0.365    20.811     7.468
     3   8 O        0.856    -0.403    21.746     6.252
     4   8 O        1.705    -0.253    18.193     5.759
     5   6 C        3.768     0.094    19.065     6.223
     6   6 C        2.829     0.234    23.109     7.877
     7   8 O        0.857    -0.340    20.526     6.074
     8   6 C        3.890    -0.015    20.798     6.483
     9   6 C        3.762    -0.131    23.057     6.845
    10   6 C        3.746     0.111    18.826     6.189
    11   8 O        1.656    -0.438    21.607     6.275
    12   6 C        3.802    -0.088    22.171     6.704
    13   6 C        4.067     0.105    18.782     6.156
    14   8 O        1.743    -0.316    19.263     5.926
    15   6 C        4.008     0.070    19.345     6.248
    16   6 C        3.828     0.128    18.486     6.118
    17   8 O        1.704    -0.293    18.872     5.865
    18   6 C        2.695     0.366    20.796     7.464
    19   6 C        3.753    -0.147    23.408     6.899
    20   8 O        0.856    -0.392    21.528     6.221
    21   6 C        3.844    -0.046    21.358     6.574
    22   6 C        3.720     0.081    19.333     6.280
    23   8 O        1.705    -0.261    18.328     5.780
    24   6 C        2.711     0.360    20.898     7.483
    25   8 O        0.857    -0.442    22.532     6.364
    26   6 C        2.974    -0.020    28.498     8.757
    27   6 C        2.925    -0.020    28.506     8.756
    28   6 C        2.918    -0.025    28.637     8.775
    29   6 C        2.921    -0.020    28.505     8.755
    30   6 C        2.919    -0.025    28.619     8.773
    31   6 C        2.920    -0.021    28.530     8.759
    32   6 C        3.774     0.135    18.418     6.115
    33   8 O        1.656    -0.463    22.120     6.349
    34   6 C        3.802    -0.081    22.036     6.683
    35   6 C        3.765     0.109    18.824     6.184
    36   8 O        1.702    -0.251    18.160     5.754
    37   6 C        2.725     0.352    21.024     7.506
    38   8 O        0.856    -0.424    22.171     6.313
    39   6 C        3.727     0.085    19.262     6.266
    40   8 O        1.655    -0.441    21.661     6.283
    41   6 C        3.800     0.039    19.915     6.354
    42   7 N        2.695    -0.180    24.907     7.412
    43   6 C        2.761     0.274    22.376     7.746
    44   8 O        0.859    -0.449    22.677     6.385
    45   6 C        2.977    -0.019    28.481     8.754
    46   6 C        2.921    -0.033    28.822     8.804
    47   6 C        2.919    -0.027    28.683     8.782
    48   6 C        2.920    -0.025    28.626     8.774
    49   6 C        2.918    -0.027    28.671     8.781
    50   6 C        2.925    -0.018    28.462     8.749
    51   6 C        2.976    -0.000    28.025     8.684
    52   6 C        2.923    -0.038    28.937     8.822
    53   6 C        2.920    -0.029    28.720     8.788
    54   6 C        2.920    -0.030    28.737     8.791
    55   6 C        2.919    -0.028    28.707     8.786
    56   6 C        2.924    -0.036    28.891     8.815
    57   6 C        2.948    -0.005    28.152     8.702
    58   6 C        3.758    -0.123    22.907     6.824
    59   6 C        2.967    -0.024    28.599     8.772
    60   6 C        3.910     0.019    20.205     6.389
    61   6 C        3.763    -0.119    22.819     6.809
    62   6 C        3.768    -0.117    22.774     6.801
    63   1 H        0.925     0.083     1.946     2.181
    64   1 H        0.925     0.080     1.975     2.198
    65   1 H        0.925     0.078     2.000     2.212
    66   1 H        0.924     0.093     1.847     2.125
    67   1 H        0.925     0.064     2.153     2.295
    68   1 H        0.925     0.049     2.335     2.389
    69   1 H        0.925     0.075     2.033     2.230
    70   1 H        0.924     0.060     2.200     2.320
    71   1 H        0.806     0.307     0.699     1.313
    72   1 H        0.924     0.050     2.322     2.383
    73   1 H        0.924     0.068     2.106     2.270
    74   1 H        0.924     0.049     2.327     2.386
    75   1 H        0.924     0.058     2.219     2.329
    76   1 H        0.924     0.059     2.207     2.323
    77   1 H        0.925     0.069     2.100     2.266
    78   1 H        0.925     0.092     1.857     2.131
    79   1 H        0.925     0.078     1.999     2.211
    80   1 H        0.924     0.088     1.895     2.153
    81   1 H        0.923     0.073     2.058     2.243
    82   1 H        0.926     0.063     2.168     2.302
    83   1 H        0.926     0.046     2.369     2.407
    84   1 H        0.926     0.045     2.385     2.415
    85   1 H        0.926     0.046     2.374     2.409
    86   1 H        0.926     0.055     2.259     2.350
    87   1 H        0.804     0.318     0.669     1.285
    88   1 H        0.925     0.054     2.271     2.357
    89   1 H        0.924     0.073     2.055     2.242
    90   1 H        0.923     0.074     2.041     2.234
    91   1 H        0.923     0.055     2.261     2.351
    92   1 H        0.804     0.317     0.673     1.289
    93   1 H        0.924     0.069     2.098     2.265
    94   1 H        0.860     0.184     1.192     1.710
    95   1 H        0.926     0.034     2.529     2.487
    96   1 H        0.926     0.038     2.481     2.463
    97   1 H        0.926     0.039     2.466     2.456
    98   1 H        0.926     0.040     2.447     2.446
    99   1 H        0.926     0.056     2.250     2.345
   100   1 H        0.926     0.058     2.220     2.330
   101   1 H        0.926     0.037     2.489     2.467
   102   1 H        0.926     0.036     2.501     2.473
   103   1 H        0.926     0.038     2.475     2.460
   104   1 H        0.926     0.037     2.495     2.470
   105   1 H        0.925     0.074     2.039     2.233
   106   1 H        0.925     0.053     2.284     2.363
   107   1 H        0.925     0.074     2.038     2.232
   108   1 H        0.925     0.065     2.142     2.289
   109   1 H        0.925     0.064     2.151     2.294
   110   1 H        0.925     0.028     2.622     2.532
   111   1 H        0.925     0.050     2.324     2.384
   112   1 H        0.925     0.066     2.126     2.280
   113   1 H        0.925     0.049     2.337     2.391
   114   5 B        2.781     0.075    20.212     7.517
   115   7 N        2.774    -0.228    25.974     7.569
   116   5 B        2.788     0.092    19.935     7.464
   117   7 N        2.524    -0.315    28.134     7.877
   118   5 B        2.779     0.084    20.077     7.492
   119   7 N        2.655    -0.271    27.002     7.718
   120   5 B        2.849     0.241    17.666     7.018
   121   7 N        2.529    -0.273    27.090     7.730
   122   5 B        3.196     0.150    18.931     7.257
   123   7 N        2.979    -0.111    23.409     7.186
   124   5 B        2.644     0.372    16.328     6.814
   125   7 N        2.669    -0.213    25.637     7.520
   126   5 B        3.182     0.021    21.006     7.644
   127   7 N        2.887    -0.222    25.840     7.550
   128   5 B        3.009     0.209    18.077     7.092
   129   7 N        2.660    -0.163    24.529     7.356
   130   5 B        2.909     0.318    16.636     6.806
   131   7 N        3.156    -0.082    22.827     7.096
   132   5 B        2.778     0.094    19.917     7.462
   133   7 N        3.038    -0.126    23.727     7.235
   134   5 B        2.758     0.090    20.009     7.484
   135   7 N        2.634    -0.309    27.962     7.854
   136   5 B        3.040     0.226    17.829     7.043
   137   7 N        2.982     0.003    21.205     6.839
   138   5 B        2.581     0.325    17.320     7.090
   139   7 N        2.596    -0.360    29.301     8.039
   140   5 B        3.287     0.339    16.341     6.741
   141   7 N        2.784    -0.254    26.585     7.658
   142   5 B        2.560     0.319    17.597     7.183
   143   7 N        2.579    -0.369    29.537     8.072
   144   5 B        2.530     0.301    18.227     7.377
   145   7 N        2.665    -0.205    25.461     7.494
   146   5 B        2.698     0.195    18.518     7.222
   147   7 N        2.843    -0.168    24.616     7.369
   148   5 B        2.758     0.082    20.135     7.508
   149   7 N        2.672    -0.174    24.771     7.392
   150   5 B        2.877     0.110    19.577     7.386
   151   7 N        2.663    -0.145    24.140     7.297
   152   5 B        2.594     0.312    17.394     7.087
   153   7 N        2.519    -0.354    29.164     8.020
   154   5 B        2.684     0.183    18.730     7.270
   155   7 N        3.012    -0.121    23.618     7.218
   156   5 B        2.678     0.210    18.363     7.202
   157   7 N        2.715    -0.250    26.491     7.644
   158   5 B        2.647     0.164    19.169     7.381
   159   7 N        2.825    -0.207    25.492     7.499
   160   5 B        3.322     0.229    17.789     7.033
   161   7 N        2.531    -0.286    27.413     7.776
   162   5 B        2.950     0.035    20.783     7.606
   163   7 N        2.783    -0.186    25.020     7.429
   164   5 B        2.796     0.084    20.045     7.483
   165   7 N        2.673    -0.156    24.373     7.332
   166   5 B        3.021     0.211    18.053     7.087
   167   7 N        3.272     0.014    20.997     6.806
   168   5 B        2.869     0.304    16.822     6.847
   169   7 N        3.159    -0.109    23.381     7.182
   170   5 B        3.263     0.320    16.587     6.792
   171   7 N        2.833    -0.061    22.419     7.032
   172   5 B        3.304     0.231    17.768     7.029
   173   7 N        2.656    -0.183    24.965     7.421
   174   5 B        2.838     0.112    19.573     7.388
   175   7 N        2.837    -0.223    25.862     7.553
   176   5 B        2.863     0.252    17.505     6.985
   177   7 N        2.654    -0.229    26.017     7.575
   178   5 B        3.011     0.114    19.494     7.365
   179   7 N        3.153    -0.086    22.915     7.110
   180   5 B        2.674     0.201    18.497     7.231
   181   7 N        2.697    -0.227    25.967     7.568
   182   5 B        2.585     0.368    16.730     6.964
   183   7 N        2.881    -0.180    24.881     7.408
   184   5 B        2.825     0.106    19.677     7.410
   185   7 N        2.827    -0.253    26.563     7.655

 Mol. C6AA /au·bohr⁶  :     498833.824494
 Mol. C8AA /au·bohr⁸  :   13108069.118015
 Mol. α(0) /au        :       1093.796094


Wiberg/Mayer (AO) data.
largest (>0.10) Wiberg bond orders for each atom

 ---------------------------------------------------------------------------
     #   Z sym  total        # sym  WBO       # sym  WBO       # sym  WBO
 ---------------------------------------------------------------------------
     1   6 C    3.988 --     2 C    0.988    64 H    0.982    63 H    0.964
                            65 H    0.963
     2   6 C    3.914 --     3 O    1.766     4 O    1.110     1 C    0.988
     3   8 O    2.051 --     2 C    1.766     4 O    0.167
     4   8 O    2.307 --     2 C    1.110     5 C    0.943     3 O    0.167
     5   6 C    3.939 --    59 C    0.981     6 C    0.944     4 O    0.943
                            66 H    0.910
     6   6 C    3.908 --     7 O    1.865     8 C    0.954     5 C    0.944
     7   8 O    2.103 --     6 C    1.865
     8   6 C    3.982 --     9 C    0.996     6 C    0.954    21 C    0.952
                            10 C    0.938
     9   6 C    3.987 --     8 C    0.996    67 H    0.977    69 H    0.977
                            68 H    0.976
    10   6 C    3.955 --    11 O    1.000    12 C    0.987    70 H    0.955
                             8 C    0.938
    11   8 O    1.966 --    10 C    1.000    71 H    0.892
    12   6 C    3.994 --    13 C    0.995    10 C    0.987    72 H    0.968
                            73 H    0.967
    13   6 C    3.950 --    12 C    0.995    14 O    0.968    74 H    0.960
                            16 C    0.957
    14   8 O    2.041 --    15 C    0.978    13 C    0.968
    15   6 C    3.949 --    14 O    0.978    16 C    0.973    76 H    0.969
                            75 H    0.960
    16   6 C    3.919 --    15 C    0.973    21 C    0.970    13 C    0.957
                            17 O    0.926
    17   8 O    2.287 --    18 C    1.100    16 C    0.926    20 O    0.167
    18   6 C    3.912 --    20 O    1.775    17 O    1.100    19 C    0.985
    19   6 C    3.989 --    18 C    0.985    79 H    0.982    77 H    0.967
                            78 H    0.955
    20   8 O    2.057 --    18 C    1.775    17 O    0.167
    21   6 C    3.978 --    16 C    0.970    22 C    0.961     8 C    0.952
                            80 H    0.948
    22   6 C    3.897 --    21 C    0.961    81 H    0.953    32 C    0.931
                            23 O    0.918
    23   8 O    2.333 --    24 C    1.152    22 C    0.918    25 O    0.168
    24   6 C    3.911 --    25 O    1.663    23 O    1.152    26 C    1.006
    25   8 O    2.021 --    24 C    1.663    23 O    0.168
    26   6 C    3.986 --    31 C    1.385    27 C    1.384    24 C    1.006
                            29 C    0.102
    27   6 C    3.987 --    28 C    1.454    26 C    1.384    82 H    0.965
                            30 C    0.107
    28   6 C    3.991 --    27 C    1.454    29 C    1.433    83 H    0.970
                            31 C    0.107
    29   6 C    3.990 --    28 C    1.433    30 C    1.432    84 H    0.971
                            26 C    0.102
    30   6 C    3.992 --    31 C    1.456    29 C    1.432    85 H    0.970
                            27 C    0.107
    31   6 C    3.990 --    30 C    1.456    26 C    1.385    86 H    0.966
                            28 C    0.107
    32   6 C    3.948 --    33 O    0.995    34 C    0.975    60 C    0.946
                            22 C    0.931
    33   8 O    1.957 --    32 C    0.995    87 H    0.839
    34   6 C    3.989 --    35 C    0.986    32 C    0.975    88 H    0.970
                            89 H    0.966
    35   6 C    3.912 --    57 C    0.992    34 C    0.986    90 H    0.944
                            36 O    0.896
    36   8 O    2.335 --    37 C    1.184    35 C    0.896    38 O    0.172
    37   6 C    3.918 --    38 O    1.710    36 O    1.184    39 C    0.940
    38   8 O    2.037 --    37 C    1.710    36 O    0.172
    39   6 C    3.963 --    40 O    1.017    91 H    0.945    37 C    0.940
                            41 C    0.923
    40   8 O    1.963 --    39 C    1.017    92 H    0.857
    41   6 C    3.968 --    51 C    0.989    42 N    0.987    93 H    0.952
                            39 C    0.923
    42   7 N    3.439 --    43 C    1.232    41 C    0.987    94 H    0.932
                            44 O    0.187
    43   6 C    3.947 --    44 O    1.657    42 N    1.232    45 C    0.989
    44   8 O    1.993 --    43 C    1.657    42 N    0.187
    45   6 C    3.986 --    50 C    1.398    46 C    1.395    43 C    0.989
                            48 C    0.106
    46   6 C    3.992 --    47 C    1.451    45 C    1.395    95 H    0.967
                            49 C    0.110
    47   6 C    3.992 --    46 C    1.451    48 C    1.434    96 H    0.970
                            50 C    0.109
    48   6 C    3.991 --    49 C    1.438    47 C    1.434    97 H    0.971
                            45 C    0.106
    49   6 C    3.992 --    50 C    1.448    48 C    1.438    98 H    0.970
                            46 C    0.110
    50   6 C    3.988 --    49 C    1.448    45 C    1.398    99 H    0.967
                            47 C    0.109
    51   6 C    3.986 --    56 C    1.415    52 C    1.414    41 C    0.989
                            54 C    0.110
    52   6 C    3.989 --    53 C    1.444    51 C    1.414   100 H    0.964
                            55 C    0.112
    53   6 C    3.992 --    52 C    1.444    54 C    1.439   101 H    0.971
                            56 C    0.111
    54   6 C    3.990 --    55 C    1.439    53 C    1.439   102 H    0.971
                            51 C    0.110
    55   6 C    3.991 --    56 C    1.443    54 C    1.439   103 H    0.971
                            52 C    0.112
    56   6 C    3.990 --    55 C    1.443    51 C    1.415   104 H    0.968
                            53 C    0.111
    57   6 C    3.981 --    59 C    1.808    58 C    1.031    35 C    0.992
    58   6 C    3.990 --    57 C    1.031   106 H    0.975   107 H    0.962
                           105 H    0.958
    59   6 C    3.976 --    57 C    1.808    60 C    0.987     5 C    0.981
    60   6 C    3.987 --    61 C    1.000    59 C    0.987    62 C    0.975
                            32 C    0.946
    61   6 C    3.991 --    60 C    1.000   108 H    0.979   109 H    0.978
                           110 H    0.977
    62   6 C    3.988 --   111 H    0.984   113 H    0.982   112 H    0.980
                            60 C    0.975
    63   1 H    0.993 --     1 C    0.964
    64   1 H    0.993 --     1 C    0.982
    65   1 H    0.994 --     1 C    0.963
    66   1 H    0.991 --     5 C    0.910
    67   1 H    0.996 --     9 C    0.977
    68   1 H    0.998 --     9 C    0.976
    69   1 H    0.994 --     9 C    0.977
    70   1 H    0.996 --    10 C    0.955
    71   1 H    0.905 --    11 O    0.892
    72   1 H    0.997 --    12 C    0.968
    73   1 H    0.995 --    12 C    0.967
    74   1 H    0.997 --    13 C    0.960
    75   1 H    0.996 --    15 C    0.960
    76   1 H    0.996 --    15 C    0.969
    77   1 H    0.995 --    19 C    0.967
    78   1 H    0.991 --    19 C    0.955
    79   1 H    0.993 --    19 C    0.982
    80   1 H    0.992 --    21 C    0.948
    81   1 H    0.994 --    22 C    0.953
    82   1 H    0.996 --    27 C    0.965
    83   1 H    0.997 --    28 C    0.970
    84   1 H    0.998 --    29 C    0.971
    85   1 H    0.997 --    30 C    0.970
    86   1 H    0.997 --    31 C    0.966
    87   1 H    0.898 --    33 O    0.839
    88   1 H    0.997 --    34 C    0.970
    89   1 H    0.994 --    34 C    0.966
    90   1 H    0.994 --    35 C    0.944
    91   1 H    0.997 --    39 C    0.945
    92   1 H    0.899 --    40 O    0.857
    93   1 H    0.995 --    41 C    0.952
    94   1 H    0.966 --    42 N    0.932
    95   1 H    0.999 --    46 C    0.967
    96   1 H    0.998 --    47 C    0.970
    97   1 H    0.998 --    48 C    0.971
    98   1 H    0.998 --    49 C    0.970
    99   1 H    0.997 --    50 C    0.967
   100   1 H    0.997 --    52 C    0.964
   101   1 H    0.998 --    53 C    0.971
   102   1 H    0.998 --    54 C    0.971
   103   1 H    0.998 --    55 C    0.971
   104   1 H    0.999 --    56 C    0.968
   105   1 H    0.994 --    58 C    0.958
   106   1 H    0.997 --    58 C    0.975
   107   1 H    0.994 --    58 C    0.962
   108   1 H    0.995 --    61 C    0.979
   109   1 H    0.996 --    61 C    0.978
   110   1 H    0.999 --    61 C    0.977
   111   1 H    0.997 --    62 C    0.984
   112   1 H    0.995 --    62 C    0.980
   113   1 H    0.998 --    62 C    0.982
   114   5 B    3.479 --   183 N    1.283   166 B    1.000   160 B    0.970
   115   7 N    3.398 --   160 B    1.142   173 N    1.007   172 B    1.002
   116   5 B    3.464 --   161 N    1.276   184 B    0.978   172 B    0.958
   117   7 N    3.530 --   176 B    1.151   174 B    1.151   144 B    1.018
   118   5 B    3.463 --   151 N    1.240   180 B    0.996   154 B    0.990
   119   7 N    3.264 --   140 B    1.202   182 B    0.966   177 N    0.888
   120   5 B    3.408 --   153 N    1.175   127 N    1.035   136 B    0.963
   121   7 N    3.568 --   134 B    1.277   122 B    1.158   178 B    0.973
   122   5 B    3.393 --   121 N    1.158   164 B    0.932   162 B    0.640
                           126 B    0.294
   123   7 N    3.322 --   128 B    1.113   167 N    1.043   179 N    0.945
   124   5 B    3.433 --   125 N    1.187   135 N    1.128   163 N    0.961
   125   7 N    3.445 --   124 B    1.187   152 B    1.085   165 N    0.967
   126   5 B    3.456 --   162 B    1.285   178 B    1.004   176 B    0.627
                           122 B    0.294
   127   7 N    3.426 --   130 B    1.229   120 B    1.035   141 N    0.928
   128   5 B    3.390 --   123 N    1.113   147 N    1.039   174 B    1.005
   129   7 N    3.510 --   132 B    1.207   152 B    1.123   149 N    0.999
   130   5 B    3.516 --   127 N    1.229   155 N    1.081   175 N    0.996
   131   7 N    3.348 --   180 B    1.137   183 N    0.991   133 N    0.983
   132   5 B    3.415 --   129 N    1.207   150 B    1.008   164 B    0.926
   133   7 N    3.329 --   168 B    1.138   131 N    0.983   137 N    0.973
   134   5 B    3.464 --   121 N    1.277   148 B    0.978   158 B    0.932
   135   7 N    3.217 --   124 B    1.128   138 B    1.065   163 N    0.793
   136   5 B    3.367 --   149 N    1.151   141 N    0.992   120 B    0.963
   137   7 N    3.099 --   155 N    1.014   133 N    0.973   181 N    0.939
   138   5 B    3.512 --   175 N    1.250   135 N    1.065   153 N    0.988
   139   7 N    3.433 --   144 B    1.202   172 B    1.061   160 B    0.925
   140   5 B    3.481 --   119 N    1.202   157 N    1.041   143 N    0.980
   141   7 N    3.283 --   146 B    1.170   136 B    0.992   127 N    0.928
   142   5 B    3.524 --   177 N    1.207   181 N    1.120   169 N    1.039
   143   7 N    3.430 --   156 B    1.220   170 B    0.993   140 B    0.980
   144   5 B    3.520 --   139 N    1.202   185 N    1.099   117 N    1.018
   145   7 N    3.442 --   182 B    1.260   156 B    0.998   171 N    0.990
   146   5 B    3.446 --   141 N    1.170   173 N    1.123   184 B    0.923
   147   7 N    3.469 --   148 B    1.260   128 B    1.039   179 N    0.984
   148   5 B    3.420 --   147 N    1.260   134 B    0.978   156 B    0.959
   149   7 N    3.510 --   184 B    1.172   136 B    1.151   129 N    0.999
   150   5 B    3.347 --   162 B    1.009   132 B    1.008   161 N    0.963
   151   7 N    3.508 --   118 B    1.240   154 B    1.093   157 N    1.035
   152   5 B    3.515 --   129 N    1.123   153 N    1.106   125 N    1.085
   153   7 N    3.477 --   120 B    1.175   152 B    1.106   138 B    0.988
   154   5 B    3.464 --   159 N    1.179   151 N    1.093   118 B    0.990
   155   7 N    3.275 --   130 B    1.081   137 N    1.014   169 N    0.976
   156   5 B    3.391 --   143 N    1.220   145 N    0.998   148 B    0.959
   157   7 N    3.370 --   140 B    1.041   151 N    1.035   170 B    0.986
   158   5 B    3.454 --   171 N    1.192   165 N    1.079   134 B    0.932
   159   7 N    3.406 --   154 B    1.179   166 B    1.072   167 N    0.959
   160   5 B    3.365 --   115 N    1.142   114 B    0.970   139 N    0.925
                           172 B    0.127
   161   7 N    3.561 --   116 B    1.276   176 B    1.106   150 B    0.963
   162   5 B    3.367 --   126 B    1.285   150 B    1.009   122 B    0.640
                           176 B    0.186
   163   7 N    2.986 --   171 N    1.044   124 B    0.961   135 N    0.793
   164   5 B    3.455 --   165 N    1.266   122 B    0.932   132 B    0.926
   165   7 N    3.481 --   164 B    1.266   158 B    1.079   125 N    0.967
   166   5 B    3.442 --   185 N    1.131   159 N    1.072   114 B    1.000
   167   7 N    3.185 --   123 N    1.043   159 N    0.959   185 N    0.950
   168   5 B    3.524 --   173 N    1.163   133 N    1.138   183 N    0.993
   169   7 N    3.227 --   142 B    1.039   175 N    0.985   155 N    0.976
   170   5 B    3.507 --   179 N    1.264   143 N    0.993   157 N    0.986
   171   7 N    3.440 --   158 B    1.192   163 N    1.044   145 N    0.990
   172   5 B    3.327 --   139 N    1.061   115 N    1.002   116 B    0.958
                           160 B    0.127
   173   7 N    3.491 --   168 B    1.163   146 B    1.123   115 N    1.007
   174   5 B    3.386 --   117 N    1.151   128 B    1.005   178 B    1.002
   175   7 N    3.447 --   138 B    1.250   130 B    0.996   169 N    0.985
   176   5 B    3.443 --   117 N    1.151   161 N    1.106   126 B    0.627
                           162 B    0.186   178 B    0.120
   177   7 N    3.332 --   142 B    1.207   182 B    1.039   119 N    0.888
   178   5 B    3.334 --   126 B    1.004   174 B    1.002   121 N    0.973
                           176 B    0.120
   179   7 N    3.439 --   170 B    1.264   147 N    0.984   123 N    0.945
   180   5 B    3.447 --   131 N    1.137   181 N    1.122   118 B    0.996
   181   7 N    3.398 --   180 B    1.122   142 B    1.120   137 N    0.939
   182   5 B    3.440 --   145 N    1.260   177 N    1.039   119 N    0.966
   183   7 N    3.476 --   114 B    1.283   168 B    0.993   131 N    0.991
   184   5 B    3.360 --   149 N    1.172   116 B    0.978   146 B    0.923
   185   7 N    3.417 --   166 B    1.131   144 B    1.099   167 N    0.950
 ---------------------------------------------------------------------------

Topologies differ in total number of bonds
Writing topology from bond orders to xtbtopo.mol

molecular dipole:
                 x           y           z       tot (Debye)
 q only:        2.158      -0.948      -2.703
   full:        0.879      -1.822      -0.248       5.180
molecular quadrupole (traceless):
                xx          xy          yy          xz          yz          zz
 q only:      -11.349      -2.289     -47.932      40.596    -122.437      59.281
  q+dip:       -6.900      -1.538     -39.874      57.919    -115.966      46.774
   full:       -2.976      -0.238     -42.529      59.654    -115.191      45.505

           -------------------------------------------------
          |                Geometry Summary                 |
           -------------------------------------------------

      molecular mass/u    :     1747.3462630
   center of mass at/Å    :        0.0044745       0.0286224       6.7292521
  moments of inertia/u·Å² :        0.2927513E+05   0.1001637E+06   0.1110566E+06
rotational constants/cm⁻¹ :        0.5758345E-03   0.1683009E-03   0.1517932E-03

 * 192 selected distances

     #   Z          #   Z                                           value/Å
     2   6 C        3   8 O                                       1.2000451
     2   6 C        4   8 O                                       1.3432369
     4   8 O        5   6 C                                       1.4226501
     6   6 C        7   8 O                                       1.2046063
     8   6 C        9   6 C                                       1.5367410
    10   6 C       11   8 O                                       1.4081993
    10   6 C       12   6 C                                       1.5270488
    12   6 C       13   6 C                                       1.5167628
    13   6 C       14   8 O                                       1.4310436
    14   8 O       15   6 C                                       1.4283638
    13   6 C       16   6 C                                       1.5400673
    15   6 C       16   6 C                                       1.5357858
    16   6 C       17   8 O                                       1.4350421
    17   8 O       18   6 C                                       1.3452099
    18   6 C       20   8 O                                       1.1987831
    22   6 C       23   8 O                                       1.4464170
    23   8 O       24   6 C                                       1.3267433
    24   6 C       25   8 O                                       1.2146072
    26   6 C       27   6 C                                       1.3935707
    27   6 C       28   6 C                                       1.3813118
    28   6 C       29   6 C                                       1.3860554
    29   6 C       30   6 C                                       1.3864649
    26   6 C       31   6 C                                       1.3928700
    30   6 C       31   6 C                                       1.3821187
    32   6 C       33   8 O                                       1.4179976
    34   6 C       35   6 C                                       1.5330980
    35   6 C       36   8 O                                       1.4486512
    36   8 O       37   6 C                                       1.3130905
    37   6 C       38   8 O                                       1.2089890
    39   6 C       40   8 O                                       1.4000432
    41   6 C       42   7 N                                       1.4452471
    42   7 N       43   6 C                                       1.3554315
    43   6 C       44   8 O                                       1.2186655
    45   6 C       46   6 C                                       1.3921486
    46   6 C       47   6 C                                       1.3833004
    47   6 C       48   6 C                                       1.3855047
    48   6 C       49   6 C                                       1.3854441
    45   6 C       50   6 C                                       1.3913345
    49   6 C       50   6 C                                       1.3825929
    51   6 C       52   6 C                                       1.3893666
    52   6 C       53   6 C                                       1.3840484
    53   6 C       54   6 C                                       1.3847446
    54   6 C       55   6 C                                       1.3846270
    51   6 C       56   6 C                                       1.3887100
    55   6 C       56   6 C                                       1.3836718
    57   6 C       59   6 C                                       1.3369604
    60   6 C       61   6 C                                       1.5297392
     1   6 C       63   1 H                                       1.0868510
     1   6 C       64   1 H                                       1.0851394
     1   6 C       65   1 H                                       1.0875975
     5   6 C       66   1 H                                       1.0967666
     9   6 C       67   1 H                                       1.0877841
     9   6 C       68   1 H                                       1.0812969
     9   6 C       69   1 H                                       1.0828817
    10   6 C       70   1 H                                       1.0944282
    11   8 O       71   1 H                                       0.9576989 (min)
    12   6 C       72   1 H                                       1.0903861
    12   6 C       73   1 H                                       1.0911052
    13   6 C       74   1 H                                       1.0944483
    15   6 C       75   1 H                                       1.0910874
    15   6 C       76   1 H                                       1.0907157
    19   6 C       77   1 H                                       1.0872396
    19   6 C       78   1 H                                       1.0885916
    19   6 C       79   1 H                                       1.0864229
    21   6 C       80   1 H                                       1.0977836
    22   6 C       81   1 H                                       1.0988082
    27   6 C       82   1 H                                       1.0793201
    28   6 C       83   1 H                                       1.0794129
    29   6 C       84   1 H                                       1.0801407
    30   6 C       85   1 H                                       1.0796370
    31   6 C       86   1 H                                       1.0784911
    33   8 O       87   1 H                                       0.9732883
    34   6 C       88   1 H                                       1.0900212
    34   6 C       89   1 H                                       1.0933523
    35   6 C       90   1 H                                       1.1001479
    39   6 C       91   1 H                                       1.0979171
    40   8 O       92   1 H                                       0.9750420
    41   6 C       93   1 H                                       1.0953721
    42   7 N       94   1 H                                       1.0076371
    46   6 C       95   1 H                                       1.0806436
    47   6 C       96   1 H                                       1.0803015
    48   6 C       97   1 H                                       1.0800981
    49   6 C       98   1 H                                       1.0799478
    50   6 C       99   1 H                                       1.0798097
    52   6 C      100   1 H                                       1.0795535
    53   6 C      101   1 H                                       1.0801444
    54   6 C      102   1 H                                       1.0801887
    55   6 C      103   1 H                                       1.0798716
    56   6 C      104   1 H                                       1.0806640
    58   6 C      105   1 H                                       1.0888072
    58   6 C      106   1 H                                       1.0842614
    58   6 C      107   1 H                                       1.0875057
    61   6 C      108   1 H                                       1.0869016
    61   6 C      109   1 H                                       1.0839103
    61   6 C      110   1 H                                       1.0828738
    62   6 C      111   1 H                                       1.0873515
    62   6 C      112   1 H                                       1.0857157
    62   6 C      113   1 H                                       1.0841296
   121   7 N      122   5 B                                       1.4429188
   124   5 B      125   7 N                                       1.4038504
   120   5 B      127   7 N                                       1.4722018
   123   7 N      128   5 B                                       1.4401862
   127   7 N      130   5 B                                       1.3875819
   129   7 N      132   5 B                                       1.4223206
   131   7 N      133   7 N                                       1.4222841
   121   7 N      134   5 B                                       1.4231430
   124   5 B      135   7 N                                       1.3940293
   120   5 B      136   5 B                                       1.5751403
   133   7 N      137   7 N                                       1.4203703
   135   7 N      138   5 B                                       1.4351465
   119   7 N      140   5 B                                       1.3895061
   136   5 B      141   7 N                                       1.4839926
   140   5 B      143   7 N                                       1.4714825
   117   7 N      144   5 B                                       1.4902535
   139   7 N      144   5 B                                       1.4133924
   141   7 N      146   5 B                                       1.4384771
   128   5 B      147   7 N                                       1.4565922
   134   5 B      148   5 B                                       1.6640441
   147   7 N      148   5 B                                       1.4082739
   136   5 B      149   7 N                                       1.4216925
   132   5 B      150   5 B                                       1.6422992
   118   5 B      151   7 N                                       1.4060076
   125   7 N      152   5 B                                       1.4488313
   129   7 N      152   5 B                                       1.4599575
   120   5 B      153   7 N                                       1.4271392
   138   5 B      153   7 N                                       1.4933043
   152   5 B      153   7 N                                       1.4579910
   118   5 B      154   5 B                                       1.5728493
   151   7 N      154   5 B                                       1.4136936
   130   5 B      155   7 N                                       1.4399172
   137   7 N      155   7 N                                       1.3906109
   143   7 N      156   5 B                                       1.4203808
   145   7 N      156   5 B                                       1.4791968
   148   5 B      156   5 B                                       1.6738919 (max)
   140   5 B      157   7 N                                       1.4509372
   151   7 N      157   7 N                                       1.3697022
   154   5 B      159   7 N                                       1.4093773
   114   5 B      160   5 B                                       1.6082186
   115   7 N      160   5 B                                       1.4242417
   139   7 N      160   5 B                                       1.4998004
   116   5 B      161   7 N                                       1.4099793
   150   5 B      161   7 N                                       1.4909325
   126   5 B      162   5 B                                       1.5157694
   150   5 B      162   5 B                                       1.6060588
   124   5 B      163   7 N                                       1.4296466
   122   5 B      164   5 B                                       1.6490945
   132   5 B      164   5 B                                       1.6617994
   158   5 B      165   7 N                                       1.4618083
   164   5 B      165   7 N                                       1.4027899
   114   5 B      166   5 B                                       1.6192459
   159   7 N      166   5 B                                       1.4432811
   123   7 N      167   7 N                                       1.3679603
   133   7 N      168   5 B                                       1.4387139
   142   5 B      169   7 N                                       1.4522735
   155   7 N      169   7 N                                       1.4348386
   143   7 N      170   5 B                                       1.4563107
   157   7 N      170   5 B                                       1.4635870
   158   5 B      171   7 N                                       1.4268704
   163   7 N      171   7 N                                       1.3897983
   115   7 N      172   5 B                                       1.4595513
   116   5 B      172   5 B                                       1.6125253
   139   7 N      172   5 B                                       1.4507552
   146   5 B      173   7 N                                       1.4502860
   168   5 B      173   7 N                                       1.4406040
   117   7 N      174   5 B                                       1.4573933
   128   5 B      174   5 B                                       1.6052642
   130   5 B      175   7 N                                       1.4628067
   138   5 B      175   7 N                                       1.3904231
   169   7 N      175   7 N                                       1.4189286
   117   7 N      176   5 B                                       1.4586562
   161   7 N      176   5 B                                       1.4558950
   142   5 B      177   7 N                                       1.3897261
   121   7 N      178   5 B                                       1.4966489
   126   5 B      178   5 B                                       1.6003327
   174   5 B      178   5 B                                       1.6241542
   123   7 N      179   7 N                                       1.4308296
   147   7 N      179   7 N                                       1.4183528
   170   5 B      179   7 N                                       1.3744354
   118   5 B      180   5 B                                       1.6417724
   131   7 N      180   5 B                                       1.4385297
   142   5 B      181   7 N                                       1.4430205
   180   5 B      181   7 N                                       1.4524766
   119   7 N      182   5 B                                       1.4258160
   145   7 N      182   5 B                                       1.4006230
   177   7 N      182   5 B                                       1.4164846
   114   5 B      183   7 N                                       1.4018813
   131   7 N      183   7 N                                       1.4084906
   168   5 B      183   7 N                                       1.4851346
   116   5 B      184   5 B                                       1.6506659
   149   7 N      184   5 B                                       1.4318661
   144   5 B      185   7 N                                       1.4512315
   166   5 B      185   7 N                                       1.4430320

 * 9 distinct bonds (by element types)

   Z      Z             #   av. dist./Å        max./Å        min./Å
   5 B    5 B          17     1.6190074     1.6738919     1.5157694
   1 H    6 C          47     1.0865069     1.1001479     1.0784911
   6 C    6 C          26     1.4236188     1.5400673     1.3369604
   1 H    7 N           1     1.0076371     1.0076371     1.0076371
   5 B    7 N          66     1.4390801     1.4998004     1.3744354
   6 C    7 N           2     1.4003393     1.4452471     1.3554315
   7 N    7 N          11     1.4065606     1.4348386     1.3679603
   1 H    8 O           3     0.9686764     0.9750420     0.9576989
   6 C    8 O          19     1.3374939     1.4486512     1.1987831


optimized geometry written to: xtbopt.xyz


           -------------------------------------------------
          | TOTAL ENERGY             -336.737718687995 Eh   |
          | GRADIENT NORM               0.006837404517 Eh/α |
          | HOMO-LUMO GAP               0.554136188091 eV   |
           -------------------------------------------------

------------------------------------------------------------------------
 * finished run on 2026/08/31 at 22:26:29.450     
------------------------------------------------------------------------
 total:
 * wall-time:     0 d,  0 h,  0 min, 18.586 sec
 *  cpu-time:     0 d,  0 h,  2 min, 14.812 sec
 * ratio c/w:     7.253 speedup
 SCF:
 * wall-time:     0 d,  0 h,  0 min,  2.900 sec
 *  cpu-time:     0 d,  0 h,  0 min, 21.453 sec
 * ratio c/w:     7.398 speedup
 ANC optimizer:
 * wall-time:     0 d,  0 h,  0 min, 15.576 sec
 *  cpu-time:     0 d,  0 h,  1 min, 52.703 sec
 * ratio c/w:     7.236 speedup

normal termination of xtb
