      -----------------------------------------------------------      
     |                   =====================                   |     
     |                           x T B                           |     
     |                   =====================                   |     
     |                         S. Grimme                         |     
     |          Mulliken Center for Theoretical Chemistry        |     
     |                    University of Bonn                     |     
      -----------------------------------------------------------      

   * xtb version 6.7.1pre (5071a88) compiled by 'Marcel@Raven' on 2024-07-23

   xtb is free software: you can redistribute it and/or modify it under
   the terms of the GNU Lesser General Public License as published by
   the Free Software Foundation, either version 3 of the License, or
   (at your option) any later version.
   
   xtb is distributed in the hope that it will be useful,
   but WITHOUT ANY WARRANTY; without even the implied warranty of
   MERCHANTABILITY or FITNESS FOR A PARTICULAR PURPOSE.  See the
   GNU Lesser General Public License for more details.
   
   Cite this work as:
   * C. Bannwarth, E. Caldeweyher, S. Ehlert, A. Hansen, P. Pracht,
     J. Seibert, S. Spicher, S. Grimme, WIREs Comput. Mol. Sci., 2020, 11,
     e01493. DOI: 10.1002/wcms.1493
   
   for GFN2-xTB:
   * C. Bannwarth, S. Ehlert and S. Grimme., J. Chem. Theory Comput., 2019,
     15, 1652-1671. DOI: 10.1021/acs.jctc.8b01176
   for GFN1-xTB:
   * S. Grimme, C. Bannwarth, P. Shushkov, J. Chem. Theory Comput., 2017,
     13, 1989-2009. DOI: 10.1021/acs.jctc.7b00118
   for GFN0-xTB:
   * P. Pracht, E. Caldeweyher, S. Ehlert, S. Grimme, ChemRxiv, 2019, preprint.
     DOI: 10.26434/chemrxiv.8326202.v1
   for GFN-FF:
   * S. Spicher and S. Grimme, Angew. Chem. Int. Ed., 2020, 59, 15665-15673.
     DOI: 10.1002/anie.202004239
   
   for ALPB and GBSA implicit solvation:
   * S. Ehlert, M. Stahn, S. Spicher, S. Grimme, J. Chem. Theory Comput.,
     2021, 17, 4250-4261. DOI: 10.1021/acs.jctc.1c00471
   
   for ddCOSMO and CPCM-X implicit solvation:
   * M. Stahn, S. Ehlert, S. Grimme, J. Phys. Chem. A,
     2023, XX, XXXX-XXXX. DOI: 10.1021/acs.jpca.3c04382
   
   for DFT-D4:
   * E. Caldeweyher, C. Bannwarth and S. Grimme, J. Chem. Phys., 2017,
     147, 034112. DOI: 10.1063/1.4993215
   * E. Caldeweyher, S. Ehlert, A. Hansen, H. Neugebauer, S. Spicher,
     C. Bannwarth and S. Grimme, J. Chem. Phys., 2019, 150, 154122.
     DOI: 10.1063/1.5090222
   * E. Caldeweyher, J.-M. Mewes, S. Ehlert and S. Grimme, Phys. Chem. Chem. Phys.
     2020, 22, 8499-8512. DOI: 10.1039/D0CP00502A
   
   for sTDA-xTB:
   * S. Grimme and C. Bannwarth, J. Chem. Phys., 2016, 145, 054103.
     DOI: 10.1063/1.4959605
   
   in the mass-spec context:
   * V. Asgeirsson, C. Bauer and S. Grimme, Chem. Sci., 2017, 8, 4879.
     DOI: 10.1039/c7sc00601b
   * J. Koopman and S. Grimme, ACS Omega 2019, 4, 12, 15120-15133.
     DOI: 10.1021/acsomega.9b02011
   
   for metadynamics refer to:
   * S. Grimme, J. Chem. Theory Comput., 2019, 155, 2847-2862
     DOI: 10.1021/acs.jctc.9b00143
   
   for SPH calculations refer to:
   * S. Spicher and S. Grimme, J. Chem. Theory Comput., 2021, 17, 1701-1714
     DOI: 10.1021/acs.jctc.0c01306
   
   for ONIOM refer to:
   * C. Plett, A. Katbashev, S. Ehlert, S. Grimme, M. Bursch,
     Phys. Chem. Chem. Phys., 2023, 25, 17860-17868. DOI: 10.1039/D3CP02178E
   
   for DIPRO refer to:
   * J. Kohn, N. Gildemeister, S. Grimme, D. Fazzi, A. Hansen,
     J. Chem. Phys., 2023, just accepted.
   
   for PTB refer to:
   * S. Grimme, M. Mueller, A. Hansen, J. Chem. Phys., 2023, 158, 124111.
     DOI: 10.1063/5.0137838
   
   with help from (in alphabetical order)
   P. Atkinson, C. Bannwarth, F. Bohle, G. Brandenburg, E. Caldeweyher
   M. Checinski, S. Dohm, S. Ehlert, S. Ehrlich, I. Gerasimov, C. Hölzer
   A. Katbashev, J. Kohn, J. Koopman, C. Lavigne, S. Lehtola, F. März, M. Müller,
   F. Musil, H. Neugebauer, J. Pisarek, C. Plett, P. Pracht, F. Pultar,
   J. Seibert, P. Shushkov, S. Spicher, M. Stahn, M. Steiner, T. Strunk,
   J. Stückrath, T. Rose, and J. Unsleber
   
 * started run on 2026/08/31 at 22:24:54.398     
   ID    Z sym.   atoms
    1    6 C      1, 2, 5, 6, 8-10, 12, 13, 15, 16, 18, 19, 21, 22, 24,
                  26-32, 34, 35, 37, 39, 41, 43, 45-62
    2    8 O      3, 4, 7, 11, 14, 17, 20, 23, 25, 33, 36, 38, 40, 44
    3    7 N      42, 115, 117, 119, 121, 123, 125, 127, 129, 131, 133, 135,
                  137, 139, 141, 143, 145, 147, 149, 151, 153, 155, 157, 159,
                  161, 163, 165, 167, 169, 171, 173, 175, 177, 179, 181, 183,
                  185
    4    1 H      63-113
    5    5 B      114, 116, 118, 120, 122, 124, 126, 128, 130, 132, 134, 136,
                  138, 140, 142, 144, 146, 148, 150, 152, 154, 156, 158, 160,
                  162, 164, 166, 168, 170, 172, 174, 176, 178, 180, 182, 184

           -------------------------------------------------
          |                Calculation Setup                |
           -------------------------------------------------

          program call               : "c:\Users\Andre\Proyectos doctorado\kras-pancreatic-gC3N4-ai\tools\xtb\xtb-6.7.1\bin\xtb.exe" "c:\Users\Andre\Proyectos doctorado\nano-qsar-ai-therapeutics\calculations\tnbc\Paclitaxel\Paclitaxel_opt_0deg.xyz" --opt vloose --gfn 2 --chrg 0 --uhf 0 --etemp 300 --iterations 500 --cycles 15 --norestart
          coordinate file            : c:\Users\Andre\Proyectos doctorado\nano-qsar-ai-therapeutics\calculations\tnbc\Paclitaxel\Paclitaxel_opt_0deg.xyz
          omp threads                :                    16


molecular fragmentation (1/2 indicates fragments):
111111111111111111111111111111111111111111111111111111111111111111111111
111111111111111111111111111111111111111112222222222222222222222222222222
22222222222222222222222222222222222222222
# atoms in fragment 1/2:   113    72
 fragment masses (1/2) :      853.91      893.44
CMA distance (Bohr)    :  25.707
constraining FC (au)   :  0.0500

           -------------------------------------------------
          |                 G F N 2 - x T B                 |
           -------------------------------------------------

        Reference                      10.1021/acs.jctc.8b01176
      * Hamiltonian:
        H0-scaling (s, p, d)           1.850000    2.230000    2.230000
        zeta-weighting                 0.500000
      * Dispersion:
        s8                             2.700000
        a1                             0.520000
        a2                             5.000000
        s9                             5.000000
      * Repulsion:
        kExp                           1.500000    1.000000
        rExp                           1.000000
      * Coulomb:
        alpha                          2.000000
        third order                    shell-resolved
        anisotropic                    true
        a3                             3.000000
        a5                             4.000000
        cn-shift                       1.200000
        cn-exp                         4.000000
        max-rad                        5.000000


          ...................................................
          :                      SETUP                      :
          :.................................................:
          :  # basis functions                 587          :
          :  # atomic orbitals                 587          :
          :  # shells                          319          :
          :  # electrons                       616          :
          :  max. iterations                   500          :
          :  Hamiltonian                  GFN2-xTB          :
          :  restarted?                      false          :
          :  GBSA solvation                  false          :
          :  PC potential                    false          :
          :  electronic temp.          300.0000000     K    :
          :  accuracy                    1.0000000          :
          :  -> integral cutoff          0.2500000E+02      :
          :  -> integral neglect         0.1000000E-07      :
          :  -> SCF convergence          0.1000000E-05 Eh   :
          :  -> wf. convergence          0.1000000E-03 e    :
          :  Broyden damping             0.4000000          :
          :  net charge                          0          :
          :  unpaired electrons                  0          :
          ...................................................

 iter      E             dE          RMSdq      gap      omega  full diag
   1   -339.0662036 -0.339066E+03  0.934E+00    0.59       0.0  T
   2   -339.5461580 -0.479954E+00  0.557E+00    0.04       1.0  T
   3   -328.8220007  0.107242E+02  0.474E+00    0.00       1.0  T
   4   -280.7084459  0.481136E+02  0.659E+00    0.01       1.0  T
   5   -332.3770781 -0.516686E+02  0.293E+00    0.03       1.0  T
   6   -340.0074015 -0.763032E+01  0.145E+00    0.71       1.0  T
   7   -340.1596399 -0.152238E+00  0.930E-01    0.33       1.0  T
   8   -340.1591305  0.509354E-03  0.810E-01    0.43       1.0  T
   9   -340.1679480 -0.881747E-02  0.653E-01    0.28       1.0  T
  10   -340.1828733 -0.149253E-01  0.433E-01    0.31       1.0  T
  11   -340.1827427  0.130644E-03  0.254E-01    0.24       1.0  T
  12   -340.1901961 -0.745343E-02  0.184E-01    0.27       1.0  T
  13   -340.1912786 -0.108251E-02  0.156E-01    0.27       1.0  T
  14   -340.1939223 -0.264374E-02  0.137E-01    0.31       1.0  T
  15   -340.1955447 -0.162238E-02  0.118E-01    0.33       1.0  T
  16   -340.1981994 -0.265464E-02  0.845E-02    0.39       1.0  T
  17   -340.2000312 -0.183187E-02  0.555E-02    0.46       1.0  T
  18   -340.2007893 -0.758119E-03  0.423E-02    0.51       1.0  T
  19   -340.2012918 -0.502435E-03  0.285E-02    0.55       1.0  T
  20   -340.2015709 -0.279148E-03  0.151E-02    0.59       1.0  T
  21   -340.2016213 -0.503225E-04  0.827E-03    0.52       1.0  T
  22   -340.2016286 -0.739091E-05  0.439E-03    0.49       1.7  T
  23   -340.2016301 -0.143825E-05  0.218E-03    0.49       3.4  T
  24   -340.2016303 -0.250666E-06  0.853E-04    0.48       8.6  T
  25   -340.2016304 -0.382771E-07  0.370E-04    0.48      19.9  T

   *** convergence criteria satisfied after 25 iterations ***

         #    Occupation            Energy/Eh            Energy/eV
      -------------------------------------------------------------
         1        2.0000           -0.7460494             -20.3010
       ...           ...                  ...                  ...
       302        2.0000           -0.3243478              -8.8260
       303        2.0000           -0.3215521              -8.7499
       304        2.0000           -0.3200693              -8.7095
       305        2.0000           -0.3174605              -8.6385
       306        2.0000           -0.3123603              -8.4998
       307        2.0000           -0.3105861              -8.4515
       308        1.9998           -0.3038647              -8.2686 (HOMO)
       309        0.0002           -0.2861360              -7.7862 (LUMO)
       310        0.0000           -0.2804591              -7.6317
       311                         -0.2742707              -7.4633
       312                         -0.2721913              -7.4067
       313                         -0.2659331              -7.2364
       ...                                ...                  ...
       587                          0.9863824              26.8408
      -------------------------------------------------------------
                  HL-Gap            0.0177287 Eh            0.4824 eV
             Fermi-level           -0.2950011 Eh           -8.0274 eV

 SCC (total)                   0 d,  0 h,  0 min,  2.493 sec
 SCC setup                      ...        0 min,  0.002 sec (  0.080%)
 Dispersion                     ...        0 min,  0.009 sec (  0.361%)
 classical contributions        ...        0 min,  0.000 sec (  0.000%)
 integral evaluation            ...        0 min,  0.028 sec (  1.123%)
 iterations                     ...        0 min,  2.366 sec ( 94.906%)
 molecular gradient             ...        0 min,  0.082 sec (  3.289%)
 printout                       ...        0 min,  0.006 sec (  0.241%)

         :::::::::::::::::::::::::::::::::::::::::::::::::::::
         ::                     SUMMARY                     ::
         :::::::::::::::::::::::::::::::::::::::::::::::::::::
         :: total energy            -336.693831359387 Eh    ::
         :: gradient norm              0.152713554294 Eh/a0 ::
         :: HOMO-LUMO gap              0.482423143893 eV    ::
         ::.................................................::
         :: SCC energy              -340.181480425066 Eh    ::
         :: -> isotropic ES            0.969823544533 Eh    ::
         :: -> anisotropic ES         -0.028784406933 Eh    ::
         :: -> anisotropic XC          0.107444044532 Eh    ::
         :: -> dispersion             -0.292706826108 Eh    ::
         :: repulsion energy           3.487649065678 Eh    ::
         :: add. restraining           0.000000000000 Eh    ::
         :: total charge              -0.000000000001 e     ::
         :::::::::::::::::::::::::::::::::::::::::::::::::::::

      ----------------------------------------------------------- 
     |                   =====================                   |
     |                        A N C O P T                        |
     |                   =====================                   |
     |               Approximate Normal Coordinate               |
     |                Rational Function Optimizer                |
      ----------------------------------------------------------- 
      ----------------------------------------------------------- 
     |                   =====================                   |
     |                        A N C O P T                        |
     |                   =====================                   |
     |               Approximate Normal Coordinate               |
     |                Rational Function Optimizer                |
      ----------------------------------------------------------- 

          ...................................................
          :                      SETUP                      :
          :.................................................:
          :   optimization level            normal          :
          :   max. optcycles                    15          :
          :   ANC micro-cycles                  15          :
          :   degrees of freedom               549          :
          :.................................................:
          :   RF solver                   davidson          :
          :   write xtbopt.log                true          :
          :   linear?                        false          :
          :   energy convergence         0.5000000E-05 Eh   :
          :   grad. convergence          0.1000000E-02 Eh/α :
          :   maxmium RF displ.          1.0000000          :
          :   Hlow (freq-cutoff)         0.1000000E-01      :
          :   Hmax (freq-cutoff)         5.0000000          :
          :   S6 in model hess.         20.0000000          :
          ...................................................

generating ANC from exact Hessian ...
Using Lindh-Hessian (1995)
 Shifting diagonal of input Hessian by   1.008558277369629E-002
 Lowest  eigenvalues of input Hessian
    0.010000    0.010005    0.010016    0.010038    0.010046    0.010063
    0.000000    0.000000    0.000000    0.000000    0.000000    0.010096
    0.000000    0.010138    0.010190    0.010225    0.010296    0.010345
 Highest eigenvalues
    2.260727    2.267030    2.274249    2.274402    2.314980    2.316891
 

........................................................................
.............................. CYCLE    1 ..............................
........................................................................

 iter      E             dE          RMSdq      gap      omega  full diag
   1   -340.2016304 -0.340202E+03  0.194E-04    0.48       0.0  T
   2   -340.2016304 -0.109736E-08  0.176E-04    0.48      41.8  T
   3   -340.2016304 -0.209127E-08  0.982E-05    0.48      74.9  T
     SCC iter.                  ...        0 min,  0.424 sec
     gradient                   ...        0 min,  0.078 sec
 * total energy  :  -336.6938314 Eh     change       -0.1004241E-07 Eh
   gradient norm :     0.1527150 Eh/α   predicted     0.0000000E+00 (-100.00%)
   displ. norm   :     0.4652579 α      lambda       -0.3862920E-01
   maximum displ.:     0.1011467 α      in ANC's #103, #66, #70, ...

........................................................................
.............................. CYCLE    2 ..............................
........................................................................

 iter      E             dE          RMSdq      gap      omega  full diag
   1   -340.3282151 -0.340328E+03  0.143E-01    0.55       0.0  T
   2   -340.3285749 -0.359791E-03  0.844E-02    0.56       1.0  T
   3   -340.3285484  0.264900E-04  0.363E-02    0.56       1.0  T
   4   -340.3286266 -0.782426E-04  0.664E-03    0.56       1.1  T
   5   -340.3286290 -0.233926E-05  0.436E-03    0.56       1.7  T
   6   -340.3286310 -0.202726E-05  0.287E-03    0.56       2.6  T
   7   -340.3286323 -0.128446E-05  0.176E-03    0.56       4.2  T
   8   -340.3286328 -0.571749E-06  0.862E-04    0.56       8.5  T
   9   -340.3286329 -0.110599E-06  0.471E-04    0.56      15.6  T
     SCC iter.                  ...        0 min,  0.827 sec
     gradient                   ...        0 min,  0.099 sec
 * total energy  :  -336.7206699 Eh     change       -0.2683852E-01 Eh
   gradient norm :     0.0563923 Eh/α   predicted    -0.2353180E-01 ( -12.32%)
   displ. norm   :     0.4954130 α      lambda       -0.1362642E-01
   maximum displ.:     0.1232879 α      in ANC's #66, #70, #43, ...

........................................................................
.............................. CYCLE    3 ..............................
........................................................................

 iter      E             dE          RMSdq      gap      omega  full diag
   1   -340.3953425 -0.340395E+03  0.964E-02    0.59       0.0  T
   2   -340.3955192 -0.176691E-03  0.564E-02    0.59       1.0  T
   3   -340.3955106  0.858793E-05  0.246E-02    0.59       1.0  T
   4   -340.3955382 -0.275874E-04  0.560E-03    0.59       1.3  T
   5   -340.3955369  0.123336E-05  0.491E-03    0.59       1.5  T
   6   -340.3955440 -0.708707E-05  0.208E-03    0.59       3.5  T
   7   -340.3955448 -0.799158E-06  0.110E-03    0.59       6.7  T
   8   -340.3955449 -0.108577E-06  0.700E-04    0.59      10.5  T
   9   -340.3955450 -0.110862E-06  0.271E-04    0.59      27.1  T
     SCC iter.                  ...        0 min,  0.735 sec
     gradient                   ...        0 min,  0.092 sec
 * total energy  :  -336.7297229 Eh     change       -0.9053025E-02 Eh
   gradient norm :     0.0243916 Eh/α   predicted    -0.8485410E-02 (  -6.27%)
   displ. norm   :     0.4694748 α      lambda       -0.4807848E-02
   maximum displ.:     0.1196502 α      in ANC's #40, #38, #70, ...

........................................................................
.............................. CYCLE    4 ..............................
........................................................................

 iter      E             dE          RMSdq      gap      omega  full diag
   1   -340.4095372 -0.340410E+03  0.656E-02    0.59       0.0  T
   2   -340.4096179 -0.807281E-04  0.394E-02    0.59       1.0  T
   3   -340.4096131  0.485039E-05  0.147E-02    0.59       1.0  T
   4   -340.4096194 -0.626476E-05  0.504E-03    0.59       1.5  T
   5   -340.4096216 -0.224542E-05  0.338E-03    0.59       2.2  T
   6   -340.4096249 -0.326988E-05  0.133E-03    0.59       5.5  T
   7   -340.4096252 -0.340949E-06  0.614E-04    0.59      12.0  T
   8   -340.4096252 -0.135558E-07  0.381E-04    0.59      19.3  T
     SCC iter.                  ...        0 min,  0.697 sec
     gradient                   ...        0 min,  0.087 sec
 * total energy  :  -336.7331075 Eh     change       -0.3384594E-02 Eh
   gradient norm :     0.0124956 Eh/α   predicted    -0.2933832E-02 ( -13.32%)
   displ. norm   :     0.4547461 α      lambda       -0.2391254E-02
   maximum displ.:     0.1295526 α      in ANC's #25, #38, #23, ...

........................................................................
.............................. CYCLE    5 ..............................
........................................................................

 iter      E             dE          RMSdq      gap      omega  full diag
   1   -340.4142358 -0.340414E+03  0.544E-02    0.58       0.0  T
   2   -340.4142698 -0.339844E-04  0.330E-02    0.58       1.0  T
   3   -340.4142625  0.728542E-05  0.108E-02    0.58       1.0  T
   4   -340.4142701 -0.755922E-05  0.413E-03    0.58       1.8  T
   5   -340.4142713 -0.122931E-05  0.311E-03    0.58       2.4  T
   6   -340.4142742 -0.283722E-05  0.989E-04    0.58       7.4  T
   7   -340.4142743 -0.117823E-06  0.538E-04    0.58      13.7  T
   8   -340.4142743 -0.223475E-07  0.245E-04    0.58      30.0  T
     SCC iter.                  ...        0 min,  0.624 sec
     gradient                   ...        0 min,  0.091 sec
 * total energy  :  -336.7347555 Eh     change       -0.1648021E-02 Eh
   gradient norm :     0.0097813 Eh/α   predicted    -0.1442898E-02 ( -12.45%)
   displ. norm   :     0.3965166 α      lambda       -0.1174606E-02
   maximum displ.:     0.1460015 α      in ANC's #25, #23, #29, ...

........................................................................
.............................. CYCLE    6 ..............................
........................................................................

 iter      E             dE          RMSdq      gap      omega  full diag
   1   -340.4143656 -0.340414E+03  0.422E-02    0.57       0.0  T
   2   -340.4143744 -0.878231E-05  0.253E-02    0.57       1.0  T
   3   -340.4143661  0.831599E-05  0.800E-03    0.57       1.0  T
   4   -340.4143737 -0.759056E-05  0.333E-03    0.57       2.2  T
   5   -340.4143755 -0.175930E-05  0.181E-03    0.57       4.1  T
   6   -340.4143762 -0.771618E-06  0.973E-04    0.57       7.6  T
   7   -340.4143764 -0.190430E-06  0.390E-04    0.57      18.8  T
     SCC iter.                  ...        0 min,  0.596 sec
     gradient                   ...        0 min,  0.079 sec
 * total energy  :  -336.7355892 Eh     change       -0.8336375E-03 Eh
   gradient norm :     0.0098747 Eh/α   predicted    -0.6796439E-03 ( -18.47%)
   displ. norm   :     0.3888965 α      lambda       -0.7925843E-03
   maximum displ.:     0.1573349 α      in ANC's #25, #21, #29, ...

........................................................................
.............................. CYCLE    7 ..............................
........................................................................

 iter      E             dE          RMSdq      gap      omega  full diag
   1   -340.4151791 -0.340415E+03  0.364E-02    0.56       0.0  T
   2   -340.4151835 -0.439705E-05  0.217E-02    0.56       1.0  T
   3   -340.4151707  0.127985E-04  0.904E-03    0.56       1.0  T
   4   -340.4151841 -0.133606E-04  0.261E-03    0.56       2.8  T
   5   -340.4151852 -0.107973E-05  0.131E-03    0.56       5.6  T
   6   -340.4151855 -0.288406E-06  0.867E-04    0.56       8.5  T
   7   -340.4151856 -0.149470E-06  0.419E-04    0.56      17.6  T
     SCC iter.                  ...        0 min,  0.667 sec
     gradient                   ...        0 min,  0.101 sec
 * total energy  :  -336.7361581 Eh     change       -0.5688998E-03 Eh
   gradient norm :     0.0071874 Eh/α   predicted    -0.4562280E-03 ( -19.81%)
   displ. norm   :     0.3611601 α      lambda       -0.5410521E-03
   maximum displ.:     0.1394939 α      in ANC's #25, #21, #10, ...

........................................................................
.............................. CYCLE    8 ..............................
........................................................................

 iter      E             dE          RMSdq      gap      omega  full diag
   1   -340.4163898 -0.340416E+03  0.335E-02    0.55       0.0  T
   2   -340.4163951 -0.529146E-05  0.201E-02    0.55       1.0  T
   3   -340.4163833  0.118072E-04  0.908E-03    0.55       1.0  T
   4   -340.4163958 -0.125291E-04  0.268E-03    0.55       2.7  T
   5   -340.4163968 -0.929608E-06  0.136E-03    0.55       5.4  T
   6   -340.4163971 -0.328969E-06  0.818E-04    0.55       9.0  T
   7   -340.4163972 -0.110924E-06  0.398E-04    0.55      18.5  T
     SCC iter.                  ...        0 min,  0.595 sec
     gradient                   ...        0 min,  0.114 sec
 * total energy  :  -336.7365401 Eh     change       -0.3820392E-03 Eh
   gradient norm :     0.0061166 Eh/α   predicted    -0.3058155E-03 ( -19.95%)
   displ. norm   :     0.2975821 α      lambda       -0.3334903E-03
   maximum displ.:     0.1262539 α      in ANC's #10, #21, #25, ...

........................................................................
.............................. CYCLE    9 ..............................
........................................................................

 iter      E             dE          RMSdq      gap      omega  full diag
   1   -340.4180341 -0.340418E+03  0.271E-02    0.55       0.0  T
   2   -340.4180372 -0.312290E-05  0.162E-02    0.55       1.0  T
   3   -340.4180289  0.831457E-05  0.670E-03    0.55       1.1  T
   4   -340.4180353 -0.645642E-05  0.310E-03    0.55       2.4  T
   5   -340.4180377 -0.232593E-05  0.154E-03    0.55       4.8  T
   6   -340.4180383 -0.654498E-06  0.540E-04    0.55      13.6  T
   7   -340.4180383  0.151550E-08  0.398E-04    0.55      18.5  T
     SCC iter.                  ...        0 min,  1.141 sec
     gradient                   ...        0 min,  0.090 sec
 * total energy  :  -336.7367771 Eh     change       -0.2369538E-03 Eh
   gradient norm :     0.0054343 Eh/α   predicted    -0.1815186E-03 ( -23.39%)
   displ. norm   :     0.2701817 α      lambda       -0.2369252E-03
   maximum displ.:     0.1318234 α      in ANC's #10, #21, #13, ...

........................................................................
.............................. CYCLE   10 ..............................
........................................................................

 iter      E             dE          RMSdq      gap      omega  full diag
   1   -340.4193505 -0.340419E+03  0.239E-02    0.55       0.0  T
   2   -340.4193525 -0.198407E-05  0.142E-02    0.55       1.0  T
   3   -340.4193478  0.471342E-05  0.553E-03    0.55       1.3  T
   4   -340.4193527 -0.492513E-05  0.164E-03    0.55       4.5  T
   5   -340.4193531 -0.425366E-06  0.776E-04    0.55       9.5  T
   6   -340.4193532 -0.983059E-07  0.499E-04    0.55      14.7  T
     SCC iter.                  ...        0 min,  0.499 sec
     gradient                   ...        0 min,  0.088 sec
 * total energy  :  -336.7369538 Eh     change       -0.1767547E-03 Eh
   gradient norm :     0.0042938 Eh/α   predicted    -0.1271200E-03 ( -28.08%)
   displ. norm   :     0.3097438 α      lambda       -0.2284748E-03
   maximum displ.:     0.1585227 α      in ANC's #10, #21, #13, ...

........................................................................
.............................. CYCLE   11 ..............................
........................................................................

 iter      E             dE          RMSdq      gap      omega  full diag
   1   -340.4193983 -0.340419E+03  0.268E-02    0.55       0.0  T
   2   -340.4194007 -0.237439E-05  0.158E-02    0.55       1.0  T
   3   -340.4193965  0.412821E-05  0.481E-03    0.55       1.5  T
   4   -340.4193990 -0.246693E-05  0.272E-03    0.55       2.7  T
   5   -340.4194009 -0.193722E-05  0.120E-03    0.55       6.1  T
   6   -340.4194013 -0.377249E-06  0.460E-04    0.55      16.0  T
   7   -340.4194013 -0.129338E-07  0.248E-04    0.55      29.6  T
     SCC iter.                  ...        0 min,  0.562 sec
     gradient                   ...        0 min,  0.084 sec
 * total energy  :  -336.7371326 Eh     change       -0.1787801E-03 Eh
   gradient norm :     0.0048502 Eh/α   predicted    -0.1251983E-03 ( -29.97%)
   displ. norm   :     0.3846894 α      lambda       -0.2614434E-03
   maximum displ.:     0.2004815 α      in ANC's #10, #21, #14, ...

........................................................................
.............................. CYCLE   12 ..............................
........................................................................

 iter      E             dE          RMSdq      gap      omega  full diag
   1   -340.4191109 -0.340419E+03  0.304E-02    0.56       0.0  T
   2   -340.4191135 -0.265531E-05  0.179E-02    0.55       1.0  T
   3   -340.4191072  0.634055E-05  0.613E-03    0.55       1.2  T
   4   -340.4191133 -0.615322E-05  0.207E-03    0.55       3.5  T
   5   -340.4191141 -0.744050E-06  0.116E-03    0.55       6.3  T
   6   -340.4191144 -0.335458E-06  0.604E-04    0.55      12.2  T
   7   -340.4191145 -0.492635E-07  0.347E-04    0.55      21.2  T
     SCC iter.                  ...        0 min,  0.533 sec
     gradient                   ...        0 min,  0.074 sec
 * total energy  :  -336.7373374 Eh     change       -0.2048405E-03 Eh
   gradient norm :     0.0050504 Eh/α   predicted    -0.1500697E-03 ( -26.74%)
   displ. norm   :     0.4457158 α      lambda       -0.2713899E-03
   maximum displ.:     0.2334444 α      in ANC's #10, #21, #14, ...

........................................................................
.............................. CYCLE   13 ..............................
........................................................................

 iter      E             dE          RMSdq      gap      omega  full diag
   1   -340.4171590 -0.340417E+03  0.366E-02    0.56       0.0  T
   2   -340.4171648 -0.575985E-05  0.215E-02    0.56       1.0  T
   3   -340.4171590  0.578185E-05  0.627E-03    0.56       1.2  T
   4   -340.4171637 -0.471771E-05  0.291E-03    0.56       2.5  T
   5   -340.4171654 -0.171307E-05  0.122E-03    0.56       6.0  T
   6   -340.4171658 -0.367257E-06  0.650E-04    0.56      11.3  T
   7   -340.4171659 -0.550329E-07  0.387E-04    0.56      19.0  T
     SCC iter.                  ...        0 min,  0.598 sec
     gradient                   ...        0 min,  0.101 sec
 * total energy  :  -336.7375452 Eh     change       -0.2077830E-03 Eh
   gradient norm :     0.0060560 Eh/α   predicted    -0.1626557E-03 ( -21.72%)
   displ. norm   :     0.4524981 α      lambda       -0.2738107E-03
   maximum displ.:     0.2410813 α      in ANC's #10, #14, #13, ...

........................................................................
.............................. CYCLE   14 ..............................
........................................................................

 iter      E             dE          RMSdq      gap      omega  full diag
   1   -340.4179073 -0.340418E+03  0.341E-02    0.56       0.0  T
   2   -340.4179113 -0.399732E-05  0.201E-02    0.56       1.0  T
   3   -340.4179047  0.661873E-05  0.661E-03    0.56       1.1  T
   4   -340.4179112 -0.649438E-05  0.234E-03    0.56       3.1  T
   5   -340.4179122 -0.102367E-05  0.968E-04    0.56       7.6  T
   6   -340.4179124 -0.177981E-06  0.598E-04    0.56      12.3  T
   7   -340.4179125 -0.702777E-07  0.247E-04    0.56      29.8  T
     SCC iter.                  ...        0 min,  0.581 sec
     gradient                   ...        0 min,  0.078 sec
 * total energy  :  -336.7377446 Eh     change       -0.1993837E-03 Eh
   gradient norm :     0.0051953 Eh/α   predicted    -0.1649381E-03 ( -17.28%)
   displ. norm   :     0.4726893 α      lambda       -0.2413678E-03
   maximum displ.:     0.2519826 α      in ANC's #10, #14, #13, ...

........................................................................
.............................. CYCLE   15 ..............................
........................................................................

 iter      E             dE          RMSdq      gap      omega  full diag
   1   -340.4164753 -0.340416E+03  0.375E-02    0.56       0.0  T
   2   -340.4164799 -0.460129E-05  0.222E-02    0.56       1.0  T
   3   -340.4164709  0.895993E-05  0.787E-03    0.56       1.0  T
   4   -340.4164806 -0.968039E-05  0.223E-03    0.56       3.3  T
   5   -340.4164813 -0.734524E-06  0.836E-04    0.56       8.8  T
   6   -340.4164813 -0.915463E-08  0.677E-04    0.56      10.9  T
     SCC iter.                  ...        0 min,  0.551 sec
     gradient                   ...        0 min,  0.078 sec
 * total energy  :  -336.7379338 Eh     change       -0.1892398E-03 Eh
   gradient norm :     0.0053222 Eh/α   predicted    -0.1476551E-03 ( -21.97%)
   displ. norm   :     0.4867905 α      lambda       -0.2940632E-03
   maximum displ.:     0.2553727 α      in ANC's #10, #14, #13, ...

   *** FAILED TO CONVERGE GEOMETRY OPTIMIZATION IN 15 ITERATIONS ***


 ANCopt (total)                0 d,  0 h,  0 min, 12.011 sec
 optimizer setup                ...        0 min,  0.004 sec (  0.033%)
 model hessian                  ...        0 min,  0.183 sec (  1.524%)
 ANC generation                 ...        0 min,  0.048 sec (  0.400%)
 coordinate transformation      ...        0 min,  0.002 sec (  0.017%)
 single point calculation       ...        0 min, 11.701 sec ( 97.419%)
 optimization log               ...        0 min,  0.047 sec (  0.391%)
 hessian update                 ...        0 min,  0.015 sec (  0.125%)
 rational function              ...        0 min,  0.008 sec (  0.067%)

================
 final structure:
================
185
 xtb: 6.7.1pre (5071a88)
C           -1.92644120179584       -4.69070543972273        8.68650395934316
C           -1.40438903462826       -3.32706820751603        9.04351643538736
O           -0.90850728786646       -2.54496356280382        8.27861849886063
O           -1.53240325067511       -3.10009018407363       10.36023906558758
C           -1.20344450583336       -1.78728360359796       10.79996170448269
C           -2.41235552905185       -0.87230528261219       10.60483403324439
O           -3.40108014531773       -1.30216432651259       10.06751522586741
C           -2.28829140305146        0.60582442864037       11.00908769610880
C           -0.84214868501413        1.12285230996684       11.06366056143400
C           -2.96568910209094        1.33170367825792        9.78960325617353
O           -2.00169177277906        1.42563048958069        8.76750985176534
C           -3.55079327739841        2.69448333114771       10.15403309298478
C           -4.72238584786759        2.45077598460812       11.08611255438760
O           -5.68288237123533        1.52806891818088       10.56318893899894
C           -5.46649360253868        0.58673439284446       11.61526994819263
C           -4.41464361671921        1.50179803141488       12.25929347826676
O           -4.74357902044458        2.04688914350678       13.54543675266192
C           -5.94810035171899        2.57461283812968       13.82922429544893
C           -5.97746586013589        3.04746335056163       15.26046720661432
O           -6.87035519479639        2.65893600496496       13.06831739936035
C           -2.93917205849723        1.02764694399268       12.37188015569136
C           -2.83814730786875        0.25405354167489       13.75213903774676
O           -2.46004512040930        1.34403757525185       14.62491199502072
C           -3.04125581519117        1.51685093860241       15.80501816150876
O           -3.87906598482563        0.77317114027686       16.27437445324123
C           -2.53065412292516        2.70968930623622       16.51718596757366
C           -3.10983228627736        3.04139279989855       17.74057818896706
C           -2.64400531756418        4.12789184028236       18.45505536974570
C           -1.59466940025308        4.88299587484096       17.95519119810423
C           -1.01176680483585        4.55259330093044       16.74139396102496
C           -1.47502587360367        3.46935816413298       16.01870810815781
C           -2.03546329329269       -1.01321388135118       14.28077206412974
O           -2.85912311149840       -1.56741320840186       15.29345673447742
C           -0.67555032705716       -0.67814033388119       14.93167384910176
C            0.56779860061132       -0.73365843617240       14.03674671218048
O            1.59563533894182       -1.52301570879352       14.68382591672467
C            2.21879327439797       -0.93906954308687       15.68128591515384
O            1.94983707061423        0.13403754817935       16.16867713205093
C            3.37711679332142       -1.76818685532527       16.22849699629996
O            3.85406275609071       -1.15350194094410       17.39253757341357
C            4.47340216479632       -1.85390473688828       15.12302143297860
N            5.19375641195889       -0.60314466417313       15.04846577198731
C            4.71424913548537        0.44733852799684       14.33862416805863
O            3.69477747995326        0.37228727203447       13.67529924908066
C            5.54733928197043        1.67863918799623       14.40703389405250
C            6.92908895322990        1.62473872968386       14.56776986923072
C            7.66586325058399        2.79483832170573       14.60592398159147
C            7.03239753177448        4.02141157133123       14.48854988757697
C            5.65905620004978        4.07946159080431       14.31569083769701
C            4.91940785311824        2.91233788195880       14.26789588399255
C            5.44620389812080       -2.98050259603224       15.34853536481196
C            6.04081006095741       -3.16973745237323       16.58984599736653
C            6.95583025068521       -4.19187120249917       16.77288397794590
C            7.28842274625937       -5.02610804730713       15.71887374423475
C            6.70292543866314       -4.83732061386416       14.47844913109968
C            5.78530181243935       -3.81822724656114       14.29418366297217
C            0.36492938354167       -1.23356596787067       12.63044777104140
C            1.57258171484158       -1.03926322798355       11.76690308485979
C           -0.81573033764467       -1.72595435171436       12.24190625656185
C           -1.83197845964611       -2.16368643318910       13.27118961361773
C           -3.20292125704138       -2.60858692611146       12.75869612687998
C           -1.22339947853837       -3.39172689002207       13.98245389957427
H           -2.95735897697821       -4.77657428813591        9.02002352088302
H           -1.86568463113094       -4.83253222704458        7.61223394339677
H           -1.33595895278023       -5.44925687401584        9.19595773534598
H           -0.41446002675045       -1.40420957146551       10.14153528248491
H           -0.86184023567891        2.20404112326544       10.94637153110070
H           -0.37936579414305        0.88461891981897       12.01149227194323
H           -0.25107729870931        0.73105195456393       10.24527102042512
H           -3.81249830040363        0.72400535065316        9.45499621470127
H           -2.40259088890212        1.25735310236851        7.91355306335712
H           -2.81689075523853        3.34924470674651       10.62485254441962
H           -3.90857691147141        3.17691157109449        9.24312141405187
H           -5.19821364207046        3.39083401418380       11.38248001077414
H           -5.09223497813977       -0.36439219862789       11.23348293790939
H           -6.36761474123255        0.42396803077480       12.20789555856940
H           -5.13898187091909        3.71157891575428       15.45423656012582
H           -5.88903689174496        2.18827122216983       15.92296419437777
H           -6.91734602416862        3.56030546183665       15.44405207722001
H           -2.40715823276141        1.95863613483273       12.60688154904130
H           -3.87375734615901       -0.02117313241076       13.99523964454975
H           -3.91851174574932        2.42994620109987       18.11088040127224
H           -3.09346165547283        4.38301447419084       19.40270346430440
H           -1.22660767908621        5.72980453775409       18.51565320780527
H           -0.18971017712224        5.14038728095886       16.36148594458885
H           -1.02069369789162        3.20195671334797       15.07786789554530
H           -3.26201116110052       -0.86648831267798       15.83529505208203
H           -0.70433047197069        0.28920152285117       15.43329925484568
H           -0.55519302262756       -1.42880045983590       15.71735554398915
H            0.99909966371467        0.27495220105243       13.95239335465914
H            3.02574708894952       -2.78278507788316       16.45770955021893
H            3.37641046260784       -0.30663688789209       17.46523585666703
H            3.96205287432906       -1.98824061343449       14.16370261448199
H            5.90040133564682       -0.45415414893779       15.75119794962224
H            7.43530293904175        0.67217546401207       14.63188412063525
H            8.73856663291403        2.74947617823848       14.72517165437655
H            7.61268801691691        4.93168703916971       14.52382742833385
H            5.16674134075344        5.03523334206195       14.21390001181380
H            3.84917996195964        2.93330286480241       14.12627298080844
H            5.77073094461935       -2.52491386238807       17.41242395862938
H            7.41085249315390       -4.33796996080119       17.74149908840784
H            8.00213692809367       -5.82379647835658       15.86404669072970
H            6.96011549168836       -5.48386332010331       13.65264560655440
H            5.32846535573524       -3.66862492829017       13.32633822566260
H            2.41194076064444       -1.52846836444987       12.25855109370865
H            1.45666219177568       -1.47041363188190       10.77882278680455
H            1.84223279510687        0.01037010343819       11.67584401923516
H           -3.74050500117337       -3.05223707171858       13.59261245532042
H           -3.10324477297581       -3.34892121216720       11.97348328655534
H           -3.79452783196648       -1.77771033823184       12.39530826315259
H           -1.24397090554428       -4.23329975860662       13.29426313312655
H           -1.81402874865418       -3.63748276967479       14.85967426205286
H           -0.19353964612490       -3.22051056549151       14.27486890135748
B            3.44779452004836       -1.44900054208159        1.67594261907800
N            3.45197179225906        1.13222123250660        0.97249591714530
B            2.53174537237017        2.34818625782339       -1.23704699959308
N            2.28901176339398       -0.66289365234649       -2.68912997857558
B            0.67525287457697       -3.54705226866924        2.76232250501845
N           -2.94754924468375       -2.64534841466859        1.75813058844068
B           -1.04708676105120        4.09016989593021        1.84058210267455
N           -0.62313993009245       -0.01011359532716       -3.90813066017478
B           -0.47633796737316        1.41650446454054       -4.06569011647803
N            1.20187909440945       -3.80136485858118       -1.67974001230457
B           -3.85127056820375        2.20427368578124       -0.47682495084142
N           -2.77872085558326        2.75361189205908       -1.19723797953672
B            1.40341072351880        0.78383783839411       -4.85798089174897
N           -0.24658490186025        3.37510979876375        2.84775422518167
B            0.89213429607492       -2.90042522483610       -2.75957117545639
N           -0.49715064456815        3.75638931638039       -0.99835668627186
B           -0.81912340278778        2.19761815555744        3.30511177521895
N            1.63699748975898       -1.25390400261845        3.54066766577473
B           -0.25215802217674        3.45158091721533       -2.36607857620126
N            1.28855491538804        0.09045860693640        3.84201817450161
B           -1.60205561447113       -0.58205355471285       -3.04775995341857
N           -3.84137812752123        1.77874886941610        0.85077408085189
B            0.32927728546763        4.49789295644808        1.19282146202605
N            0.02799681548486        0.01072913168538        4.49041002754866
B           -2.71865753382107        2.23191525456437        1.62024094797137
N            3.76697034081685       -0.14286525129242       -0.72489977110393
B           -2.26303566792101       -3.63542699025045        1.06476858376006
N            1.04629569386745        3.74186389492221        2.24979130711817
B           -1.84203570793783       -0.76048410272423        3.26527256507700
N           -2.44499407858535       -3.60655693565357       -0.39526967205087
B            3.01276195729816       -1.08799297179889       -1.45762262352817
N           -3.16385464902708       -1.25621212863345       -0.34335267422703
B            2.02671145193495        2.92739097153102        1.58058744966279
N           -0.51421938172775       -2.91908092751190       -2.38063734114186
B           -1.67964348990831       -2.13117939538853       -2.44498296358377
N            0.58380821420098        3.96013615782996       -0.09837291375883
B            1.08681939425594        2.93641789467451       -3.16535195084777
N            0.06524356547575       -4.35286811040193        1.78477410744469
B           -1.78999713541879        3.44538666297660       -0.39590214821239
N           -2.02153602911729        3.41947954738289        1.04344879348180
B            1.45341715560295       -4.20490635341928        1.56368677361978
N           -0.81481053423459        1.08738086370096        4.22770572164212
B           -2.67279586617508       -2.41095198466884       -1.12688470006607
N           -1.08529233735365       -4.48288025207695        1.05301523689936
B           -2.50878451242656        0.47571414911933       -2.07967368881753
N            2.34134374132467       -3.88778594536426        0.51580820816530
B            3.90447649715427       -0.20299936913541        0.76735791074975
N            1.92317847487106        1.93738939147324       -2.44060733719424
B            0.99906636494575        2.22197996723454       -4.60103658050611
N           -4.19316651211420        0.82488790971174       -0.32222930027116
B           -1.34210089031095        2.43120671594982       -3.09604439150867
N           -2.36451653974931        1.91583523794059       -2.28564623275178
B            3.06262491796787       -2.64594599960656        0.65587617018036
N            2.32687590182213       -3.68483582034625       -0.91021071277608
B            2.20667930619559        0.56070886738550        2.84194558970514
N           -2.04462826121817        0.63298570131777        3.63731979171331
B           -1.11050196678842       -4.18916879150904       -0.38042130633669
N           -3.22390621184059        0.03360650528536       -0.92691213763125
B            3.43942237600610        1.24924543290628       -0.48237850825761
N            2.57553371916772        1.64221007413053        1.96398092212646
B            1.46750418594454       -1.58028327057583       -3.46884083125403
N           -2.11590296608219        1.76777964758113        2.78490275826590
B            2.03656696527096        0.68761547495924       -3.17896406692560
N           -2.73346469617219       -1.32931611604358        2.36413353651914
B            0.65554866315475       -0.57022752904509       -4.44791458256182
N           -0.17690075053504       -3.77237674430698       -1.29913453516286
B            0.46850906090034       -2.08774111155955        3.48616426099330
N           -0.60270161025866       -1.18138618217784        3.86869444851611
B           -3.23169490351444       -1.44571061205808        1.04277201916399
N            2.65772261746280       -0.84376312311152        2.66300605304812
B            1.87159548312411        3.33361501462392       -0.08938454593374
N            2.87000903562243       -2.34201968897595       -0.74163098641678
 
 Bond Distances (Angstroems)
 ---------------------------
C1-C2=1.5032         C1-H63=1.0869        C1-H64=1.0853        C1-H65=1.0879        C2-C1=1.5032         C2-O3=1.2011         
C2-O4=1.3423         O3-C2=1.2011         O4-C2=1.3423         O4-C5=1.4230         C5-O4=1.4230         C5-C6=1.5286         
C5-C59=1.4944        C5-H66=1.0967        C6-C5=1.5286         C6-O7=1.2046         C6-C8=1.5374         O7-C6=1.2046         
C8-C6=1.5374         C8-C9=1.5368         C8-C10=1.5725        C8-C21=1.5681        C9-C8=1.5368         C9-H67=1.0877        
C9-H68=1.0813        C9-H69=1.0829        C10-C8=1.5725        C10-O11=1.4081       C10-C12=1.5272       C10-H70=1.0947       
O11-C10=1.4081       O11-H71=0.9583       C12-C10=1.5272       C12-C13=1.5168       C12-H72=1.0904       C12-H73=1.0911       
C13-C12=1.5168       C13-O14=1.4309       C13-C16=1.5400       C13-H74=1.0945       O14-C13=1.4309       O14-C15=1.4282       
C15-O14=1.4282       C15-C16=1.5357       C15-H75=1.0911       C15-H76=1.0907       C16-C13=1.5400       C16-C15=1.5357       
C16-O17=1.4351       C16-C21=1.5539       O17-C16=1.4351       O17-C18=1.3453       C18-O17=1.3453       C18-C19=1.5076       
C18-O20=1.1986       C19-C18=1.5076       C19-H77=1.0870       C19-H78=1.0885       C19-H79=1.0863       O20-C18=1.1986       
C21-C8=1.5681        C21-C16=1.5539       C21-C22=1.5855       C21-H80=1.0977       C22-C21=1.5855       C22-O23=1.4466       
C22-C32=1.5905       C22-H81=1.0988       O23-C22=1.4466       O23-C24=1.3268       C24-O23=1.3268       C24-O25=1.2146       
C24-C26=1.4801       O25-C24=1.2146       C26-C24=1.4801       C26-C27=1.3936       C26-C31=1.3928       C27-C26=1.3936       
C27-C28=1.3813       C27-H82=1.0793       C28-C27=1.3813       C28-C29=1.3861       C28-H83=1.0794       C29-C28=1.3861       
C29-C30=1.3865       C29-H84=1.0801       C30-C29=1.3865       C30-C31=1.3821       C30-H85=1.0796       C31-C26=1.3928       
C31-C30=1.3821       C31-H86=1.0785       C32-C22=1.5905       C32-O33=1.4181       C32-C34=1.5444       C32-C60=1.5441       
O33-C32=1.4181       O33-H87=0.9732       C34-C32=1.5444       C34-C35=1.5329       C34-H88=1.0900       C34-H89=1.0933       
C35-C34=1.5329       C35-O36=1.4485       C35-C57=1.5062       C35-H90=1.1002       O36-C35=1.4485       O36-C37=1.3131       
C37-O36=1.3131       C37-O38=1.2089       C37-C39=1.5260       O38-C37=1.2089       C39-C37=1.5260       C39-O40=1.4001       
C39-C41=1.5593       C39-H91=1.0979       O40-C39=1.4001       O40-H92=0.9750       C41-C39=1.5593       C41-N42=1.4453       
C41-C51=1.5055       C41-H93=1.0954       N42-C41=1.4453       N42-C43=1.3555       N42-H94=1.0077       C43-N42=1.3555       
C43-O44=1.2186       C43-C45=1.4882       O44-C43=1.2186       C45-C43=1.4882       C45-C46=1.3921       C45-C50=1.3913       
C46-C45=1.3921       C46-C47=1.3833       C46-H95=1.0806       C47-C46=1.3833       C47-C48=1.3855       C47-H96=1.0803       
C48-C47=1.3855       C48-C49=1.3854       C48-H97=1.0801       C49-C48=1.3854       C49-C50=1.3826       C49-H98=1.0799       
C50-C45=1.3913       C50-C49=1.3826       C50-H99=1.0798       C51-C41=1.5055       C51-C52=1.3893       C51-C56=1.3887       
C52-C51=1.3893       C52-C53=1.3840       C52-H100=1.0795      C53-C52=1.3840       C53-C54=1.3847       C53-H101=1.0801      
C54-C53=1.3847       C54-C55=1.3846       C54-H102=1.0802      C55-C54=1.3846       C55-C56=1.3837       C55-H103=1.0799      
C56-C51=1.3887       C56-C55=1.3837       C56-H104=1.0807      C57-C35=1.5062       C57-C58=1.4973       C57-C59=1.3369       
C58-C57=1.4973       C58-H105=1.0888      C58-H106=1.0843      C58-H107=1.0875      C59-C5=1.4944        C59-C57=1.3369       
C59-C60=1.5112       C60-C32=1.5441       C60-C59=1.5112       C60-C61=1.5297       C60-C62=1.5441       C61-C60=1.5297       
C61-H108=1.0868      C61-H109=1.0838      C61-H110=1.0828      C62-C60=1.5441       C62-H111=1.0873      C62-H112=1.0857      
C62-H113=1.0842      H63-C1=1.0869        H64-C1=1.0853        H65-C1=1.0879        H66-C5=1.0967        H67-C9=1.0877        
H68-C9=1.0813        H69-C9=1.0829        H70-C10=1.0947       H71-O11=0.9583       H72-C12=1.0904       H73-C12=1.0911       
H74-C13=1.0945       H75-C15=1.0911       H76-C15=1.0907       H77-C19=1.0870       H78-C19=1.0885       H79-C19=1.0863       
H80-C21=1.0977       H81-C22=1.0988       H82-C27=1.0793       H83-C28=1.0794       H84-C29=1.0801       H85-C30=1.0796       
H86-C31=1.0785       H87-O33=0.9732       H88-C34=1.0900       H89-C34=1.0933       H90-C35=1.1002       H91-C39=1.0979       
H92-O40=0.9750       H93-C41=1.0954       H94-N42=1.0077       H95-C46=1.0806       H96-C47=1.0803       H97-C48=1.0801       
H98-C49=1.0799       H99-C50=1.0798       H100-C52=1.0795      H101-C53=1.0801      H102-C54=1.0802      H103-C55=1.0799      
H104-C56=1.0807      H105-C58=1.0888      H106-C58=1.0843      H107-C58=1.0875      H108-C61=1.0868      H109-C61=1.0838      
H110-C61=1.0828      H111-C62=1.0873      H112-C62=1.0857      H113-C62=1.0842      B114-B160=1.6083     B114-B166=1.6191     
B114-N183=1.4017     N115-B160=1.4247     N115-B172=1.4596     N115-N173=1.4182     B116-N161=1.4098     B116-B172=1.6128     
B116-B184=1.6505     N117-B144=1.4903     N117-B174=1.4575     N117-B176=1.4586     B118-N151=1.4061     B118-B154=1.5732     
B118-B180=1.6420     N119-B140=1.3891     N119-N177=1.4646     N119-B182=1.4253     B120-N127=1.4719     B120-B136=1.5749     
B120-N153=1.4265     N121-B122=1.4428     N121-B134=1.4232     N121-B178=1.4967     B122-N121=1.4428     B122-B126=2.1358     
B122-B162=1.7641     B122-B164=1.6491     N123-B128=1.4400     N123-N167=1.3680     N123-N179=1.4306     B124-N125=1.4040     
B124-N135=1.3942     B124-N163=1.4295     N125-B124=1.4040     N125-B152=1.4485     N125-N165=1.4346     B126-B122=2.1358     
B126-B162=1.5158     B126-B176=1.7970     B126-B178=1.6003     N127-B120=1.4719     N127-B130=1.3869     N127-N141=1.4709     
B128-N123=1.4400     B128-N147=1.4566     B128-B174=1.6053     B128-N179=2.0090     N129-B132=1.4225     N129-N149=1.4213     
N129-B152=1.4598     B130-N127=1.3869     B130-N155=1.4435     B130-N175=1.4619     N131-N133=1.4211     N131-B180=1.4365     
N131-N183=1.4073     B132-N129=1.4225     B132-B150=1.6423     B132-B164=1.6619     N133-N131=1.4211     N133-N137=1.4198     
N133-B168=1.4367     B134-N121=1.4232     B134-B148=1.6641     B134-B158=1.6965     N135-B124=1.3942     N135-B138=1.4346     
N135-N163=1.5523     B136-B120=1.5749     B136-N141=1.4842     B136-N149=1.4217     N137-N133=1.4198     N137-N155=1.3923     
N137-N181=1.4851     B138-N135=1.4346     B138-N153=1.4930     B138-N175=1.3911     N139-B144=1.4139     N139-B160=1.4998     
N139-B172=1.4505     B140-N119=1.3891     B140-N143=1.4716     B140-N157=1.4510     B140-B170=1.9296     N141-N127=1.4709     
N141-B136=1.4842     N141-B146=1.4396     B142-N169=1.4564     B142-N177=1.3893     B142-N181=1.4413     N143-B140=1.4716     
N143-B156=1.4201     N143-B170=1.4562     B144-N117=1.4903     B144-N139=1.4139     B144-N185=1.4511     N145-B156=1.4794     
N145-N171=1.4170     N145-B182=1.4007     B146-N141=1.4396     B146-N173=1.4491     B146-B184=1.7257     N147-B128=1.4566     
N147-B148=1.4082     N147-N179=1.4183     B148-B134=1.6641     B148-N147=1.4082     B148-B156=1.6739     N149-N129=1.4213     
N149-B136=1.4217     N149-B184=1.4321     B150-B132=1.6423     B150-N161=1.4909     B150-B162=1.6060     N151-B118=1.4061     
N151-B154=1.4134     N151-N157=1.3697     B152-N125=1.4485     B152-N129=1.4598     B152-N153=1.4581     N153-B120=1.4265     
N153-B138=1.4930     N153-B152=1.4581     B154-B118=1.5732     B154-N151=1.4134     B154-N159=1.4096     N155-B130=1.4435     
N155-N137=1.3923     N155-N169=1.4379     B156-N143=1.4201     B156-N145=1.4794     B156-B148=1.6739     N157-B140=1.4510     
N157-N151=1.3697     N157-B170=1.4634     B158-B134=1.6965     B158-N165=1.4619     B158-N171=1.4268     N159-B154=1.4096     
N159-B166=1.4429     N159-N167=1.4405     B160-B114=1.6083     B160-N115=1.4247     B160-N139=1.4998     B160-B172=1.9716     
N161-B116=1.4098     N161-B150=1.4909     N161-B176=1.4560     B162-B122=1.7641     B162-B126=1.5158     B162-B150=1.6060     
N163-B124=1.4295     N163-N135=1.5523     N163-N171=1.3897     B164-B122=1.6491     B164-B132=1.6619     B164-N165=1.4027     
N165-N125=1.4346     N165-B158=1.4619     N165-B164=1.4027     B166-B114=1.6191     B166-N159=1.4429     B166-N185=1.4431     
N167-N123=1.3680     N167-N159=1.4405     N167-N185=1.4583     B168-N133=1.4367     B168-N173=1.4410     B168-N183=1.4859     
N169-B142=1.4564     N169-N155=1.4379     N169-N175=1.4211     B170-B140=1.9296     B170-N143=1.4562     B170-N157=1.4634     
B170-N179=1.3745     N171-N145=1.4170     N171-B158=1.4268     N171-N163=1.3897     B172-N115=1.4596     B172-B116=1.6128     
B172-N139=1.4505     B172-B160=1.9716     N173-N115=1.4182     N173-B146=1.4491     N173-B168=1.4410     B174-N117=1.4575     
B174-B128=1.6053     B174-B178=1.6242     N175-B130=1.4619     N175-B138=1.3911     N175-N169=1.4211     B176-N117=1.4586     
B176-B126=1.7970     B176-N161=1.4560     N177-N119=1.4646     N177-B142=1.3893     N177-B182=1.4170     B178-N121=1.4967     
B178-B126=1.6003     B178-B174=1.6242     N179-N123=1.4306     N179-B128=2.0090     N179-N147=1.4183     N179-B170=1.3745     
B180-B118=1.6420     B180-N131=1.4365     B180-N181=1.4544     N181-N137=1.4851     N181-B142=1.4413     N181-B180=1.4544     
B182-N119=1.4253     B182-N145=1.4007     B182-N177=1.4170     N183-B114=1.4017     N183-N131=1.4073     N183-B168=1.4859     
B184-B116=1.6505     B184-B146=1.7257     B184-N149=1.4321     N185-B144=1.4511     N185-B166=1.4431     N185-N167=1.4583     
 B  B  Rav=1.6893 sigma=0.1391  Rmin=1.5158  Rmax=2.1358    24
 C  H  Rav=1.0865 sigma=0.0062  Rmin=1.0785  Rmax=1.1002    47
 C  C  Rav=1.4715 sigma=0.0757  Rmin=1.3369  Rmax=1.5905    47
 N  H  Rav=1.0077 sigma=0.0000  Rmin=1.0077  Rmax=1.0077     1
 N  B  Rav=1.4476 sigma=0.0751  Rmin=1.3745  Rmax=2.0090    67
 N  C  Rav=1.4004 sigma=0.0449  Rmin=1.3555  Rmax=1.4453     2
 N  N  Rav=1.4304 sigma=0.0400  Rmin=1.3680  Rmax=1.5523    21
 O  H  Rav=0.9688 sigma=0.0075  Rmin=0.9583  Rmax=0.9750     3
 O  C  Rav=1.3375 sigma=0.0961  Rmin=1.1986  Rmax=1.4485    19
 
 selected bond angles (degree)
 --------------------
H63-C1-C2=109.16               H64-C1-C2=109.52               H64-C1-H63=110.27              H65-C1-C2=109.44               
H65-C1-H63=108.42              H65-C1-H64=110.00              O3-C2-C1=125.65                O4-C2-C1=110.69                
O4-C2-O3=123.64                C5-O4-C2=115.92                C6-C5-O4=109.26                C59-C5-O4=113.33               
C59-C5-C6=107.68               H66-C5-O4=107.64               H66-C5-C6=106.45               H66-C5-C59=112.23              
O7-C6-C5=119.50                C8-C6-C5=118.56                C8-C6-O7=121.78                C9-C8-C6=114.13                
C10-C8-C6=101.84               C10-C8-C9=106.12               C21-C8-C6=116.98               C21-C8-C9=105.62               
C21-C8-C10=111.78              H67-C9-C8=108.27               H68-C9-C8=111.08               H68-C9-H67=108.74              
H69-C9-C8=111.41               H69-C9-H67=106.74              H69-C9-H68=110.43              O11-C10-C8=107.38              
C12-C10-C8=113.07              C12-C10-O11=112.08             H70-C10-C8=108.30              H70-C10-O11=110.17             
H70-C10-C12=105.78             
 
 selected dihedral angles (degree)
 ---------------------------------
O3-C2-C1-H63=234.37           O3-C2-C1-H64=355.19           O3-C2-C1-H65=115.86           O4-C2-C1-H63= 56.01           
O4-C2-C1-H64=176.83           O4-C2-C1-H65=297.49           C5-O4-C2-C1=186.41            C5-O4-C2-O3=  8.01            
C6-C5-O4-C2= 83.73            C59-C5-O4-C2=203.80           H66-C5-O4-C2=328.51           O7-C6-C5-O4=355.67            
O7-C6-C5-C59=232.19           O7-C6-C5-H66=111.64           C8-C6-C5-O4=180.19            C8-C6-C5-C59= 56.71           
C8-C6-C5-H66=296.16           C9-C8-C6-C5= 22.08            C9-C8-C6-O7=206.71            C10-C8-C6-C5=135.95           
C10-C8-C6-O7=320.58           C21-C8-C6-C5=258.10           C21-C8-C6-O7= 82.72           H67-C9-C8-C6=156.99           
H67-C9-C8-C10= 45.69          H67-C9-C8-C21=286.89          H68-C9-C8-C6=276.33           H68-C9-C8-C10=165.02          
H68-C9-C8-C21= 46.22          H69-C9-C8-C6= 39.91           H69-C9-C8-C10=288.60          H69-C9-C8-C21=169.80          
O11-C10-C8-C6=278.17          O11-C10-C8-C9= 37.86          O11-C10-C8-C21=152.52         C12-C10-C8-C6=154.01          
C12-C10-C8-C9=273.69          C12-C10-C8-C21= 28.35         H70-C10-C8-C6= 37.12          H70-C10-C8-C9=156.81          
H70-C10-C8-C21=271.47         
 
 CMA Distance (Angstroems)
 ---------------------------
R(CMA): 13.5413
           -------------------------------------------------
          |                Final Singlepoint                |
           -------------------------------------------------

          ...................................................
          :                      SETUP                      :
          :.................................................:
          :  # basis functions                 587          :
          :  # atomic orbitals                 587          :
          :  # shells                          319          :
          :  # electrons                       616          :
          :  max. iterations                   500          :
          :  Hamiltonian                  GFN2-xTB          :
          :  restarted?                      false          :
          :  GBSA solvation                  false          :
          :  PC potential                    false          :
          :  electronic temp.          300.0000000     K    :
          :  accuracy                    1.0000000          :
          :  -> integral cutoff          0.2500000E+02      :
          :  -> integral neglect         0.1000000E-07      :
          :  -> SCF convergence          0.1000000E-05 Eh   :
          :  -> wf. convergence          0.1000000E-03 e    :
          :  Broyden damping             0.4000000          :
          :  net charge                          0          :
          :  unpaired electrons                  0          :
          ...................................................

 iter      E             dE          RMSdq      gap      omega  full diag
   1   -340.4191669 -0.340419E+03  0.374E-02    0.56       0.0  T
   2   -340.4191714 -0.451950E-05  0.221E-02    0.56       1.0  T
   3   -340.4191601  0.113197E-04  0.765E-03    0.56       1.0  T
   4   -340.4191666 -0.655673E-05  0.439E-03    0.57       1.7  T
   5   -340.4191724 -0.578120E-05  0.151E-03    0.57       4.9  T
   6   -340.4191729 -0.534649E-06  0.626E-04    0.57      11.7  T
   7   -340.4191729 -0.212481E-07  0.369E-04    0.57      19.9  T

   *** convergence criteria satisfied after 7 iterations ***

         #    Occupation            Energy/Eh            Energy/eV
      -------------------------------------------------------------
         1        2.0000           -0.7531739             -20.4949
       ...           ...                  ...                  ...
       302        2.0000           -0.3247128              -8.8359
       303        2.0000           -0.3219115              -8.7597
       304        2.0000           -0.3206105              -8.7243
       305        2.0000           -0.3179158              -8.6509
       306        2.0000           -0.3127185              -8.5095
       307        2.0000           -0.3109439              -8.4612
       308        2.0000           -0.3046446              -8.2898 (HOMO)
       309        0.0000           -0.2838731              -7.7246 (LUMO)
       310        0.0000           -0.2807502              -7.6396
       311                         -0.2724836              -7.4147
       312                         -0.2664706              -7.2510
       313                         -0.2618333              -7.1248
       ...                                ...                  ...
       587                          0.9860163              26.8309
      -------------------------------------------------------------
                  HL-Gap            0.0207715 Eh            0.5652 eV
             Fermi-level           -0.2942756 Eh           -8.0076 eV

 SCC (total)                   0 d,  0 h,  0 min,  1.239 sec
 SCC setup                      ...        0 min,  0.001 sec (  0.081%)
 Dispersion                     ...        0 min,  0.004 sec (  0.323%)
 classical contributions        ...        0 min,  0.001 sec (  0.081%)
 integral evaluation            ...        0 min,  0.024 sec (  1.937%)
 iterations                     ...        0 min,  1.116 sec ( 90.073%)
 molecular gradient             ...        0 min,  0.085 sec (  6.860%)
 printout                       ...        0 min,  0.008 sec (  0.646%)

         :::::::::::::::::::::::::::::::::::::::::::::::::::::
         ::                     SUMMARY                     ::
         :::::::::::::::::::::::::::::::::::::::::::::::::::::
         :: total energy            -336.738151470570 Eh    ::
         :: gradient norm              0.006509048604 Eh/a0 ::
         :: HOMO-LUMO gap              0.565220974034 eV    ::
         ::.................................................::
         :: SCC energy              -340.398799865000 Eh    ::
         :: -> isotropic ES            0.965255931883 Eh    ::
         :: -> anisotropic ES         -0.035689398450 Eh    ::
         :: -> anisotropic XC          0.100163690780 Eh    ::
         :: -> dispersion             -0.297364655584 Eh    ::
         :: repulsion energy           3.660648394430 Eh    ::
         :: add. restraining           0.000000000000 Eh    ::
         :: total charge              -0.000000000132 e     ::
         :::::::::::::::::::::::::::::::::::::::::::::::::::::

           -------------------------------------------------
          |                Property Printout                |
           -------------------------------------------------

    * Orbital Energies and Occupations

         #    Occupation            Energy/Eh            Energy/eV
      -------------------------------------------------------------
         1        2.0000           -0.7531739             -20.4949
       ...           ...                  ...                  ...
       296        2.0000           -0.3371427              -9.1741
       297        2.0000           -0.3359423              -9.1415
       298        2.0000           -0.3320090              -9.0344
       299        2.0000           -0.3298172              -8.9748
       300        2.0000           -0.3271211              -8.9014
       301        2.0000           -0.3260187              -8.8714
       302        2.0000           -0.3247128              -8.8359
       303        2.0000           -0.3219115              -8.7597
       304        2.0000           -0.3206105              -8.7243
       305        2.0000           -0.3179158              -8.6509
       306        2.0000           -0.3127185              -8.5095
       307        2.0000           -0.3109439              -8.4612
       308        2.0000           -0.3046446              -8.2898 (HOMO)
       309        0.0000           -0.2838731              -7.7246 (LUMO)
       310        0.0000           -0.2807502              -7.6396
       311                         -0.2724836              -7.4147
       312                         -0.2664706              -7.2510
       313                         -0.2618333              -7.1248
       314                         -0.2611904              -7.1074
       315                         -0.2486345              -6.7657
       316                         -0.2432533              -6.6193
       317                         -0.2428158              -6.6074
       318                         -0.2411880              -6.5631
       319                         -0.2360777              -6.4240
       ...                                ...                  ...
       587                          0.9860163              26.8309
      -------------------------------------------------------------
                  HL-Gap            0.0207715 Eh            0.5652 eV
             Fermi-level           -0.2942756 Eh           -8.0076 eV

     #   Z          covCN         q      C6AA      α(0)
     1   6 C        3.754    -0.151    23.479     6.910
     2   6 C        2.719     0.365    20.814     7.468
     3   8 O        0.856    -0.405    21.786     6.258
     4   8 O        1.705    -0.252    18.170     5.755
     5   6 C        3.766     0.093    19.073     6.225
     6   6 C        2.829     0.234    23.112     7.878
     7   8 O        0.857    -0.339    20.505     6.071
     8   6 C        3.890    -0.015    20.792     6.482
     9   6 C        3.761    -0.131    23.056     6.845
    10   6 C        3.746     0.111    18.823     6.189
    11   8 O        1.656    -0.439    21.619     6.277
    12   6 C        3.802    -0.088    22.171     6.704
    13   6 C        4.067     0.105    18.778     6.155
    14   8 O        1.743    -0.316    19.258     5.925
    15   6 C        4.009     0.070    19.342     6.248
    16   6 C        3.828     0.128    18.486     6.118
    17   8 O        1.704    -0.293    18.876     5.866
    18   6 C        2.695     0.366    20.795     7.463
    19   6 C        3.753    -0.147    23.407     6.899
    20   8 O        0.856    -0.392    21.521     6.220
    21   6 C        3.843    -0.046    21.359     6.574
    22   6 C        3.720     0.081    19.333     6.280
    23   8 O        1.705    -0.261    18.328     5.780
    24   6 C        2.711     0.360    20.898     7.483
    25   8 O        0.857    -0.442    22.531     6.364
    26   6 C        2.974    -0.020    28.497     8.756
    27   6 C        2.925    -0.020    28.505     8.756
    28   6 C        2.918    -0.025    28.637     8.775
    29   6 C        2.921    -0.020    28.505     8.755
    30   6 C        2.919    -0.025    28.620     8.773
    31   6 C        2.920    -0.021    28.530     8.759
    32   6 C        3.775     0.135    18.417     6.115
    33   8 O        1.656    -0.464    22.124     6.350
    34   6 C        3.802    -0.080    22.035     6.683
    35   6 C        3.765     0.110    18.824     6.184
    36   8 O        1.702    -0.251    18.161     5.754
    37   6 C        2.725     0.352    21.025     7.507
    38   8 O        0.856    -0.424    22.169     6.313
    39   6 C        3.727     0.085    19.263     6.266
    40   8 O        1.655    -0.441    21.661     6.283
    41   6 C        3.800     0.039    19.916     6.354
    42   7 N        2.695    -0.180    24.908     7.412
    43   6 C        2.761     0.274    22.376     7.746
    44   8 O        0.859    -0.448    22.672     6.384
    45   6 C        2.977    -0.019    28.480     8.754
    46   6 C        2.921    -0.033    28.822     8.804
    47   6 C        2.919    -0.027    28.684     8.783
    48   6 C        2.920    -0.025    28.628     8.774
    49   6 C        2.918    -0.027    28.671     8.781
    50   6 C        2.925    -0.018    28.462     8.749
    51   6 C        2.976    -0.000    28.025     8.684
    52   6 C        2.923    -0.038    28.937     8.822
    53   6 C        2.920    -0.029    28.720     8.788
    54   6 C        2.920    -0.030    28.738     8.791
    55   6 C        2.919    -0.028    28.709     8.786
    56   6 C        2.924    -0.036    28.892     8.815
    57   6 C        2.948    -0.005    28.154     8.703
    58   6 C        3.758    -0.123    22.909     6.824
    59   6 C        2.967    -0.024    28.600     8.772
    60   6 C        3.910     0.019    20.206     6.389
    61   6 C        3.763    -0.119    22.826     6.810
    62   6 C        3.768    -0.117    22.774     6.801
    63   1 H        0.925     0.084     1.937     2.176
    64   1 H        0.925     0.080     1.981     2.201
    65   1 H        0.925     0.078     1.999     2.211
    66   1 H        0.924     0.094     1.844     2.123
    67   1 H        0.925     0.064     2.152     2.294
    68   1 H        0.925     0.049     2.336     2.390
    69   1 H        0.925     0.075     2.033     2.230
    70   1 H        0.924     0.060     2.198     2.318
    71   1 H        0.806     0.308     0.696     1.311
    72   1 H        0.924     0.049     2.328     2.386
    73   1 H        0.924     0.068     2.112     2.272
    74   1 H        0.924     0.049     2.330     2.387
    75   1 H        0.924     0.058     2.218     2.329
    76   1 H        0.924     0.059     2.207     2.323
    77   1 H        0.925     0.069     2.102     2.267
    78   1 H        0.925     0.092     1.857     2.131
    79   1 H        0.925     0.078     2.000     2.211
    80   1 H        0.924     0.088     1.895     2.153
    81   1 H        0.923     0.073     2.056     2.242
    82   1 H        0.926     0.063     2.167     2.302
    83   1 H        0.926     0.046     2.370     2.407
    84   1 H        0.926     0.045     2.386     2.415
    85   1 H        0.926     0.046     2.375     2.410
    86   1 H        0.926     0.055     2.259     2.350
    87   1 H        0.804     0.318     0.668     1.284
    88   1 H        0.925     0.054     2.272     2.357
    89   1 H        0.924     0.073     2.056     2.242
    90   1 H        0.923     0.074     2.043     2.235
    91   1 H        0.923     0.055     2.260     2.351
    92   1 H        0.804     0.317     0.673     1.289
    93   1 H        0.924     0.069     2.097     2.265
    94   1 H        0.860     0.184     1.192     1.710
    95   1 H        0.926     0.034     2.529     2.487
    96   1 H        0.926     0.037     2.482     2.464
    97   1 H        0.926     0.039     2.468     2.457
    98   1 H        0.926     0.040     2.448     2.446
    99   1 H        0.926     0.056     2.249     2.345
   100   1 H        0.926     0.058     2.219     2.329
   101   1 H        0.926     0.037     2.488     2.467
   102   1 H        0.926     0.036     2.501     2.473
   103   1 H        0.926     0.038     2.476     2.461
   104   1 H        0.926     0.037     2.496     2.470
   105   1 H        0.925     0.074     2.042     2.235
   106   1 H        0.925     0.053     2.282     2.362
   107   1 H        0.925     0.074     2.037     2.232
   108   1 H        0.925     0.065     2.140     2.287
   109   1 H        0.925     0.064     2.149     2.292
   110   1 H        0.925     0.028     2.619     2.531
   111   1 H        0.925     0.050     2.326     2.385
   112   1 H        0.925     0.067     2.124     2.279
   113   1 H        0.925     0.048     2.340     2.392
   114   5 B        2.781     0.075    20.210     7.516
   115   7 N        2.773    -0.228    25.987     7.571
   116   5 B        2.788     0.091    19.939     7.464
   117   7 N        2.523    -0.315    28.134     7.877
   118   5 B        2.779     0.085    20.058     7.489
   119   7 N        2.655    -0.269    26.967     7.713
   120   5 B        2.849     0.240    17.675     7.020
   121   7 N        2.529    -0.273    27.090     7.730
   122   5 B        3.195     0.150    18.931     7.257
   123   7 N        2.979    -0.110    23.403     7.185
   124   5 B        2.644     0.373    16.325     6.814
   125   7 N        2.669    -0.213    25.637     7.520
   126   5 B        3.182     0.021    21.007     7.644
   127   7 N        2.888    -0.222    25.843     7.550
   128   5 B        3.009     0.209    18.080     7.093
   129   7 N        2.660    -0.163    24.537     7.357
   130   5 B        2.904     0.319    16.619     6.803
   131   7 N        3.160    -0.078    22.758     7.085
   132   5 B        2.778     0.094    19.916     7.462
   133   7 N        3.041    -0.123    23.671     7.226
   134   5 B        2.758     0.090    20.006     7.484
   135   7 N        2.634    -0.309    27.953     7.852
   136   5 B        3.040     0.226    17.840     7.045
   137   7 N        2.983     0.005    21.174     6.834
   138   5 B        2.581     0.325    17.314     7.089
   139   7 N        2.596    -0.360    29.299     8.039
   140   5 B        3.286     0.339    16.343     6.742
   141   7 N        2.784    -0.254    26.597     7.660
   142   5 B        2.560     0.320    17.587     7.182
   143   7 N        2.579    -0.368    29.522     8.069
   144   5 B        2.530     0.301    18.226     7.377
   145   7 N        2.665    -0.205    25.455     7.493
   146   5 B        2.699     0.195    18.518     7.221
   147   7 N        2.844    -0.167    24.612     7.368
   148   5 B        2.758     0.082    20.134     7.508
   149   7 N        2.672    -0.174    24.775     7.392
   150   5 B        2.877     0.110    19.580     7.386
   151   7 N        2.663    -0.145    24.134     7.296
   152   5 B        2.594     0.312    17.390     7.086
   153   7 N        2.519    -0.355    29.176     8.022
   154   5 B        2.684     0.183    18.731     7.271
   155   7 N        3.007    -0.129    23.793     7.245
   156   5 B        2.677     0.210    18.364     7.203
   157   7 N        2.716    -0.249    26.482     7.643
   158   5 B        2.647     0.164    19.169     7.381
   159   7 N        2.825    -0.207    25.485     7.498
   160   5 B        3.322     0.229    17.787     7.033
   161   7 N        2.531    -0.286    27.415     7.776
   162   5 B        2.949     0.035    20.785     7.606
   163   7 N        2.783    -0.185    25.001     7.426
   164   5 B        2.796     0.084    20.045     7.483
   165   7 N        2.673    -0.156    24.373     7.332
   166   5 B        3.021     0.211    18.053     7.087
   167   7 N        3.272     0.014    20.999     6.806
   168   5 B        2.871     0.304    16.826     6.848
   169   7 N        3.153    -0.117    23.550     7.207
   170   5 B        3.263     0.320    16.589     6.792
   171   7 N        2.833    -0.061    22.415     7.032
   172   5 B        3.304     0.231    17.769     7.030
   173   7 N        2.656    -0.182    24.950     7.418
   174   5 B        2.838     0.112    19.571     7.388
   175   7 N        2.833    -0.225    25.896     7.558
   176   5 B        2.864     0.252    17.506     6.985
   177   7 N        2.654    -0.229    26.010     7.575
   178   5 B        3.012     0.114    19.493     7.365
   179   7 N        3.153    -0.086    22.910     7.109
   180   5 B        2.675     0.203    18.477     7.227
   181   7 N        2.699    -0.224    25.900     7.558
   182   5 B        2.584     0.369    16.733     6.965
   183   7 N        2.883    -0.180    24.882     7.409
   184   5 B        2.825     0.105    19.682     7.410
   185   7 N        2.827    -0.253    26.562     7.655

 Mol. C6AA /au·bohr⁶  :     498839.683073
 Mol. C8AA /au·bohr⁸  :   13108165.183532
 Mol. α(0) /au        :       1093.802987


Wiberg/Mayer (AO) data.
largest (>0.10) Wiberg bond orders for each atom

 ---------------------------------------------------------------------------
     #   Z sym  total        # sym  WBO       # sym  WBO       # sym  WBO
 ---------------------------------------------------------------------------
     1   6 C    3.988 --     2 C    0.988    64 H    0.982    63 H    0.965
                            65 H    0.962
     2   6 C    3.914 --     3 O    1.763     4 O    1.113     1 C    0.988
     3   8 O    2.049 --     2 C    1.763     4 O    0.167
     4   8 O    2.309 --     2 C    1.113     5 C    0.942     3 O    0.167
     5   6 C    3.939 --    59 C    0.982     6 C    0.943     4 O    0.942
                            66 H    0.910
     6   6 C    3.908 --     7 O    1.866     8 C    0.954     5 C    0.943
     7   8 O    2.104 --     6 C    1.866
     8   6 C    3.982 --     9 C    0.996     6 C    0.954    21 C    0.952
                            10 C    0.939
     9   6 C    3.987 --     8 C    0.996    67 H    0.977    69 H    0.977
                            68 H    0.976
    10   6 C    3.955 --    11 O    1.000    12 C    0.986    70 H    0.955
                             8 C    0.939
    11   8 O    1.966 --    10 C    1.000    71 H    0.891
    12   6 C    3.994 --    13 C    0.995    10 C    0.986    72 H    0.969
                            73 H    0.967
    13   6 C    3.950 --    12 C    0.995    14 O    0.968    74 H    0.960
                            16 C    0.957
    14   8 O    2.041 --    15 C    0.978    13 C    0.968
    15   6 C    3.949 --    14 O    0.978    16 C    0.973    76 H    0.969
                            75 H    0.960
    16   6 C    3.919 --    15 C    0.973    21 C    0.970    13 C    0.957
                            17 O    0.926
    17   8 O    2.286 --    18 C    1.100    16 C    0.926    20 O    0.167
    18   6 C    3.912 --    20 O    1.776    17 O    1.100    19 C    0.985
    19   6 C    3.989 --    18 C    0.985    79 H    0.982    77 H    0.967
                            78 H    0.955
    20   8 O    2.057 --    18 C    1.776    17 O    0.167
    21   6 C    3.978 --    16 C    0.970    22 C    0.961     8 C    0.952
                            80 H    0.948
    22   6 C    3.897 --    21 C    0.961    81 H    0.953    32 C    0.931
                            23 O    0.918
    23   8 O    2.333 --    24 C    1.152    22 C    0.918    25 O    0.168
    24   6 C    3.911 --    25 O    1.663    23 O    1.152    26 C    1.006
    25   8 O    2.021 --    24 C    1.663    23 O    0.168
    26   6 C    3.986 --    31 C    1.385    27 C    1.384    24 C    1.006
                            29 C    0.102
    27   6 C    3.987 --    28 C    1.455    26 C    1.384    82 H    0.965
                            30 C    0.107
    28   6 C    3.991 --    27 C    1.455    29 C    1.433    83 H    0.970
                            31 C    0.107
    29   6 C    3.990 --    28 C    1.433    30 C    1.432    84 H    0.971
                            26 C    0.102
    30   6 C    3.992 --    31 C    1.456    29 C    1.432    85 H    0.970
                            27 C    0.107
    31   6 C    3.990 --    30 C    1.456    26 C    1.385    86 H    0.966
                            28 C    0.107
    32   6 C    3.948 --    33 O    0.995    34 C    0.975    60 C    0.946
                            22 C    0.931
    33   8 O    1.957 --    32 C    0.995    87 H    0.839
    34   6 C    3.989 --    35 C    0.986    32 C    0.975    88 H    0.970
                            89 H    0.966
    35   6 C    3.912 --    57 C    0.992    34 C    0.986    90 H    0.944
                            36 O    0.896
    36   8 O    2.335 --    37 C    1.184    35 C    0.896    38 O    0.172
    37   6 C    3.918 --    38 O    1.711    36 O    1.184    39 C    0.940
    38   8 O    2.037 --    37 C    1.711    36 O    0.172
    39   6 C    3.963 --    40 O    1.017    91 H    0.945    37 C    0.940
                            41 C    0.923
    40   8 O    1.963 --    39 C    1.017    92 H    0.857
    41   6 C    3.968 --    51 C    0.989    42 N    0.987    93 H    0.952
                            39 C    0.923
    42   7 N    3.439 --    43 C    1.232    41 C    0.987    94 H    0.932
                            44 O    0.187
    43   6 C    3.947 --    44 O    1.657    42 N    1.232    45 C    0.989
    44   8 O    1.993 --    43 C    1.657    42 N    0.187
    45   6 C    3.987 --    50 C    1.398    46 C    1.395    43 C    0.989
                            48 C    0.106
    46   6 C    3.992 --    47 C    1.451    45 C    1.395    95 H    0.967
                            49 C    0.110
    47   6 C    3.992 --    46 C    1.451    48 C    1.434    96 H    0.970
                            50 C    0.109
    48   6 C    3.991 --    49 C    1.438    47 C    1.434    97 H    0.971
                            45 C    0.106
    49   6 C    3.992 --    50 C    1.448    48 C    1.438    98 H    0.970
                            46 C    0.110
    50   6 C    3.988 --    49 C    1.448    45 C    1.398    99 H    0.967
                            47 C    0.109
    51   6 C    3.986 --    56 C    1.415    52 C    1.414    41 C    0.989
                            54 C    0.110
    52   6 C    3.989 --    53 C    1.444    51 C    1.414   100 H    0.964
                            55 C    0.112
    53   6 C    3.992 --    52 C    1.444    54 C    1.439   101 H    0.971
                            56 C    0.111
    54   6 C    3.990 --    55 C    1.439    53 C    1.439   102 H    0.971
                            51 C    0.110
    55   6 C    3.991 --    56 C    1.443    54 C    1.439   103 H    0.971
                            52 C    0.112
    56   6 C    3.990 --    55 C    1.443    51 C    1.415   104 H    0.968
                            53 C    0.111
    57   6 C    3.981 --    59 C    1.808    58 C    1.031    35 C    0.992
    58   6 C    3.990 --    57 C    1.031   106 H    0.975   107 H    0.962
                           105 H    0.958
    59   6 C    3.976 --    57 C    1.808    60 C    0.986     5 C    0.982
    60   6 C    3.987 --    61 C    1.000    59 C    0.986    62 C    0.975
                            32 C    0.946
    61   6 C    3.991 --    60 C    1.000   108 H    0.979   109 H    0.978
                           110 H    0.977
    62   6 C    3.988 --   111 H    0.984   113 H    0.982   112 H    0.980
                            60 C    0.975
    63   1 H    0.993 --     1 C    0.965
    64   1 H    0.993 --     1 C    0.982
    65   1 H    0.994 --     1 C    0.962
    66   1 H    0.991 --     5 C    0.910
    67   1 H    0.996 --     9 C    0.977
    68   1 H    0.998 --     9 C    0.976
    69   1 H    0.994 --     9 C    0.977
    70   1 H    0.996 --    10 C    0.955
    71   1 H    0.905 --    11 O    0.891
    72   1 H    0.998 --    12 C    0.969
    73   1 H    0.995 --    12 C    0.967
    74   1 H    0.997 --    13 C    0.960
    75   1 H    0.996 --    15 C    0.960
    76   1 H    0.996 --    15 C    0.969
    77   1 H    0.995 --    19 C    0.967
    78   1 H    0.991 --    19 C    0.955
    79   1 H    0.993 --    19 C    0.982
    80   1 H    0.992 --    21 C    0.948
    81   1 H    0.994 --    22 C    0.953
    82   1 H    0.996 --    27 C    0.965
    83   1 H    0.997 --    28 C    0.970
    84   1 H    0.998 --    29 C    0.971
    85   1 H    0.997 --    30 C    0.970
    86   1 H    0.997 --    31 C    0.966
    87   1 H    0.898 --    33 O    0.839
    88   1 H    0.997 --    34 C    0.970
    89   1 H    0.994 --    34 C    0.966
    90   1 H    0.994 --    35 C    0.944
    91   1 H    0.997 --    39 C    0.945
    92   1 H    0.899 --    40 O    0.857
    93   1 H    0.995 --    41 C    0.952
    94   1 H    0.966 --    42 N    0.932
    95   1 H    0.999 --    46 C    0.967
    96   1 H    0.998 --    47 C    0.970
    97   1 H    0.998 --    48 C    0.971
    98   1 H    0.998 --    49 C    0.970
    99   1 H    0.997 --    50 C    0.967
   100   1 H    0.997 --    52 C    0.964
   101   1 H    0.998 --    53 C    0.971
   102   1 H    0.998 --    54 C    0.971
   103   1 H    0.998 --    55 C    0.971
   104   1 H    0.999 --    56 C    0.968
   105   1 H    0.994 --    58 C    0.958
   106   1 H    0.997 --    58 C    0.975
   107   1 H    0.994 --    58 C    0.962
   108   1 H    0.995 --    61 C    0.979
   109   1 H    0.996 --    61 C    0.978
   110   1 H    0.999 --    61 C    0.977
   111   1 H    0.997 --    62 C    0.984
   112   1 H    0.995 --    62 C    0.980
   113   1 H    0.998 --    62 C    0.982
   114   5 B    3.479 --   183 N    1.284   166 B    1.000   160 B    0.970
   115   7 N    3.396 --   160 B    1.142   173 N    1.006   172 B    1.002
   116   5 B    3.464 --   161 N    1.276   184 B    0.978   172 B    0.958
   117   7 N    3.530 --   176 B    1.152   174 B    1.150   144 B    1.018
   118   5 B    3.463 --   151 N    1.240   180 B    0.996   154 B    0.990
   119   7 N    3.266 --   140 B    1.203   182 B    0.967   177 N    0.888
   120   5 B    3.408 --   153 N    1.176   127 N    1.035   136 B    0.963
   121   7 N    3.568 --   134 B    1.276   122 B    1.158   178 B    0.973
   122   5 B    3.393 --   121 N    1.158   164 B    0.932   162 B    0.640
                           126 B    0.294
   123   7 N    3.323 --   128 B    1.113   167 N    1.043   179 N    0.945
   124   5 B    3.433 --   125 N    1.187   135 N    1.127   163 N    0.961
   125   7 N    3.445 --   124 B    1.187   152 B    1.086   165 N    0.967
   126   5 B    3.456 --   162 B    1.285   178 B    1.004   176 B    0.627
                           122 B    0.294
   127   7 N    3.429 --   130 B    1.233   120 B    1.035   141 N    0.928
   128   5 B    3.390 --   123 N    1.113   147 N    1.039   174 B    1.005
   129   7 N    3.510 --   132 B    1.206   152 B    1.123   149 N    0.999
   130   5 B    3.515 --   127 N    1.233   155 N    1.073   175 N    1.001
   131   7 N    3.354 --   180 B    1.142   183 N    0.993   133 N    0.983
   132   5 B    3.414 --   129 N    1.206   150 B    1.008   164 B    0.926
   133   7 N    3.335 --   168 B    1.142   131 N    0.983   137 N    0.973
   134   5 B    3.463 --   121 N    1.276   148 B    0.978   158 B    0.932
   135   7 N    3.218 --   124 B    1.127   138 B    1.066   163 N    0.794
   136   5 B    3.368 --   149 N    1.151   141 N    0.993   120 B    0.963
   137   7 N    3.100 --   155 N    1.013   133 N    0.973   181 N    0.941
   138   5 B    3.511 --   175 N    1.248   135 N    1.066   153 N    0.989
   139   7 N    3.433 --   144 B    1.200   172 B    1.062   160 B    0.926
   140   5 B    3.482 --   119 N    1.203   157 N    1.041   143 N    0.979
   141   7 N    3.280 --   146 B    1.166   136 B    0.993   127 N    0.928
   142   5 B    3.523 --   177 N    1.209   181 N    1.126   169 N    1.030
   143   7 N    3.430 --   156 B    1.221   170 B    0.993   140 B    0.979
   144   5 B    3.519 --   139 N    1.200   185 N    1.099   117 N    1.018
   145   7 N    3.442 --   182 B    1.260   156 B    0.998   171 N    0.990
   146   5 B    3.446 --   141 N    1.166   173 N    1.126   184 B    0.924
   147   7 N    3.469 --   148 B    1.260   128 B    1.039   179 N    0.984
   148   5 B    3.421 --   147 N    1.260   134 B    0.978   156 B    0.959
   149   7 N    3.510 --   184 B    1.171   136 B    1.151   129 N    0.999
   150   5 B    3.347 --   162 B    1.009   132 B    1.008   161 N    0.963
   151   7 N    3.508 --   118 B    1.240   154 B    1.094   157 N    1.035
   152   5 B    3.515 --   129 N    1.123   153 N    1.105   125 N    1.086
   153   7 N    3.477 --   120 B    1.176   152 B    1.105   138 B    0.989
   154   5 B    3.464 --   159 N    1.178   151 N    1.094   118 B    0.990
   155   7 N    3.262 --   130 B    1.073   137 N    1.013   169 N    0.975
   156   5 B    3.391 --   143 N    1.221   145 N    0.998   148 B    0.959
   157   7 N    3.371 --   140 B    1.041   151 N    1.035   170 B    0.986
   158   5 B    3.454 --   171 N    1.192   165 N    1.078   134 B    0.932
   159   7 N    3.406 --   154 B    1.178   166 B    1.073   167 N    0.959
   160   5 B    3.365 --   115 N    1.142   114 B    0.970   139 N    0.926
                           172 B    0.127
   161   7 N    3.560 --   116 B    1.276   176 B    1.105   150 B    0.963
   162   5 B    3.367 --   126 B    1.285   150 B    1.009   122 B    0.640
                           176 B    0.186
   163   7 N    2.987 --   171 N    1.044   124 B    0.961   135 N    0.794
   164   5 B    3.455 --   165 N    1.266   122 B    0.932   132 B    0.926
   165   7 N    3.480 --   164 B    1.266   158 B    1.078   125 N    0.967
   166   5 B    3.442 --   185 N    1.130   159 N    1.073   114 B    1.000
   167   7 N    3.184 --   123 N    1.043   159 N    0.959   185 N    0.950
   168   5 B    3.525 --   173 N    1.161   133 N    1.142   183 N    0.990
   169   7 N    3.213 --   142 B    1.030   175 N    0.984   155 N    0.975
   170   5 B    3.508 --   179 N    1.264   143 N    0.993   157 N    0.986
   171   7 N    3.440 --   158 B    1.192   163 N    1.044   145 N    0.990
   172   5 B    3.327 --   139 N    1.062   115 N    1.002   116 B    0.958
                           160 B    0.127
   173   7 N    3.491 --   168 B    1.161   146 B    1.126   115 N    1.006
   174   5 B    3.386 --   117 N    1.150   128 B    1.005   178 B    1.002
   175   7 N    3.447 --   138 B    1.248   130 B    1.001   169 N    0.984
   176   5 B    3.443 --   117 N    1.152   161 N    1.105   126 B    0.627
                           162 B    0.186   178 B    0.120
   177   7 N    3.333 --   142 B    1.209   182 B    1.038   119 N    0.888
   178   5 B    3.334 --   126 B    1.004   174 B    1.002   121 N    0.973
                           176 B    0.120
   179   7 N    3.439 --   170 B    1.264   147 N    0.984   123 N    0.945
   180   5 B    3.445 --   131 N    1.142   181 N    1.116   118 B    0.996
   181   7 N    3.399 --   142 B    1.126   180 B    1.116   137 N    0.941
   182   5 B    3.439 --   145 N    1.260   177 N    1.038   119 N    0.967
   183   7 N    3.476 --   114 B    1.284   131 N    0.993   168 B    0.990
   184   5 B    3.360 --   149 N    1.171   116 B    0.978   146 B    0.924
   185   7 N    3.417 --   166 B    1.130   144 B    1.099   167 N    0.950
 ---------------------------------------------------------------------------

Topologies differ in total number of bonds
Writing topology from bond orders to xtbtopo.mol

molecular dipole:
                 x           y           z       tot (Debye)
 q only:        4.756       2.370      -2.714
   full:        3.115       1.937      -0.263       9.347
molecular quadrupole (traceless):
                xx          xy          yy          xz          yz          zz
 q only:      -66.616      -1.128       6.903     114.350      19.692      59.714
  q+dip:      -61.905      -2.256      14.713     114.623      46.227      47.192
   full:      -57.379      -1.765      11.435     117.846      44.177      45.943

           -------------------------------------------------
          |                Geometry Summary                 |
           -------------------------------------------------

      molecular mass/u    :     1747.3462630
   center of mass at/Å    :       -0.0588727       0.0038749       6.7309855
  moments of inertia/u·Å² :        0.2925936E+05   0.1008456E+06   0.1099576E+06
rotational constants/cm⁻¹ :        0.5761449E-03   0.1671627E-03   0.1533103E-03

 * 192 selected distances

     #   Z          #   Z                                           value/Å
     2   6 C        3   8 O                                       1.2011059
     2   6 C        4   8 O                                       1.3422613
     4   8 O        5   6 C                                       1.4230360
     6   6 C        7   8 O                                       1.2046024
     8   6 C        9   6 C                                       1.5367580
    10   6 C       11   8 O                                       1.4081152
    10   6 C       12   6 C                                       1.5271951
    12   6 C       13   6 C                                       1.5168372
    13   6 C       14   8 O                                       1.4308708
    14   8 O       15   6 C                                       1.4282190
    13   6 C       16   6 C                                       1.5400060
    15   6 C       16   6 C                                       1.5357398
    16   6 C       17   8 O                                       1.4350915
    17   8 O       18   6 C                                       1.3453251
    18   6 C       20   8 O                                       1.1986008
    22   6 C       23   8 O                                       1.4466373
    23   8 O       24   6 C                                       1.3267710
    24   6 C       25   8 O                                       1.2146115
    26   6 C       27   6 C                                       1.3936152
    27   6 C       28   6 C                                       1.3812867
    28   6 C       29   6 C                                       1.3860565
    29   6 C       30   6 C                                       1.3864506
    26   6 C       31   6 C                                       1.3928131
    30   6 C       31   6 C                                       1.3821297
    32   6 C       33   8 O                                       1.4181266
    34   6 C       35   6 C                                       1.5329363
    35   6 C       36   8 O                                       1.4485321
    36   8 O       37   6 C                                       1.3131054
    37   6 C       38   8 O                                       1.2089031
    39   6 C       40   8 O                                       1.4001092
    41   6 C       42   7 N                                       1.4452923
    42   7 N       43   6 C                                       1.3554769
    43   6 C       44   8 O                                       1.2185874
    45   6 C       46   6 C                                       1.3921113
    46   6 C       47   6 C                                       1.3832662
    47   6 C       48   6 C                                       1.3854738
    48   6 C       49   6 C                                       1.3853941
    45   6 C       50   6 C                                       1.3912836
    49   6 C       50   6 C                                       1.3825853
    51   6 C       52   6 C                                       1.3893231
    52   6 C       53   6 C                                       1.3840241
    53   6 C       54   6 C                                       1.3847407
    54   6 C       55   6 C                                       1.3845943
    51   6 C       56   6 C                                       1.3886785
    55   6 C       56   6 C                                       1.3836685
    57   6 C       59   6 C                                       1.3369250
    60   6 C       61   6 C                                       1.5297289
     1   6 C       63   1 H                                       1.0869225
     1   6 C       64   1 H                                       1.0852937
     1   6 C       65   1 H                                       1.0879398
     5   6 C       66   1 H                                       1.0967077
     9   6 C       67   1 H                                       1.0877104
     9   6 C       68   1 H                                       1.0813456
     9   6 C       69   1 H                                       1.0828825
    10   6 C       70   1 H                                       1.0946895
    11   8 O       71   1 H                                       0.9582691 (min)
    12   6 C       72   1 H                                       1.0904112
    12   6 C       73   1 H                                       1.0911033
    13   6 C       74   1 H                                       1.0945113
    15   6 C       75   1 H                                       1.0910879
    15   6 C       76   1 H                                       1.0907417
    19   6 C       77   1 H                                       1.0870380
    19   6 C       78   1 H                                       1.0885464
    19   6 C       79   1 H                                       1.0863173
    21   6 C       80   1 H                                       1.0977274
    22   6 C       81   1 H                                       1.0987884
    27   6 C       82   1 H                                       1.0793300
    28   6 C       83   1 H                                       1.0794145
    29   6 C       84   1 H                                       1.0801260
    30   6 C       85   1 H                                       1.0796338
    31   6 C       86   1 H                                       1.0784720
    33   8 O       87   1 H                                       0.9732438
    34   6 C       88   1 H                                       1.0900490
    34   6 C       89   1 H                                       1.0932852
    35   6 C       90   1 H                                       1.1001962
    39   6 C       91   1 H                                       1.0979111
    40   8 O       92   1 H                                       0.9749961
    41   6 C       93   1 H                                       1.0953616
    42   7 N       94   1 H                                       1.0076596
    46   6 C       95   1 H                                       1.0806203
    47   6 C       96   1 H                                       1.0802641
    48   6 C       97   1 H                                       1.0800848
    49   6 C       98   1 H                                       1.0799237
    50   6 C       99   1 H                                       1.0797613
    52   6 C      100   1 H                                       1.0795253
    53   6 C      101   1 H                                       1.0800952
    54   6 C      102   1 H                                       1.0801714
    55   6 C      103   1 H                                       1.0798685
    56   6 C      104   1 H                                       1.0806505
    58   6 C      105   1 H                                       1.0888357
    58   6 C      106   1 H                                       1.0842651
    58   6 C      107   1 H                                       1.0875357
    61   6 C      108   1 H                                       1.0868479
    61   6 C      109   1 H                                       1.0837849
    61   6 C      110   1 H                                       1.0827766
    62   6 C      111   1 H                                       1.0873246
    62   6 C      112   1 H                                       1.0857047
    62   6 C      113   1 H                                       1.0841739
   121   7 N      122   5 B                                       1.4427804
   124   5 B      125   7 N                                       1.4039696
   120   5 B      127   7 N                                       1.4719070
   123   7 N      128   5 B                                       1.4400242
   127   7 N      130   5 B                                       1.3868898
   129   7 N      132   5 B                                       1.4225305
   131   7 N      133   7 N                                       1.4211036
   121   7 N      134   5 B                                       1.4232461
   124   5 B      135   7 N                                       1.3941624
   120   5 B      136   5 B                                       1.5748684
   133   7 N      137   7 N                                       1.4197802
   135   7 N      138   5 B                                       1.4345525
   119   7 N      140   5 B                                       1.3890881
   136   5 B      141   7 N                                       1.4842106
   140   5 B      143   7 N                                       1.4716163
   117   7 N      144   5 B                                       1.4903471
   139   7 N      144   5 B                                       1.4138528
   141   7 N      146   5 B                                       1.4395886
   128   5 B      147   7 N                                       1.4566297
   134   5 B      148   5 B                                       1.6640767
   147   7 N      148   5 B                                       1.4082411
   136   5 B      149   7 N                                       1.4216721
   132   5 B      150   5 B                                       1.6422825
   118   5 B      151   7 N                                       1.4060767
   125   7 N      152   5 B                                       1.4485394
   129   7 N      152   5 B                                       1.4598379
   120   5 B      153   7 N                                       1.4264637
   138   5 B      153   7 N                                       1.4929759
   152   5 B      153   7 N                                       1.4580854
   118   5 B      154   5 B                                       1.5732259
   151   7 N      154   5 B                                       1.4134350
   130   5 B      155   7 N                                       1.4435461
   137   7 N      155   7 N                                       1.3923064
   143   7 N      156   5 B                                       1.4200795
   145   7 N      156   5 B                                       1.4793531
   148   5 B      156   5 B                                       1.6739199 (max)
   140   5 B      157   7 N                                       1.4509979
   151   7 N      157   7 N                                       1.3697107
   154   5 B      159   7 N                                       1.4096201
   114   5 B      160   5 B                                       1.6082923
   115   7 N      160   5 B                                       1.4246601
   139   7 N      160   5 B                                       1.4997858
   116   5 B      161   7 N                                       1.4098459
   150   5 B      161   7 N                                       1.4909090
   126   5 B      162   5 B                                       1.5158390
   150   5 B      162   5 B                                       1.6060240
   124   5 B      163   7 N                                       1.4295098
   122   5 B      164   5 B                                       1.6490541
   132   5 B      164   5 B                                       1.6619235
   158   5 B      165   7 N                                       1.4619121
   164   5 B      165   7 N                                       1.4027427
   114   5 B      166   5 B                                       1.6191263
   159   7 N      166   5 B                                       1.4429249
   123   7 N      167   7 N                                       1.3679812
   133   7 N      168   5 B                                       1.4367440
   142   5 B      169   7 N                                       1.4564413
   155   7 N      169   7 N                                       1.4378743
   143   7 N      170   5 B                                       1.4562028
   157   7 N      170   5 B                                       1.4634352
   158   5 B      171   7 N                                       1.4267858
   163   7 N      171   7 N                                       1.3896883
   115   7 N      172   5 B                                       1.4596274
   116   5 B      172   5 B                                       1.6127844
   139   7 N      172   5 B                                       1.4505436
   146   5 B      173   7 N                                       1.4490986
   168   5 B      173   7 N                                       1.4410138
   117   7 N      174   5 B                                       1.4575417
   128   5 B      174   5 B                                       1.6052692
   130   5 B      175   7 N                                       1.4618537
   138   5 B      175   7 N                                       1.3911047
   169   7 N      175   7 N                                       1.4210744
   117   7 N      176   5 B                                       1.4586093
   161   7 N      176   5 B                                       1.4560092
   142   5 B      177   7 N                                       1.3893406
   121   7 N      178   5 B                                       1.4967095
   126   5 B      178   5 B                                       1.6002955
   174   5 B      178   5 B                                       1.6242137
   123   7 N      179   7 N                                       1.4306415
   147   7 N      179   7 N                                       1.4182899
   170   5 B      179   7 N                                       1.3745404
   118   5 B      180   5 B                                       1.6420352
   131   7 N      180   5 B                                       1.4365307
   142   5 B      181   7 N                                       1.4412585
   180   5 B      181   7 N                                       1.4544075
   119   7 N      182   5 B                                       1.4253448
   145   7 N      182   5 B                                       1.4006620
   177   7 N      182   5 B                                       1.4169607
   114   5 B      183   7 N                                       1.4017206
   131   7 N      183   7 N                                       1.4072617
   168   5 B      183   7 N                                       1.4859345
   116   5 B      184   5 B                                       1.6504537
   149   7 N      184   5 B                                       1.4321334
   144   5 B      185   7 N                                       1.4510706
   166   5 B      185   7 N                                       1.4430865

 * 9 distinct bonds (by element types)

   Z      Z             #   av. dist./Å        max./Å        min./Å
   5 B    5 B          17     1.6190402     1.6739199     1.5158390
   1 H    6 C          47     1.0865055     1.1001962     1.0784720
   6 C    6 C          26     1.4236008     1.5400060     1.3369250
   1 H    7 N           1     1.0076596     1.0076596     1.0076596
   5 B    7 N          66     1.4391109     1.4997858     1.3745404
   6 C    7 N           2     1.4003846     1.4452923     1.3554769
   7 N    7 N          11     1.4068829     1.4378743     1.3679812
   1 H    8 O           3     0.9688363     0.9749961     0.9582691
   6 C    8 O          19     1.3375059     1.4485321     1.1986008


optimized geometry written to: xtbopt.xyz


           -------------------------------------------------
          | TOTAL ENERGY             -336.738151470570 Eh   |
          | GRADIENT NORM               0.006509048604 Eh/α |
          | HOMO-LUMO GAP               0.565220974034 eV   |
           -------------------------------------------------

------------------------------------------------------------------------
 * finished run on 2026/08/31 at 22:25:10.282     
------------------------------------------------------------------------
 total:
 * wall-time:     0 d,  0 h,  0 min, 15.882 sec
 *  cpu-time:     0 d,  0 h,  2 min,  5.391 sec
 * ratio c/w:     7.895 speedup
 SCF:
 * wall-time:     0 d,  0 h,  0 min,  2.495 sec
 *  cpu-time:     0 d,  0 h,  0 min, 18.859 sec
 * ratio c/w:     7.559 speedup
 ANC optimizer:
 * wall-time:     0 d,  0 h,  0 min, 13.265 sec
 *  cpu-time:     0 d,  0 h,  1 min, 45.812 sec
 * ratio c/w:     7.977 speedup

normal termination of xtb
