185
Drug@B36N36 non-overlapping relaxed complex
C     -1.889027     -4.788092      3.710778
C     -1.505474     -3.371905      4.010011
O     -1.264938     -2.524934      3.161626
O     -1.442435     -3.181914      5.354904
C     -1.203452     -1.833361      5.745732
C     -2.419112     -0.892707      5.593830
O     -3.495360     -1.353193      5.188581
C     -2.314198      0.607865      5.982963
C     -0.859777      1.151656      6.042870
C     -2.976327      1.321286      4.734675
O     -2.004376      1.540112      3.705207
C     -3.620490      2.653548      5.070854
C     -4.766501      2.419940      6.027053
O     -5.701861      1.438368      5.518224
C     -5.568293      0.628451      6.710531
C     -4.474026      1.560906      7.285122
O     -4.751714      2.228211      8.560570
C     -5.962688      2.809117      8.791123
C     -5.991819      3.379726     10.176842
O     -6.900228      2.872406      8.013031
C     -2.982339      0.990034      7.382090
C     -2.861101      0.185878      8.779630
O     -2.423641      1.258133      9.707715
C     -3.012652      1.374652     10.920555
O     -3.841348      0.601005     11.372712
C     -2.509077      2.571451     11.642870
C     -3.099947      2.898809     12.870852
C     -2.666977      4.018818     13.582738
C     -1.641042      4.813883     13.073955
C     -1.044990      4.491337     11.855106
C     -1.475942      3.372634     11.138425
C     -2.104559     -1.151266      9.258081
O     -2.960488     -1.719226     10.305399
C     -0.758461     -0.959865      9.999159
C      0.473043     -0.815724      9.105815
O      1.587380     -1.496291      9.708370
C      2.208214     -0.820265     10.711139
O      1.839005      0.248483     11.190630
C      3.424664     -1.581822     11.232250
O      3.952687     -0.917015     12.400365
C      4.510778     -1.723234     10.133381
N      5.331140     -0.520276     10.000764
C      4.902975      0.571548      9.282031
O      3.853305      0.582338      8.648696
C      5.763938      1.783164      9.342472
C      7.146566      1.700206      9.552481
C      7.915314      2.865435      9.601969
C      7.309702      4.111037      9.435759
C      5.936028      4.196977      9.211667
C      5.163902      3.035367      9.160424
C      5.440725     -2.912893     10.347323
C      5.991508     -3.221435     11.601186
C      6.858031     -4.306485     11.752727
C      7.195519     -5.091581     10.653227
C      6.671667     -4.790082      9.399057
C      5.804970     -3.706303      9.245657
C      0.313610     -1.326552      7.680533
C      1.546450     -1.079859      6.832381
C     -0.866524     -1.826445      7.218188
C     -1.944463     -2.295229      8.215900
C     -3.353537     -2.726020      7.726493
C     -1.383684     -3.621125      8.836174
H     -2.845803     -5.021026      4.185216
H     -2.000411     -4.912754      2.629943
H     -1.108523     -5.465782      4.065044
H     -0.406591     -1.425303      5.122235
H     -0.836230      2.239273      5.898324
H     -0.410569      0.999014      7.023251
H     -0.207494      0.716916      5.280832
H     -3.740286      0.689205      4.270539
H     -2.493486      1.683747      2.873759
H     -2.889418      3.349187      5.498635
H     -3.983379      3.135098      4.154288
H     -5.279334      3.369011      6.219667
H     -5.271489     -0.390002      6.468642
H     -6.510264      0.569320      7.262626
H     -5.152210      4.065729     10.314981
H     -5.957936      2.571703     10.911019
H     -6.919292      3.942556     10.316913
H     -2.445284      1.927852      7.610201
H     -3.910339     -0.029353      9.027060
H     -3.899053      2.283023     13.279539
H     -3.126958      4.268442     14.535988
H     -1.301128      5.683774     13.631286
H     -0.239395      5.108924     11.464862
H     -0.990291      3.136387     10.195116
H     -3.271308     -1.004929     10.900606
H     -0.795551     -0.122275     10.703440
H     -0.604188     -1.808850     10.682791
H      0.705498      0.255455      9.018405
H      3.062722     -2.562437     11.563480
H      3.587674     -0.008167     12.376373
H      4.006551     -1.881347      9.172072
H      6.057125     -0.401602     10.695426
H      7.644218      0.739567      9.652097
H      8.989281      2.802066      9.761081
H      7.911181      5.016364      9.471861
H      5.466521      5.167689      9.073210
H      4.093082      3.107988      8.981303
H      5.755952     -2.621816     12.477966
H      7.271044     -4.537072     12.731657
H      7.870037     -5.935324     10.773154
H      6.939957     -5.396764      8.537851
H      5.416621     -3.481871      8.253734
H      2.419089     -1.553824      7.293420
H      1.481207     -1.507036      5.829928
H      1.750916     -0.009423      6.740268
H     -3.903850     -3.249590      8.519163
H     -3.314905     -3.422588      6.884872
H     -3.982451     -1.879166      7.459503
H     -1.356583     -4.416761      8.080355
H     -2.008758     -3.980327      9.661634
H     -0.364173     -3.530584      9.223509
B      3.459180     -1.454569      1.628037
N      3.456400      1.129904      0.940040
B      2.539920      2.362499     -1.261047
N      2.293067     -0.641637     -2.730603
B      0.690534     -3.561069      2.702709
N     -2.939724     -2.654773      1.709476
B     -1.038202      4.085096      1.831238
N     -0.619347      0.017651     -3.941904
B     -0.473710      1.445324     -4.091730
N      1.209559     -3.786796     -1.739405
B     -3.844500      2.209440     -0.493722
N     -2.772864      2.763562     -1.211833
B      1.405725      0.818091     -4.889311
N     -0.235789      3.364215      2.833544
B      0.898320     -2.879798     -2.813849
N     -0.491833      3.766578     -1.010119
B     -0.805996      2.182269      3.281874
N      1.656110     -1.274433      3.503622
B     -0.248484      3.469937     -2.379863
N      1.308703      0.068898      3.816981
B     -1.597441     -0.559934     -3.084689
N     -3.832496      1.776842      0.831624
B      0.337602      4.495994      1.183894
N      0.043256     -0.013955      4.456653
B     -2.708837      2.226751      1.601242
N      3.772728     -0.132624     -0.765541
B     -2.253381     -3.639412      1.008482
N      1.055818      3.733398      2.235734
B     -1.825620     -0.777460      3.219840
N     -2.436768     -3.601880     -0.450773
B      3.018658     -1.073670     -1.502768
N     -3.157960     -1.252592     -0.384321
B      2.034656      2.922326      1.561722
N     -0.507447     -2.900148     -2.432795
B     -1.673548     -2.112882     -2.491621
N      0.590135      3.964583     -0.110225
B      1.090314      2.959649     -3.182489
N      0.077350     -4.359230      1.721289
B     -1.784034      3.452384     -0.408220
N     -2.013520      3.418515      1.031553
B      1.465878     -4.212148      1.499138
N     -0.797987      1.064153      4.194581
B     -2.666242     -2.402096     -1.175256
N     -1.074388     -4.484335      0.991235
B     -2.503710      0.491370     -2.109143
N      2.352728     -3.887335      0.453103
B      3.912327     -0.202357      0.725926
N      1.928548      1.957009     -2.465077
B      1.001184      2.254351     -4.622507
N     -4.186016      0.829005     -0.347538
B     -1.338881      2.453658     -3.114870
N     -2.359649      1.932605     -2.305841
B      3.073063     -2.645483      0.601111
N      2.335213     -3.673670     -0.970876
B      2.217863      0.545803      2.808407
N     -2.026423      0.611912      3.601492
B     -1.101749     -4.183787     -0.441007
N     -3.218144      0.041654     -0.958566
B      3.447752      1.258593     -0.514065
N      2.582085      1.632977      1.936454
B      1.472054     -1.555001     -3.515610
N     -2.102601      1.754194      2.760799
B      2.040765      0.711921     -3.211483
N     -2.720915     -1.341699      2.320567
B      0.658648     -0.538875     -4.486937
N     -0.168664     -3.759421     -1.356472
B      0.485560     -2.105634      3.433764
N     -0.587253     -1.205033      3.824488
B     -3.224373     -1.451411      1.000320
N      2.671324     -0.855529      2.621135
B      1.878557      3.339348     -0.106427
N      2.876911     -2.331783     -0.793563
