      -----------------------------------------------------------      
     |                   =====================                   |     
     |                           x T B                           |     
     |                   =====================                   |     
     |                         S. Grimme                         |     
     |          Mulliken Center for Theoretical Chemistry        |     
     |                    University of Bonn                     |     
      -----------------------------------------------------------      

   * xtb version 6.7.1pre (5071a88) compiled by 'Marcel@Raven' on 2024-07-23

   xtb is free software: you can redistribute it and/or modify it under
   the terms of the GNU Lesser General Public License as published by
   the Free Software Foundation, either version 3 of the License, or
   (at your option) any later version.
   
   xtb is distributed in the hope that it will be useful,
   but WITHOUT ANY WARRANTY; without even the implied warranty of
   MERCHANTABILITY or FITNESS FOR A PARTICULAR PURPOSE.  See the
   GNU Lesser General Public License for more details.
   
   Cite this work as:
   * C. Bannwarth, E. Caldeweyher, S. Ehlert, A. Hansen, P. Pracht,
     J. Seibert, S. Spicher, S. Grimme, WIREs Comput. Mol. Sci., 2020, 11,
     e01493. DOI: 10.1002/wcms.1493
   
   for GFN2-xTB:
   * C. Bannwarth, S. Ehlert and S. Grimme., J. Chem. Theory Comput., 2019,
     15, 1652-1671. DOI: 10.1021/acs.jctc.8b01176
   for GFN1-xTB:
   * S. Grimme, C. Bannwarth, P. Shushkov, J. Chem. Theory Comput., 2017,
     13, 1989-2009. DOI: 10.1021/acs.jctc.7b00118
   for GFN0-xTB:
   * P. Pracht, E. Caldeweyher, S. Ehlert, S. Grimme, ChemRxiv, 2019, preprint.
     DOI: 10.26434/chemrxiv.8326202.v1
   for GFN-FF:
   * S. Spicher and S. Grimme, Angew. Chem. Int. Ed., 2020, 59, 15665-15673.
     DOI: 10.1002/anie.202004239
   
   for ALPB and GBSA implicit solvation:
   * S. Ehlert, M. Stahn, S. Spicher, S. Grimme, J. Chem. Theory Comput.,
     2021, 17, 4250-4261. DOI: 10.1021/acs.jctc.1c00471
   
   for ddCOSMO and CPCM-X implicit solvation:
   * M. Stahn, S. Ehlert, S. Grimme, J. Phys. Chem. A,
     2023, XX, XXXX-XXXX. DOI: 10.1021/acs.jpca.3c04382
   
   for DFT-D4:
   * E. Caldeweyher, C. Bannwarth and S. Grimme, J. Chem. Phys., 2017,
     147, 034112. DOI: 10.1063/1.4993215
   * E. Caldeweyher, S. Ehlert, A. Hansen, H. Neugebauer, S. Spicher,
     C. Bannwarth and S. Grimme, J. Chem. Phys., 2019, 150, 154122.
     DOI: 10.1063/1.5090222
   * E. Caldeweyher, J.-M. Mewes, S. Ehlert and S. Grimme, Phys. Chem. Chem. Phys.
     2020, 22, 8499-8512. DOI: 10.1039/D0CP00502A
   
   for sTDA-xTB:
   * S. Grimme and C. Bannwarth, J. Chem. Phys., 2016, 145, 054103.
     DOI: 10.1063/1.4959605
   
   in the mass-spec context:
   * V. Asgeirsson, C. Bauer and S. Grimme, Chem. Sci., 2017, 8, 4879.
     DOI: 10.1039/c7sc00601b
   * J. Koopman and S. Grimme, ACS Omega 2019, 4, 12, 15120-15133.
     DOI: 10.1021/acsomega.9b02011
   
   for metadynamics refer to:
   * S. Grimme, J. Chem. Theory Comput., 2019, 155, 2847-2862
     DOI: 10.1021/acs.jctc.9b00143
   
   for SPH calculations refer to:
   * S. Spicher and S. Grimme, J. Chem. Theory Comput., 2021, 17, 1701-1714
     DOI: 10.1021/acs.jctc.0c01306
   
   for ONIOM refer to:
   * C. Plett, A. Katbashev, S. Ehlert, S. Grimme, M. Bursch,
     Phys. Chem. Chem. Phys., 2023, 25, 17860-17868. DOI: 10.1039/D3CP02178E
   
   for DIPRO refer to:
   * J. Kohn, N. Gildemeister, S. Grimme, D. Fazzi, A. Hansen,
     J. Chem. Phys., 2023, just accepted.
   
   for PTB refer to:
   * S. Grimme, M. Mueller, A. Hansen, J. Chem. Phys., 2023, 158, 124111.
     DOI: 10.1063/5.0137838
   
   with help from (in alphabetical order)
   P. Atkinson, C. Bannwarth, F. Bohle, G. Brandenburg, E. Caldeweyher
   M. Checinski, S. Dohm, S. Ehlert, S. Ehrlich, I. Gerasimov, C. Hölzer
   A. Katbashev, J. Kohn, J. Koopman, C. Lavigne, S. Lehtola, F. März, M. Müller,
   F. Musil, H. Neugebauer, J. Pisarek, C. Plett, P. Pracht, F. Pultar,
   J. Seibert, P. Shushkov, S. Spicher, M. Stahn, M. Steiner, T. Strunk,
   J. Stückrath, T. Rose, and J. Unsleber
   
 * started run on 2026/08/31 at 21:10:52.727     
   ID    Z sym.   atoms
    1    6 C      1, 2, 5, 6, 8-10, 12, 13, 15, 16, 18, 19, 21, 22, 24,
                  26-32, 34, 35, 37, 39, 41, 43, 45-62
    2    8 O      3, 4, 7, 11, 14, 17, 20, 23, 25, 33, 36, 38, 40, 44
    3    7 N      42, 115, 117, 119, 121, 123, 125, 127, 129, 131, 133, 135,
                  137, 139, 141, 143, 145, 147, 149, 151, 153, 155, 157, 159,
                  161, 163, 165, 167, 169, 171, 173, 175, 177, 179, 181, 183,
                  185
    4    1 H      63-113
    5    5 B      114, 116, 118, 120, 122, 124, 126, 128, 130, 132, 134, 136,
                  138, 140, 142, 144, 146, 148, 150, 152, 154, 156, 158, 160,
                  162, 164, 166, 168, 170, 172, 174, 176, 178, 180, 182, 184

           -------------------------------------------------
          |                Calculation Setup                |
           -------------------------------------------------

          program call               : "c:\Users\Andre\Proyectos doctorado\kras-pancreatic-gC3N4-ai\tools\xtb\xtb-6.7.1\bin\xtb.exe" "c:\Users\Andre\Proyectos doctorado\nano-qsar-ai-therapeutics\calculations\tnbc\Paclitaxel\Paclitaxel_B36N36_relaxed_complex.xyz" --gfn 2 --opt normal --chrg 0 --uhf 0 --iterations 50 --norestart
          coordinate file            : c:\Users\Andre\Proyectos doctorado\nano-qsar-ai-therapeutics\calculations\tnbc\Paclitaxel\Paclitaxel_B36N36_relaxed_complex.xyz
          omp threads                :                    16


           -------------------------------------------------
          |                 G F N 2 - x T B                 |
           -------------------------------------------------

        Reference                      10.1021/acs.jctc.8b01176
      * Hamiltonian:
        H0-scaling (s, p, d)           1.850000    2.230000    2.230000
        zeta-weighting                 0.500000
      * Dispersion:
        s8                             2.700000
        a1                             0.520000
        a2                             5.000000
        s9                             5.000000
      * Repulsion:
        kExp                           1.500000    1.000000
        rExp                           1.000000
      * Coulomb:
        alpha                          2.000000
        third order                    shell-resolved
        anisotropic                    true
        a3                             3.000000
        a5                             4.000000
        cn-shift                       1.200000
        cn-exp                         4.000000
        max-rad                        5.000000


          ...................................................
          :                      SETUP                      :
          :.................................................:
          :  # basis functions                 587          :
          :  # atomic orbitals                 587          :
          :  # shells                          319          :
          :  # electrons                       616          :
          :  max. iterations                    50          :
          :  Hamiltonian                  GFN2-xTB          :
          :  restarted?                      false          :
          :  GBSA solvation                  false          :
          :  PC potential                    false          :
          :  electronic temp.          300.0000000     K    :
          :  accuracy                    1.0000000          :
          :  -> integral cutoff          0.2500000E+02      :
          :  -> integral neglect         0.1000000E-07      :
          :  -> SCF convergence          0.1000000E-05 Eh   :
          :  -> wf. convergence          0.1000000E-03 e    :
          :  Broyden damping             0.4000000          :
          :  net charge                          0          :
          :  unpaired electrons                  0          :
          ...................................................

 iter      E             dE          RMSdq      gap      omega  full diag
   1   -331.3422090 -0.331342E+03  0.957E+00    0.36       0.0  T
   2    -95.1054717  0.236237E+03  0.119E+01    0.07       1.0  T
   3    604.6640017  0.699769E+03  0.210E+01    0.03       1.0  T
   4   -222.3978864 -0.827062E+03  0.108E+01    0.11       1.0  T
   5    -10.6357885  0.211762E+03  0.138E+01    0.07       1.0  T
   6    -37.8453878 -0.272096E+02  0.124E+01    0.04       1.0  T
   7   -121.2570845 -0.834117E+02  0.110E+01    0.01       1.0  T
   8   -279.7713845 -0.158514E+03  0.719E+00    0.04       1.0  T
   9   -322.0390866 -0.422677E+02  0.587E+00    0.32       1.0  T
  10   -334.2485707 -0.122095E+02  0.504E+00    0.18       1.0  T
  11   -337.2958969 -0.304733E+01  0.435E+00    0.30       1.0  T
  12   -337.4484648 -0.152568E+00  0.417E+00    0.10       1.0  T
  13   -337.2727522  0.175713E+00  0.401E+00    0.13       1.0  T
  14   -336.9436916  0.329061E+00  0.317E+00    0.05       1.0  T
  15   -337.3601733 -0.416482E+00  0.294E+00    0.18       1.0  T
  16   -336.0561061  0.130407E+01  0.253E+00    0.02       1.0  T
  17   -336.9532407 -0.897135E+00  0.225E+00    0.11       1.0  T
  18   -333.9530596  0.300018E+01  0.258E+00    0.08       1.0  T
  19   -336.4026250 -0.244957E+01  0.198E+00    0.06       1.0  T
  20   -337.0443895 -0.641765E+00  0.174E+00    0.14       1.0  T
  21   -337.2649678 -0.220578E+00  0.158E+00    0.13       1.0  T
  22   -337.2629364  0.203142E-02  0.159E+00    0.14       1.0  T
  23   -337.3474772 -0.845407E-01  0.156E+00    0.26       1.0  T
  24   -337.2919472  0.555300E-01  0.165E+00    0.24       1.0  T
  25   -337.7228965 -0.430949E+00  0.129E+00    0.13       1.0  T
  26   -337.8291649 -0.106268E+00  0.123E+00    0.04       1.0  T
  27   -337.8718205 -0.426556E-01  0.101E+00    0.12       1.0  T
  28   -337.9967645 -0.124944E+00  0.110E+00    0.01       1.0  T
  29   -338.0390997 -0.423352E-01  0.100E+00    0.02       1.0  T
  30   -338.0630299 -0.239302E-01  0.885E-01    0.04       1.0  T
  31   -338.0670441 -0.401421E-02  0.832E-01    0.02       1.0  T
  32   -338.1038341 -0.367900E-01  0.803E-01    0.05       1.0  T
  33   -338.1341195 -0.302854E-01  0.749E-01    0.02       1.0  T
  34   -338.2548283 -0.120709E+00  0.574E-01    0.04       1.0  T
  35   -338.2566414 -0.181304E-02  0.569E-01    0.04       1.0  T
  36   -338.2716261 -0.149847E-01  0.564E-01    0.05       1.0  T
  37   -338.2914165 -0.197904E-01  0.485E-01    0.05       1.0  T
  38   -338.2948517 -0.343518E-02  0.362E-01    0.06       1.0  T
  39   -338.2924492  0.240241E-02  0.497E-01    0.07       1.0  T
  40   -338.3206727 -0.282235E-01  0.409E-01    0.14       1.0  T
  41   -338.3181398  0.253292E-02  0.412E-01    0.14       1.0  T
  42   -338.3181081  0.316917E-04  0.411E-01    0.14       1.0  T
  43   -338.3167926  0.131550E-02  0.404E-01    0.13       1.0  T
  44   -338.3252568 -0.846422E-02  0.343E-01    0.09       1.0  T
  45   -338.2840385  0.412183E-01  0.453E-01    0.03       1.0  T
  46   -338.2929401 -0.890154E-02  0.421E-01    0.04       1.0  T
  47   -338.2947218 -0.178173E-02  0.412E-01    0.04       1.0  T
  48   -338.2871318  0.759003E-02  0.395E-01    0.03       1.0  T
  49   -338.3224261 -0.352943E-01  0.274E-01    0.06       1.0  T
  50   -338.3334774 -0.110513E-01  0.207E-01    0.07       1.0  T

   *** convergence criteria cannot be satisfied within 50 iterations ***

         #    Occupation            Energy/Eh            Energy/eV
      -------------------------------------------------------------
         1        2.0000           -1.0618929             -28.8956
       ...           ...                  ...                  ...
       302        2.0000           -0.3144586              -8.5569
       303        2.0000           -0.3108208              -8.4579
       304        2.0000           -0.3101969              -8.4409
       305        2.0000           -0.3087231              -8.4008
       306        2.0000           -0.3065386              -8.3413
       307        2.0000           -0.2971433              -8.0857
       308        1.5755           -0.2750448              -7.4844 (HOMO)
       309        0.3970           -0.2724730              -7.4144 (LUMO)
       310        0.0219           -0.2695191              -7.3340
       311        0.0052           -0.2681447              -7.2966
       312        0.0005           -0.2658402              -7.2339
       313        0.0000           -0.2633772              -7.1669
       ...           ...                  ...                  ...
       587                          9.1700498             249.5298
      -------------------------------------------------------------
                  HL-Gap            0.0025718 Eh            0.0700 eV
             Fermi-level           -0.2737990 Eh           -7.4505 eV

 SCC (total)                   0 d,  0 h,  0 min,  3.380 sec
 SCC setup                      ...        0 min,  0.002 sec (  0.059%)
 Dispersion                     ...        0 min,  0.007 sec (  0.207%)
 classical contributions        ...        0 min,  0.000 sec (  0.000%)
 integral evaluation            ...        0 min,  0.027 sec (  0.799%)
 iterations                     ...        0 min,  3.258 sec ( 96.391%)
 molecular gradient             ...        0 min,  0.079 sec (  2.337%)
 printout                       ...        0 min,  0.006 sec (  0.178%)

########################################################################
[ERROR] Program stopped due to fatal error
-3- Single point calculation terminated
-2- xtb_calculator_singlepoint: Electronic structure method terminated
-1- scf: Self consistent charge iterator did not converge
########################################################################
abnormal termination of xtb
