124
Alpelisib/B36N36 GFN2 opt
C       1.42196431      3.32638965      7.84497277
C       0.86822012      1.98146717      8.15980926
C       1.55961092      0.81657662      8.39385020
S       0.43883868     -0.45267656      8.85106269
C      -0.87059691      0.70449105      8.58386137
N      -0.47876224      1.88536302      8.29300466
N      -2.16000780      0.26134631      8.66695253
C      -3.19263357      0.87571871      7.94256927
O      -3.13581241      2.03193822      7.57332591
N      -4.28167208      0.10093869      7.76083781
C      -4.41910793     -1.30353655      8.11362518
C      -5.83314976     -1.65487551      7.65347541
C      -6.03543082     -0.75269542      6.43907314
C      -5.35631716      0.54296991      6.87206141
C      -6.33579353      1.47234002      7.63049214
O      -7.46953445      1.14760796      7.90901961
N      -5.79923235      2.66484724      7.92061286
C       2.96074748      0.50767094      8.23449553
C       3.75849143      1.21360919      7.32622989
C       5.09914402      0.88310453      7.21379483
N       5.65113632     -0.11107825      7.90317693
C       4.89153299     -0.80600538      8.72931263
C       3.55384231     -0.53842266      8.94461134
C       6.08101396      1.59882633      6.29784455
C       6.43825965      0.67652295      5.12524178
C       7.34058359      1.95499559      7.10282829
C       5.51710811      2.90193208      5.73589840
F       5.08579539      3.74346465      6.69535118
F       4.49169954      2.74800539      4.88458267
F       6.45103325      3.58693290      5.05176006
H       0.74604243      4.07385128      8.25270382
H       2.41717786      3.45724000      8.26284939
H       1.45966507      3.46654000      6.76434290
H      -2.23987483     -0.73668582      8.80127477
H      -4.30030871     -1.44321092      9.19261768
H      -3.67772173     -1.90531162      7.57305987
H      -5.93659168     -2.71143163      7.41928861
H      -6.55691546     -1.38547701      8.42306059
H      -7.08982732     -0.58275999      6.23229415
H      -5.54157930     -1.15801279      5.55724039
H      -4.92927400      1.09949322      6.03031251
H      -4.81622474      2.83608592      7.73476099
H      -6.33942804      3.32834534      8.45187161
H       3.30688189      1.96880157      6.71140557
H       5.39297484     -1.61006454      9.25162814
H       2.97414097     -1.11853369      9.64545448
H       7.15845149      1.16154815      4.46980989
H       6.87189267     -0.23611715      5.52325227
H       5.54970905      0.42123037      4.54730228
H       8.10234775      2.37977571      6.45416831
H       7.72060739      1.05058848      7.56653674
H       7.10087565      2.67364913      7.88375113
B       0.37129185     -4.25419889      0.17564971
N       0.36985738     -4.94603510      1.45639332
B      -1.05170353     -4.68327043      1.29359383
N      -1.05197979     -4.33345048     -0.11796778
N      -4.52540710     -0.95563612      0.87110343
B      -4.46685340     -1.36461040      2.26399232
N      -4.65990128     -0.06256407      2.88625171
B      -4.35107262      0.33575240      1.51898536
B      -1.64920304     -3.07016683     -0.39315834
N      -2.80090003     -2.66424483      0.40110000
B      -3.39840206     -1.36940172      0.10467574
N      -2.64208296     -0.35405197     -0.61165287
B      -1.49392585     -0.79520614     -1.39122308
N      -0.86638508     -2.08054230     -1.11768201
N       0.81576195      1.58665887     -1.41552548
B       0.67382885      0.18430213     -1.77464336
N      -0.74422415      0.18375495     -2.10194546
B      -0.63303316      1.45483216     -1.40172430
B      -3.00117669     -2.11548803      4.05217664
N      -3.61669981     -2.37912843      2.76701112
B      -2.85831000     -3.12693095      1.77752256
N      -1.87044204     -4.07007705      2.27171464
B      -1.24556004     -3.82044949      3.55696778
N      -2.01618748     -3.06826924      4.53293670
N       0.08335884     -2.94321996      5.96867412
B      -0.01640513     -1.52980539      6.31188294
N      -1.47687482     -1.44006905      6.40519704
B      -1.32790018     -2.71496318      5.71585171
N      -1.46428750      1.85285314     -0.32830294
B      -2.57640308      0.97362824     -0.01895226
N      -3.36156846      1.28120533      1.16367668
B      -2.72300836      1.98773142      2.26070031
N      -1.60802262      2.85638520      1.93435155
B      -0.80982556      2.56078151      0.75812595
B       2.18542008     -2.78528943      0.86220667
N       1.19287691     -3.14565959     -0.13426341
B       0.57506062     -2.09017942     -0.91760749
N       1.34768298     -0.88042342     -1.13062408
B       2.34139279     -0.50221574     -0.14126332
N       2.94578832     -1.57038860      0.63620903
N      -2.91799634      1.53037434      3.62879951
B      -3.63755385      0.28274209      3.81597415
N      -3.07640821     -0.78475662      4.63750550
B      -2.02420894     -0.41614166      5.56911237
N      -1.27845751      0.81338159      5.40391406
B      -1.87895282      1.86574334      4.59639643
B       0.28463679      2.90583043      4.35526141
N       0.53014048      3.58865763      3.09460221
B      -0.91425731      3.42146664      3.03149290
N      -1.15700584      3.07652472      4.42218384
N       2.41894432      0.87247621      0.32521519
B       1.38353335      1.79196009     -0.12567785
N       0.64198977      2.59793069      0.83280581
B       1.23995131      2.79961686      2.14582883
N       2.27018051      1.89272782      2.63033576
B       2.98888030      1.10011121      1.64594335
B       0.83101693     -3.19342245      4.77954761
N       0.19388951     -3.95371469      3.71368721
B       0.97422230     -4.20048722      2.50798045
N       2.12924870     -3.37328889      2.19268242
B       2.73722376     -2.62189589      3.28119980
N       1.98668915     -2.35488454      4.50040313
N       0.97777995      1.74705813      4.78277268
B       0.17136224      0.73767815      5.43689467
N       0.81179790     -0.52480219      5.75576928
B       1.92596778     -0.97126081      4.94515345
N       2.71705187      0.05057493      4.28876038
B       2.08521462      1.31519602      3.94903105
N       3.86801887     -1.80583834      2.99295633
B       3.80439277     -1.16731971      1.68587139
N       4.00347570      0.21105401      2.10425721
B       3.70066480     -0.41255381      3.38335567
