52
Alpelisib GFN2 opt
C       0.85745885      1.05457048     -2.13985043
C       0.30610333      0.14039004     -1.10114910
C       0.97477857     -0.83717119     -0.40534731
S      -0.15090112     -1.69353607      0.63006421
C      -1.41441519     -0.61282311      0.03963588
N      -1.01832101      0.24113656     -0.82645592
N      -2.67312587     -0.73942028      0.54846996
C      -3.80190823     -0.11183591      0.01733527
O      -3.79379248      0.44542010     -1.06198494
N      -4.89283799     -0.18367361      0.80663658
C      -4.98571325     -0.80671669      2.11579114
C      -6.40645728     -0.48143337      2.57680438
C      -7.18392558     -0.38500515      1.26656003
C      -6.18746049      0.31620294      0.34974104
C      -6.27353472      1.85517213      0.50631402
O      -7.00218136      2.39076217      1.31225478
N      -5.48483373      2.51246891     -0.35428804
C       2.37091776     -1.21411363     -0.42203616
C       3.37474064     -0.28177946     -0.69457205
C       4.70006896     -0.69418994     -0.68864013
N       5.05676726     -1.94604598     -0.43957765
C       4.11198095     -2.82995035     -0.17120129
C       2.76558673     -2.52512707     -0.14263784
C       5.83525486      0.28110615     -0.97168058
C       5.65210865      0.95317966     -2.33726258
C       7.18803539     -0.43254064     -0.90393532
C       5.83231804      1.36534502      0.11233140
F       5.86917929      0.85578937      1.35185526
F       4.75230911      2.16702420      0.07230523
F       6.88969506      2.18775085      0.00980543
H       0.04479917      1.34281935     -2.80149528
H       1.25526595      1.95993791     -1.68141626
H       1.64479887      0.56868008     -2.71143275
H      -2.78186839     -1.38230767      1.31741183
H      -4.23239088     -0.40303583      2.79849298
H      -4.85099913     -1.89399889      2.03108231
H      -6.80163427     -1.23653393      3.25233175
H      -6.42771526      0.48781416      3.07322179
H      -8.09161046      0.20331055      1.37567299
H      -7.43081612     -1.37474047      0.88218415
H      -6.31712340      0.07351762     -0.70976779
H      -4.82476644      2.00592313     -0.93514347
H      -5.43536867      3.51692442     -0.29748043
H       3.11571700      0.74788063     -0.86426688
H       4.46249321     -3.83320586      0.03164458
H       2.02990713     -3.28075774      0.08656422
H       6.47502483      1.63873289     -2.52810345
H       5.64264893      0.19230660     -3.11312726
H       4.72017047      1.51115639     -2.38306717
H       7.99490227      0.26861818     -1.10301811
H       7.21051167     -1.22793319     -1.64158664
H       7.33015832     -0.87606445      0.07758219
