52
drug @complex
C       1.42196431      3.32638965      7.84497277
C       0.86822012      1.98146717      8.15980926
C       1.55961092      0.81657662      8.39385020
S       0.43883868     -0.45267656      8.85106269
C      -0.87059691      0.70449105      8.58386137
N      -0.47876224      1.88536302      8.29300466
N      -2.16000780      0.26134631      8.66695253
C      -3.19263357      0.87571871      7.94256927
O      -3.13581241      2.03193822      7.57332591
N      -4.28167208      0.10093869      7.76083781
C      -4.41910793     -1.30353655      8.11362518
C      -5.83314976     -1.65487551      7.65347541
C      -6.03543082     -0.75269542      6.43907314
C      -5.35631716      0.54296991      6.87206141
C      -6.33579353      1.47234002      7.63049214
O      -7.46953445      1.14760796      7.90901961
N      -5.79923235      2.66484724      7.92061286
C       2.96074748      0.50767094      8.23449553
C       3.75849143      1.21360919      7.32622989
C       5.09914402      0.88310453      7.21379483
N       5.65113632     -0.11107825      7.90317693
C       4.89153299     -0.80600538      8.72931263
C       3.55384231     -0.53842266      8.94461134
C       6.08101396      1.59882633      6.29784455
C       6.43825965      0.67652295      5.12524178
C       7.34058359      1.95499559      7.10282829
C       5.51710811      2.90193208      5.73589840
F       5.08579539      3.74346465      6.69535118
F       4.49169954      2.74800539      4.88458267
F       6.45103325      3.58693290      5.05176006
H       0.74604243      4.07385128      8.25270382
H       2.41717786      3.45724000      8.26284939
H       1.45966507      3.46654000      6.76434290
H      -2.23987483     -0.73668582      8.80127477
H      -4.30030871     -1.44321092      9.19261768
H      -3.67772173     -1.90531162      7.57305987
H      -5.93659168     -2.71143163      7.41928861
H      -6.55691546     -1.38547701      8.42306059
H      -7.08982732     -0.58275999      6.23229415
H      -5.54157930     -1.15801279      5.55724039
H      -4.92927400      1.09949322      6.03031251
H      -4.81622474      2.83608592      7.73476099
H      -6.33942804      3.32834534      8.45187161
H       3.30688189      1.96880157      6.71140557
H       5.39297484     -1.61006454      9.25162814
H       2.97414097     -1.11853369      9.64545448
H       7.15845149      1.16154815      4.46980989
H       6.87189267     -0.23611715      5.52325227
H       5.54970905      0.42123037      4.54730228
H       8.10234775      2.37977571      6.45416831
H       7.72060739      1.05058848      7.56653674
H       7.10087565      2.67364913      7.88375113
