      -----------------------------------------------------------      
     |                   =====================                   |     
     |                           x T B                           |     
     |                   =====================                   |     
     |                         S. Grimme                         |     
     |          Mulliken Center for Theoretical Chemistry        |     
     |                    University of Bonn                     |     
      -----------------------------------------------------------      

   * xtb version 6.7.1pre (5071a88) compiled by 'Marcel@Raven' on 2024-07-23

   xtb is free software: you can redistribute it and/or modify it under
   the terms of the GNU Lesser General Public License as published by
   the Free Software Foundation, either version 3 of the License, or
   (at your option) any later version.
   
   xtb is distributed in the hope that it will be useful,
   but WITHOUT ANY WARRANTY; without even the implied warranty of
   MERCHANTABILITY or FITNESS FOR A PARTICULAR PURPOSE.  See the
   GNU Lesser General Public License for more details.
   
   Cite this work as:
   * C. Bannwarth, E. Caldeweyher, S. Ehlert, A. Hansen, P. Pracht,
     J. Seibert, S. Spicher, S. Grimme, WIREs Comput. Mol. Sci., 2020, 11,
     e01493. DOI: 10.1002/wcms.1493
   
   for GFN2-xTB:
   * C. Bannwarth, S. Ehlert and S. Grimme., J. Chem. Theory Comput., 2019,
     15, 1652-1671. DOI: 10.1021/acs.jctc.8b01176
   for GFN1-xTB:
   * S. Grimme, C. Bannwarth, P. Shushkov, J. Chem. Theory Comput., 2017,
     13, 1989-2009. DOI: 10.1021/acs.jctc.7b00118
   for GFN0-xTB:
   * P. Pracht, E. Caldeweyher, S. Ehlert, S. Grimme, ChemRxiv, 2019, preprint.
     DOI: 10.26434/chemrxiv.8326202.v1
   for GFN-FF:
   * S. Spicher and S. Grimme, Angew. Chem. Int. Ed., 2020, 59, 15665-15673.
     DOI: 10.1002/anie.202004239
   
   for ALPB and GBSA implicit solvation:
   * S. Ehlert, M. Stahn, S. Spicher, S. Grimme, J. Chem. Theory Comput.,
     2021, 17, 4250-4261. DOI: 10.1021/acs.jctc.1c00471
   
   for ddCOSMO and CPCM-X implicit solvation:
   * M. Stahn, S. Ehlert, S. Grimme, J. Phys. Chem. A,
     2023, XX, XXXX-XXXX. DOI: 10.1021/acs.jpca.3c04382
   
   for DFT-D4:
   * E. Caldeweyher, C. Bannwarth and S. Grimme, J. Chem. Phys., 2017,
     147, 034112. DOI: 10.1063/1.4993215
   * E. Caldeweyher, S. Ehlert, A. Hansen, H. Neugebauer, S. Spicher,
     C. Bannwarth and S. Grimme, J. Chem. Phys., 2019, 150, 154122.
     DOI: 10.1063/1.5090222
   * E. Caldeweyher, J.-M. Mewes, S. Ehlert and S. Grimme, Phys. Chem. Chem. Phys.
     2020, 22, 8499-8512. DOI: 10.1039/D0CP00502A
   
   for sTDA-xTB:
   * S. Grimme and C. Bannwarth, J. Chem. Phys., 2016, 145, 054103.
     DOI: 10.1063/1.4959605
   
   in the mass-spec context:
   * V. Asgeirsson, C. Bauer and S. Grimme, Chem. Sci., 2017, 8, 4879.
     DOI: 10.1039/c7sc00601b
   * J. Koopman and S. Grimme, ACS Omega 2019, 4, 12, 15120-15133.
     DOI: 10.1021/acsomega.9b02011
   
   for metadynamics refer to:
   * S. Grimme, J. Chem. Theory Comput., 2019, 155, 2847-2862
     DOI: 10.1021/acs.jctc.9b00143
   
   for SPH calculations refer to:
   * S. Spicher and S. Grimme, J. Chem. Theory Comput., 2021, 17, 1701-1714
     DOI: 10.1021/acs.jctc.0c01306
   
   for ONIOM refer to:
   * C. Plett, A. Katbashev, S. Ehlert, S. Grimme, M. Bursch,
     Phys. Chem. Chem. Phys., 2023, 25, 17860-17868. DOI: 10.1039/D3CP02178E
   
   for DIPRO refer to:
   * J. Kohn, N. Gildemeister, S. Grimme, D. Fazzi, A. Hansen,
     J. Chem. Phys., 2023, just accepted.
   
   for PTB refer to:
   * S. Grimme, M. Mueller, A. Hansen, J. Chem. Phys., 2023, 158, 124111.
     DOI: 10.1063/5.0137838
   
   with help from (in alphabetical order)
   P. Atkinson, C. Bannwarth, F. Bohle, G. Brandenburg, E. Caldeweyher
   M. Checinski, S. Dohm, S. Ehlert, S. Ehrlich, I. Gerasimov, C. Hölzer
   A. Katbashev, J. Kohn, J. Koopman, C. Lavigne, S. Lehtola, F. März, M. Müller,
   F. Musil, H. Neugebauer, J. Pisarek, C. Plett, P. Pracht, F. Pultar,
   J. Seibert, P. Shushkov, S. Spicher, M. Stahn, M. Steiner, T. Strunk,
   J. Stückrath, T. Rose, and J. Unsleber
   
 * started run on 2026/08/31 at 18:34:14.105     
   ID    Z sym.   atoms
    1    6 C      1, 3-13, 15, 17, 18, 20, 21, 23, 24, 26, 27, 29, 31, 33,
                  35, 36, 38, 39
    2    8 O      2, 14, 16, 19, 22, 25, 28, 30, 32, 34, 37, 40
    3    1 H      41-69

           -------------------------------------------------
          |                Calculation Setup                |
           -------------------------------------------------

          program call               : "c:\Users\Andre\Proyectos doctorado\kras-pancreatic-gC3N4-ai\tools\xtb\xtb-6.7.1\bin\xtb.exe" "c:\Users\Andre\Proyectos doctorado\nano-qsar-ai-therapeutics\calculations\tnbc\Etoposide\Etoposide_drug.xyz" --gfn 2 --sp --chrg 0 --uhf 0 --iterations 500 --norestart
          coordinate file            : c:\Users\Andre\Proyectos doctorado\nano-qsar-ai-therapeutics\calculations\tnbc\Etoposide\Etoposide_drug.xyz
          omp threads                :                    16


           -------------------------------------------------
          |                 G F N 2 - x T B                 |
           -------------------------------------------------

        Reference                      10.1021/acs.jctc.8b01176
      * Hamiltonian:
        H0-scaling (s, p, d)           1.850000    2.230000    2.230000
        zeta-weighting                 0.500000
      * Dispersion:
        s8                             2.700000
        a1                             0.520000
        a2                             5.000000
        s9                             5.000000
      * Repulsion:
        kExp                           1.500000    1.000000
        rExp                           1.000000
      * Coulomb:
        alpha                          2.000000
        third order                    shell-resolved
        anisotropic                    true
        a3                             3.000000
        a5                             4.000000
        cn-shift                       1.200000
        cn-exp                         4.000000
        max-rad                        5.000000


          ...................................................
          :                      SETUP                      :
          :.................................................:
          :  # basis functions                 189          :
          :  # atomic orbitals                 189          :
          :  # shells                          109          :
          :  # electrons                       213          :
          :  max. iterations                   500          :
          :  Hamiltonian                  GFN2-xTB          :
          :  restarted?                      false          :
          :  GBSA solvation                  false          :
          :  PC potential                    false          :
          :  electronic temp.          300.0000000     K    :
          :  accuracy                    1.0000000          :
          :  -> integral cutoff          0.2500000E+02      :
          :  -> integral neglect         0.1000000E-07      :
          :  -> SCF convergence          0.1000000E-05 Eh   :
          :  -> wf. convergence          0.1000000E-03 e    :
          :  Broyden damping             0.4000000          :
          :  net charge                          0          :
          :  unpaired electrons                  0          :
          ...................................................

 iter      E             dE          RMSdq      gap      omega  full diag
   1   -124.6223340 -0.124622E+03  0.449E+00    3.17       0.0  T
   2   -124.7672755 -0.144941E+00  0.245E+00    2.97       1.0  T
   3   -124.7613373  0.593822E-02  0.988E-01    2.79       1.0  T
   4   -124.7749061 -0.135689E-01  0.301E-01    2.76       1.0  T
   5   -124.7790651 -0.415904E-02  0.987E-02    2.85       1.0  T
   6   -124.7792410 -0.175838E-03  0.567E-02    2.81       1.0  T
   7   -124.7793304 -0.894537E-04  0.261E-02    2.86       1.0  T
   8   -124.7793639 -0.334481E-04  0.744E-03    2.84       1.6  T
   9   -124.7793649 -0.986068E-06  0.324E-03    2.84       3.7  T
  10   -124.7793651 -0.248711E-06  0.132E-03    2.84       9.1  T
  11   -124.7793651 -0.249685E-07  0.616E-04    2.84      19.5  T
  12   -124.7793652 -0.102088E-07  0.231E-04    2.84      52.1  T

   *** convergence criteria satisfied after 12 iterations ***

         #    Occupation            Energy/Eh            Energy/eV
      -------------------------------------------------------------
         1        2.0000           -0.7573598             -20.6088
       ...           ...                  ...                  ...
       101        2.0000           -0.4190776             -11.4037
       102        2.0000           -0.4141916             -11.2707
       103        2.0000           -0.3981700             -10.8348
       104        2.0000           -0.3832529             -10.4288
       105        2.0000           -0.3824529             -10.4071
       106        2.0000           -0.3670946              -9.9892
       107        1.0000           -0.3464820              -9.4283 (HOMO)
       108                         -0.2420950              -6.5877 (LUMO)
       109                         -0.2365126              -6.4358
       110                         -0.2224505              -6.0532
       111                         -0.2162853              -5.8854
       112                         -0.1831020              -4.9825
       ...                                ...                  ...
       189                          0.6578990              17.9023
      -------------------------------------------------------------
                  HL-Gap            0.1043870 Eh            2.8405 eV
             Fermi-level           -0.3255384 Eh           -8.8583 eV

 SCC (total)                   0 d,  0 h,  0 min,  0.073 sec
 SCC setup                      ...        0 min,  0.000 sec (  0.000%)
 Dispersion                     ...        0 min,  0.001 sec (  1.370%)
 classical contributions        ...        0 min,  0.001 sec (  1.370%)
 integral evaluation            ...        0 min,  0.002 sec (  2.740%)
 iterations                     ...        0 min,  0.059 sec ( 80.822%)
 molecular gradient             ...        0 min,  0.007 sec (  9.589%)
 printout                       ...        0 min,  0.003 sec (  4.110%)

         :::::::::::::::::::::::::::::::::::::::::::::::::::::
         ::                     SUMMARY                     ::
         :::::::::::::::::::::::::::::::::::::::::::::::::::::
         :: total energy            -123.547044728146 Eh    ::
         :: gradient norm              0.118929263428 Eh/a0 ::
         :: HOMO-LUMO gap              2.840514166643 eV    ::
         ::.................................................::
         :: SCC energy              -124.777957464309 Eh    ::
         :: -> isotropic ES            0.227786781049 Eh    ::
         :: -> anisotropic ES          0.004817905736 Eh    ::
         :: -> anisotropic XC          0.001166926449 Eh    ::
         :: -> dispersion             -0.080381005093 Eh    ::
         :: repulsion energy           1.230912736163 Eh    ::
         :: add. restraining           0.000000000000 Eh    ::
         :: total charge               0.000000000003 e     ::
         :::::::::::::::::::::::::::::::::::::::::::::::::::::

           -------------------------------------------------
          |                Property Printout                |
           -------------------------------------------------

    * Orbital Energies and Occupations

         #    Occupation            Energy/Eh            Energy/eV
      -------------------------------------------------------------
         1        2.0000           -0.7573598             -20.6088
       ...           ...                  ...                  ...
        95        2.0000           -0.4391192             -11.9490
        96        2.0000           -0.4363560             -11.8738
        97        2.0000           -0.4336050             -11.7990
        98        2.0000           -0.4310015             -11.7281
        99        2.0000           -0.4254643             -11.5775
       100        2.0000           -0.4239205             -11.5355
       101        2.0000           -0.4190776             -11.4037
       102        2.0000           -0.4141916             -11.2707
       103        2.0000           -0.3981700             -10.8348
       104        2.0000           -0.3832529             -10.4288
       105        2.0000           -0.3824529             -10.4071
       106        2.0000           -0.3670946              -9.9892
       107        1.0000           -0.3464820              -9.4283 (HOMO)
       108                         -0.2420950              -6.5877 (LUMO)
       109                         -0.2365126              -6.4358
       110                         -0.2224505              -6.0532
       111                         -0.2162853              -5.8854
       112                         -0.1831020              -4.9825
       113                         -0.1137069              -3.0941
       114                         -0.0968937              -2.6366
       115                         -0.0610561              -1.6614
       116                         -0.0549113              -1.4942
       117                         -0.0250029              -0.6804
       118                         -0.0167676              -0.4563
       ...                                ...                  ...
       189                          0.6578990              17.9023
      -------------------------------------------------------------
                  HL-Gap            0.1043870 Eh            2.8405 eV
             Fermi-level           -0.3255384 Eh           -8.8583 eV

     #   Z          covCN         q      C6AA      α(0)
     1   6 C        3.642     0.033    20.365     6.488
     2   8 O        1.703    -0.249    18.119     5.747
     3   6 C        2.853     0.125    25.257     8.237
     4   6 C        2.914    -0.086    30.152     9.004
     5   6 C        2.964     0.006    27.878     8.661
     6   6 C        3.857    -0.015    20.800     6.486
     7   6 C        2.963     0.004    27.933     8.669
     8   6 C        2.911    -0.063    29.578     8.918
     9   6 C        3.047     0.125    25.212     8.235
    10   6 C        3.048     0.123    25.252     8.242
    11   6 C        2.912    -0.066    29.634     8.926
    12   6 C        2.967    -0.020    28.505     8.757
    13   6 C        3.753     0.120    18.671     6.162
    14   8 O        1.698    -0.309    19.158     5.909
    15   6 C        3.678     0.237    17.113     5.926
    16   8 O        1.695    -0.353    19.950     6.030
    17   6 C        3.791     0.100    18.950     6.199
    18   6 C        3.707     0.078    19.421     6.299
    19   8 O        1.698    -0.327    19.477     5.958
    20   6 C        3.651     0.247    17.060     5.933
    21   6 C        3.748    -0.124    22.941     6.831
    22   8 O        1.696    -0.350    19.891     6.021
    23   6 C        3.776     0.109    18.817     6.180
    24   6 C        3.754     0.097    19.037     6.222
    25   8 O        1.652    -0.428    21.392     6.244
    26   6 C        3.873    -0.022    20.913     6.502
    27   6 C        3.784     0.072    19.402     6.274
    28   8 O        1.707    -0.265    18.399     5.791
    29   6 C        2.764     0.344    21.166     7.534
    30   8 O        0.856    -0.411    21.912     6.276
    31   6 C        3.012    -0.033    28.798     8.803
    32   8 O        1.705    -0.279    18.632     5.828
    33   6 C        3.927     0.210    17.259     5.904
    34   8 O        1.705    -0.276    18.577     5.819
    35   6 C        2.913    -0.085    30.123     9.000
    36   6 C        2.855     0.109    25.588     8.291
    37   8 O        1.703    -0.279    18.638     5.829
    38   6 C        3.642     0.032    20.381     6.491
    39   6 C        2.847     0.101    25.747     8.316
    40   8 O        1.657    -0.378    20.424     6.101
    41   1 H        0.924     0.041     2.439     2.442
    42   1 H        0.924     0.043     2.403     2.424
    43   1 H        0.924     0.065     2.140     2.288
    44   1 H        0.925     0.042     2.426     2.436
    45   1 H        0.923     0.091     1.873     2.140
    46   1 H        0.925     0.066     2.135     2.285
    47   1 H        0.925     0.054     2.271     2.356
    48   1 H        0.923     0.043     2.408     2.427
    49   1 H        0.924     0.035     2.512     2.478
    50   1 H        0.924     0.043     2.411     2.428
    51   1 H        0.924     0.052     2.290     2.367
    52   1 H        0.924     0.064     2.148     2.292
    53   1 H        0.924     0.037     2.489     2.467
    54   1 H        0.924     0.063     2.167     2.302
    55   1 H        0.924     0.060     2.202     2.320
    56   1 H        0.924     0.064     2.148     2.292
    57   1 H        0.924     0.043     2.407     2.426
    58   1 H        0.924     0.076     2.019     2.222
    59   1 H        0.803     0.316     0.676     1.292
    60   1 H        0.924     0.058     2.219     2.330
    61   1 H        0.924     0.052     2.294     2.369
    62   1 H        0.924     0.071     2.075     2.253
    63   1 H        0.924     0.057     2.233     2.337
    64   1 H        0.924     0.058     2.224     2.332
    65   1 H        0.925     0.064     2.154     2.295
    66   1 H        0.924     0.049     2.332     2.388
    67   1 H        0.924     0.061     2.190     2.314
    68   1 H        0.924     0.055     2.253     2.347
    69   1 H        0.804     0.322     0.658     1.274

 Mol. C6AA /au·bohr⁶  :      52451.307330
 Mol. C8AA /au·bohr⁸  :    1221286.623015
 Mol. α(0) /au        :        344.971948


Wiberg/Mayer (AO) data.
largest (>0.10) Wiberg bond orders for each atom

 ---------------------------------------------------------------------------
     #   Z sym  total        # sym  WBO       # sym  WBO       # sym  WBO
 ---------------------------------------------------------------------------
     1   6 C    3.945 --     2 O    0.984    43 H    0.979    42 H    0.978
                            41 H    0.977
     2   8 O    2.231 --     3 C    1.064     1 C    0.984
     3   6 C    3.939 --     4 C    1.375    39 C    1.310     2 O    1.064
     4   6 C    3.980 --     5 C    1.397     3 C    1.375    44 H    0.964
     5   6 C    3.976 --     4 C    1.397    35 C    1.394     6 C    0.943
     6   6 C    3.990 --    31 C    1.039     7 C    0.982     5 C    0.943
                            45 H    0.924
     7   6 C    3.982 --     8 C    1.396    12 C    1.388     6 C    0.982
     8   6 C    3.982 --     9 C    1.402     7 C    1.396    46 H    0.964
     9   6 C    3.929 --     8 C    1.402    10 C    1.309    34 O    1.034
    10   6 C    3.929 --    11 C    1.399     9 C    1.309    32 O    1.032
    11   6 C    3.982 --    10 C    1.399    12 C    1.396    47 H    0.964
    12   6 C    3.981 --    11 C    1.396     7 C    1.388    13 C    0.982
    13   6 C    3.942 --    12 C    0.982    48 H    0.957    14 O    0.954
                            26 C    0.934
    14   8 O    2.101 --    15 C    0.987    13 C    0.954
    15   6 C    3.926 --    14 O    0.987    24 C    0.958    16 O    0.953
                            49 H    0.951
    16   8 O    2.046 --    17 C    0.957    15 C    0.953
    17   6 C    3.952 --    18 C    0.982    23 C    0.977    50 H    0.963
                            16 O    0.957
    18   6 C    3.950 --    17 C    0.982    19 O    0.979    52 H    0.971
                            51 H    0.966
    19   8 O    2.070 --    18 C    0.979    20 C    0.972
    20   6 C    3.918 --    21 C    0.999    19 O    0.972    53 H    0.953
                            22 O    0.949
    21   6 C    3.990 --    20 C    0.999    55 H    0.982    54 H    0.982
                            56 H    0.982
    22   8 O    2.058 --    23 C    0.962    20 C    0.949
    23   6 C    3.953 --    17 C    0.977    24 C    0.974    22 O    0.962
                            57 H    0.960
    24   6 C    3.965 --    25 O    1.010    23 C    0.974    15 C    0.958
                            58 H    0.957
    25   8 O    1.967 --    24 C    1.010    59 H    0.878
    26   6 C    3.994 --    31 C    1.045    27 C    0.989    60 H    0.943
                            13 C    0.934
    27   6 C    3.941 --    26 C    0.989    61 H    0.967    62 H    0.966
                            28 O    0.964
    28   8 O    2.273 --    29 C    1.066    27 C    0.964    30 O    0.149
    29   6 C    3.929 --    30 O    1.663    31 C    1.137    28 O    1.066
    30   8 O    2.007 --    29 C    1.663    28 O    0.149    31 C    0.129
    31   6 C    3.618 --    29 C    1.137    26 C    1.045     6 C    1.039
                            30 O    0.129
    32   8 O    2.195 --    10 C    1.032    33 C    0.970
    33   6 C    3.916 --    34 O    0.971    32 O    0.970    63 H    0.967
                            64 H    0.967
    34   8 O    2.200 --     9 C    1.034    33 C    0.971
    35   6 C    3.979 --     5 C    1.394    36 C    1.385    65 H    0.961
    36   6 C    3.933 --    35 C    1.385    39 C    1.310    37 O    1.046
    37   8 O    2.210 --    36 C    1.046    38 C    0.973
    38   6 C    3.937 --    67 H    0.980    66 H    0.978    68 H    0.978
                            37 O    0.973
    39   6 C    3.939 --     3 C    1.310    36 C    1.310    40 O    1.078
    40   8 O    2.114 --    39 C    1.078    69 H    0.870
    41   1 H    0.998 --     1 C    0.977
    42   1 H    0.998 --     1 C    0.978
    43   1 H    0.995 --     1 C    0.979
    44   1 H    0.998 --     4 C    0.964
    45   1 H    0.990 --     6 C    0.924
    46   1 H    0.995 --     8 C    0.964
    47   1 H    0.997 --    11 C    0.964
    48   1 H    0.997 --    13 C    0.957
    49   1 H    0.999 --    15 C    0.951
    50   1 H    0.998 --    17 C    0.963
    51   1 H    0.997 --    18 C    0.966
    52   1 H    0.995 --    18 C    0.971
    53   1 H    0.998 --    20 C    0.953
    54   1 H    0.996 --    21 C    0.982
    55   1 H    0.996 --    21 C    0.982
    56   1 H    0.995 --    21 C    0.982
    57   1 H    0.998 --    23 C    0.960
    58   1 H    0.994 --    24 C    0.957
    59   1 H    0.900 --    25 O    0.878
    60   1 H    0.995 --    26 C    0.943
    61   1 H    0.997 --    27 C    0.967
    62   1 H    0.995 --    27 C    0.966
    63   1 H    0.997 --    33 C    0.967
    64   1 H    0.997 --    33 C    0.967
    65   1 H    0.996 --    35 C    0.961
    66   1 H    0.997 --    38 C    0.978
    67   1 H    0.996 --    38 C    0.980
    68   1 H    0.997 --    38 C    0.978
    69   1 H    0.896 --    40 O    0.870
 ---------------------------------------------------------------------------

Topologies differ in total number of bonds
Writing topology from bond orders to xtbtopo.mol

molecular dipole:
                 x           y           z       tot (Debye)
 q only:        1.019       1.353      -0.455
   full:        1.664       1.562      -0.621       6.012
molecular quadrupole (traceless):
                xx          xy          yy          xz          yz          zz
 q only:        8.262       2.236      -8.732      -6.980      -0.848       0.470
  q+dip:        1.499       6.130      -3.501     -12.399      -0.834       2.002
   full:        1.543       5.697      -4.374     -11.112       0.283       2.831


           -------------------------------------------------
          | TOTAL ENERGY             -123.547044728146 Eh   |
          | GRADIENT NORM               0.118929263428 Eh/α |
          | HOMO-LUMO GAP               2.840514166643 eV   |
           -------------------------------------------------

------------------------------------------------------------------------
 * finished run on 2026/08/31 at 18:34:14.219     
------------------------------------------------------------------------
 total:
 * wall-time:     0 d,  0 h,  0 min,  0.113 sec
 *  cpu-time:     0 d,  0 h,  0 min,  1.469 sec
 * ratio c/w:    12.998 speedup
 SCF:
 * wall-time:     0 d,  0 h,  0 min,  0.074 sec
 *  cpu-time:     0 d,  0 h,  0 min,  0.812 sec
 * ratio c/w:    10.980 speedup

normal termination of xtb
