      -----------------------------------------------------------      
     |                   =====================                   |     
     |                           x T B                           |     
     |                   =====================                   |     
     |                         S. Grimme                         |     
     |          Mulliken Center for Theoretical Chemistry        |     
     |                    University of Bonn                     |     
      -----------------------------------------------------------      

   * xtb version 6.7.1pre (5071a88) compiled by 'Marcel@Raven' on 2024-07-23

   xtb is free software: you can redistribute it and/or modify it under
   the terms of the GNU Lesser General Public License as published by
   the Free Software Foundation, either version 3 of the License, or
   (at your option) any later version.
   
   xtb is distributed in the hope that it will be useful,
   but WITHOUT ANY WARRANTY; without even the implied warranty of
   MERCHANTABILITY or FITNESS FOR A PARTICULAR PURPOSE.  See the
   GNU Lesser General Public License for more details.
   
   Cite this work as:
   * C. Bannwarth, E. Caldeweyher, S. Ehlert, A. Hansen, P. Pracht,
     J. Seibert, S. Spicher, S. Grimme, WIREs Comput. Mol. Sci., 2020, 11,
     e01493. DOI: 10.1002/wcms.1493
   
   for GFN2-xTB:
   * C. Bannwarth, S. Ehlert and S. Grimme., J. Chem. Theory Comput., 2019,
     15, 1652-1671. DOI: 10.1021/acs.jctc.8b01176
   for GFN1-xTB:
   * S. Grimme, C. Bannwarth, P. Shushkov, J. Chem. Theory Comput., 2017,
     13, 1989-2009. DOI: 10.1021/acs.jctc.7b00118
   for GFN0-xTB:
   * P. Pracht, E. Caldeweyher, S. Ehlert, S. Grimme, ChemRxiv, 2019, preprint.
     DOI: 10.26434/chemrxiv.8326202.v1
   for GFN-FF:
   * S. Spicher and S. Grimme, Angew. Chem. Int. Ed., 2020, 59, 15665-15673.
     DOI: 10.1002/anie.202004239
   
   for ALPB and GBSA implicit solvation:
   * S. Ehlert, M. Stahn, S. Spicher, S. Grimme, J. Chem. Theory Comput.,
     2021, 17, 4250-4261. DOI: 10.1021/acs.jctc.1c00471
   
   for ddCOSMO and CPCM-X implicit solvation:
   * M. Stahn, S. Ehlert, S. Grimme, J. Phys. Chem. A,
     2023, XX, XXXX-XXXX. DOI: 10.1021/acs.jpca.3c04382
   
   for DFT-D4:
   * E. Caldeweyher, C. Bannwarth and S. Grimme, J. Chem. Phys., 2017,
     147, 034112. DOI: 10.1063/1.4993215
   * E. Caldeweyher, S. Ehlert, A. Hansen, H. Neugebauer, S. Spicher,
     C. Bannwarth and S. Grimme, J. Chem. Phys., 2019, 150, 154122.
     DOI: 10.1063/1.5090222
   * E. Caldeweyher, J.-M. Mewes, S. Ehlert and S. Grimme, Phys. Chem. Chem. Phys.
     2020, 22, 8499-8512. DOI: 10.1039/D0CP00502A
   
   for sTDA-xTB:
   * S. Grimme and C. Bannwarth, J. Chem. Phys., 2016, 145, 054103.
     DOI: 10.1063/1.4959605
   
   in the mass-spec context:
   * V. Asgeirsson, C. Bauer and S. Grimme, Chem. Sci., 2017, 8, 4879.
     DOI: 10.1039/c7sc00601b
   * J. Koopman and S. Grimme, ACS Omega 2019, 4, 12, 15120-15133.
     DOI: 10.1021/acsomega.9b02011
   
   for metadynamics refer to:
   * S. Grimme, J. Chem. Theory Comput., 2019, 155, 2847-2862
     DOI: 10.1021/acs.jctc.9b00143
   
   for SPH calculations refer to:
   * S. Spicher and S. Grimme, J. Chem. Theory Comput., 2021, 17, 1701-1714
     DOI: 10.1021/acs.jctc.0c01306
   
   for ONIOM refer to:
   * C. Plett, A. Katbashev, S. Ehlert, S. Grimme, M. Bursch,
     Phys. Chem. Chem. Phys., 2023, 25, 17860-17868. DOI: 10.1039/D3CP02178E
   
   for DIPRO refer to:
   * J. Kohn, N. Gildemeister, S. Grimme, D. Fazzi, A. Hansen,
     J. Chem. Phys., 2023, just accepted.
   
   for PTB refer to:
   * S. Grimme, M. Mueller, A. Hansen, J. Chem. Phys., 2023, 158, 124111.
     DOI: 10.1063/5.0137838
   
   with help from (in alphabetical order)
   P. Atkinson, C. Bannwarth, F. Bohle, G. Brandenburg, E. Caldeweyher
   M. Checinski, S. Dohm, S. Ehlert, S. Ehrlich, I. Gerasimov, C. Hölzer
   A. Katbashev, J. Kohn, J. Koopman, C. Lavigne, S. Lehtola, F. März, M. Müller,
   F. Musil, H. Neugebauer, J. Pisarek, C. Plett, P. Pracht, F. Pultar,
   J. Seibert, P. Shushkov, S. Spicher, M. Stahn, M. Steiner, T. Strunk,
   J. Stückrath, T. Rose, and J. Unsleber
   
 * started run on 2026/08/31 at 18:34:30.212     
   ID    Z sym.   atoms
    1    6 C      1, 3-13, 15, 17, 18, 20, 21, 23, 24, 26, 27, 29, 31, 33,
                  35, 36, 38, 39
    2    8 O      2, 14, 16, 19, 22, 25, 28, 30, 32, 34, 37, 40
    3    1 H      41-69
    4    5 B      70-105
    5    7 N      106-141

           -------------------------------------------------
          |                Calculation Setup                |
           -------------------------------------------------

          program call               : "c:\Users\Andre\Proyectos doctorado\kras-pancreatic-gC3N4-ai\tools\xtb\xtb-6.7.1\bin\xtb.exe" "c:\Users\Andre\Proyectos doctorado\nano-qsar-ai-therapeutics\calculations\tnbc\Etoposide\Etoposide_B36N36_complex.xyz" --gfn 2 --sp --chrg 0 --uhf 0 --iterations 500 --norestart
          coordinate file            : c:\Users\Andre\Proyectos doctorado\nano-qsar-ai-therapeutics\calculations\tnbc\Etoposide\Etoposide_B36N36_complex.xyz
          omp threads                :                    16


molecular fragmentation (1/2 indicates fragments):
111111111111111111111111111111111111111111111111111111111111111111111111
111111111112112111111111111111111111111111111122112111111111111111111
# atoms in fragment 1/2:   136     5
 fragment masses (1/2) :     1387.32       63.64
CMA distance (Bohr)    :   8.027
constraining FC (au)   :  0.0500

           -------------------------------------------------
          |                 G F N 2 - x T B                 |
           -------------------------------------------------

        Reference                      10.1021/acs.jctc.8b01176
      * Hamiltonian:
        H0-scaling (s, p, d)           1.850000    2.230000    2.230000
        zeta-weighting                 0.500000
      * Dispersion:
        s8                             2.700000
        a1                             0.520000
        a2                             5.000000
        s9                             5.000000
      * Repulsion:
        kExp                           1.500000    1.000000
        rExp                           1.000000
      * Coulomb:
        alpha                          2.000000
        third order                    shell-resolved
        anisotropic                    true
        a3                             3.000000
        a5                             4.000000
        cn-shift                       1.200000
        cn-exp                         4.000000
        max-rad                        5.000000


          ...................................................
          :                      SETUP                      :
          :.................................................:
          :  # basis functions                 477          :
          :  # atomic orbitals                 477          :
          :  # shells                          253          :
          :  # electrons                       501          :
          :  max. iterations                   500          :
          :  Hamiltonian                  GFN2-xTB          :
          :  restarted?                      false          :
          :  GBSA solvation                  false          :
          :  PC potential                    false          :
          :  electronic temp.          300.0000000     K    :
          :  accuracy                    1.0000000          :
          :  -> integral cutoff          0.2500000E+02      :
          :  -> integral neglect         0.1000000E-07      :
          :  -> SCF convergence          0.1000000E-05 Eh   :
          :  -> wf. convergence          0.1000000E-03 e    :
          :  Broyden damping             0.4000000          :
          :  net charge                          0          :
          :  unpaired electrons                  0          :
          ...................................................

 iter      E             dE          RMSdq      gap      omega  full diag
   1   -250.7876591 -0.250788E+03  0.136E+01    0.22       0.0  T
   2   -132.5008392  0.118287E+03  0.132E+01    0.23       1.0  T
   3    322.5099526  0.455011E+03  0.170E+01    0.13       1.0  T
   4     75.6222391 -0.246888E+03  0.134E+01    0.10       1.0  T
   5   -171.5229954 -0.247145E+03  0.105E+01    0.13       1.0  T
   6   -259.2882471 -0.877653E+02  0.643E+00    0.11       1.0  T
   7   -264.1691798 -0.488093E+01  0.449E+00    0.05       1.0  T
   8   -266.2751318 -0.210595E+01  0.339E+00    0.52       1.0  T
   9   -265.8552618  0.419870E+00  0.285E+00    0.20       1.0  T
  10   -267.5572057 -0.170194E+01  0.221E+00    0.12       1.0  T
  11   -268.1392912 -0.582085E+00  0.179E+00    0.14       1.0  T
  12   -267.9384596  0.200832E+00  0.150E+00    0.21       1.0  T
  13   -268.6204982 -0.682039E+00  0.120E+00    0.05       1.0  T
  14   -268.6805143 -0.600161E-01  0.907E-01    0.07       1.0  T
  15   -268.8377409 -0.157227E+00  0.757E-01    0.01       1.0  T
  16   -268.8329072  0.483370E-02  0.627E-01    0.07       1.0  T
  17   -268.8964674 -0.635603E-01  0.472E-01    0.06       1.0  T
  18   -268.9270869 -0.306194E-01  0.381E-01    0.09       1.0  T
  19   -268.9306387 -0.355181E-02  0.288E-01    0.11       1.0  T
  20   -268.9386878 -0.804913E-02  0.297E-01    0.07       1.0  T
  21   -268.9624719 -0.237841E-01  0.811E-02    0.08       1.0  T
  22   -268.9634124 -0.940512E-03  0.641E-02    0.07       1.0  T
  23   -268.9638869 -0.474465E-03  0.429E-02    0.08       1.0  T
  24   -268.9641013 -0.214471E-03  0.259E-02    0.07       1.0  T
  25   -268.9642102 -0.108885E-03  0.178E-02    0.07       1.0  T
  26   -268.9642516 -0.414217E-04  0.125E-02    0.07       1.0  T
  27   -268.9642467  0.494997E-05  0.114E-02    0.07       1.0  T
  28   -268.9643120 -0.653042E-04  0.537E-03    0.07       1.6  T
  29   -268.9643176 -0.557338E-05  0.299E-03    0.07       2.8  T
  30   -268.9643205 -0.297011E-05  0.152E-03    0.07       5.5  T
  31   -268.9643198  0.718997E-06  0.187E-03    0.07       4.5  T
  32   -268.9643211 -0.133252E-05  0.569E-04    0.07      14.8  T
  33   -268.9643212 -0.918463E-07  0.284E-04    0.07      29.7  T
  34   -268.9643213 -0.240112E-07  0.130E-04    0.07      64.6  T

   *** convergence criteria satisfied after 34 iterations ***

         #    Occupation            Energy/Eh            Energy/eV
      -------------------------------------------------------------
         1        2.0000           -1.2391133             -33.7180
       ...           ...                  ...                  ...
       245        2.0000           -0.1700594              -4.6276
       246        2.0000           -0.1571455              -4.2761
       247        2.0000           -0.1481389              -4.0311
       248        1.9999           -0.1450214              -3.9462
       249        1.9921           -0.1406129              -3.8263
       250        1.9760           -0.1395366              -3.7970
       251        0.7781           -0.1326661              -3.6100 (HOMO)
       252        0.1528           -0.1299859              -3.5371 (LUMO)
       253        0.0936           -0.1294575              -3.5227
       254        0.0073           -0.1269505              -3.4545
       255        0.0001           -0.1232392              -3.3535
       256        0.0000           -0.1219610              -3.3187
       ...           ...                  ...                  ...
       477                         66.0187381            1796.4613
      -------------------------------------------------------------
                  HL-Gap            0.0026803 Eh            0.0729 eV
             Fermi-level           -0.1338170 Eh           -3.6413 eV

 SCC (total)                   0 d,  0 h,  0 min,  1.179 sec
 SCC setup                      ...        0 min,  0.002 sec (  0.170%)
 Dispersion                     ...        0 min,  0.006 sec (  0.509%)
 classical contributions        ...        0 min,  0.000 sec (  0.000%)
 integral evaluation            ...        0 min,  0.021 sec (  1.781%)
 iterations                     ...        0 min,  1.095 sec ( 92.875%)
 molecular gradient             ...        0 min,  0.044 sec (  3.732%)
 printout                       ...        0 min,  0.011 sec (  0.933%)

         :::::::::::::::::::::::::::::::::::::::::::::::::::::
         ::                     SUMMARY                     ::
         :::::::::::::::::::::::::::::::::::::::::::::::::::::
         :: total energy             -30.810997861702 Eh    ::
         :: gradient norm            171.642839501087 Eh/a0 ::
         :: HOMO-LUMO gap              0.072933335290 eV    ::
         ::.................................................::
         :: SCC energy              -268.919007271484 Eh    ::
         :: -> isotropic ES            1.244884403823 Eh    ::
         :: -> anisotropic ES          0.155386946920 Eh    ::
         :: -> anisotropic XC          0.233932512293 Eh    ::
         :: -> dispersion             -0.395716789632 Eh    ::
         :: repulsion energy         238.108009409782 Eh    ::
         :: add. restraining           0.000000000000 Eh    ::
         :: total charge               0.000000000029 e     ::
         :::::::::::::::::::::::::::::::::::::::::::::::::::::

           -------------------------------------------------
          |                Property Printout                |
           -------------------------------------------------

    * Orbital Energies and Occupations

         #    Occupation            Energy/Eh            Energy/eV
      -------------------------------------------------------------
         1        2.0000           -1.2391133             -33.7180
       ...           ...                  ...                  ...
       239        2.0000           -0.2011630              -5.4739
       240        2.0000           -0.1941401              -5.2828
       241        2.0000           -0.1926234              -5.2416
       242        2.0000           -0.1855330              -5.0486
       243        2.0000           -0.1819275              -4.9505
       244        2.0000           -0.1754739              -4.7749
       245        2.0000           -0.1700594              -4.6276
       246        2.0000           -0.1571455              -4.2761
       247        2.0000           -0.1481389              -4.0311
       248        1.9999           -0.1450214              -3.9462
       249        1.9921           -0.1406129              -3.8263
       250        1.9760           -0.1395366              -3.7970
       251        0.7781           -0.1326661              -3.6100 (HOMO)
       252        0.1528           -0.1299859              -3.5371 (LUMO)
       253        0.0936           -0.1294575              -3.5227
       254        0.0073           -0.1269505              -3.4545
       255        0.0001           -0.1232392              -3.3535
       256        0.0000           -0.1219610              -3.3187
       257                         -0.0880188              -2.3951
       258                         -0.0850865              -2.3153
       259                         -0.0809772              -2.2035
       260                         -0.0757026              -2.0600
       261                         -0.0721083              -1.9622
       262                         -0.0645903              -1.7576
       ...                                ...                  ...
       477                         66.0187381            1796.4613
      -------------------------------------------------------------
                  HL-Gap            0.0026803 Eh            0.0729 eV
             Fermi-level           -0.1338170 Eh           -3.6413 eV

     #   Z          covCN         q      C6AA      α(0)
     1   6 C        4.633     0.008    20.359     6.408
     2   8 O        2.179    -0.372    20.261     6.079
     3   6 C        5.181     0.036    19.882     6.332
     4   6 C        8.361     0.165    17.869     6.003
     5   6 C        7.264    -0.401    29.125     7.664
     6   6 C        4.232    -0.097    22.248     6.699
     7   6 C        2.980    -0.132    31.366     9.187
     8   6 C        4.829    -0.283    26.172     7.265
     9   6 C        6.417     0.228    16.992     5.854
    10   6 C        5.245     0.149    18.110     6.044
    11   6 C        4.076    -0.303    26.665     7.335
    12   6 C        2.967    -0.135    31.437     9.197
    13   6 C        3.753     0.011    20.455     6.449
    14   8 O        1.700    -0.432    21.456     6.254
    15   6 C        6.251    -0.225    24.866     7.082
    16   8 O        5.651     0.641     8.345     3.902
    17   6 C        7.814    -0.033    21.074     6.520
    18   6 C        4.808    -0.123    22.761     6.775
    19   8 O        1.698    -0.397    20.777     6.154
    20   6 C        3.651     0.273    16.707     5.871
    21   6 C        3.748    -0.122    22.912     6.827
    22   8 O        1.703    -0.635    25.997     6.884
    23   6 C        7.604     0.025    20.061     6.361
    24   6 C        9.173     0.181    17.650     5.966
    25   8 O        5.501     1.188     5.385     3.134
    26   6 C        4.064    -0.119    22.693     6.766
    27   6 C        7.090    -0.136    23.014     6.813
    28   8 O        3.424     0.202    12.107     4.699
    29   6 C        4.766    -0.081    21.955     6.654
    30   8 O        2.639     0.047    13.862     5.028
    31   6 C        3.227    -0.329    36.262     9.782
    32   8 O        3.082    -0.351    19.871     6.021
    33   6 C        5.424     0.188    17.541     5.948
    34   8 O        3.038    -0.415    21.084     6.202
    35   6 C        7.693     0.231    16.948     5.847
    36   6 C        3.795    -0.106    22.530     6.759
    37   8 O        1.703    -0.339    19.693     5.992
    38   6 C        3.643     0.014    20.683     6.538
    39   6 C        2.848     0.039    27.120     8.535
    40   8 O        1.657    -0.451    21.873     6.314
    41   1 H        0.924     0.017     2.781     2.608
    42   1 H        0.925     0.037     2.486     2.465
    43   1 H        0.924     0.045     2.385     2.415
    44   1 H        3.456     0.468     0.368     0.948
    45   1 H        0.926     0.071     2.071     2.251
    46   1 H        1.919     0.228     0.960     1.530
    47   1 H        2.043     0.240     0.911     1.490
    48   1 H        0.926     0.039     2.460     2.453
    49   1 H        1.502     0.178     1.207     1.715
    50   1 H        2.809     0.006     2.942     2.678
    51   1 H        0.927    -0.005     3.150     2.775
    52   1 H        0.924    -0.056     4.245     3.222
    53   1 H        0.924     0.024     2.672     2.556
    54   1 H        0.924     0.032     2.553     2.499
    55   1 H        0.924     0.033     2.546     2.495
    56   1 H        0.924     0.060     2.202     2.321
    57   1 H        1.004    -0.157     8.034     4.428
    58   1 H        3.458     0.336     0.606     1.215
    59   1 H        3.019     0.277     0.774     1.373
    60   1 H        1.220     0.139     1.462     1.887
    61   1 H        3.247     0.597     0.239     0.763
    62   1 H        1.208     0.123     1.583     1.964
    63   1 H        0.924     0.035     2.511     2.478
    64   1 H        0.929     0.045     2.389     2.417
    65   1 H        3.027     0.526     0.301     0.857
    66   1 H        0.924     0.012     2.862     2.645
    67   1 H        0.924     0.057     2.236     2.339
    68   1 H        0.924    -0.002     3.095     2.751
    69   1 H        0.804     0.291     0.749     1.359
    70   5 B        5.388    -0.009    22.918     7.713
    71   5 B        5.102     0.067    21.536     7.477
    72   5 B        5.106     0.091    21.125     7.406
    73   5 B        5.102     0.056    21.724     7.510
    74   5 B        5.654     0.105    20.891     7.364
    75   5 B        9.780    -0.043    23.558     7.821
    76   5 B        7.826    -0.552    37.086     9.812
    77   5 B        6.312     0.084    21.241     7.426
    78   5 B        6.391     0.169    19.860     7.180
    79   5 B        7.184     0.132    20.437     7.284
    80   5 B        6.086     0.178    19.709     7.153
    81   5 B        6.828     0.101    20.947     7.374
    82   5 B        1.853     0.011    44.095    13.986
    83   5 B        2.149     0.065    39.102    12.954
    84   5 B        1.850     0.083    41.619    13.588
    85   5 B        4.177    -0.030    23.307     7.779
    86   5 B        5.173     0.079    21.327     7.441
    87   5 B        1.932     0.115    40.312    13.360
    88   5 B        1.909     0.095    41.032    13.483
    89   5 B        4.266     0.331    17.524     6.745
    90   5 B        3.861     0.179    19.686     7.150
    91   5 B        3.515     0.269    17.418     6.924
    92   5 B        1.850     0.011    44.121    13.990
    93   5 B        3.647     0.449    15.743     6.459
    94   5 B        4.397     0.278    18.242     6.882
    95   5 B        4.435     0.324    17.614     6.762
    96   5 B        4.397     0.215    19.145     7.050
    97   5 B        4.397     0.268    18.379     6.908
    98   5 B        4.650     0.148    20.188     7.240
    99   5 B        8.279    -0.093    24.582     7.989
   100   5 B        4.432     0.260    18.498     6.930
   101   5 B        7.546    -0.159    25.994     8.215
   102   5 B        6.179     0.369    17.027     6.649
   103   5 B        7.196    -0.033    23.366     7.789
   104   5 B        7.105    -0.157    25.945     8.207
   105   5 B        5.195     0.289    18.095     6.854
   106   7 N        4.373    -0.165    24.549     7.359
   107   7 N        4.372    -0.042    22.054     6.975
   108   7 N        4.372    -0.083    22.841     7.098
   109   7 N        4.372    -0.041    22.023     6.970
   110   7 N        4.382    -0.116    23.510     7.201
   111   7 N        8.048    -0.068    22.557     7.054
   112   7 N        7.051     0.944     9.936     4.682
   113   7 N        5.773    -0.025    21.728     6.923
   114   7 N        5.168    -0.191    25.127     7.445
   115   7 N        6.281    -0.075    22.684     7.074
   116   7 N        5.233    -0.184    24.967     7.421
   117   7 N        6.106     0.016    20.973     6.802
   118   7 N        0.932    -0.244    26.247     7.398
   119   7 N        0.932    -0.211    25.478     7.289
   120   7 N        0.932    -0.099    23.074     6.936
   121   7 N        2.588    -0.161    24.508     7.352
   122   7 N        5.335     0.249    17.219     6.163
   123   7 N        0.932    -0.141    23.936     7.064
   124   7 N        0.939    -0.240    26.105     7.374
   125   7 N        2.557    -0.076    22.737     7.082
   126   7 N        1.481    -0.320    27.850     7.655
   127   7 N        1.663    -0.285    28.012     7.813
   128   7 N        0.932    -0.357    29.056     7.784
   129   7 N        2.718    -0.256    26.640     7.666
   130   7 N        3.977    -0.431    31.234     8.301
   131   7 N        3.977    -0.390    30.066     8.144
   132   7 N        3.977    -0.428    31.152     8.290
   133   7 N        3.977    -0.399    30.309     8.177
   134   7 N        4.297    -0.546    34.736     8.754
   135   7 N        7.326    -0.093    23.044     7.130
   136   7 N        3.977    -0.507    33.501     8.596
   137   7 N        7.827     0.654    12.416     5.233
   138   7 N        4.024    -0.474    32.499     8.467
   139   7 N        6.820     0.046    20.442     6.715
   140   7 N        7.898     0.154    18.647     6.414
   141   7 N        4.303    -0.463    32.176     8.425

 Mol. C6AA /au·bohr⁶  :     329566.563710
 Mol. C8AA /au·bohr⁸  :    9058053.766579
 Mol. α(0) /au        :        889.117706


Wiberg/Mayer (AO) data.
largest (>0.10) Wiberg bond orders for each atom

 ---------------------------------------------------------------------------
     #   Z sym  total        # sym  WBO       # sym  WBO       # sym  WBO
 ---------------------------------------------------------------------------
     1   6 C    3.962 --    41 H    0.967    42 H    0.960     2 O    0.955
                            43 H    0.954
     2   8 O    2.015 --     1 C    0.955     3 C    0.812
     3   6 C    3.741 --    39 C    1.246     2 O    0.812     4 C    0.712
                           140 N    0.337   117 N    0.129
     4   6 C    3.767 --     5 C    1.062     3 C    0.712   140 N    0.633
                           117 N    0.475   104 B    0.406    81 B    0.186
     5   6 C    3.547 --     4 C    1.062     6 C    0.895    35 C    0.795
                           139 N    0.104
     6   6 C    3.973 --    31 C    0.984     7 C    0.976     5 C    0.895
                            45 H    0.799
     7   6 C    3.798 --    12 C    1.323     8 C    1.109     6 C    0.976
     8   6 C    3.809 --     7 C    1.109     9 C    1.073    46 H    0.614
                           138 N    0.167   102 B    0.142
     9   6 C    3.778 --     8 C    1.073    10 C    0.932    34 O    0.900
                            86 B    0.286   122 N    0.213    91 B    0.112
    10   6 C    3.706 --    11 C    1.295     9 C    0.932    32 O    0.868
                            86 B    0.227   122 N    0.206
    11   6 C    3.791 --    10 C    1.295    12 C    1.127    47 H    0.683
                            90 B    0.137   126 N    0.135   122 N    0.118
    12   6 C    3.816 --     7 C    1.323    11 C    1.127    13 C    1.006
    13   6 C    3.872 --    12 C    1.006    26 C    0.948    48 H    0.850
                            14 O    0.832
    14   8 O    1.992 --    15 C    0.902    13 C    0.832
    15   6 C    3.852 --    14 O    0.902    49 H    0.773    24 C    0.723
                            16 O    0.501
    16   8 O    3.392 --   101 B    1.175   113 N    0.558    15 C    0.501
                           137 N    0.478    77 B    0.353
    17   6 C    3.874 --   137 N    1.997    23 C    0.495    18 C    0.347
                           101 B    0.274    50 H    0.242   111 N    0.215
    18   6 C    3.729 --    52 H    0.953    51 H    0.926    19 O    0.903
                            17 C    0.347
    19   8 O    2.020 --    20 C    0.975    18 C    0.903
    20   6 C    3.924 --    21 C    1.001    19 O    0.975    53 H    0.954
                            22 O    0.921
    21   6 C    3.993 --    20 C    1.001    54 H    0.986    55 H    0.984
                            56 H    0.982
    22   8 O    1.839 --    20 C    0.921    23 C    0.552
    23   6 C    3.875 --    57 H    0.787    22 O    0.552   111 N    0.542
                           135 N    0.528    17 C    0.495    24 C    0.179
                            99 B    0.130
    24   6 C    3.783 --    99 B    1.052   135 N    0.910    15 C    0.723
                           111 N    0.269    23 C    0.179    75 B    0.118
    25   8 O    3.661 --   112 N    2.008    76 B    1.000    98 B    0.213
    26   6 C    3.906 --    31 C    0.968    13 C    0.948    27 C    0.909
                            60 H    0.839
    27   6 C    3.670 --    26 C    0.909    62 H    0.814    85 B    0.591
                            89 B    0.464    28 O    0.356    61 H    0.159
                           121 N    0.149
    28   8 O    2.595 --    29 C    0.777   125 N    0.713    89 B    0.539
                            27 C    0.356
    29   6 C    3.273 --    30 O    0.865    31 C    0.862    28 O    0.777
                            93 B    0.449
    30   8 O    2.349 --    29 C    0.865   129 N    0.848    93 B    0.530
    31   6 C    3.380 --     6 C    0.984    26 C    0.968    29 C    0.862
                           105 B    0.117
    32   8 O    2.026 --    10 C    0.868    33 C    0.801
    33   6 C    3.901 --    64 H    0.921    63 H    0.890    34 O    0.826
                            32 O    0.801   122 N    0.342
    34   8 O    1.967 --     9 C    0.900    33 C    0.826
    35   6 C    3.833 --   139 N    1.254    36 C    0.827     5 C    0.795
                           115 N    0.502   103 B    0.235
    36   6 C    3.663 --    39 C    1.298    37 O    0.928    35 C    0.827
    37   8 O    2.077 --    38 C    0.999    36 C    0.928
    38   6 C    3.973 --    37 O    0.999    67 H    0.977    68 H    0.977
                            66 H    0.977
    39   6 C    3.841 --    36 C    1.298     3 C    1.246    40 O    0.991
    40   8 O    2.022 --    39 C    0.991    69 H    0.890
    41   1 H    0.999 --     1 C    0.967
    42   1 H    0.998 --     1 C    0.960
    43   1 H    0.993 --     1 C    0.954
    44   1 H    0.770 --   104 B    0.526
    45   1 H    0.990 --     6 C    0.799
    46   1 H    0.947 --     8 C    0.614   102 B    0.272
    47   1 H    0.941 --    11 C    0.683    90 B    0.201
    48   1 H    0.996 --    13 C    0.850
    49   1 H    0.967 --    15 C    0.773
    50   1 H    0.941 --    17 C    0.242   101 B    0.113
    51   1 H    0.999 --    18 C    0.926
    52   1 H    0.995 --    18 C    0.953
    53   1 H    0.998 --    20 C    0.954
    54   1 H    0.998 --    21 C    0.986
    55   1 H    0.999 --    21 C    0.984
    56   1 H    0.994 --    21 C    0.982
    57   1 H    0.965 --    23 C    0.787
    58   1 H    0.873 --    99 B    0.556
    59   1 H    0.923 --   112 N    0.747    76 B    0.117
    60   1 H    0.973 --    26 C    0.839
    61   1 H    0.643 --   121 N    0.247    85 B    0.206    27 C    0.159
    62   1 H    0.981 --    27 C    0.814
    63   1 H    0.979 --    33 C    0.890
    64   1 H    0.992 --    33 C    0.921
    65   1 H    0.723 --   139 N    0.408   103 B    0.261
    66   1 H    0.999 --    38 C    0.977
    67   1 H    0.994 --    38 C    0.977
    68   1 H    1.000 --    38 C    0.977
    69   1 H    0.915 --    40 O    0.890
    70   5 B    3.732 --   106 N    3.087    76 B    0.225    96 B    0.123
    71   5 B    3.678 --   107 N    3.125    80 B    0.173    97 B    0.136
                            95 B    0.125
    72   5 B    3.673 --   108 N    3.101    86 B    0.243    94 B    0.139
                            95 B    0.119
    73   5 B    3.675 --   109 N    3.135    88 B    0.182    96 B    0.153
                            97 B    0.145
    74   5 B    3.667 --   110 N    3.079    98 B    0.162    90 B    0.127
                           100 B    0.112
    75   5 B    3.362 --   111 N    2.142    92 B    0.366   101 B    0.140
                            24 C    0.118
    76   5 B    2.813 --    25 O    1.000   112 N    0.617    98 B    0.328
                            70 B    0.225    59 H    0.117
    77   5 B    3.297 --   113 N    2.153    16 O    0.353    82 B    0.281
                           100 B    0.209
    78   5 B    3.642 --   114 N    3.140    91 B    0.124
    79   5 B    3.605 --   115 N    2.737    93 B    0.205   103 B    0.133
                           105 B    0.110
    80   5 B    3.639 --   116 N    3.099    71 B    0.173   103 B    0.150
    81   5 B    3.547 --   117 N    2.624    83 B    0.216     4 C    0.186
                           105 B    0.117   104 B    0.101
    82   5 B    3.711 --   118 N    3.242    77 B    0.281
    83   5 B    3.687 --   119 N    3.306    81 B    0.216
    84   5 B    3.674 --   120 N    3.540    87 B    0.122
    85   5 B    3.648 --   121 N    2.710    27 C    0.591    61 H    0.206
    86   5 B    3.494 --   122 N    2.468     9 C    0.286    72 B    0.243
                            10 C    0.227
    87   5 B    3.659 --   123 N    3.487    84 B    0.122
    88   5 B    3.662 --   124 N    3.393    73 B    0.182
    89   5 B    3.448 --   125 N    2.263    28 O    0.539    27 C    0.464
    90   5 B    3.606 --   126 N    3.096    47 H    0.201    11 C    0.137
                            74 B    0.127
    91   5 B    3.547 --   127 N    3.166    78 B    0.124     9 C    0.112
    92   5 B    3.717 --   128 N    3.203    75 B    0.366
    93   5 B    3.319 --   129 N    2.022    30 O    0.530    29 C    0.449
                            79 B    0.205
    94   5 B    3.478 --   130 N    3.062    72 B    0.139
    95   5 B    3.468 --   131 N    2.923    71 B    0.125    72 B    0.119
    96   5 B    3.501 --   132 N    2.969    73 B    0.153    70 B    0.123
    97   5 B    3.474 --   133 N    2.922    73 B    0.145    71 B    0.136
    98   5 B    3.511 --   134 N    2.532    76 B    0.328    25 O    0.213
                            74 B    0.162
    99   5 B    3.426 --   135 N    1.272    24 C    1.052    58 H    0.556
                            23 C    0.130
   100   5 B    3.472 --   136 N    2.889    77 B    0.209    74 B    0.112
   101   5 B    3.113 --    16 O    1.175   137 N    0.892    17 C    0.274
                            75 B    0.140    50 H    0.113
   102   5 B    3.461 --   138 N    2.823    46 H    0.272     8 C    0.142
   103   5 B    2.789 --   139 N    1.422    65 H    0.261    35 C    0.235
                            80 B    0.150    79 B    0.133
   104   5 B    3.378 --   140 N    1.941    44 H    0.526     4 C    0.406
                            81 B    0.101
   105   5 B    3.473 --   141 N    2.978    81 B    0.117    31 C    0.117
                            79 B    0.110
   106   7 N    3.542 --    70 B    3.087
   107   7 N    3.672 --    71 B    3.125   133 N    0.123   131 N    0.112
   108   7 N    3.629 --    72 B    3.101   131 N    0.143
   109   7 N    3.650 --    73 B    3.135   133 N    0.131   132 N    0.120
   110   7 N    3.617 --    74 B    3.079   136 N    0.101
   111   7 N    3.632 --    75 B    2.142    23 C    0.542    24 C    0.269
                            17 C    0.215
   112   7 N    3.774 --    25 O    2.008    59 H    0.747    76 B    0.617
   113   7 N    3.300 --    77 B    2.153    16 O    0.558
   114   7 N    3.616 --    78 B    3.140
   115   7 N    3.634 --    79 B    2.737    35 C    0.502
   116   7 N    3.617 --    80 B    3.099
   117   7 N    3.668 --    81 B    2.624     4 C    0.475     3 C    0.129
   118   7 N    3.494 --    82 B    3.242
   119   7 N    3.536 --    83 B    3.306
   120   7 N    3.657 --    84 B    3.540   123 N    0.112
   121   7 N    3.312 --    85 B    2.710    61 H    0.247    27 C    0.149
   122   7 N    3.755 --    86 B    2.468    33 C    0.342     9 C    0.213
                            10 C    0.206    11 C    0.118
   123   7 N    3.636 --    87 B    3.487   120 N    0.112
   124   7 N    3.551 --    88 B    3.393
   125   7 N    3.211 --    89 B    2.263    28 O    0.713
   126   7 N    3.423 --    90 B    3.096    11 C    0.135
   127   7 N    3.494 --    91 B    3.166
   128   7 N    3.402 --    92 B    3.203
   129   7 N    3.102 --    93 B    2.022    30 O    0.848
   130   7 N    3.364 --    94 B    3.062
   131   7 N    3.395 --    95 B    2.923   108 N    0.143   107 N    0.112
   132   7 N    3.351 --    96 B    2.969   109 N    0.120
   133   7 N    3.371 --    97 B    2.922   109 N    0.131   107 N    0.123
   134   7 N    3.103 --    98 B    2.532
   135   7 N    3.333 --    99 B    1.272    24 C    0.910    23 C    0.528
   136   7 N    3.295 --   100 B    2.889   110 N    0.101
   137   7 N    3.763 --    17 C    1.997   101 B    0.892    16 O    0.478
   138   7 N    3.296 --   102 B    2.823     8 C    0.167
   139   7 N    3.496 --   103 B    1.422    35 C    1.254    65 H    0.408
                             5 C    0.104
   140   7 N    3.490 --   104 B    1.941     4 C    0.633     3 C    0.337
   141   7 N    3.355 --   105 B    2.978
 ---------------------------------------------------------------------------

Topologies differ in total number of bonds
Writing topology from bond orders to xtbtopo.mol

molecular dipole:
                 x           y           z       tot (Debye)
 q only:        5.462      -6.006      -0.697
   full:        8.650      -6.532       2.521      28.286
molecular quadrupole (traceless):
                xx          xy          yy          xz          yz          zz
 q only:      -78.108       9.791      51.608      38.006      24.813      26.501
  q+dip:        9.393       3.888       0.899      38.254      22.345     -10.292
   full:       -1.355       3.585      12.387      37.909      21.514     -11.032


           -------------------------------------------------
          | TOTAL ENERGY              -30.810997861702 Eh   |
          | GRADIENT NORM             171.642839501087 Eh/α |
          | HOMO-LUMO GAP               0.072933335290 eV   |
           -------------------------------------------------

------------------------------------------------------------------------
 * finished run on 2026/08/31 at 18:34:31.472     
------------------------------------------------------------------------
 total:
 * wall-time:     0 d,  0 h,  0 min,  1.259 sec
 *  cpu-time:     0 d,  0 h,  0 min, 16.125 sec
 * ratio c/w:    12.808 speedup
 SCF:
 * wall-time:     0 d,  0 h,  0 min,  1.180 sec
 *  cpu-time:     0 d,  0 h,  0 min, 15.297 sec
 * ratio c/w:    12.963 speedup

normal termination of xtb
