141
Drug@B36N36 clean complex
C     -5.095715      2.533730      8.301644
O     -5.893542      1.472687      8.806002
C     -5.317138      0.636891      9.725008
C     -3.950941      0.585315     10.012733
C     -3.447356     -0.302162     10.986003
C     -1.951673     -0.396091     11.294920
C     -1.237850      0.964636     11.385786
C     -1.789505      1.982138     12.191667
C     -1.137498      3.193985     12.260015
C      0.031947      3.426384     11.580612
C      0.625051      2.458105     10.801003
C     -0.003452      1.203154     10.702981
C      0.673282      0.093355      9.910530
O      1.455003     -0.680661     10.821969
C      2.840984     -0.362542     10.794987
O      3.420125     -0.787000      9.548372
C      4.591197     -1.572071      9.847238
C      5.750622     -1.126616      8.964790
O      6.964940     -1.215477      9.705449
C      6.972643     -0.273507     10.780102
C      8.048170     -0.680529     11.773927
O      5.715029     -0.155989     11.456763
C      4.929427     -1.351333     11.313707
C      3.560689     -1.125561     11.915418
O      3.636106     -0.402249     13.143154
C     -0.392308     -0.805049      9.262138
C      0.134693     -2.112942      8.707059
O     -0.133801     -3.139502      9.672066
C     -1.033221     -2.701265     10.590376
O     -1.506894     -3.349716     11.503050
C     -1.318957     -1.304639     10.300403
O      0.510050      4.683284     11.782633
C     -0.488556      5.211044     12.681403
O     -1.545022      4.274886     12.977028
C     -4.336281     -1.174247     11.643892
C     -5.699021     -1.149143     11.353170
O     -6.658705     -1.949565     11.921376
C     -6.199525     -2.955160     12.818803
C     -6.174775     -0.238586     10.399251
O     -7.522319     -0.216172     10.124909
H     -4.298380      2.150596      7.656653
H     -4.687965      3.148241      9.111489
H     -5.738265      3.174098      7.689674
H     -3.254275      1.230133      9.486507
H     -1.833411     -0.832091     12.297381
H     -2.709796      1.831728     12.748550
H      1.560161      2.670438     10.293731
H      1.291680      0.518489      9.108844
H      2.987915      0.717731     10.907360
H      4.334491     -2.622351      9.667368
H      5.618440     -0.107000      8.582038
H      5.831355     -1.785006      8.093612
H      7.218389      0.714450     10.374735
H      8.090644      0.020036     12.613651
H      7.841761     -1.674280     12.186201
H      9.028934     -0.727718     11.290311
H      5.459653     -2.187491     11.781752
H      3.055843     -2.078913     12.110380
H      4.375419      0.228917     13.039070
H     -0.928441     -0.244081      8.487584
H     -0.384565     -2.388288      7.781496
H      1.206945     -2.089906      8.490954
H     -0.929866      6.105798     12.227537
H      0.000303      5.497219     13.619872
H     -3.930958     -1.874133     12.370265
H     -5.740233     -2.509117     13.707002
H     -7.070274     -3.530257     13.148148
H     -5.512514     -3.647237     12.320512
H     -7.908897     -0.901827     10.701244
B      3.459180     -1.454569      1.628037
N      3.456400      1.129904      0.940040
B      2.539920      2.362499     -1.261047
N      2.293067     -0.641637     -2.730603
B      0.690534     -3.561069      2.702709
N     -2.939724     -2.654773      1.709476
B     -1.038202      4.085096      1.831238
N     -0.619347      0.017651     -3.941904
B     -0.473710      1.445324     -4.091730
N      1.209559     -3.786796     -1.739405
B     -3.844500      2.209440     -0.493722
N     -2.772864      2.763562     -1.211833
B      1.405725      0.818091     -4.889311
N     -0.235789      3.364215      2.833544
B      0.898320     -2.879798     -2.813849
N     -0.491833      3.766578     -1.010119
B     -0.805996      2.182269      3.281874
N      1.656110     -1.274433      3.503622
B     -0.248484      3.469937     -2.379863
N      1.308703      0.068898      3.816981
B     -1.597441     -0.559934     -3.084689
N     -3.832496      1.776842      0.831624
B      0.337602      4.495994      1.183894
N      0.043256     -0.013955      4.456653
B     -2.708837      2.226751      1.601242
N      3.772728     -0.132624     -0.765541
B     -2.253381     -3.639412      1.008482
N      1.055818      3.733398      2.235734
B     -1.825620     -0.777460      3.219840
N     -2.436768     -3.601880     -0.450773
B      3.018658     -1.073670     -1.502768
N     -3.157960     -1.252592     -0.384321
B      2.034656      2.922326      1.561722
N     -0.507447     -2.900148     -2.432795
B     -1.673548     -2.112882     -2.491621
N      0.590135      3.964583     -0.110225
B      1.090314      2.959649     -3.182489
N      0.077350     -4.359230      1.721289
B     -1.784034      3.452384     -0.408220
N     -2.013520      3.418515      1.031553
B      1.465878     -4.212148      1.499138
N     -0.797987      1.064153      4.194581
B     -2.666242     -2.402096     -1.175256
N     -1.074388     -4.484335      0.991235
B     -2.503710      0.491370     -2.109143
N      2.352728     -3.887335      0.453103
B      3.912327     -0.202357      0.725926
N      1.928548      1.957009     -2.465077
B      1.001184      2.254351     -4.622507
N     -4.186016      0.829005     -0.347538
B     -1.338881      2.453658     -3.114870
N     -2.359649      1.932605     -2.305841
B      3.073063     -2.645483      0.601111
N      2.335213     -3.673670     -0.970876
B      2.217863      0.545803      2.808407
N     -2.026423      0.611912      3.601492
B     -1.101749     -4.183787     -0.441007
N     -3.218144      0.041654     -0.958566
B      3.447752      1.258593     -0.514065
N      2.582085      1.632977      1.936454
B      1.472054     -1.555001     -3.515610
N     -2.102601      1.754194      2.760799
B      2.040765      0.711921     -3.211483
N     -2.720915     -1.341699      2.320567
B      0.658648     -0.538875     -4.486937
N     -0.168664     -3.759421     -1.356472
B      0.485560     -2.105634      3.433764
N     -0.587253     -1.205033      3.824488
B     -3.224373     -1.451411      1.000320
N      2.671324     -0.855529      2.621135
B      1.878557      3.339348     -0.106427
N      2.876911     -2.331783     -0.793563
