      -----------------------------------------------------------      
     |                   =====================                   |     
     |                           x T B                           |     
     |                   =====================                   |     
     |                         S. Grimme                         |     
     |          Mulliken Center for Theoretical Chemistry        |     
     |                    University of Bonn                     |     
      -----------------------------------------------------------      

   * xtb version 6.7.1pre (5071a88) compiled by 'Marcel@Raven' on 2024-07-23

   xtb is free software: you can redistribute it and/or modify it under
   the terms of the GNU Lesser General Public License as published by
   the Free Software Foundation, either version 3 of the License, or
   (at your option) any later version.
   
   xtb is distributed in the hope that it will be useful,
   but WITHOUT ANY WARRANTY; without even the implied warranty of
   MERCHANTABILITY or FITNESS FOR A PARTICULAR PURPOSE.  See the
   GNU Lesser General Public License for more details.
   
   Cite this work as:
   * C. Bannwarth, E. Caldeweyher, S. Ehlert, A. Hansen, P. Pracht,
     J. Seibert, S. Spicher, S. Grimme, WIREs Comput. Mol. Sci., 2020, 11,
     e01493. DOI: 10.1002/wcms.1493
   
   for GFN2-xTB:
   * C. Bannwarth, S. Ehlert and S. Grimme., J. Chem. Theory Comput., 2019,
     15, 1652-1671. DOI: 10.1021/acs.jctc.8b01176
   for GFN1-xTB:
   * S. Grimme, C. Bannwarth, P. Shushkov, J. Chem. Theory Comput., 2017,
     13, 1989-2009. DOI: 10.1021/acs.jctc.7b00118
   for GFN0-xTB:
   * P. Pracht, E. Caldeweyher, S. Ehlert, S. Grimme, ChemRxiv, 2019, preprint.
     DOI: 10.26434/chemrxiv.8326202.v1
   for GFN-FF:
   * S. Spicher and S. Grimme, Angew. Chem. Int. Ed., 2020, 59, 15665-15673.
     DOI: 10.1002/anie.202004239
   
   for ALPB and GBSA implicit solvation:
   * S. Ehlert, M. Stahn, S. Spicher, S. Grimme, J. Chem. Theory Comput.,
     2021, 17, 4250-4261. DOI: 10.1021/acs.jctc.1c00471
   
   for ddCOSMO and CPCM-X implicit solvation:
   * M. Stahn, S. Ehlert, S. Grimme, J. Phys. Chem. A,
     2023, XX, XXXX-XXXX. DOI: 10.1021/acs.jpca.3c04382
   
   for DFT-D4:
   * E. Caldeweyher, C. Bannwarth and S. Grimme, J. Chem. Phys., 2017,
     147, 034112. DOI: 10.1063/1.4993215
   * E. Caldeweyher, S. Ehlert, A. Hansen, H. Neugebauer, S. Spicher,
     C. Bannwarth and S. Grimme, J. Chem. Phys., 2019, 150, 154122.
     DOI: 10.1063/1.5090222
   * E. Caldeweyher, J.-M. Mewes, S. Ehlert and S. Grimme, Phys. Chem. Chem. Phys.
     2020, 22, 8499-8512. DOI: 10.1039/D0CP00502A
   
   for sTDA-xTB:
   * S. Grimme and C. Bannwarth, J. Chem. Phys., 2016, 145, 054103.
     DOI: 10.1063/1.4959605
   
   in the mass-spec context:
   * V. Asgeirsson, C. Bauer and S. Grimme, Chem. Sci., 2017, 8, 4879.
     DOI: 10.1039/c7sc00601b
   * J. Koopman and S. Grimme, ACS Omega 2019, 4, 12, 15120-15133.
     DOI: 10.1021/acsomega.9b02011
   
   for metadynamics refer to:
   * S. Grimme, J. Chem. Theory Comput., 2019, 155, 2847-2862
     DOI: 10.1021/acs.jctc.9b00143
   
   for SPH calculations refer to:
   * S. Spicher and S. Grimme, J. Chem. Theory Comput., 2021, 17, 1701-1714
     DOI: 10.1021/acs.jctc.0c01306
   
   for ONIOM refer to:
   * C. Plett, A. Katbashev, S. Ehlert, S. Grimme, M. Bursch,
     Phys. Chem. Chem. Phys., 2023, 25, 17860-17868. DOI: 10.1039/D3CP02178E
   
   for DIPRO refer to:
   * J. Kohn, N. Gildemeister, S. Grimme, D. Fazzi, A. Hansen,
     J. Chem. Phys., 2023, just accepted.
   
   for PTB refer to:
   * S. Grimme, M. Mueller, A. Hansen, J. Chem. Phys., 2023, 158, 124111.
     DOI: 10.1063/5.0137838
   
   with help from (in alphabetical order)
   P. Atkinson, C. Bannwarth, F. Bohle, G. Brandenburg, E. Caldeweyher
   M. Checinski, S. Dohm, S. Ehlert, S. Ehrlich, I. Gerasimov, C. Hölzer
   A. Katbashev, J. Kohn, J. Koopman, C. Lavigne, S. Lehtola, F. März, M. Müller,
   F. Musil, H. Neugebauer, J. Pisarek, C. Plett, P. Pracht, F. Pultar,
   J. Seibert, P. Shushkov, S. Spicher, M. Stahn, M. Steiner, T. Strunk,
   J. Stückrath, T. Rose, and J. Unsleber
   
 * started run on 2026/08/31 at 21:13:27.884     
   ID    Z sym.   atoms
    1    6 C      1, 3-13, 15, 17, 18, 20, 21, 23, 24, 26, 27, 29, 31, 33,
                  35, 36, 38, 39
    2    8 O      2, 14, 16, 19, 22, 25, 28, 30, 32, 34, 37, 40
    3    1 H      41-69
    4    5 B      70, 72, 74, 76, 78, 80, 82, 84, 86, 88, 90, 92, 94, 96, 98,
                  100, 102, 104, 106, 108, 110, 112, 114, 116, 118, 120, 122,
                  124, 126, 128, 130, 132, 134, 136, 138, 140
    5    7 N      71, 73, 75, 77, 79, 81, 83, 85, 87, 89, 91, 93, 95, 97, 99,
                  101, 103, 105, 107, 109, 111, 113, 115, 117, 119, 121, 123,
                  125, 127, 129, 131, 133, 135, 137, 139, 141

           -------------------------------------------------
          |                Calculation Setup                |
           -------------------------------------------------

          program call               : "c:\Users\Andre\Proyectos doctorado\kras-pancreatic-gC3N4-ai\tools\xtb\xtb-6.7.1\bin\xtb.exe" "c:\Users\Andre\Proyectos doctorado\nano-qsar-ai-therapeutics\calculations\tnbc\Etoposide\Etoposide_B36N36_phys_complex.xyz" --gfn 2 --sp --chrg 0 --uhf 0 --etemp 300 --iterations 500 --norestart
          coordinate file            : c:\Users\Andre\Proyectos doctorado\nano-qsar-ai-therapeutics\calculations\tnbc\Etoposide\Etoposide_B36N36_phys_complex.xyz
          omp threads                :                    16


molecular fragmentation (1/2 indicates fragments):
111111111111111111111111111111111111111111111111111111111111111111111222
222222222222222222222222222222222222222222222222222222222222222222222
# atoms in fragment 1/2:    69    72
 fragment masses (1/2) :      557.52      893.44
CMA distance (Bohr)    :  21.838
constraining FC (au)   :  0.0500

           -------------------------------------------------
          |                 G F N 2 - x T B                 |
           -------------------------------------------------

        Reference                      10.1021/acs.jctc.8b01176
      * Hamiltonian:
        H0-scaling (s, p, d)           1.850000    2.230000    2.230000
        zeta-weighting                 0.500000
      * Dispersion:
        s8                             2.700000
        a1                             0.520000
        a2                             5.000000
        s9                             5.000000
      * Repulsion:
        kExp                           1.500000    1.000000
        rExp                           1.000000
      * Coulomb:
        alpha                          2.000000
        third order                    shell-resolved
        anisotropic                    true
        a3                             3.000000
        a5                             4.000000
        cn-shift                       1.200000
        cn-exp                         4.000000
        max-rad                        5.000000


          ...................................................
          :                      SETUP                      :
          :.................................................:
          :  # basis functions                 477          :
          :  # atomic orbitals                 477          :
          :  # shells                          253          :
          :  # electrons                       501          :
          :  max. iterations                   500          :
          :  Hamiltonian                  GFN2-xTB          :
          :  restarted?                      false          :
          :  GBSA solvation                  false          :
          :  PC potential                    false          :
          :  electronic temp.          300.0000000     K    :
          :  accuracy                    1.0000000          :
          :  -> integral cutoff          0.2500000E+02      :
          :  -> integral neglect         0.1000000E-07      :
          :  -> SCF convergence          0.1000000E-05 Eh   :
          :  -> wf. convergence          0.1000000E-03 e    :
          :  Broyden damping             0.4000000          :
          :  net charge                          0          :
          :  unpaired electrons                  0          :
          ...................................................

 iter      E             dE          RMSdq      gap      omega  full diag
   1   -275.1934007 -0.275193E+03  0.104E+01    0.63       0.0  T
   2   -275.2236901 -0.302894E-01  0.651E+00    0.15       1.0  T
   3   -263.9095916  0.113141E+02  0.532E+00    0.10       1.0  T
   4   -228.3769119  0.355327E+02  0.744E+00    0.09       1.0  T
   5   -274.8585786 -0.464817E+02  0.226E+00    0.27       1.0  T
   6   -273.8414951  0.101708E+01  0.239E+00    0.07       1.0  T
   7   -275.9433335 -0.210184E+01  0.138E+00    0.57       1.0  T
   8   -276.1020074 -0.158674E+00  0.114E+00    0.72       1.0  T
   9   -276.2993387 -0.197331E+00  0.796E-01    0.72       1.0  T
  10   -276.0884962  0.210843E+00  0.107E+00    0.73       1.0  T
  11   -276.1327845 -0.442883E-01  0.864E-01    0.94       1.0  T
  12   -276.2234564 -0.906719E-01  0.616E-01    0.78       1.0  T
  13   -276.2602458 -0.367894E-01  0.471E-01    0.82       1.0  T
  14   -276.3621469 -0.101901E+00  0.248E-01    0.61       1.0  T
  15   -276.3620767  0.701948E-04  0.226E-01    0.62       1.0  T
  16   -276.3594280  0.264871E-02  0.292E-01    0.54       1.0  T
  17   -276.3646395 -0.521153E-02  0.224E-01    0.58       1.0  T
  18   -276.3677263 -0.308674E-02  0.165E-01    0.61       1.0  T
  19   -276.3695636 -0.183728E-02  0.106E-01    0.65       1.0  T
  20   -276.3705309 -0.967315E-03  0.862E-02    0.66       1.0  T
  21   -276.3708121 -0.281216E-03  0.725E-02    0.67       1.0  T
  22   -276.3712956 -0.483470E-03  0.582E-02    0.67       1.0  T
  23   -276.3716126 -0.316995E-03  0.158E-02    0.70       1.0  T
  24   -276.3717336 -0.121029E-03  0.164E-02    0.69       1.0  T
  25   -276.3717494 -0.158164E-04  0.994E-03    0.69       1.0  T
  26   -276.3717594 -0.100147E-04  0.569E-03    0.68       1.5  T
  27   -276.3717589  0.506482E-06  0.637E-03    0.68       1.3  T
  28   -276.3717701 -0.111691E-04  0.338E-03    0.68       2.5  T
  29   -276.3717740 -0.391477E-05  0.204E-03    0.68       4.1  T
  30   -276.3717736  0.359833E-06  0.239E-03    0.68       3.5  T
  31   -276.3717758 -0.220197E-05  0.846E-04    0.68      10.0  T
  32   -276.3717761 -0.263152E-06  0.194E-04    0.68      43.4  T
  33   -276.3717761 -0.221371E-08  0.188E-04    0.68      44.9  T

   *** convergence criteria satisfied after 33 iterations ***

         #    Occupation            Energy/Eh            Energy/eV
      -------------------------------------------------------------
         1        2.0000           -0.7443397             -20.2545
       ...           ...                  ...                  ...
       245        2.0000           -0.3367365              -9.1631
       246        2.0000           -0.3351637              -9.1203
       247        2.0000           -0.3323544              -9.0438
       248        1.9980           -0.3270743              -8.9001
       249        1.9828           -0.3250177              -8.8442
       250        1.8832           -0.3230972              -8.7919
       251        1.1360           -0.3194190              -8.6918 (HOMO)
       252        0.0000           -0.2945290              -8.0145 (LUMO)
       253                         -0.2872001              -7.8151
       254                         -0.2754610              -7.4957
       255                         -0.2640423              -7.1850
       256                         -0.2568394              -6.9890
       ...                                ...                  ...
       477                          0.9722299              26.4557
      -------------------------------------------------------------
                  HL-Gap            0.0248900 Eh            0.6773 eV
             Fermi-level           -0.3140691 Eh           -8.5463 eV

 SCC (total)                   0 d,  0 h,  0 min,  1.447 sec
 SCC setup                      ...        0 min,  0.002 sec (  0.138%)
 Dispersion                     ...        0 min,  0.004 sec (  0.276%)
 classical contributions        ...        0 min,  0.000 sec (  0.000%)
 integral evaluation            ...        0 min,  0.016 sec (  1.106%)
 iterations                     ...        0 min,  1.365 sec ( 94.333%)
 molecular gradient             ...        0 min,  0.046 sec (  3.179%)
 printout                       ...        0 min,  0.014 sec (  0.968%)

         :::::::::::::::::::::::::::::::::::::::::::::::::::::
         ::                     SUMMARY                     ::
         :::::::::::::::::::::::::::::::::::::::::::::::::::::
         :: total energy            -273.758871847797 Eh    ::
         :: gradient norm              0.120393388716 Eh/a0 ::
         :: HOMO-LUMO gap              0.677292058141 eV    ::
         ::.................................................::
         :: SCC energy              -276.355801340865 Eh    ::
         :: -> isotropic ES            0.852236838806 Eh    ::
         :: -> anisotropic ES         -0.021437809247 Eh    ::
         :: -> anisotropic XC          0.062047846263 Eh    ::
         :: -> dispersion             -0.224478969082 Eh    ::
         :: repulsion energy           2.596929493069 Eh    ::
         :: add. restraining           0.000000000000 Eh    ::
         :: total charge               0.000000000451 e     ::
         :::::::::::::::::::::::::::::::::::::::::::::::::::::

           -------------------------------------------------
          |                Property Printout                |
           -------------------------------------------------

    * Orbital Energies and Occupations

         #    Occupation            Energy/Eh            Energy/eV
      -------------------------------------------------------------
         1        2.0000           -0.7443397             -20.2545
       ...           ...                  ...                  ...
       239        2.0000           -0.3496428              -9.5143
       240        2.0000           -0.3459673              -9.4142
       241        2.0000           -0.3440349              -9.3617
       242        2.0000           -0.3428545              -9.3295
       243        2.0000           -0.3402537              -9.2588
       244        2.0000           -0.3387665              -9.2183
       245        2.0000           -0.3367365              -9.1631
       246        2.0000           -0.3351637              -9.1203
       247        2.0000           -0.3323544              -9.0438
       248        1.9980           -0.3270743              -8.9001
       249        1.9828           -0.3250177              -8.8442
       250        1.8832           -0.3230972              -8.7919
       251        1.1360           -0.3194190              -8.6918 (HOMO)
       252        0.0000           -0.2945290              -8.0145 (LUMO)
       253                         -0.2872001              -7.8151
       254                         -0.2754610              -7.4957
       255                         -0.2640423              -7.1850
       256                         -0.2568394              -6.9890
       257                         -0.2458867              -6.6909
       258                         -0.2425110              -6.5991
       259                         -0.2402218              -6.5368
       260                         -0.2343107              -6.3759
       261                         -0.2264534              -6.1621
       262                         -0.2216051              -6.0302
       ...                                ...                  ...
       477                          0.9722299              26.4557
      -------------------------------------------------------------
                  HL-Gap            0.0248900 Eh            0.6773 eV
             Fermi-level           -0.3140691 Eh           -8.5463 eV

     #   Z          covCN         q      C6AA      α(0)
     1   6 C        3.642     0.031    20.401     6.494
     2   8 O        1.703    -0.252    18.172     5.755
     3   6 C        2.853     0.123    25.300     8.244
     4   6 C        2.914    -0.087    30.188     9.010
     5   6 C        2.964     0.005    27.906     8.665
     6   6 C        3.857    -0.015    20.811     6.488
     7   6 C        2.963     0.005    27.905     8.665
     8   6 C        2.911    -0.065    29.611     8.923
     9   6 C        3.047     0.123    25.256     8.242
    10   6 C        3.048     0.121    25.302     8.250
    11   6 C        2.912    -0.067    29.680     8.933
    12   6 C        2.967    -0.019    28.476     8.753
    13   6 C        3.753     0.118    18.708     6.168
    14   8 O        1.698    -0.308    19.142     5.907
    15   6 C        3.678     0.236    17.125     5.928
    16   8 O        1.695    -0.352    19.927     6.027
    17   6 C        3.791     0.099    18.967     6.202
    18   6 C        3.707     0.076    19.455     6.305
    19   8 O        1.698    -0.328    19.497     5.962
    20   6 C        3.651     0.247    17.067     5.934
    21   6 C        3.748    -0.124    22.955     6.833
    22   8 O        1.696    -0.350    19.890     6.021
    23   6 C        3.776     0.109    18.823     6.181
    24   6 C        3.754     0.096    19.048     6.223
    25   8 O        1.652    -0.428    21.405     6.245
    26   6 C        3.873    -0.023    20.941     6.507
    27   6 C        3.784     0.070    19.427     6.278
    28   8 O        1.707    -0.275    18.554     5.816
    29   6 C        2.764     0.340    21.233     7.546
    30   8 O        0.856    -0.429    22.279     6.328
    31   6 C        3.012    -0.050    29.225     8.868
    32   8 O        1.705    -0.283    18.700     5.838
    33   6 C        3.927     0.210    17.251     5.903
    34   8 O        1.705    -0.279    18.636     5.829
    35   6 C        2.913    -0.086    30.152     9.004
    36   6 C        2.855     0.107    25.638     8.299
    37   8 O        1.703    -0.283    18.702     5.839
    38   6 C        3.642     0.032    20.375     6.490
    39   6 C        2.847     0.098    25.818     8.328
    40   8 O        1.657    -0.384    20.542     6.118
    41   1 H        0.924     0.043     2.405     2.425
    42   1 H        0.924     0.043     2.416     2.431
    43   1 H        0.924     0.062     2.173     2.306
    44   1 H        0.925     0.042     2.423     2.434
    45   1 H        0.923     0.086     1.916     2.165
    46   1 H        0.925     0.064     2.154     2.295
    47   1 H        0.925     0.052     2.293     2.368
    48   1 H        0.923     0.041     2.437     2.441
    49   1 H        0.924     0.035     2.517     2.481
    50   1 H        0.924     0.044     2.398     2.422
    51   1 H        0.924     0.053     2.281     2.362
    52   1 H        0.924     0.065     2.143     2.290
    53   1 H        0.924     0.036     2.497     2.471
    54   1 H        0.924     0.062     2.172     2.305
    55   1 H        0.924     0.060     2.200     2.320
    56   1 H        0.924     0.063     2.160     2.299
    57   1 H        0.924     0.042     2.423     2.434
    58   1 H        0.924     0.077     2.007     2.215
    59   1 H        0.803     0.315     0.679     1.294
    60   1 H        0.924     0.055     2.258     2.350
    61   1 H        0.924     0.050     2.316     2.380
    62   1 H        0.924     0.066     2.126     2.280
    63   1 H        0.924     0.054     2.267     2.355
    64   1 H        0.924     0.055     2.259     2.350
    65   1 H        0.925     0.062     2.172     2.305
    66   1 H        0.924     0.048     2.351     2.398
    67   1 H        0.924     0.057     2.229     2.335
    68   1 H        0.924     0.055     2.255     2.348
    69   1 H        0.804     0.319     0.666     1.282
    70   5 B        2.781     0.078    20.163     7.508
    71   7 N        2.774    -0.226    25.926     7.562
    72   5 B        2.788     0.092    19.924     7.462
    73   7 N        2.524    -0.312    28.066     7.868
    74   5 B        2.779     0.084    20.062     7.489
    75   7 N        2.655    -0.265    26.866     7.698
    76   5 B        2.849     0.242    17.653     7.016
    77   7 N        2.529    -0.270    27.031     7.721
    78   5 B        3.195     0.152    18.908     7.252
    79   7 N        2.979    -0.107    23.340     7.175
    80   5 B        2.644     0.374    16.314     6.811
    81   7 N        2.669    -0.210    25.572     7.510
    82   5 B        3.181     0.025    20.942     7.632
    83   7 N        2.888    -0.219    25.771     7.540
    84   5 B        3.009     0.210    18.066     7.090
    85   7 N        2.660    -0.161    24.487     7.349
    86   5 B        2.906     0.319    16.619     6.803
    87   7 N        3.156    -0.078    22.750     7.084
    88   5 B        2.779     0.095    19.896     7.458
    89   7 N        3.037    -0.122    23.654     7.223
    90   5 B        2.758     0.091    19.989     7.481
    91   7 N        2.634    -0.306    27.873     7.841
    92   5 B        3.040     0.228    17.806     7.039
    93   7 N        2.981     0.004    21.187     6.836
    94   5 B        2.582     0.325    17.310     7.088
    95   7 N        2.596    -0.356    29.192     8.024
    96   5 B        3.287     0.340    16.338     6.741
    97   7 N        2.784    -0.250    26.491     7.644
    98   5 B        2.559     0.319    17.604     7.187
    99   7 N        2.579    -0.364    29.410     8.054
   100   5 B        2.530     0.301    18.228     7.378
   101   7 N        2.665    -0.202    25.402     7.485
   102   5 B        2.698     0.196    18.501     7.218
   103   7 N        2.844    -0.165    24.565     7.361
   104   5 B        2.758     0.083    20.115     7.504
   105   7 N        2.672    -0.172    24.723     7.385
   106   5 B        2.877     0.112    19.554     7.381
   107   7 N        2.663    -0.140    24.033     7.281
   108   5 B        2.594     0.311    17.398     7.088
   109   7 N        2.519    -0.351    29.093     8.010
   110   5 B        2.684     0.185    18.704     7.265
   111   7 N        3.008    -0.126    23.724     7.234
   112   5 B        2.677     0.210    18.358     7.201
   113   7 N        2.716    -0.245    26.374     7.627
   114   5 B        2.647     0.164    19.172     7.381
   115   7 N        2.825    -0.203    25.398     7.485
   116   5 B        3.321     0.231    17.764     7.028
   117   7 N        2.531    -0.283    27.352     7.767
   118   5 B        2.950     0.039    20.717     7.594
   119   7 N        2.783    -0.181    24.923     7.415
   120   5 B        2.796     0.086    20.024     7.479
   121   7 N        2.673    -0.153    24.316     7.324
   122   5 B        3.021     0.211    18.053     7.087
   123   7 N        3.272     0.018    20.930     6.795
   124   5 B        2.869     0.306    16.801     6.843
   125   7 N        3.154    -0.111    23.421     7.188
   126   5 B        3.263     0.320    16.586     6.792
   127   7 N        2.833    -0.059    22.383     7.027
   128   5 B        3.303     0.231    17.759     7.028
   129   7 N        2.656    -0.179    24.887     7.409
   130   5 B        2.838     0.114    19.542     7.382
   131   7 N        2.834    -0.222    25.831     7.549
   132   5 B        2.863     0.252    17.506     6.985
   133   7 N        2.654    -0.226    25.945     7.565
   134   5 B        3.011     0.117    19.449     7.356
   135   7 N        3.153    -0.084    22.873     7.103
   136   5 B        2.674     0.203    18.479     7.228
   137   7 N        2.696    -0.227    25.969     7.569
   138   5 B        2.585     0.369    16.728     6.963
   139   7 N        2.881    -0.178    24.853     7.404
   140   5 B        2.825     0.107    19.654     7.405
   141   7 N        2.827    -0.251    26.507     7.647

 Mol. C6AA /au·bohr⁶  :     318040.699262
 Mol. C8AA /au·bohr⁸  :    8567216.142638
 Mol. α(0) /au        :        873.893339


Wiberg/Mayer (AO) data.
largest (>0.10) Wiberg bond orders for each atom

 ---------------------------------------------------------------------------
     #   Z sym  total        # sym  WBO       # sym  WBO       # sym  WBO
 ---------------------------------------------------------------------------
     1   6 C    3.946 --     2 O    0.985    43 H    0.979    42 H    0.978
                            41 H    0.977
     2   8 O    2.228 --     3 C    1.060     1 C    0.985
     3   6 C    3.938 --     4 C    1.374    39 C    1.315     2 O    1.060
     4   6 C    3.978 --     5 C    1.400     3 C    1.374    44 H    0.964
     5   6 C    3.971 --     4 C    1.400    35 C    1.396     6 C    0.950
     6   6 C    3.989 --    31 C    1.028     7 C    0.983     5 C    0.950
                            45 H    0.926
     7   6 C    3.980 --     8 C    1.396    12 C    1.387     6 C    0.983
     8   6 C    3.981 --     9 C    1.402     7 C    1.396    46 H    0.965
     9   6 C    3.927 --     8 C    1.402    10 C    1.311    34 O    1.030
    10   6 C    3.927 --    11 C    1.400     9 C    1.311    32 O    1.028
    11   6 C    3.981 --    10 C    1.400    12 C    1.397    47 H    0.965
    12   6 C    3.981 --    11 C    1.397     7 C    1.387    13 C    0.983
    13   6 C    3.933 --    12 C    0.983    48 H    0.958    14 O    0.951
                            26 C    0.939
    14   8 O    2.100 --    15 C    0.990    13 C    0.951
    15   6 C    3.927 --    14 O    0.990    24 C    0.958    16 O    0.952
                            49 H    0.951
    16   8 O    2.047 --    17 C    0.959    15 C    0.952
    17   6 C    3.953 --    18 C    0.982    23 C    0.977    50 H    0.963
                            16 O    0.959
    18   6 C    3.949 --    17 C    0.982    19 O    0.978    52 H    0.970
                            51 H    0.966
    19   8 O    2.069 --    18 C    0.978    20 C    0.972
    20   6 C    3.919 --    21 C    0.999    19 O    0.972    53 H    0.953
                            22 O    0.950
    21   6 C    3.990 --    20 C    0.999    55 H    0.982    54 H    0.982
                            56 H    0.982
    22   8 O    2.059 --    23 C    0.961    20 C    0.950
    23   6 C    3.952 --    17 C    0.977    24 C    0.974    22 O    0.961
                            57 H    0.960
    24   6 C    3.964 --    25 O    1.010    23 C    0.974    15 C    0.958
                            58 H    0.957
    25   8 O    1.966 --    24 C    1.010    59 H    0.878
    26   6 C    3.991 --    31 C    1.037    27 C    0.989    60 H    0.945
                            13 C    0.939
    27   6 C    3.943 --    26 C    0.989    61 H    0.968    62 H    0.967
                            28 O    0.965
    28   8 O    2.252 --    29 C    1.057    27 C    0.965    30 O    0.141
    29   6 C    3.917 --    30 O    1.647    31 C    1.152    28 O    1.057
    30   8 O    1.966 --    29 C    1.647    28 O    0.141    31 C    0.122
    31   6 C    3.552 --    29 C    1.152    26 C    1.037     6 C    1.028
                            30 O    0.122
    32   8 O    2.189 --    10 C    1.028    33 C    0.970
    33   6 C    3.918 --    34 O    0.972    32 O    0.970    63 H    0.967
                            64 H    0.967
    34   8 O    2.195 --     9 C    1.030    33 C    0.972
    35   6 C    3.978 --     5 C    1.396    36 C    1.385    65 H    0.961
    36   6 C    3.931 --    35 C    1.385    39 C    1.315    37 O    1.040
    37   8 O    2.205 --    36 C    1.040    38 C    0.975
    38   6 C    3.940 --    67 H    0.980    66 H    0.978    68 H    0.978
                            37 O    0.975
    39   6 C    3.939 --    36 C    1.315     3 C    1.315    40 O    1.071
    40   8 O    2.110 --    39 C    1.071    69 H    0.872
    41   1 H    0.998 --     1 C    0.977
    42   1 H    0.998 --     1 C    0.978
    43   1 H    0.996 --     1 C    0.979
    44   1 H    0.998 --     4 C    0.964
    45   1 H    0.988 --     6 C    0.926
    46   1 H    0.996 --     8 C    0.965
    47   1 H    0.997 --    11 C    0.965
    48   1 H    0.996 --    13 C    0.958
    49   1 H    0.999 --    15 C    0.951
    50   1 H    0.998 --    17 C    0.963
    51   1 H    0.997 --    18 C    0.966
    52   1 H    0.995 --    18 C    0.970
    53   1 H    0.998 --    20 C    0.953
    54   1 H    0.996 --    21 C    0.982
    55   1 H    0.996 --    21 C    0.982
    56   1 H    0.996 --    21 C    0.982
    57   1 H    0.998 --    23 C    0.960
    58   1 H    0.994 --    24 C    0.957
    59   1 H    0.901 --    25 O    0.878
    60   1 H    0.990 --    26 C    0.945
    61   1 H    0.996 --    27 C    0.968
    62   1 H    0.995 --    27 C    0.967
    63   1 H    0.997 --    33 C    0.967
    64   1 H    0.997 --    33 C    0.967
    65   1 H    0.996 --    35 C    0.961
    66   1 H    0.998 --    38 C    0.978
    67   1 H    0.996 --    38 C    0.980
    68   1 H    0.997 --    38 C    0.978
    69   1 H    0.898 --    40 O    0.872
    70   5 B    3.471 --   139 N    1.278   122 B    1.000   116 B    0.969
    71   7 N    3.396 --   116 B    1.142   129 N    1.007   128 B    0.999
    72   5 B    3.465 --   117 N    1.277   140 B    0.978   128 B    0.959
    73   7 N    3.531 --   132 B    1.152   130 B    1.150   100 B    1.018
    74   5 B    3.464 --   107 N    1.242   136 B    0.995   110 B    0.989
    75   7 N    3.266 --    96 B    1.200   138 B    0.969   133 N    0.889
    76   5 B    3.406 --   109 N    1.179    83 N    1.029    92 B    0.964
    77   7 N    3.568 --    90 B    1.275    78 B    1.159   134 B    0.974
    78   5 B    3.389 --    77 N    1.159   120 B    0.931   118 B    0.637
                            82 B    0.293
    79   7 N    3.323 --    84 B    1.112   123 N    1.044   135 N    0.945
    80   5 B    3.432 --    81 N    1.186    91 N    1.126   119 N    0.963
    81   7 N    3.448 --    80 B    1.186   108 B    1.088   121 N    0.967
    82   5 B    3.446 --   118 B    1.283   134 B    0.999   132 B    0.627
                            78 B    0.293
    83   7 N    3.425 --    86 B    1.237    76 B    1.029    97 N    0.930
    84   5 B    3.388 --    79 N    1.112   103 N    1.039   130 B    1.005
    85   7 N    3.511 --    88 B    1.206   108 B    1.123   105 N    0.999
    86   5 B    3.512 --    83 N    1.237   111 N    1.065   131 N    1.004
    87   7 N    3.339 --   136 B    1.139   139 N    0.990    89 N    0.984
    88   5 B    3.413 --    85 N    1.206   106 B    1.008   120 B    0.926
    89   7 N    3.313 --   124 B    1.125    87 N    0.984    93 N    0.975
    90   5 B    3.460 --    77 N    1.275   104 B    0.978   114 B    0.932
    91   7 N    3.221 --    80 B    1.126    94 B    1.071   119 N    0.793
    92   5 B    3.366 --   105 N    1.154    97 N    0.988    76 B    0.964
    93   7 N    3.095 --   111 N    1.014    89 N    0.975   137 N    0.939
    94   5 B    3.510 --   131 N    1.242    91 N    1.071   109 N    0.990
    95   7 N    3.434 --   100 B    1.200   128 B    1.062   116 B    0.928
    96   5 B    3.481 --    75 N    1.200   113 N    1.042    99 N    0.981
    97   7 N    3.279 --   102 B    1.171    92 B    0.988    83 N    0.930
    98   5 B    3.524 --   133 N    1.217   137 N    1.116   125 N    1.032
    99   7 N    3.434 --   112 B    1.221   126 B    0.994    96 B    0.981
   100   5 B    3.519 --    95 N    1.200   141 N    1.099    73 N    1.018
   101   7 N    3.443 --   138 B    1.263   112 B    0.997   127 N    0.990
   102   5 B    3.442 --    97 N    1.171   129 N    1.121   140 B    0.922
   103   7 N    3.471 --   104 B    1.260    84 B    1.039   135 N    0.984
   104   5 B    3.420 --   103 N    1.260    90 B    0.978   112 B    0.959
   105   7 N    3.513 --   140 B    1.172    92 B    1.154    85 N    0.999
   106   5 B    3.344 --    88 B    1.008   118 B    1.007   117 N    0.964
   107   7 N    3.512 --    74 B    1.242   110 B    1.093   113 N    1.037
   108   5 B    3.516 --    85 N    1.123   109 N    1.103    81 N    1.088
   109   7 N    3.479 --    76 B    1.179   108 B    1.103    94 B    0.990
   110   5 B    3.463 --   115 N    1.179   107 N    1.093    74 B    0.989
   111   7 N    3.253 --    86 B    1.065    93 N    1.014   125 N    0.976
   112   5 B    3.391 --    99 N    1.221   101 N    0.997   104 B    0.959
   113   7 N    3.373 --    96 B    1.042   107 N    1.037   126 B    0.985
   114   5 B    3.455 --   127 N    1.192   121 N    1.079    90 B    0.932
   115   7 N    3.408 --   110 B    1.179   122 B    1.074   123 N    0.960
   116   5 B    3.362 --    71 N    1.142    70 B    0.969    95 N    0.928
                           128 B    0.127
   117   7 N    3.562 --    72 B    1.277   132 B    1.105   106 B    0.964
   118   5 B    3.360 --    82 B    1.283   106 B    1.007    78 B    0.637
                           132 B    0.186
   119   7 N    2.989 --   127 N    1.045    80 B    0.963    91 N    0.793
   120   5 B    3.455 --   121 N    1.268    78 B    0.931    88 B    0.926
   121   7 N    3.483 --   120 B    1.268   114 B    1.079    81 N    0.967
   122   5 B    3.444 --   141 N    1.131   115 N    1.074    70 B    1.000
   123   7 N    3.187 --    79 N    1.044   115 N    0.960   141 N    0.950
   124   5 B    3.518 --   129 N    1.168    89 N    1.125   139 N    0.997
   125   7 N    3.213 --    98 B    1.032   131 N    0.984   111 N    0.976
   126   5 B    3.507 --   135 N    1.264    99 N    0.994   113 N    0.985
   127   7 N    3.442 --   114 B    1.192   119 N    1.045   101 N    0.990
   128   5 B    3.326 --    95 N    1.062    71 N    0.999    72 B    0.959
                           116 B    0.127
   129   7 N    3.489 --   124 B    1.168   102 B    1.121    71 N    1.007
   130   5 B    3.380 --    73 N    1.150    84 B    1.005   134 B    0.998
   131   7 N    3.446 --    94 B    1.242    86 B    1.004   125 N    0.984
   132   5 B    3.444 --    73 N    1.152   117 N    1.105    82 B    0.627
                           118 B    0.186   134 B    0.120
   133   7 N    3.336 --    98 B    1.217   138 B    1.033    75 N    0.889
   134   5 B    3.326 --    82 B    0.999   130 B    0.998    77 N    0.974
                           132 B    0.120
   135   7 N    3.439 --   126 B    1.264   103 N    0.984    79 N    0.945
   136   5 B    3.442 --    87 N    1.139   137 N    1.115    74 B    0.995
   137   7 N    3.382 --    98 B    1.116   136 B    1.115    93 N    0.939
   138   5 B    3.439 --   101 N    1.263   133 N    1.033    75 N    0.969
   139   7 N    3.474 --    70 B    1.278   124 B    0.997    87 N    0.990
   140   5 B    3.358 --   105 N    1.172    72 B    0.978   102 B    0.922
   141   7 N    3.419 --   122 B    1.131   100 B    1.099   123 N    0.950
 ---------------------------------------------------------------------------

Topologies differ in total number of bonds
Writing topology from bond orders to xtbtopo.mol

molecular dipole:
                 x           y           z       tot (Debye)
 q only:        3.292       3.455      -7.406
   full:        2.315       2.863      -5.379      16.569
molecular quadrupole (traceless):
                xx          xy          yy          xz          yz          zz
 q only:       29.844      -0.730      38.847      48.817      33.545     -68.691
  q+dip:       35.640       2.980      60.079      64.441      49.282     -95.719
   full:       40.964       3.417      57.285      69.552      50.457     -98.249


           -------------------------------------------------
          | TOTAL ENERGY             -273.758871847797 Eh   |
          | GRADIENT NORM               0.120393388716 Eh/α |
          | HOMO-LUMO GAP               0.677292058141 eV   |
           -------------------------------------------------

------------------------------------------------------------------------
 * finished run on 2026/08/31 at 21:13:29.398     
------------------------------------------------------------------------
 total:
 * wall-time:     0 d,  0 h,  0 min,  1.513 sec
 *  cpu-time:     0 d,  0 h,  0 min, 15.062 sec
 * ratio c/w:     9.955 speedup
 SCF:
 * wall-time:     0 d,  0 h,  0 min,  1.449 sec
 *  cpu-time:     0 d,  0 h,  0 min, 14.500 sec
 * ratio c/w:    10.007 speedup

normal termination of xtb
