69
Etoposide - ETKDG+MMFF conformer
C     -5.095715      2.533730     -2.592620
O     -5.893542      1.472687     -2.088262
C     -5.317138      0.636891     -1.169256
C     -3.950941      0.585315     -0.881531
C     -3.447356     -0.302162      0.091739
C     -1.951673     -0.396091      0.400656
C     -1.237850      0.964636      0.491522
C     -1.789505      1.982138      1.297403
C     -1.137498      3.193985      1.365751
C      0.031947      3.426384      0.686348
C      0.625051      2.458105     -0.093261
C     -0.003452      1.203154     -0.191283
C      0.673282      0.093355     -0.983734
O      1.455003     -0.680661     -0.072295
C      2.840984     -0.362542     -0.099277
O      3.420125     -0.787000     -1.345892
C      4.591197     -1.572071     -1.047026
C      5.750622     -1.126616     -1.929474
O      6.964940     -1.215477     -1.188815
C      6.972643     -0.273507     -0.114162
C      8.048170     -0.680529      0.879663
O      5.715029     -0.155989      0.562499
C      4.929427     -1.351333      0.419443
C      3.560689     -1.125561      1.021154
O      3.636106     -0.402249      2.248890
C     -0.392308     -0.805049     -1.632126
C      0.134693     -2.112942     -2.187205
O     -0.133801     -3.139502     -1.222198
C     -1.033221     -2.701265     -0.303888
O     -1.506894     -3.349716      0.608786
C     -1.318957     -1.304639     -0.593861
O      0.510050      4.683284      0.888369
C     -0.488556      5.211044      1.787139
O     -1.545022      4.274886      2.082764
C     -4.336281     -1.174247      0.749628
C     -5.699021     -1.149143      0.458906
O     -6.658705     -1.949565      1.027112
C     -6.199525     -2.955160      1.924539
C     -6.174775     -0.238586     -0.495013
O     -7.522319     -0.216172     -0.769355
H     -4.298380      2.150596     -3.237611
H     -4.687965      3.148241     -1.782775
H     -5.738265      3.174098     -3.204590
H     -3.254275      1.230133     -1.407757
H     -1.833411     -0.832091      1.403117
H     -2.709796      1.831728      1.854286
H      1.560161      2.670438     -0.600533
H      1.291680      0.518489     -1.785420
H      2.987915      0.717731      0.013096
H      4.334491     -2.622351     -1.226896
H      5.618440     -0.107000     -2.312226
H      5.831355     -1.785006     -2.800652
H      7.218389      0.714450     -0.519529
H      8.090644      0.020036      1.719387
H      7.841761     -1.674280      1.291937
H      9.028934     -0.727718      0.396047
H      5.459653     -2.187491      0.887488
H      3.055843     -2.078913      1.216116
H      4.375419      0.228917      2.144806
H     -0.928441     -0.244081     -2.406680
H     -0.384565     -2.388288     -3.112768
H      1.206945     -2.089906     -2.403310
H     -0.929866      6.105798      1.333273
H      0.000303      5.497219      2.725608
H     -3.930958     -1.874133      1.476001
H     -5.740233     -2.509117      2.812738
H     -7.070274     -3.530257      2.253884
H     -5.512514     -3.647237      1.426248
H     -7.908897     -0.901827     -0.193020
