      -----------------------------------------------------------      
     |                   =====================                   |     
     |                           x T B                           |     
     |                   =====================                   |     
     |                         S. Grimme                         |     
     |          Mulliken Center for Theoretical Chemistry        |     
     |                    University of Bonn                     |     
      -----------------------------------------------------------      

   * xtb version 6.7.1pre (5071a88) compiled by 'Marcel@Raven' on 2024-07-23

   xtb is free software: you can redistribute it and/or modify it under
   the terms of the GNU Lesser General Public License as published by
   the Free Software Foundation, either version 3 of the License, or
   (at your option) any later version.
   
   xtb is distributed in the hope that it will be useful,
   but WITHOUT ANY WARRANTY; without even the implied warranty of
   MERCHANTABILITY or FITNESS FOR A PARTICULAR PURPOSE.  See the
   GNU Lesser General Public License for more details.
   
   Cite this work as:
   * C. Bannwarth, E. Caldeweyher, S. Ehlert, A. Hansen, P. Pracht,
     J. Seibert, S. Spicher, S. Grimme, WIREs Comput. Mol. Sci., 2020, 11,
     e01493. DOI: 10.1002/wcms.1493
   
   for GFN2-xTB:
   * C. Bannwarth, S. Ehlert and S. Grimme., J. Chem. Theory Comput., 2019,
     15, 1652-1671. DOI: 10.1021/acs.jctc.8b01176
   for GFN1-xTB:
   * S. Grimme, C. Bannwarth, P. Shushkov, J. Chem. Theory Comput., 2017,
     13, 1989-2009. DOI: 10.1021/acs.jctc.7b00118
   for GFN0-xTB:
   * P. Pracht, E. Caldeweyher, S. Ehlert, S. Grimme, ChemRxiv, 2019, preprint.
     DOI: 10.26434/chemrxiv.8326202.v1
   for GFN-FF:
   * S. Spicher and S. Grimme, Angew. Chem. Int. Ed., 2020, 59, 15665-15673.
     DOI: 10.1002/anie.202004239
   
   for ALPB and GBSA implicit solvation:
   * S. Ehlert, M. Stahn, S. Spicher, S. Grimme, J. Chem. Theory Comput.,
     2021, 17, 4250-4261. DOI: 10.1021/acs.jctc.1c00471
   
   for ddCOSMO and CPCM-X implicit solvation:
   * M. Stahn, S. Ehlert, S. Grimme, J. Phys. Chem. A,
     2023, XX, XXXX-XXXX. DOI: 10.1021/acs.jpca.3c04382
   
   for DFT-D4:
   * E. Caldeweyher, C. Bannwarth and S. Grimme, J. Chem. Phys., 2017,
     147, 034112. DOI: 10.1063/1.4993215
   * E. Caldeweyher, S. Ehlert, A. Hansen, H. Neugebauer, S. Spicher,
     C. Bannwarth and S. Grimme, J. Chem. Phys., 2019, 150, 154122.
     DOI: 10.1063/1.5090222
   * E. Caldeweyher, J.-M. Mewes, S. Ehlert and S. Grimme, Phys. Chem. Chem. Phys.
     2020, 22, 8499-8512. DOI: 10.1039/D0CP00502A
   
   for sTDA-xTB:
   * S. Grimme and C. Bannwarth, J. Chem. Phys., 2016, 145, 054103.
     DOI: 10.1063/1.4959605
   
   in the mass-spec context:
   * V. Asgeirsson, C. Bauer and S. Grimme, Chem. Sci., 2017, 8, 4879.
     DOI: 10.1039/c7sc00601b
   * J. Koopman and S. Grimme, ACS Omega 2019, 4, 12, 15120-15133.
     DOI: 10.1021/acsomega.9b02011
   
   for metadynamics refer to:
   * S. Grimme, J. Chem. Theory Comput., 2019, 155, 2847-2862
     DOI: 10.1021/acs.jctc.9b00143
   
   for SPH calculations refer to:
   * S. Spicher and S. Grimme, J. Chem. Theory Comput., 2021, 17, 1701-1714
     DOI: 10.1021/acs.jctc.0c01306
   
   for ONIOM refer to:
   * C. Plett, A. Katbashev, S. Ehlert, S. Grimme, M. Bursch,
     Phys. Chem. Chem. Phys., 2023, 25, 17860-17868. DOI: 10.1039/D3CP02178E
   
   for DIPRO refer to:
   * J. Kohn, N. Gildemeister, S. Grimme, D. Fazzi, A. Hansen,
     J. Chem. Phys., 2023, just accepted.
   
   for PTB refer to:
   * S. Grimme, M. Mueller, A. Hansen, J. Chem. Phys., 2023, 158, 124111.
     DOI: 10.1063/5.0137838
   
   with help from (in alphabetical order)
   P. Atkinson, C. Bannwarth, F. Bohle, G. Brandenburg, E. Caldeweyher
   M. Checinski, S. Dohm, S. Ehlert, S. Ehrlich, I. Gerasimov, C. Hölzer
   A. Katbashev, J. Kohn, J. Koopman, C. Lavigne, S. Lehtola, F. März, M. Müller,
   F. Musil, H. Neugebauer, J. Pisarek, C. Plett, P. Pracht, F. Pultar,
   J. Seibert, P. Shushkov, S. Spicher, M. Stahn, M. Steiner, T. Strunk,
   J. Stückrath, T. Rose, and J. Unsleber
   
 * started run on 2026/08/31 at 18:33:36.741     
   ID    Z sym.   atoms
    1    6 C      1-4, 6-8, 10-13, 15-17, 19-21, 23-27, 30-32, 34-36, 38-40,
                  42-44, 46-48
    2    8 O      5, 9, 14, 18, 22, 29, 33, 37, 41, 45, 49
    3    7 N      28, 139-174
    4    1 H      50-102
    5    5 B      103-138

           -------------------------------------------------
          |                Calculation Setup                |
           -------------------------------------------------

          program call               : "c:\Users\Andre\Proyectos doctorado\kras-pancreatic-gC3N4-ai\tools\xtb\xtb-6.7.1\bin\xtb.exe" "c:\Users\Andre\Proyectos doctorado\nano-qsar-ai-therapeutics\calculations\tnbc\Eribulin\Eribulin_B36N36_complex.xyz" --gfn 2 --sp --chrg 0 --uhf 0 --iterations 500 --norestart
          coordinate file            : c:\Users\Andre\Proyectos doctorado\nano-qsar-ai-therapeutics\calculations\tnbc\Eribulin\Eribulin_B36N36_complex.xyz
          omp threads                :                    16


molecular fragmentation (1/2 indicates fragments):
111111111111111111111111111111111111111111111111111111111111111111111111
111111111111111111111111111111111111111111112212121111111111111111111111
111111112212121211111111111111
# atoms in fragment 1/2:   165     9
 fragment masses (1/2) :     1467.98      113.28
CMA distance (Bohr)    :   5.796
constraining FC (au)   :  0.0500

           -------------------------------------------------
          |                 G F N 2 - x T B                 |
           -------------------------------------------------

        Reference                      10.1021/acs.jctc.8b01176
      * Hamiltonian:
        H0-scaling (s, p, d)           1.850000    2.230000    2.230000
        zeta-weighting                 0.500000
      * Dispersion:
        s8                             2.700000
        a1                             0.520000
        a2                             5.000000
        s9                             5.000000
      * Repulsion:
        kExp                           1.500000    1.000000
        rExp                           1.000000
      * Coulomb:
        alpha                          2.000000
        third order                    shell-resolved
        anisotropic                    true
        a3                             3.000000
        a5                             4.000000
        cn-shift                       1.200000
        cn-exp                         4.000000
        max-rad                        5.000000


          ...................................................
          :                      SETUP                      :
          :.................................................:
          :  # basis functions                 537          :
          :  # atomic orbitals                 537          :
          :  # shells                          295          :
          :  # electrons                       560          :
          :  max. iterations                   500          :
          :  Hamiltonian                  GFN2-xTB          :
          :  restarted?                      false          :
          :  GBSA solvation                  false          :
          :  PC potential                    false          :
          :  electronic temp.          300.0000000     K    :
          :  accuracy                    1.0000000          :
          :  -> integral cutoff          0.2500000E+02      :
          :  -> integral neglect         0.1000000E-07      :
          :  -> SCF convergence          0.1000000E-05 Eh   :
          :  -> wf. convergence          0.1000000E-03 e    :
          :  Broyden damping             0.4000000          :
          :  net charge                          0          :
          :  unpaired electrons                  0          :
          ...................................................

 iter      E             dE          RMSdq      gap      omega  full diag
   1   -287.2623363 -0.287262E+03  0.121E+01    0.14       0.0  T
   2   -238.4067159  0.488556E+02  0.106E+01    0.08       1.0  T
   3   -165.5840779  0.728226E+02  0.109E+01    0.12       1.0  T
   4   -143.3381024  0.222460E+02  0.903E+00    0.03       1.0  T
   5    -32.1664039  0.111172E+03  0.109E+01    0.18       1.0  T
   6   -295.1784164 -0.263012E+03  0.471E+00    0.24       1.0  T
   7   -299.8065650 -0.462815E+01  0.316E+00    0.07       1.0  T
   8   -300.7790714 -0.972506E+00  0.239E+00    0.08       1.0  T
   9   -301.4274558 -0.648384E+00  0.172E+00    0.31       1.0  T
  10   -300.9190352  0.508421E+00  0.185E+00    0.28       1.0  T
  11   -301.5986265 -0.679591E+00  0.130E+00    0.40       1.0  T
  12   -301.8411036 -0.242477E+00  0.885E-01    0.23       1.0  T
  13   -301.6245117  0.216592E+00  0.102E+00    0.65       1.0  T
  14   -301.7177515 -0.932398E-01  0.837E-01    0.29       1.0  T
  15   -301.9203437 -0.202592E+00  0.513E-01    0.07       1.0  T
  16   -301.8516919  0.686518E-01  0.661E-01    0.06       1.0  T
  17   -301.9616082 -0.109916E+00  0.393E-01    0.05       1.0  T
  18   -301.9616006  0.769469E-05  0.367E-01    0.07       1.0  T
  19   -301.9853528 -0.237522E-01  0.310E-01    0.01       1.0  T
  20   -301.9877772 -0.242440E-02  0.285E-01    0.04       1.0  T
  21   -301.9934349 -0.565770E-02  0.245E-01    0.02       1.0  T
  22   -302.0094003 -0.159654E-01  0.198E-01    0.01       1.0  T
  23   -302.0096225 -0.222242E-03  0.191E-01    0.01       1.0  T
  24   -302.0182429 -0.862042E-02  0.111E-01    0.01       1.0  T
  25   -302.0248049 -0.656194E-02  0.246E-02    0.01       1.0  T
  26   -302.0217962  0.300872E-02  0.836E-02    0.01       1.0  T
  27   -302.0210877  0.708429E-03  0.985E-02    0.01       1.0  T
  28   -302.0248247 -0.373695E-02  0.199E-02    0.01       1.0  T
  29   -302.0249643 -0.139583E-03  0.116E-02    0.01       1.0  T
  30   -302.0249788 -0.145582E-04  0.122E-02    0.01       1.0  T
  31   -302.0250251 -0.462303E-04  0.405E-03    0.01       1.9  T
  32   -302.0250282 -0.317840E-05  0.303E-03    0.01       2.5  T
  33   -302.0250314 -0.317488E-05  0.870E-04    0.01       8.7  T
  34   -302.0250318 -0.419248E-06  0.378E-04    0.01      20.0  T
  35   -302.0250319 -0.290579E-07  0.260E-04    0.01      29.2  T

   *** convergence criteria satisfied after 35 iterations ***

         #    Occupation            Energy/Eh            Energy/eV
      -------------------------------------------------------------
         1        2.0000           -1.0143514             -27.6019
       ...           ...                  ...                  ...
       274        2.0000           -0.1997003              -5.4341
       275        2.0000           -0.1870922              -5.0910
       276        2.0000           -0.1731412              -4.7114
       277        2.0000           -0.1668293              -4.5397
       278        2.0000           -0.1600518              -4.3552
       279        1.9083           -0.1511337              -4.1126
       280        1.0023           -0.1482542              -4.0342 (HOMO)
       281        0.8810           -0.1480225              -4.0279 (LUMO)
       282        0.2084           -0.1462058              -3.9785
       283                         -0.1271706              -3.4605
       284                         -0.1185495              -3.2259
       285                         -0.1160613              -3.1582
       ...                                ...                  ...
       537                         71.0013969            1932.0464
      -------------------------------------------------------------
                  HL-Gap            0.0002317 Eh            0.0063 eV
             Fermi-level           -0.1482498 Eh           -4.0341 eV

 SCC (total)                   0 d,  0 h,  0 min,  1.535 sec
 SCC setup                      ...        0 min,  0.001 sec (  0.065%)
 Dispersion                     ...        0 min,  0.009 sec (  0.586%)
 classical contributions        ...        0 min,  0.000 sec (  0.000%)
 integral evaluation            ...        0 min,  0.023 sec (  1.498%)
 iterations                     ...        0 min,  1.433 sec ( 93.355%)
 molecular gradient             ...        0 min,  0.064 sec (  4.169%)
 printout                       ...        0 min,  0.005 sec (  0.326%)

         :::::::::::::::::::::::::::::::::::::::::::::::::::::
         ::                     SUMMARY                     ::
         :::::::::::::::::::::::::::::::::::::::::::::::::::::
         :: total energy             -23.416630577541 Eh    ::
         :: gradient norm            321.984657637381 Eh/a0 ::
         :: HOMO-LUMO gap              0.006305854542 eV    ::
         ::.................................................::
         :: SCC energy              -301.982911750760 Eh    ::
         :: -> isotropic ES            1.016295904855 Eh    ::
         :: -> anisotropic ES          0.198990924431 Eh    ::
         :: -> anisotropic XC          0.263172930370 Eh    ::
         :: -> dispersion             -0.424317734263 Eh    ::
         :: repulsion energy         278.566281173218 Eh    ::
         :: add. restraining           0.000000000000 Eh    ::
         :: total charge               0.000000000000 e     ::
         :::::::::::::::::::::::::::::::::::::::::::::::::::::

           -------------------------------------------------
          |                Property Printout                |
           -------------------------------------------------

    * Orbital Energies and Occupations

         #    Occupation            Energy/Eh            Energy/eV
      -------------------------------------------------------------
         1        2.0000           -1.0143514             -27.6019
       ...           ...                  ...                  ...
       268        2.0000           -0.2532192              -6.8904
       269        2.0000           -0.2398676              -6.5271
       270        2.0000           -0.2219194              -6.0387
       271        2.0000           -0.2201053              -5.9894
       272        2.0000           -0.2079636              -5.6590
       273        2.0000           -0.2070811              -5.6350
       274        2.0000           -0.1997003              -5.4341
       275        2.0000           -0.1870922              -5.0910
       276        2.0000           -0.1731412              -4.7114
       277        2.0000           -0.1668293              -4.5397
       278        2.0000           -0.1600518              -4.3552
       279        1.9083           -0.1511337              -4.1126
       280        1.0023           -0.1482542              -4.0342 (HOMO)
       281        0.8810           -0.1480225              -4.0279 (LUMO)
       282        0.2084           -0.1462058              -3.9785
       283                         -0.1271706              -3.4605
       284                         -0.1185495              -3.2259
       285                         -0.1160613              -3.1582
       286                         -0.1071307              -2.9152
       287                         -0.1034293              -2.8145
       288                         -0.0992832              -2.7016
       289                         -0.0896402              -2.4392
       290                         -0.0774274              -2.1069
       291                         -0.0720297              -1.9600
       ...                                ...                  ...
       537                         71.0013969            1932.0464
      -------------------------------------------------------------
                  HL-Gap            0.0002317 Eh            0.0063 eV
             Fermi-level           -0.1482498 Eh           -4.0341 eV

     #   Z          covCN         q      C6AA      α(0)
     1   6 C        2.835    -0.165    32.280     9.311
     2   6 C        2.942     0.098    25.834     8.336
     3   6 C        3.827    -0.075    21.917     6.662
     4   6 C        3.794     0.113    18.740     6.164
     5   8 O        1.698    -0.339    19.692     5.991
     6   6 C        3.754     0.108    18.858     6.192
     7   6 C        3.804    -0.081    22.043     6.684
     8   6 C        3.759     0.103    18.934     6.204
     9   8 O        3.386    -0.690    27.351     7.063
    10   6 C        9.142     0.445    14.311     5.373
    11   6 C        8.012    -0.141    23.123     6.829
    12   6 C        8.575    -0.296    26.497     7.310
    13   6 C        6.187    -0.031    21.044     6.515
    14   8 O        2.311    -0.304    19.027     5.891
    15   6 C        3.809    -0.011    20.771     6.488
    16   6 C        3.990    -0.182    23.976     6.957
    17   6 C        7.509    -0.380    28.558     7.589
    18   8 O        6.170     0.840     7.093     3.597
    19   6 C        8.454    -0.085    22.020     6.664
    20   6 C        5.146    -0.205    24.446     7.022
    21   6 C        3.737     0.082    19.293     6.268
    22   8 O        1.696    -0.355    19.985     6.036
    23   6 C        3.736     0.107    18.910     6.206
    24   6 C        3.803    -0.059    21.641     6.623
    25   6 C        3.803    -0.067    21.784     6.645
    26   6 C        3.731     0.106    18.924     6.209
    27   6 C        3.729     0.012    20.462     6.458
    28   7 N        2.627    -0.339    28.734     7.961
    29   8 O        1.696    -0.325    19.443     5.953
    30   6 C        3.731     0.106    18.925     6.210
    31   6 C        3.799    -0.070    21.842     6.654
    32   6 C        3.738     0.065    19.568     6.312
    33   8 O        2.203    -0.464    22.078     6.346
    34   6 C        6.353    -0.063    21.623     6.604
    35   6 C        8.727     0.246    16.745     5.811
    36   6 C        5.623    -0.076    21.859     6.640
    37   8 O        2.302    -0.337    19.621     5.982
    38   6 C        3.739    -0.016    20.947     6.530
    39   6 C        3.800    -0.182    24.054     6.983
    40   6 C        3.762    -0.042    21.366     6.589
    41   8 O        4.523    -0.166    16.779     5.532
    42   6 C        9.100    -0.252    25.463     7.166
    43   6 C        5.034    -0.327    27.242     7.412
    44   6 C        3.803     0.062    19.545     6.294
    45   8 O        1.696    -0.359    20.065     6.048
    46   6 C        3.743     0.101    18.989     6.217
    47   6 C        3.800    -0.078    21.981     6.675
    48   6 C        3.832     0.105    18.835     6.175
    49   8 O        1.701    -0.310    19.165     5.911
    50   1 H        0.925     0.017     2.781     2.608
    51   1 H        0.925     0.027     2.635     2.538
    52   1 H        0.924     0.046     2.376     2.411
    53   1 H        0.924     0.053     2.287     2.365
    54   1 H        0.923     0.020     2.734     2.586
    55   1 H        0.923     0.017     2.787     2.611
    56   1 H        0.924     0.049     2.329     2.387
    57   1 H        0.924     0.049     2.339     2.392
    58   1 H        0.923     0.022     2.697     2.568
    59   1 H        3.716     0.517     0.311     0.871
    60   1 H        2.457    -0.058     4.269     3.225
    61   1 H        1.144    -0.033     3.679     2.995
    62   1 H        2.827     0.576     0.255     0.789
    63   1 H        2.514     0.325     0.636     1.245
    64   1 H        1.995     0.209     1.046     1.597
    65   1 H        1.516     0.180     1.200     1.710
    66   1 H        0.924     0.085     1.925     2.170
    67   1 H        0.924     0.090     1.883     2.146
    68   1 H        3.372     0.590     0.244     0.771
    69   1 H        3.972     0.613     0.227     0.744
    70   1 H        0.924    -0.034     3.711     3.013
    71   1 H        0.924    -0.015     3.330     2.854
    72   1 H        0.923     0.010     2.895     2.661
    73   1 H        0.924     0.017     2.777     2.606
    74   1 H        0.924     0.040     2.446     2.446
    75   1 H        0.924     0.058     2.228     2.334
    76   1 H        0.924     0.043     2.407     2.426
    77   1 H        0.924     0.034     2.528     2.486
    78   1 H        0.923     0.036     2.504     2.475
    79   1 H        0.924     0.007     2.943     2.683
    80   1 H        0.924     0.040     2.445     2.445
    81   1 H        0.860     0.141     1.464     1.895
    82   1 H        0.860     0.139     1.478     1.904
    83   1 H        0.924     0.039     2.463     2.454
    84   1 H        0.924     0.043     2.404     2.425
    85   1 H        0.924     0.027     2.626     2.534
    86   1 H        0.923     0.014     2.820     2.626
    87   1 H        0.924    -0.021     3.459     2.909
    88   1 H        2.775     0.593     0.242     0.768
    89   1 H        2.883     0.584     0.249     0.779
    90   1 H        0.974     0.066     2.119     2.275
    91   1 H        0.966     0.120     1.609     1.982
    92   1 H        0.924     0.086     1.918     2.166
    93   1 H        0.924     0.074     2.042     2.235
    94   1 H        0.923     0.109     1.709     2.044
    95   1 H        4.014     0.496     0.334     0.902
    96   1 H        0.929     0.025     2.661     2.551
    97   1 H        2.925     0.424     0.432     1.026
    98   1 H        0.924    -0.006     3.173     2.786
    99   1 H        0.924     0.039     2.461     2.453
   100   1 H        0.923     0.058     2.219     2.330
   101   1 H        0.924     0.063     2.169     2.303
   102   1 H        0.924     0.024     2.672     2.556
   103   5 B        5.102     0.063    21.606     7.489
   104   5 B        5.102     0.027    22.250     7.600
   105   5 B        5.102     0.090    21.147     7.409
   106   5 B        5.102     0.093    21.097     7.401
   107   5 B        9.087    -0.454    33.817     9.370
   108   5 B        5.304     0.116    20.701     7.331
   109   5 B        7.186     0.273    18.315     6.895
   110   5 B        8.441     0.213    19.187     7.058
   111   5 B        8.076     0.047    21.889     7.538
   112   5 B        7.496    -0.142    25.613     8.154
   113   5 B        6.979     0.087    21.197     7.418
   114   5 B        6.978    -0.037    23.446     7.802
   115   5 B        4.776     0.267    18.392     6.910
   116   5 B        2.522     0.104    21.410     8.016
   117   5 B        1.850     0.080    41.711    13.603
   118   5 B        2.148     0.154    36.405    12.499
   119   5 B        1.850     0.031    43.402    13.876
   120   5 B        1.893     0.064    42.109    13.662
   121   5 B        1.850     0.040    43.081    13.824
   122   5 B        1.850     0.091    41.350    13.544
   123   5 B        2.270     0.052    33.962    11.624
   124   5 B        2.198     0.086    36.673    12.406
   125   5 B        1.850     0.061    42.357    13.708
   126   5 B        1.855     0.004    44.360    14.028
   127   5 B        4.397     0.257    18.535     6.937
   128   5 B        4.397     0.240    18.783     6.983
   129   5 B        4.397     0.269    18.361     6.904
   130   5 B        4.397     0.241    18.763     6.979
   131   5 B        8.006     0.018    22.411     7.628
   132   5 B        5.368     0.399    16.653     6.575
   133   5 B        8.153     0.571    14.692     6.176
   134   5 B        7.075     0.204    19.309     7.080
   135   5 B        7.579    -0.251    28.155     8.550
   136   5 B        6.999    -0.156    25.930     8.205
   137   5 B        4.939     0.211    19.207     7.061
   138   5 B        6.783     0.268    18.383     6.908
   139   7 N        4.372    -0.050    22.202     6.998
   140   7 N        4.372    -0.087    22.921     7.111
   141   7 N        4.372    -0.049    22.185     6.996
   142   7 N        4.372    -0.047    22.137     6.988
   143   7 N        8.684     1.160     8.474     4.324
   144   7 N        4.895    -0.115    23.492     7.199
   145   7 N        6.802    -0.327    28.384     7.913
   146   7 N        6.508    -0.110    23.390     7.183
   147   7 N        6.491    -0.022    21.663     6.913
   148   7 N        6.854     0.355    15.779     5.900
   149   7 N        6.839    -0.301    27.735     7.822
   150   7 N        5.798    -0.145    24.119     7.294
   151   7 N        2.094    -0.459    32.894     8.509
   152   7 N        0.933    -0.188    24.949     7.212
   153   7 N        0.932    -0.138    23.888     7.057
   154   7 N        0.933    -0.200    25.218     7.251
   155   7 N        0.932    -0.130    23.712     7.031
   156   7 N        0.932    -0.110    23.302     6.970
   157   7 N        0.932    -0.144    24.006     7.075
   158   7 N        0.932    -0.108    23.261     6.964
   159   7 N        0.932    -0.303    27.674     7.596
   160   7 N        0.932    -0.273    26.930     7.493
   161   7 N        0.932    -0.122    23.552     7.008
   162   7 N        0.932    -0.272    26.915     7.491
   163   7 N        3.977    -0.341    28.768     7.966
   164   7 N        3.977    -0.357    29.171     8.022
   165   7 N        3.977    -0.355    29.122     8.015
   166   7 N        3.977    -0.348    28.930     7.989
   167   7 N        6.643    -0.416    30.796     8.242
   168   7 N        4.490    -0.483    32.753     8.500
   169   7 N        7.386    -0.510    33.590     8.608
   170   7 N        5.484    -0.420    30.904     8.257
   171   7 N        7.148     0.046    20.434     6.714
   172   7 N        7.008     0.108    19.376     6.538
   173   7 N        4.058    -0.537    34.455     8.718
   174   7 N        5.376    -0.470    32.386     8.452

 Mol. C6AA /au·bohr⁶  :     433985.098846
 Mol. C8AA /au·bohr⁸  :   11584951.969259
 Mol. α(0) /au        :       1025.822340


Wiberg/Mayer (AO) data.
largest (>0.10) Wiberg bond orders for each atom

 ---------------------------------------------------------------------------
     #   Z sym  total        # sym  WBO       # sym  WBO       # sym  WBO
 ---------------------------------------------------------------------------
     1   6 C    3.780 --     2 C    1.695    50 H    0.979    51 H    0.977
     2   6 C    3.725 --     1 C    1.695     3 C    1.000    49 O    0.993
     3   6 C    3.993 --     2 C    1.000     4 C    0.990    52 H    0.972
                            53 H    0.959
     4   6 C    3.947 --     3 C    0.990    48 C    0.969    54 H    0.963
                             5 O    0.962
     5   8 O    2.052 --     6 C    0.969     4 C    0.962
     6   6 C    3.954 --     7 C    0.989    46 C    0.969     5 O    0.969
                            55 H    0.960
     7   6 C    3.991 --     6 C    0.989     8 C    0.985    56 H    0.973
                            57 H    0.969
     8   6 C    3.914 --     7 C    0.985    58 H    0.958    44 C    0.939
                             9 O    0.891
     9   8 O    1.760 --     8 C    0.891   143 N    0.297   107 B    0.271
    10   6 C    3.913 --   143 N    2.629   107 B    0.651    42 C    0.304
                           169 N    0.147
    11   6 C    3.813 --   133 B    1.184   169 N    0.628    61 H    0.579
                            60 H    0.456    12 C    0.342   107 B    0.253
    12   6 C    3.709 --    13 C    0.747   110 B    0.745    63 H    0.591
                            11 C    0.342   146 N    0.272   115 B    0.227
                           133 B    0.156   151 N    0.119
    13   6 C    3.819 --    14 O    0.917    40 C    0.915    12 C    0.747
                            64 H    0.425   110 B    0.255
    14   8 O    2.196 --    13 C    0.917    15 C    0.878
    15   6 C    3.875 --    38 C    0.979    16 C    0.946    14 O    0.878
                            65 H    0.832
    16   6 C    3.958 --    15 C    0.946    66 H    0.933    67 H    0.923
                            17 C    0.913
    17   6 C    3.627 --    16 C    0.913    36 C    0.884    18 O    0.421
                           138 B    0.310   114 B    0.272    68 H    0.175
                           150 N    0.143   148 N    0.126
    18   8 O    3.356 --   148 N    1.276   112 B    0.960    17 C    0.421
                            19 C    0.205   174 N    0.150
    19   6 C    3.814 --   172 N    1.312    34 C    0.747    20 C    0.630
                           136 B    0.253    18 O    0.205   112 B    0.195
                           148 N    0.178
    20   6 C    3.892 --    70 H    0.963    71 H    0.949    21 C    0.940
                            19 C    0.630
    21   6 C    3.934 --    32 C    0.966    72 H    0.964    20 C    0.940
                            22 O    0.939
    22   8 O    2.037 --    23 C    0.967    21 C    0.939
    23   6 C    3.954 --    24 C    0.991    22 O    0.967    73 H    0.963
                            30 C    0.962
    24   6 C    3.994 --    25 C    1.010    23 C    0.991    74 H    0.977
                            75 H    0.972
    25   6 C    3.997 --    24 C    1.010    26 C    0.990    77 H    0.976
                            76 H    0.973
    26   6 C    3.956 --    25 C    0.990    27 C    0.981    29 O    0.971
                            78 H    0.961
    27   6 C    3.989 --    28 N    1.023    26 C    0.981    79 H    0.972
                            80 H    0.969
    28   7 N    2.992 --    27 C    1.023    82 H    0.968    81 H    0.966
    29   8 O    2.078 --    30 C    0.975    26 C    0.971
    30   6 C    3.953 --    31 C    0.987    29 O    0.975    23 C    0.962
                            83 H    0.958
    31   6 C    3.993 --    30 C    0.987    32 C    0.981    84 H    0.972
                            85 H    0.971
    32   6 C    3.974 --    31 C    0.981    21 C    0.966    86 H    0.966
                            33 O    0.860
    33   8 O    1.967 --    32 C    0.860    34 C    0.803
    34   6 C    3.914 --    87 H    0.916    33 O    0.803    19 C    0.747
                            35 C    0.592   171 N    0.177   135 B    0.160
    35   6 C    3.833 --   147 N    0.755   171 N    0.741    36 C    0.612
                           135 B    0.605    34 C    0.592   111 B    0.284
    36   6 C    3.906 --    17 C    0.884    37 O    0.864    90 H    0.814
                            35 C    0.612   111 B    0.128   147 N    0.118
                           171 N    0.103
    37   8 O    2.137 --    36 C    0.864    38 C    0.811   124 B    0.101
    38   6 C    3.948 --    15 C    0.979    39 C    0.979    91 H    0.857
                            37 O    0.811
    39   6 C    3.974 --    38 C    0.979    40 C    0.967    92 H    0.933
                            93 H    0.931
    40   6 C    3.949 --    39 C    0.967    13 C    0.915    94 H    0.910
                            41 O    0.855   145 N    0.115
    41   8 O    2.554 --    40 C    0.855    42 C    0.754   109 B    0.293
                           132 B    0.280   145 N    0.104
    42   6 C    3.386 --    43 C    0.958    41 O    0.754   167 N    0.406
                            10 C    0.304    95 H    0.227   131 B    0.192
                           107 B    0.107
    43   6 C    3.768 --    44 C    0.963    42 C    0.958    96 H    0.914
                            97 H    0.370   134 B    0.117
    44   6 C    3.924 --    43 C    0.963     8 C    0.939    45 O    0.930
                            98 H    0.925
    45   8 O    2.044 --    46 C    0.964    44 C    0.930
    46   6 C    3.951 --    47 C    0.985     6 C    0.969    45 O    0.964
                            99 H    0.956
    47   6 C    3.987 --    48 C    0.988    46 C    0.985   100 H    0.976
                           101 H    0.972
    48   6 C    3.959 --    47 C    0.988    49 O    0.974     4 C    0.969
                           102 H    0.966
    49   8 O    2.142 --     2 C    0.993    48 C    0.974
    50   1 H    1.000 --     1 C    0.979
    51   1 H    0.999 --     1 C    0.977
    52   1 H    0.994 --     3 C    0.972
    53   1 H    0.988 --     3 C    0.959
    54   1 H    1.000 --     4 C    0.963
    55   1 H    1.000 --     6 C    0.960
    56   1 H    0.997 --     7 C    0.973
    57   1 H    0.997 --     7 C    0.969
    58   1 H    0.998 --     8 C    0.958
    59   1 H    0.732 --   107 B    0.532
    60   1 H    0.779 --    11 C    0.456
    61   1 H    0.916 --    11 C    0.579
    62   1 H    0.668 --   146 N    0.383   110 B    0.217
    63   1 H    0.886 --    12 C    0.591   115 B    0.159
    64   1 H    0.946 --    13 C    0.425   134 B    0.384
    65   1 H    0.967 --    15 C    0.832
    66   1 H    0.991 --    16 C    0.933
    67   1 H    0.989 --    16 C    0.923
    68   1 H    0.650 --   150 N    0.268   114 B    0.195    17 C    0.175
    69   1 H    0.624 --   172 N    0.413   136 B    0.167
    70   1 H    0.994 --    20 C    0.963
    71   1 H    0.999 --    20 C    0.949
    72   1 H    1.000 --    21 C    0.964
    73   1 H    0.999 --    23 C    0.963
    74   1 H    0.998 --    24 C    0.977
    75   1 H    0.996 --    24 C    0.972
    76   1 H    0.998 --    25 C    0.973
    77   1 H    0.999 --    25 C    0.976
    78   1 H    0.998 --    26 C    0.961
    79   1 H    1.000 --    27 C    0.972
    80   1 H    0.998 --    27 C    0.969
    81   1 H    0.980 --    28 N    0.966
    82   1 H    0.980 --    28 N    0.968
    83   1 H    0.998 --    30 C    0.958
    84   1 H    0.998 --    31 C    0.972
    85   1 H    0.998 --    31 C    0.971
    86   1 H    0.998 --    32 C    0.966
    87   1 H    0.997 --    34 C    0.916
    88   1 H    0.648 --   135 B    0.376   171 N    0.184
    89   1 H    0.659 --   147 N    0.420   111 B    0.190
    90   1 H    0.992 --    36 C    0.814
    91   1 H    0.983 --    38 C    0.857
    92   1 H    0.991 --    39 C    0.933
    93   1 H    0.994 --    39 C    0.931
    94   1 H    0.986 --    40 C    0.910
    95   1 H    0.751 --   167 N    0.300    42 C    0.227   145 N    0.153
    96   1 H    0.998 --    43 C    0.914
    97   1 H    0.816 --    43 C    0.370   170 N    0.370
    98   1 H    0.999 --    44 C    0.925
    99   1 H    0.998 --    46 C    0.956
   100   1 H    0.996 --    47 C    0.976
   101   1 H    0.996 --    47 C    0.972
   102   1 H    0.999 --    48 C    0.966
   103   5 B    3.620 --   139 N    2.953   109 B    0.208   129 B    0.167
                           127 B    0.162
   104   5 B    3.639 --   140 N    2.905   113 B    0.227   128 B    0.173
                           130 B    0.169
   105   5 B    3.607 --   141 N    3.001   119 B    0.180   128 B    0.163
                           127 B    0.161
   106   5 B    3.582 --   142 N    2.959   121 B    0.183   130 B    0.173
                           129 B    0.170
   107   5 B    3.199 --   143 N    0.740    10 C    0.651    59 H    0.532
                             9 O    0.271    11 C    0.253   123 B    0.230
                           131 B    0.119   169 N    0.108    42 C    0.107
   108   5 B    3.674 --   144 N    3.198   125 B    0.155   134 B    0.118
   109   5 B    3.511 --   145 N    2.648    41 O    0.293   103 B    0.208
                           131 B    0.160
   110   5 B    3.560 --   146 N    2.183    12 C    0.745    13 C    0.255
                            62 H    0.217
   111   5 B    3.308 --   147 N    1.853    35 C    0.284   124 B    0.243
                           137 B    0.205    89 H    0.190    36 C    0.128
   112   5 B    3.355 --   148 N    1.279    18 O    0.960   126 B    0.367
                           136 B    0.205    19 C    0.195
   113   5 B    3.677 --   149 N    2.984   104 B    0.227   136 B    0.123
                           135 B    0.101
   114   5 B    3.650 --   150 N    2.787    17 C    0.272    68 H    0.195
                           116 B    0.158   137 B    0.104
   115   5 B    3.485 --   151 N    2.914    12 C    0.227    63 H    0.159
   116   5 B    3.663 --   152 N    3.342   114 B    0.158
   117   5 B    3.677 --   153 N    3.490   120 B    0.125
   118   5 B    3.638 --   154 N    3.424   122 B    0.112
   119   5 B    3.704 --   155 N    3.461   105 B    0.180
   120   5 B    3.684 --   156 N    3.466   117 B    0.125
   121   5 B    3.698 --   157 N    3.449   106 B    0.183
   122   5 B    3.671 --   158 N    3.537   118 B    0.112
   123   5 B    3.675 --   159 N    3.177   107 B    0.230
   124   5 B    3.671 --   160 N    3.236   111 B    0.243    37 O    0.101
   125   5 B    3.685 --   161 N    3.479   108 B    0.155
   126   5 B    3.719 --   162 N    3.193   112 B    0.367
   127   5 B    3.485 --   163 N    2.839   103 B    0.162   105 B    0.161
   128   5 B    3.488 --   164 N    2.833   104 B    0.173   105 B    0.163
   129   5 B    3.465 --   165 N    2.809   106 B    0.170   103 B    0.167
   130   5 B    3.490 --   166 N    2.824   106 B    0.173   104 B    0.169
   131   5 B    3.169 --   167 N    2.230    42 C    0.192   109 B    0.160
                           107 B    0.119
   132   5 B    3.365 --   168 N    2.832    41 O    0.280
   133   5 B    3.304 --   169 N    1.667    11 C    1.184    12 C    0.156
   134   5 B    3.492 --   170 N    2.523    64 H    0.384   108 B    0.118
                            43 C    0.117
   135   5 B    3.332 --   171 N    1.726    35 C    0.605    88 H    0.376
                            34 C    0.160   113 B    0.101
   136   5 B    2.671 --   172 N    1.553    19 C    0.253   112 B    0.205
                            69 H    0.167   113 B    0.123
   137   5 B    3.500 --   173 N    2.912   111 B    0.205   114 B    0.104
   138   5 B    3.333 --   174 N    2.572    17 C    0.310
   139   7 N    3.613 --   103 B    2.953   163 N    0.158   165 N    0.139
   140   7 N    3.582 --   104 B    2.905   166 N    0.150   164 N    0.141
   141   7 N    3.626 --   105 B    3.001   164 N    0.151   163 N    0.139
   142   7 N    3.602 --   106 B    2.959   165 N    0.155   166 N    0.150
   143   7 N    3.914 --    10 C    2.629   107 B    0.740     9 O    0.297
   144   7 N    3.664 --   108 B    3.198   168 N    0.101
   145   7 N    3.438 --   109 B    2.648    95 H    0.153    40 C    0.115
                            41 O    0.104
   146   7 N    3.432 --   110 B    2.183    62 H    0.383    12 C    0.272
   147   7 N    3.435 --   111 B    1.853    35 C    0.755    89 H    0.420
                            36 C    0.118
   148   7 N    3.374 --   112 B    1.279    18 O    1.276    19 C    0.178
                            17 C    0.126
   149   7 N    3.522 --   113 B    2.984
   150   7 N    3.502 --   114 B    2.787    68 H    0.268    17 C    0.143
   151   7 N    3.220 --   115 B    2.914    12 C    0.119
   152   7 N    3.580 --   116 B    3.342
   153   7 N    3.630 --   117 B    3.490
   154   7 N    3.595 --   118 B    3.424   158 N    0.101
   155   7 N    3.622 --   119 B    3.461
   156   7 N    3.639 --   120 B    3.466
   157   7 N    3.609 --   121 B    3.449
   158   7 N    3.652 --   122 B    3.537   154 N    0.101
   159   7 N    3.391 --   123 B    3.177
   160   7 N    3.468 --   124 B    3.236
   161   7 N    3.630 --   125 B    3.479
   162   7 N    3.451 --   126 B    3.193
   163   7 N    3.335 --   127 B    2.839   139 N    0.158   141 N    0.139
   164   7 N    3.318 --   128 B    2.833   141 N    0.151   140 N    0.141
   165   7 N    3.291 --   129 B    2.809   142 N    0.155   139 N    0.139
   166   7 N    3.315 --   130 B    2.824   142 N    0.150   140 N    0.150
   167   7 N    3.194 --   131 B    2.230    42 C    0.406    95 H    0.300
   168   7 N    3.238 --   132 B    2.832   144 N    0.101
   169   7 N    3.061 --   133 B    1.667    11 C    0.628    10 C    0.147
                           107 B    0.108
   170   7 N    3.313 --   134 B    2.523    97 H    0.370
   171   7 N    3.386 --   135 B    1.726    35 C    0.741    88 H    0.184
                            34 C    0.177    36 C    0.103
   172   7 N    3.607 --   136 B    1.553    19 C    1.312    69 H    0.413
   173   7 N    3.291 --   137 B    2.912
   174   7 N    3.174 --   138 B    2.572    18 O    0.150
 ---------------------------------------------------------------------------

Topologies differ in total number of bonds
Writing topology from bond orders to xtbtopo.mol

molecular dipole:
                 x           y           z       tot (Debye)
 q only:       -5.051       2.088      -3.302
   full:       -6.407       2.623      -1.654      18.093
molecular quadrupole (traceless):
                xx          xy          yy          xz          yz          zz
 q only:     -103.221      25.108      65.306     -39.761       8.386      37.915
  q+dip:        2.698      50.409     -12.052     -64.958       1.330       9.354
   full:       -4.840      49.508      -2.135     -60.938       1.210       6.975


           -------------------------------------------------
          | TOTAL ENERGY              -23.416630577541 Eh   |
          | GRADIENT NORM             321.984657637381 Eh/α |
          | HOMO-LUMO GAP               0.006305854542 eV   |
           -------------------------------------------------

------------------------------------------------------------------------
 * finished run on 2026/08/31 at 18:33:38.388     
------------------------------------------------------------------------
 total:
 * wall-time:     0 d,  0 h,  0 min,  1.645 sec
 *  cpu-time:     0 d,  0 h,  0 min, 21.391 sec
 * ratio c/w:    13.003 speedup
 SCF:
 * wall-time:     0 d,  0 h,  0 min,  1.537 sec
 *  cpu-time:     0 d,  0 h,  0 min, 20.281 sec
 * ratio c/w:    13.195 speedup

normal termination of xtb
