      -----------------------------------------------------------      
     |                   =====================                   |     
     |                           x T B                           |     
     |                   =====================                   |     
     |                         S. Grimme                         |     
     |          Mulliken Center for Theoretical Chemistry        |     
     |                    University of Bonn                     |     
      -----------------------------------------------------------      

   * xtb version 6.7.1pre (5071a88) compiled by 'Marcel@Raven' on 2024-07-23

   xtb is free software: you can redistribute it and/or modify it under
   the terms of the GNU Lesser General Public License as published by
   the Free Software Foundation, either version 3 of the License, or
   (at your option) any later version.
   
   xtb is distributed in the hope that it will be useful,
   but WITHOUT ANY WARRANTY; without even the implied warranty of
   MERCHANTABILITY or FITNESS FOR A PARTICULAR PURPOSE.  See the
   GNU Lesser General Public License for more details.
   
   Cite this work as:
   * C. Bannwarth, E. Caldeweyher, S. Ehlert, A. Hansen, P. Pracht,
     J. Seibert, S. Spicher, S. Grimme, WIREs Comput. Mol. Sci., 2020, 11,
     e01493. DOI: 10.1002/wcms.1493
   
   for GFN2-xTB:
   * C. Bannwarth, S. Ehlert and S. Grimme., J. Chem. Theory Comput., 2019,
     15, 1652-1671. DOI: 10.1021/acs.jctc.8b01176
   for GFN1-xTB:
   * S. Grimme, C. Bannwarth, P. Shushkov, J. Chem. Theory Comput., 2017,
     13, 1989-2009. DOI: 10.1021/acs.jctc.7b00118
   for GFN0-xTB:
   * P. Pracht, E. Caldeweyher, S. Ehlert, S. Grimme, ChemRxiv, 2019, preprint.
     DOI: 10.26434/chemrxiv.8326202.v1
   for GFN-FF:
   * S. Spicher and S. Grimme, Angew. Chem. Int. Ed., 2020, 59, 15665-15673.
     DOI: 10.1002/anie.202004239
   
   for ALPB and GBSA implicit solvation:
   * S. Ehlert, M. Stahn, S. Spicher, S. Grimme, J. Chem. Theory Comput.,
     2021, 17, 4250-4261. DOI: 10.1021/acs.jctc.1c00471
   
   for ddCOSMO and CPCM-X implicit solvation:
   * M. Stahn, S. Ehlert, S. Grimme, J. Phys. Chem. A,
     2023, XX, XXXX-XXXX. DOI: 10.1021/acs.jpca.3c04382
   
   for DFT-D4:
   * E. Caldeweyher, C. Bannwarth and S. Grimme, J. Chem. Phys., 2017,
     147, 034112. DOI: 10.1063/1.4993215
   * E. Caldeweyher, S. Ehlert, A. Hansen, H. Neugebauer, S. Spicher,
     C. Bannwarth and S. Grimme, J. Chem. Phys., 2019, 150, 154122.
     DOI: 10.1063/1.5090222
   * E. Caldeweyher, J.-M. Mewes, S. Ehlert and S. Grimme, Phys. Chem. Chem. Phys.
     2020, 22, 8499-8512. DOI: 10.1039/D0CP00502A
   
   for sTDA-xTB:
   * S. Grimme and C. Bannwarth, J. Chem. Phys., 2016, 145, 054103.
     DOI: 10.1063/1.4959605
   
   in the mass-spec context:
   * V. Asgeirsson, C. Bauer and S. Grimme, Chem. Sci., 2017, 8, 4879.
     DOI: 10.1039/c7sc00601b
   * J. Koopman and S. Grimme, ACS Omega 2019, 4, 12, 15120-15133.
     DOI: 10.1021/acsomega.9b02011
   
   for metadynamics refer to:
   * S. Grimme, J. Chem. Theory Comput., 2019, 155, 2847-2862
     DOI: 10.1021/acs.jctc.9b00143
   
   for SPH calculations refer to:
   * S. Spicher and S. Grimme, J. Chem. Theory Comput., 2021, 17, 1701-1714
     DOI: 10.1021/acs.jctc.0c01306
   
   for ONIOM refer to:
   * C. Plett, A. Katbashev, S. Ehlert, S. Grimme, M. Bursch,
     Phys. Chem. Chem. Phys., 2023, 25, 17860-17868. DOI: 10.1039/D3CP02178E
   
   for DIPRO refer to:
   * J. Kohn, N. Gildemeister, S. Grimme, D. Fazzi, A. Hansen,
     J. Chem. Phys., 2023, just accepted.
   
   for PTB refer to:
   * S. Grimme, M. Mueller, A. Hansen, J. Chem. Phys., 2023, 158, 124111.
     DOI: 10.1063/5.0137838
   
   with help from (in alphabetical order)
   P. Atkinson, C. Bannwarth, F. Bohle, G. Brandenburg, E. Caldeweyher
   M. Checinski, S. Dohm, S. Ehlert, S. Ehrlich, I. Gerasimov, C. Hölzer
   A. Katbashev, J. Kohn, J. Koopman, C. Lavigne, S. Lehtola, F. März, M. Müller,
   F. Musil, H. Neugebauer, J. Pisarek, C. Plett, P. Pracht, F. Pultar,
   J. Seibert, P. Shushkov, S. Spicher, M. Stahn, M. Steiner, T. Strunk,
   J. Stückrath, T. Rose, and J. Unsleber
   
 * started run on 2026/08/31 at 18:33:09.557     
   ID    Z sym.   atoms
    1    6 C      1-4, 6-8, 10-13, 15-17, 19-21, 23-27, 30-32, 34-36, 38-40,
                  42-44, 46-48
    2    8 O      5, 9, 14, 18, 22, 29, 33, 37, 41, 45, 49
    3    7 N      28
    4    1 H      50-102

           -------------------------------------------------
          |                Calculation Setup                |
           -------------------------------------------------

          program call               : "c:\Users\Andre\Proyectos doctorado\kras-pancreatic-gC3N4-ai\tools\xtb\xtb-6.7.1\bin\xtb.exe" "c:\Users\Andre\Proyectos doctorado\nano-qsar-ai-therapeutics\calculations\tnbc\Eribulin\Eribulin_drug.xyz" --gfn 2 --sp --chrg 0 --uhf 0 --iterations 500 --norestart
          coordinate file            : c:\Users\Andre\Proyectos doctorado\nano-qsar-ai-therapeutics\calculations\tnbc\Eribulin\Eribulin_drug.xyz
          omp threads                :                    16


           -------------------------------------------------
          |                 G F N 2 - x T B                 |
           -------------------------------------------------

        Reference                      10.1021/acs.jctc.8b01176
      * Hamiltonian:
        H0-scaling (s, p, d)           1.850000    2.230000    2.230000
        zeta-weighting                 0.500000
      * Dispersion:
        s8                             2.700000
        a1                             0.520000
        a2                             5.000000
        s9                             5.000000
      * Repulsion:
        kExp                           1.500000    1.000000
        rExp                           1.000000
      * Coulomb:
        alpha                          2.000000
        third order                    shell-resolved
        anisotropic                    true
        a3                             3.000000
        a5                             4.000000
        cn-shift                       1.200000
        cn-exp                         4.000000
        max-rad                        5.000000


          ...................................................
          :                      SETUP                      :
          :.................................................:
          :  # basis functions                 249          :
          :  # atomic orbitals                 249          :
          :  # shells                          151          :
          :  # electrons                       272          :
          :  max. iterations                   500          :
          :  Hamiltonian                  GFN2-xTB          :
          :  restarted?                      false          :
          :  GBSA solvation                  false          :
          :  PC potential                    false          :
          :  electronic temp.          300.0000000     K    :
          :  accuracy                    1.0000000          :
          :  -> integral cutoff          0.2500000E+02      :
          :  -> integral neglect         0.1000000E-07      :
          :  -> SCF convergence          0.1000000E-05 Eh   :
          :  -> wf. convergence          0.1000000E-03 e    :
          :  Broyden damping             0.4000000          :
          :  net charge                          0          :
          :  unpaired electrons                  0          :
          ...................................................

 iter      E             dE          RMSdq      gap      omega  full diag
   1   -155.2044572 -0.155204E+03  0.389E+00    4.49       0.0  T
   2   -155.4628965 -0.258439E+00  0.216E+00    4.52       1.0  T
   3   -155.4486971  0.141994E-01  0.110E+00    4.72       1.0  T
   4   -155.4716215 -0.229244E-01  0.502E-01    4.59       1.0  T
   5   -155.4877968 -0.161753E-01  0.876E-02    4.56       1.0  T
   6   -155.4880085 -0.211734E-03  0.446E-02    4.54       1.0  T
   7   -155.4880181 -0.961079E-05  0.994E-03    4.53       1.0  T
   8   -155.4880192 -0.109425E-05  0.233E-03    4.53       4.2  T
   9   -155.4880193 -0.764891E-07  0.100E-03    4.53       9.9  T
  10   -155.4880193 -0.520802E-08  0.289E-04    4.53      34.3  T
  11   -155.4880193 -0.179401E-08  0.969E-05    4.53     102.1  T

   *** convergence criteria satisfied after 11 iterations ***

         #    Occupation            Energy/Eh            Energy/eV
      -------------------------------------------------------------
         1        2.0000           -0.7191250             -19.5684
       ...           ...                  ...                  ...
       130        2.0000           -0.4029241             -10.9641
       131        2.0000           -0.4014731             -10.9246
       132        2.0000           -0.3998914             -10.8816
       133        2.0000           -0.3934758             -10.7070
       134        2.0000           -0.3878605             -10.5542
       135        2.0000           -0.3796537             -10.3309
       136        2.0000           -0.3645932              -9.9211 (HOMO)
       137                         -0.1980888              -5.3903 (LUMO)
       138                         -0.0679923              -1.8502
       139                         -0.0612883              -1.6677
       140                         -0.0449613              -1.2235
       141                         -0.0321670              -0.8753
       ...                                ...                  ...
       249                          0.5843210              15.9002
      -------------------------------------------------------------
                  HL-Gap            0.1665045 Eh            4.5308 eV
             Fermi-level           -0.2813410 Eh           -7.6557 eV

 SCC (total)                   0 d,  0 h,  0 min,  0.116 sec
 SCC setup                      ...        0 min,  0.001 sec (  0.862%)
 Dispersion                     ...        0 min,  0.003 sec (  2.586%)
 classical contributions        ...        0 min,  0.000 sec (  0.000%)
 integral evaluation            ...        0 min,  0.004 sec (  3.448%)
 iterations                     ...        0 min,  0.091 sec ( 78.448%)
 molecular gradient             ...        0 min,  0.016 sec ( 13.793%)
 printout                       ...        0 min,  0.001 sec (  0.862%)

         :::::::::::::::::::::::::::::::::::::::::::::::::::::
         ::                     SUMMARY                     ::
         :::::::::::::::::::::::::::::::::::::::::::::::::::::
         :: total energy            -153.971009862635 Eh    ::
         :: gradient norm              0.099669465732 Eh/a0 ::
         :: HOMO-LUMO gap              4.530816709845 eV    ::
         ::.................................................::
         :: SCC energy              -155.487416991240 Eh    ::
         :: -> isotropic ES            0.219250143182 Eh    ::
         :: -> anisotropic ES          0.018268687839 Eh    ::
         :: -> anisotropic XC          0.020608801021 Eh    ::
         :: -> dispersion             -0.117055380324 Eh    ::
         :: repulsion energy           1.516407128605 Eh    ::
         :: add. restraining           0.000000000000 Eh    ::
         :: total charge              -0.000000000000 e     ::
         :::::::::::::::::::::::::::::::::::::::::::::::::::::

           -------------------------------------------------
          |                Property Printout                |
           -------------------------------------------------

    * Orbital Energies and Occupations

         #    Occupation            Energy/Eh            Energy/eV
      -------------------------------------------------------------
         1        2.0000           -0.7191250             -19.5684
       ...           ...                  ...                  ...
       124        2.0000           -0.4277636             -11.6400
       125        2.0000           -0.4230951             -11.5130
       126        2.0000           -0.4173990             -11.3580
       127        2.0000           -0.4143246             -11.2743
       128        2.0000           -0.4082085             -11.1079
       129        2.0000           -0.4069368             -11.0733
       130        2.0000           -0.4029241             -10.9641
       131        2.0000           -0.4014731             -10.9246
       132        2.0000           -0.3998914             -10.8816
       133        2.0000           -0.3934758             -10.7070
       134        2.0000           -0.3878605             -10.5542
       135        2.0000           -0.3796537             -10.3309
       136        2.0000           -0.3645932              -9.9211 (HOMO)
       137                         -0.1980888              -5.3903 (LUMO)
       138                         -0.0679923              -1.8502
       139                         -0.0612883              -1.6677
       140                         -0.0449613              -1.2235
       141                         -0.0321670              -0.8753
       142                         -0.0266367              -0.7248
       143                         -0.0223136              -0.6072
       144                         -0.0194048              -0.5280
       145                         -0.0144783              -0.3940
       146                         -0.0062958              -0.1713
       147                         -0.0032064              -0.0873
       ...                                ...                  ...
       249                          0.5843210              15.9002
      -------------------------------------------------------------
                  HL-Gap            0.1665045 Eh            4.5308 eV
             Fermi-level           -0.2813410 Eh           -7.6557 eV

     #   Z          covCN         q      C6AA      α(0)
     1   6 C        2.835    -0.139    31.560     9.206
     2   6 C        2.942     0.134    25.064     8.211
     3   6 C        3.827    -0.078    21.972     6.670
     4   6 C        3.794     0.112    18.749     6.166
     5   8 O        1.698    -0.329    19.506     5.963
     6   6 C        3.754     0.107    18.872     6.194
     7   6 C        3.804    -0.073    21.895     6.661
     8   6 C        3.733     0.100    19.022     6.225
     9   8 O        1.696    -0.331    19.551     5.970
    10   6 C        3.730     0.096    19.080     6.235
    11   6 C        3.797    -0.073    21.897     6.663
    12   6 C        3.797    -0.073    21.898     6.663
    13   6 C        3.729     0.096    19.084     6.236
    14   8 O        1.696    -0.332    19.557     5.971
    15   6 C        3.733     0.099    19.030     6.226
    16   6 C        3.804    -0.073    21.900     6.662
    17   6 C        3.741     0.104    18.948     6.210
    18   8 O        1.697    -0.334    19.607     5.978
    19   6 C        3.740     0.103    18.956     6.212
    20   6 C        3.803    -0.074    21.918     6.665
    21   6 C        3.737     0.097    19.058     6.230
    22   8 O        1.696    -0.328    19.494     5.961
    23   6 C        3.736     0.103    18.963     6.215
    24   6 C        3.803    -0.057    21.603     6.617
    25   6 C        3.803    -0.068    21.801     6.647
    26   6 C        3.731     0.105    18.943     6.213
    27   6 C        3.729     0.013    20.454     6.456
    28   7 N        2.627    -0.337    28.671     7.952
    29   8 O        1.696    -0.318    19.307     5.932
    30   6 C        3.731     0.105    18.947     6.213
    31   6 C        3.799    -0.075    21.932     6.668
    32   6 C        3.738     0.095    19.079     6.233
    33   8 O        1.697    -0.328    19.483     5.959
    34   6 C        3.742     0.105    18.925     6.206
    35   6 C        3.803    -0.075    21.922     6.666
    36   6 C        3.740     0.104    18.944     6.210
    37   8 O        1.696    -0.325    19.436     5.952
    38   6 C        3.739     0.098    19.040     6.226
    39   6 C        3.800    -0.079    22.006     6.679
    40   6 C        3.730     0.103    18.980     6.219
    41   8 O        1.698    -0.325    19.434     5.952
    42   6 C        3.730     0.103    18.976     6.218
    43   6 C        3.800    -0.079    22.003     6.679
    44   6 C        3.738     0.097    19.054     6.229
    45   8 O        1.696    -0.330    19.526     5.966
    46   6 C        3.743     0.103    18.956     6.211
    47   6 C        3.800    -0.072    21.870     6.658
    48   6 C        3.832     0.102    18.878     6.182
    49   8 O        1.701    -0.286    18.757     5.847
    50   1 H        0.925     0.046     2.375     2.410
    51   1 H        0.925     0.055     2.259     2.350
    52   1 H        0.924     0.062     2.179     2.308
    53   1 H        0.924     0.068     2.103     2.268
    54   1 H        0.923     0.029     2.594     2.519
    55   1 H        0.923     0.023     2.691     2.566
    56   1 H        0.924     0.063     2.167     2.302
    57   1 H        0.924     0.054     2.269     2.356
    58   1 H        0.923     0.042     2.424     2.435
    59   1 H        0.924     0.054     2.275     2.359
    60   1 H        0.923     0.056     2.245     2.343
    61   1 H        0.924     0.039     2.461     2.453
    62   1 H        0.924     0.038     2.469     2.457
    63   1 H        0.923     0.057     2.233     2.337
    64   1 H        0.924     0.053     2.283     2.363
    65   1 H        0.923     0.044     2.393     2.419
    66   1 H        0.924     0.052     2.292     2.368
    67   1 H        0.924     0.064     2.158     2.297
    68   1 H        0.923     0.029     2.604     2.524
    69   1 H        0.923     0.030     2.583     2.513
    70   1 H        0.924     0.057     2.234     2.338
    71   1 H        0.924     0.050     2.324     2.384
    72   1 H        0.923     0.053     2.280     2.361
    73   1 H        0.924     0.024     2.669     2.555
    74   1 H        0.924     0.044     2.399     2.422
    75   1 H        0.924     0.060     2.195     2.317
    76   1 H        0.924     0.043     2.405     2.425
    77   1 H        0.924     0.038     2.477     2.461
    78   1 H        0.923     0.039     2.469     2.457
    79   1 H        0.924     0.008     2.919     2.672
    80   1 H        0.924     0.041     2.439     2.442
    81   1 H        0.860     0.140     1.472     1.901
    82   1 H        0.860     0.140     1.473     1.901
    83   1 H        0.924     0.041     2.435     2.440
    84   1 H        0.924     0.062     2.176     2.307
    85   1 H        0.924     0.046     2.377     2.411
    86   1 H        0.923     0.055     2.263     2.353
    87   1 H        0.923     0.029     2.597     2.520
    88   1 H        0.923     0.067     2.119     2.277
    89   1 H        0.923     0.066     2.134     2.285
    90   1 H        0.924     0.029     2.594     2.519
    91   1 H        0.924     0.055     2.254     2.348
    92   1 H        0.924     0.050     2.321     2.382
    93   1 H        0.924     0.049     2.336     2.390
    94   1 H        0.923     0.056     2.245     2.343
    95   1 H        0.923     0.056     2.252     2.347
    96   1 H        0.924     0.051     2.313     2.378
    97   1 H        0.924     0.049     2.332     2.388
    98   1 H        0.924     0.055     2.258     2.350
    99   1 H        0.924     0.032     2.555     2.500
   100   1 H        0.923     0.056     2.250     2.346
   101   1 H        0.924     0.069     2.094     2.263
   102   1 H        0.924     0.038     2.477     2.461

 Mol. C6AA /au·bohr⁶  :      90797.021892
 Mol. C8AA /au·bohr⁸  :    2020395.145516
 Mol. α(0) /au        :        440.579850


Wiberg/Mayer (AO) data.
largest (>0.10) Wiberg bond orders for each atom

 ---------------------------------------------------------------------------
     #   Z sym  total        # sym  WBO       # sym  WBO       # sym  WBO
 ---------------------------------------------------------------------------
     1   6 C    3.973 --     2 C    1.850    50 H    0.977    51 H    0.974
                            49 O    0.108
     2   6 C    3.928 --     1 C    1.850    49 O    1.034     3 C    1.004
     3   6 C    3.994 --     2 C    1.004     4 C    0.990    52 H    0.969
                            53 H    0.956
     4   6 C    3.953 --     3 C    0.990     5 O    0.969    48 C    0.969
                            54 H    0.962
     5   8 O    2.059 --     4 C    0.969     6 C    0.968
     6   6 C    3.954 --     7 C    0.992    46 C    0.969     5 O    0.968
                            55 H    0.959
     7   6 C    3.991 --     6 C    0.992     8 C    0.986    56 H    0.972
                            57 H    0.971
     8   6 C    3.955 --     7 C    0.986     9 O    0.972    44 C    0.968
                            58 H    0.960
     9   8 O    2.063 --     8 C    0.972    10 C    0.964
    10   6 C    3.949 --    11 C    0.981    42 C    0.972     9 O    0.964
                            59 H    0.958
    11   6 C    3.992 --    12 C    1.007    10 C    0.981    61 H    0.974
                            60 H    0.972
    12   6 C    3.992 --    11 C    1.007    13 C    0.981    62 H    0.974
                            63 H    0.971
    13   6 C    3.949 --    12 C    0.981    40 C    0.971    14 O    0.964
                            64 H    0.958
    14   8 O    2.062 --    15 C    0.970    13 C    0.964
    15   6 C    3.955 --    16 C    0.987    14 O    0.970    38 C    0.969
                            65 H    0.960
    16   6 C    3.991 --    17 C    0.991    15 C    0.987    67 H    0.972
                            66 H    0.971
    17   6 C    3.953 --    16 C    0.991    36 C    0.970    18 O    0.966
                            68 H    0.959
    18   8 O    2.052 --    17 C    0.966    19 C    0.964
    19   6 C    3.953 --    20 C    0.991    34 C    0.970    18 O    0.964
                            69 H    0.960
    20   6 C    3.992 --    19 C    0.991    21 C    0.985    70 H    0.973
                            71 H    0.967
    21   6 C    3.956 --    20 C    0.985    22 O    0.977    32 C    0.966
                            72 H    0.961
    22   8 O    2.066 --    21 C    0.977    23 C    0.962
    23   6 C    3.951 --    24 C    0.991    73 H    0.963    22 O    0.962
                            30 C    0.962
    24   6 C    3.994 --    25 C    1.010    23 C    0.991    74 H    0.976
                            75 H    0.971
    25   6 C    3.997 --    24 C    1.010    26 C    0.990    77 H    0.976
                            76 H    0.973
    26   6 C    3.954 --    25 C    0.990    27 C    0.981    29 O    0.969
                            78 H    0.960
    27   6 C    3.990 --    28 N    1.023    26 C    0.981    79 H    0.972
                            80 H    0.969
    28   7 N    2.993 --    27 C    1.023    82 H    0.968    81 H    0.966
    29   8 O    2.083 --    30 C    0.980    26 C    0.969
    30   6 C    3.957 --    31 C    0.988    29 O    0.980    23 C    0.962
                            83 H    0.958
    31   6 C    3.993 --    30 C    0.988    32 C    0.982    84 H    0.971
                            85 H    0.970
    32   6 C    3.949 --    31 C    0.982    33 O    0.968    21 C    0.966
                            86 H    0.963
    33   8 O    2.069 --    34 C    0.973    32 C    0.968
    34   6 C    3.957 --    35 C    0.988    33 O    0.973    19 C    0.970
                            87 H    0.959
    35   6 C    3.988 --    36 C    0.988    34 C    0.988    89 H    0.973
                            88 H    0.973
    36   6 C    3.954 --    35 C    0.988    37 O    0.970    17 C    0.970
                            90 H    0.956
    37   8 O    2.070 --    38 C    0.971    36 C    0.970
    38   6 C    3.952 --    39 C    0.985    37 O    0.971    15 C    0.969
                            91 H    0.956
    39   6 C    3.993 --    38 C    0.985    40 C    0.981    93 H    0.970
                            92 H    0.970
    40   6 C    3.952 --    39 C    0.981    41 O    0.973    13 C    0.971
                            94 H    0.955
    41   8 O    2.085 --    42 C    0.973    40 C    0.973
    42   6 C    3.952 --    43 C    0.982    41 O    0.973    10 C    0.972
                            95 H    0.955
    43   6 C    3.993 --    44 C    0.986    42 C    0.982    97 H    0.970
                            96 H    0.970
    44   6 C    3.952 --    43 C    0.986    45 O    0.971     8 C    0.968
                            98 H    0.957
    45   8 O    2.066 --    44 C    0.971    46 C    0.967
    46   6 C    3.953 --    47 C    0.986     6 C    0.969    45 O    0.967
                            99 H    0.957
    47   6 C    3.990 --    48 C    0.989    46 C    0.986   100 H    0.976
                           101 H    0.971
    48   6 C    3.952 --    47 C    0.989     4 C    0.969   102 H    0.965
                            49 O    0.965
    49   8 O    2.202 --     2 C    1.034    48 C    0.965     1 C    0.108
    50   1 H    0.998 --     1 C    0.977
    51   1 H    0.996 --     1 C    0.974
    52   1 H    0.996 --     3 C    0.969
    53   1 H    0.995 --     3 C    0.956
    54   1 H    0.999 --     4 C    0.962
    55   1 H    0.999 --     6 C    0.959
    56   1 H    0.996 --     7 C    0.972
    57   1 H    0.997 --     7 C    0.971
    58   1 H    0.998 --     8 C    0.960
    59   1 H    0.997 --    10 C    0.958
    60   1 H    0.997 --    11 C    0.972
    61   1 H    0.998 --    11 C    0.974
    62   1 H    0.998 --    12 C    0.974
    63   1 H    0.997 --    12 C    0.971
    64   1 H    0.997 --    13 C    0.958
    65   1 H    0.998 --    15 C    0.960
    66   1 H    0.997 --    16 C    0.971
    67   1 H    0.996 --    16 C    0.972
    68   1 H    0.999 --    17 C    0.959
    69   1 H    0.999 --    19 C    0.960
    70   1 H    0.997 --    20 C    0.973
    71   1 H    0.997 --    20 C    0.967
    72   1 H    0.997 --    21 C    0.961
    73   1 H    0.999 --    23 C    0.963
    74   1 H    0.998 --    24 C    0.976
    75   1 H    0.996 --    24 C    0.971
    76   1 H    0.998 --    25 C    0.973
    77   1 H    0.998 --    25 C    0.976
    78   1 H    0.998 --    26 C    0.960
    79   1 H    1.000 --    27 C    0.972
    80   1 H    0.998 --    27 C    0.969
    81   1 H    0.980 --    28 N    0.966
    82   1 H    0.980 --    28 N    0.968
    83   1 H    0.998 --    30 C    0.958
    84   1 H    0.996 --    31 C    0.971
    85   1 H    0.998 --    31 C    0.970
    86   1 H    0.997 --    32 C    0.963
    87   1 H    0.999 --    34 C    0.959
    88   1 H    0.995 --    35 C    0.973
    89   1 H    0.995 --    35 C    0.973
    90   1 H    0.999 --    36 C    0.956
    91   1 H    0.997 --    38 C    0.956
    92   1 H    0.997 --    39 C    0.970
    93   1 H    0.998 --    39 C    0.970
    94   1 H    0.997 --    40 C    0.955
    95   1 H    0.997 --    42 C    0.955
    96   1 H    0.997 --    43 C    0.970
    97   1 H    0.997 --    43 C    0.970
    98   1 H    0.997 --    44 C    0.957
    99   1 H    0.999 --    46 C    0.957
   100   1 H    0.997 --    47 C    0.976
   101   1 H    0.995 --    47 C    0.971
   102   1 H    0.999 --    48 C    0.965
 ---------------------------------------------------------------------------

Topologies differ in total number of bonds
Writing topology from bond orders to xtbtopo.mol

molecular dipole:
                 x           y           z       tot (Debye)
 q only:       -0.855       0.141       0.226
   full:       -1.260       0.184       0.167       3.265
molecular quadrupole (traceless):
                xx          xy          yy          xz          yz          zz
 q only:       20.759       6.458     -13.425       4.623      -4.590      -7.335
  q+dip:       25.232      11.688     -18.114       3.491      -6.009      -7.118
   full:       29.601      11.531     -19.784       3.300      -5.611      -9.816


           -------------------------------------------------
          | TOTAL ENERGY             -153.971009862635 Eh   |
          | GRADIENT NORM               0.099669465732 Eh/α |
          | HOMO-LUMO GAP               4.530816709845 eV   |
           -------------------------------------------------

------------------------------------------------------------------------
 * finished run on 2026/08/31 at 18:33:09.714     
------------------------------------------------------------------------
 total:
 * wall-time:     0 d,  0 h,  0 min,  0.156 sec
 *  cpu-time:     0 d,  0 h,  0 min,  2.062 sec
 * ratio c/w:    13.221 speedup
 SCF:
 * wall-time:     0 d,  0 h,  0 min,  0.117 sec
 *  cpu-time:     0 d,  0 h,  0 min,  1.797 sec
 * ratio c/w:    15.358 speedup

normal termination of xtb
