127
Gefitinib/B36N36 GFN2 opt
C      -5.11384499     -1.30919735      6.49156670
O      -3.91362707     -1.19771677      7.22307435
C      -3.34757708      0.02517935      7.32900889
C      -2.06282534      0.04121741      7.96432427
C      -1.37182236      1.21939123      8.08455031
C      -1.87967963      2.41342077      7.52994581
C      -3.17072973      2.39820662      6.94410731
C      -3.89774363      1.19517004      6.87983762
N      -3.71291074      3.49992998      6.38103541
C      -2.95434755      4.55309811      6.31588786
N      -1.69488896      4.66498628      6.73752155
C      -1.14888616      3.62719819      7.34292719
N       0.15052837      3.73667427      7.77737275
C       1.19110700      4.33820310      7.07927276
C       0.97705275      5.24922584      6.04846278
C       2.04143162      5.69942927      5.28636967
C       3.33183456      5.28485246      5.59089074
C       3.56283891      4.43491831      6.65663015
C       2.49798971      3.95710150      7.39270174
F       4.37576525      5.70239688      4.84770922
Cl      1.75014434      6.71408297      3.93444951
O      -1.63866151     -1.17158834      8.39137159
C      -0.28550406     -1.35611003      8.75690643
C       0.00878640     -2.85574433      8.73232924
C      -0.27084699     -3.42670914      7.33897251
N       0.18099870     -4.80055089      7.19932492
C       1.59742275     -4.87450816      6.86991509
C       2.02410499     -6.34225640      6.83376186
O       1.28252006     -7.07424021      5.88813479
C      -0.09352533     -6.98147491      6.16791581
C      -0.56939816     -5.52794071      6.18649885
H      -4.98272519     -0.95644894      5.46245221
H      -5.92510724     -0.75426568      6.97325686
H      -5.35434045     -2.37115059      6.48848377
H      -0.40499981      1.21424506      8.56204843
H      -4.85743792      1.23802017      6.39566025
H      -3.37575701      5.44262607      5.86577236
H       0.46224008      2.95351233      8.33424468
H      -0.02799246      5.55952874      5.81800913
H       4.57450540      4.13745177      6.88032885
H       2.67912287      3.26283951      8.19889390
H       0.37268442     -0.84171779      8.04186565
H      -0.11180816     -0.95069655      9.76486743
H      -0.61962129     -3.36561495      9.46252507
H       1.05168127     -3.00641558      9.00983753
H       0.20350860     -2.78310293      6.58152372
H      -1.34809725     -3.39070602      7.17106150
H       1.80064898     -4.40767437      5.89059963
H       2.17265453     -4.35375098      7.63688863
H       1.88340881     -6.78235515      7.83365124
H       3.07067313     -6.43404356      6.53921034
H      -0.30208147     -7.44026894      7.14717773
H      -0.60351272     -7.54439409      5.38479972
H      -0.43104771     -5.08791559      5.18231259
H      -1.62972593     -5.49890699      6.44464962
B       0.79634817     -3.88556986      1.49465425
N       1.32473016     -3.87440472      2.85101704
B      -0.09097590     -3.66483296      3.11419168
N      -0.61697683     -4.03520212      1.80972384
N      -3.99148005     -0.44914447      2.30712240
B      -3.40391721     -0.13666134      3.60131645
N      -3.55284414      1.30920301      3.56887795
B      -3.78483334      0.98716826      2.16952321
B      -1.44198537     -3.03472344      1.21947430
N      -2.30597096     -2.24840328      2.09034447
B      -3.13982941     -1.22761857      1.46990931
N      -2.81842763     -0.71602323      0.14678041
B      -1.95072648     -1.52732054     -0.69545711
N      -1.09548846     -2.54909201     -0.10761001
N      -0.14145160      0.44713811     -2.65501303
B      -0.19932351     -0.94753426     -2.24492021
N      -1.62960545     -1.04431001     -1.99526089
B      -1.46715673      0.40070488     -2.05779060
B      -1.33257637      0.00629324      4.85490934
N      -2.30160780     -0.82185230      4.16578488
B      -1.82517896     -1.98345519      3.43630340
N      -0.60724577     -2.61376081      3.91065946
B       0.37479924     -1.80716929      4.61025852
N      -0.11513231     -0.63407726      5.31230234
N       2.30417932      0.06182810      5.68005436
B       2.12593885      1.46569477      5.32898546
N       0.79491496      1.66075478      5.88713076
B       0.86881719      0.20996553      5.86953022
N      -1.93378935      1.30238848     -1.07273932
B      -2.74190143      0.72911476     -0.01255642
N      -3.11746154      1.60188320      1.08475445
B      -2.25315710      2.72272849      1.41353382
N      -1.44565399      3.27901111      0.34330644
B      -1.05791169      2.41791646     -0.75908772
B       2.51217502     -2.34534741      0.71222463
N       1.30166924     -3.09713410      0.43426786
B       0.31531747     -2.52320150     -0.46368585
N       0.79348899     -1.59873635     -1.47539625
B       1.99921958     -0.83431542     -1.21045155
N       2.97349833     -1.42195196     -0.30809392
N      -1.90614986      2.99040254      2.80079701
B      -2.34050124      2.02068690      3.79317730
N      -1.37739934      1.45142324      4.72556924
B      -0.14455016      2.18462595      4.94689626
N       0.32281168      3.16051573      3.98312426
B      -0.65971103      3.69993264      3.05143988
B       1.12943466      4.40864934      1.59661648
N       0.83505541      4.38492886      0.17166755
B      -0.50805737      4.27118719      0.71827776
N      -0.21817533      4.65204482      2.09204993
N       2.03670738      0.59155948     -1.49594063
B       0.79274030      1.22361733     -1.91182597
N       0.31457148      2.42398861     -1.24131863
B       1.28502362      3.20676458     -0.48845217
N       2.53727963      2.60524749     -0.05177869
B       2.98134544      1.40169245     -0.74016197
B       2.63112726     -0.75820845      4.55740547
N       1.79107038     -1.91527477      4.28351945
B       2.14037915     -2.74333488      3.13605983
N       2.99161641     -2.21726287      2.08073398
B       3.81619974     -1.05849322      2.39233934
N       3.49006842     -0.20259684      3.52565827
N       2.07772278      3.56758102      2.22922011
B       1.69993304      3.04154177      3.52424459
N       2.58659558      2.06740618      4.13813966
B       3.40139043      1.22975553      3.27496074
N       3.76542027      1.76642721      1.97905445
B       2.89009101      2.74225334      1.35221729
N       4.65741182     -0.53302638      1.37239386
B       4.07112956     -0.60074885      0.04210042
N       4.20419522      0.79986974     -0.32764962
B       4.44015693      0.88145324      1.10508204
