55
Gefitinib GFN2 opt
C       0.82297970     -4.61712371      0.91291696
O       0.80253797     -3.21570058      0.77515614
C      -0.38921345     -2.61311689      0.56169421
C      -0.32500367     -1.18582901      0.45173328
C      -1.46774000     -0.46367886      0.22341293
C      -2.71904660     -1.10378468      0.10413596
C      -2.77789758     -2.51448844      0.22169211
C      -1.59681256     -3.24772424      0.44772638
N      -3.94369858     -3.19152774      0.12353708
C      -5.01361744     -2.48204242     -0.08240869
N      -5.09305306     -1.15785602     -0.21196045
C      -3.97597833     -0.45874547     -0.12585458
N      -4.02221007      0.89890117     -0.25763361
C      -5.09357670      1.74715710     -0.48028148
C      -6.40898994      1.29972823     -0.59345394
C      -7.43219094      2.20492357     -0.81488345
C      -7.14744484      3.56104288     -0.92368619
C      -5.84576692      4.01539587     -0.81181373
C      -4.82463017      3.11440911     -0.59088325
F      -8.13492234      4.44972373     -1.13969064
Cl     -9.05682209      1.64601162     -0.95305697
O       0.91972338     -0.67187702      0.59520883
C       1.11077668      0.72157336      0.48325093
C       2.58964360      1.01264500      0.71484826
C       3.45722166      0.35069123     -0.35618759
N       4.86537070      0.42083121     -0.01494141
C       5.44584839      1.72986616     -0.25905763
C       6.88943696      1.73831473      0.24355934
O       7.66267907      0.74875442     -0.39145101
C       7.09492038     -0.52283823     -0.18397449
C       5.65825904     -0.58445092     -0.70204360
H       0.46644976     -5.11331259      0.00528712
H       0.21935585     -4.94348957      1.76487025
H       1.86517817     -4.87938046      1.08468047
H      -1.39925933      0.61015744      0.14001403
H      -1.69757173     -4.31688749      0.52487776
H      -5.95374906     -3.01333831     -0.16032457
H      -3.13111151      1.36854955     -0.19073765
H      -6.61517941      0.24649624     -0.50841084
H      -5.64906881      5.07206817     -0.89924585
H      -3.80947204      3.47422107     -0.50287220
H       0.81024389      1.06477480     -0.51774041
H       0.50662751      1.24967133      1.23473767
H       2.88248926      0.61509605      1.68592848
H       2.73026917      2.09366536      0.72208354
H       3.24947400      0.80533745     -1.34177299
H       3.17619934     -0.70335044     -0.40147887
H       5.43554701      1.97904083     -1.33618899
H       4.87605171      2.48613181      0.28156016
H       6.88854956      1.56998749      1.33087941
H       7.37046235      2.69259629      0.02278316
H       7.09734476     -0.76071339      0.89012868
H       7.72937771     -1.23307456     -0.71665049
H       5.66181123     -0.42304064     -1.79507461
H       5.23919835     -1.57039160     -0.49259590
