55
drug @complex
C      -5.11384499     -1.30919735      6.49156670
O      -3.91362707     -1.19771677      7.22307435
C      -3.34757708      0.02517935      7.32900889
C      -2.06282534      0.04121741      7.96432427
C      -1.37182236      1.21939123      8.08455031
C      -1.87967963      2.41342077      7.52994581
C      -3.17072973      2.39820662      6.94410731
C      -3.89774363      1.19517004      6.87983762
N      -3.71291074      3.49992998      6.38103541
C      -2.95434755      4.55309811      6.31588786
N      -1.69488896      4.66498628      6.73752155
C      -1.14888616      3.62719819      7.34292719
N       0.15052837      3.73667427      7.77737275
C       1.19110700      4.33820310      7.07927276
C       0.97705275      5.24922584      6.04846278
C       2.04143162      5.69942927      5.28636967
C       3.33183456      5.28485246      5.59089074
C       3.56283891      4.43491831      6.65663015
C       2.49798971      3.95710150      7.39270174
F       4.37576525      5.70239688      4.84770922
Cl      1.75014434      6.71408297      3.93444951
O      -1.63866151     -1.17158834      8.39137159
C      -0.28550406     -1.35611003      8.75690643
C       0.00878640     -2.85574433      8.73232924
C      -0.27084699     -3.42670914      7.33897251
N       0.18099870     -4.80055089      7.19932492
C       1.59742275     -4.87450816      6.86991509
C       2.02410499     -6.34225640      6.83376186
O       1.28252006     -7.07424021      5.88813479
C      -0.09352533     -6.98147491      6.16791581
C      -0.56939816     -5.52794071      6.18649885
H      -4.98272519     -0.95644894      5.46245221
H      -5.92510724     -0.75426568      6.97325686
H      -5.35434045     -2.37115059      6.48848377
H      -0.40499981      1.21424506      8.56204843
H      -4.85743792      1.23802017      6.39566025
H      -3.37575701      5.44262607      5.86577236
H       0.46224008      2.95351233      8.33424468
H      -0.02799246      5.55952874      5.81800913
H       4.57450540      4.13745177      6.88032885
H       2.67912287      3.26283951      8.19889390
H       0.37268442     -0.84171779      8.04186565
H      -0.11180816     -0.95069655      9.76486743
H      -0.61962129     -3.36561495      9.46252507
H       1.05168127     -3.00641558      9.00983753
H       0.20350860     -2.78310293      6.58152372
H      -1.34809725     -3.39070602      7.17106150
H       1.80064898     -4.40767437      5.89059963
H       2.17265453     -4.35375098      7.63688863
H       1.88340881     -6.78235515      7.83365124
H       3.07067313     -6.43404356      6.53921034
H      -0.30208147     -7.44026894      7.14717773
H      -0.60351272     -7.54439409      5.38479972
H      -0.43104771     -5.08791559      5.18231259
H      -1.62972593     -5.49890699      6.44464962
