      -----------------------------------------------------------      
     |                   =====================                   |     
     |                           x T B                           |     
     |                   =====================                   |     
     |                         S. Grimme                         |     
     |          Mulliken Center for Theoretical Chemistry        |     
     |                    University of Bonn                     |     
      -----------------------------------------------------------      

   * xtb version 6.7.1pre (5071a88) compiled by 'Marcel@Raven' on 2024-07-23

   xtb is free software: you can redistribute it and/or modify it under
   the terms of the GNU Lesser General Public License as published by
   the Free Software Foundation, either version 3 of the License, or
   (at your option) any later version.
   
   xtb is distributed in the hope that it will be useful,
   but WITHOUT ANY WARRANTY; without even the implied warranty of
   MERCHANTABILITY or FITNESS FOR A PARTICULAR PURPOSE.  See the
   GNU Lesser General Public License for more details.
   
   Cite this work as:
   * C. Bannwarth, E. Caldeweyher, S. Ehlert, A. Hansen, P. Pracht,
     J. Seibert, S. Spicher, S. Grimme, WIREs Comput. Mol. Sci., 2020, 11,
     e01493. DOI: 10.1002/wcms.1493
   
   for GFN2-xTB:
   * C. Bannwarth, S. Ehlert and S. Grimme., J. Chem. Theory Comput., 2019,
     15, 1652-1671. DOI: 10.1021/acs.jctc.8b01176
   for GFN1-xTB:
   * S. Grimme, C. Bannwarth, P. Shushkov, J. Chem. Theory Comput., 2017,
     13, 1989-2009. DOI: 10.1021/acs.jctc.7b00118
   for GFN0-xTB:
   * P. Pracht, E. Caldeweyher, S. Ehlert, S. Grimme, ChemRxiv, 2019, preprint.
     DOI: 10.26434/chemrxiv.8326202.v1
   for GFN-FF:
   * S. Spicher and S. Grimme, Angew. Chem. Int. Ed., 2020, 59, 15665-15673.
     DOI: 10.1002/anie.202004239
   
   for ALPB and GBSA implicit solvation:
   * S. Ehlert, M. Stahn, S. Spicher, S. Grimme, J. Chem. Theory Comput.,
     2021, 17, 4250-4261. DOI: 10.1021/acs.jctc.1c00471
   
   for ddCOSMO and CPCM-X implicit solvation:
   * M. Stahn, S. Ehlert, S. Grimme, J. Phys. Chem. A,
     2023, XX, XXXX-XXXX. DOI: 10.1021/acs.jpca.3c04382
   
   for DFT-D4:
   * E. Caldeweyher, C. Bannwarth and S. Grimme, J. Chem. Phys., 2017,
     147, 034112. DOI: 10.1063/1.4993215
   * E. Caldeweyher, S. Ehlert, A. Hansen, H. Neugebauer, S. Spicher,
     C. Bannwarth and S. Grimme, J. Chem. Phys., 2019, 150, 154122.
     DOI: 10.1063/1.5090222
   * E. Caldeweyher, J.-M. Mewes, S. Ehlert and S. Grimme, Phys. Chem. Chem. Phys.
     2020, 22, 8499-8512. DOI: 10.1039/D0CP00502A
   
   for sTDA-xTB:
   * S. Grimme and C. Bannwarth, J. Chem. Phys., 2016, 145, 054103.
     DOI: 10.1063/1.4959605
   
   in the mass-spec context:
   * V. Asgeirsson, C. Bauer and S. Grimme, Chem. Sci., 2017, 8, 4879.
     DOI: 10.1039/c7sc00601b
   * J. Koopman and S. Grimme, ACS Omega 2019, 4, 12, 15120-15133.
     DOI: 10.1021/acsomega.9b02011
   
   for metadynamics refer to:
   * S. Grimme, J. Chem. Theory Comput., 2019, 155, 2847-2862
     DOI: 10.1021/acs.jctc.9b00143
   
   for SPH calculations refer to:
   * S. Spicher and S. Grimme, J. Chem. Theory Comput., 2021, 17, 1701-1714
     DOI: 10.1021/acs.jctc.0c01306
   
   for ONIOM refer to:
   * C. Plett, A. Katbashev, S. Ehlert, S. Grimme, M. Bursch,
     Phys. Chem. Chem. Phys., 2023, 25, 17860-17868. DOI: 10.1039/D3CP02178E
   
   for DIPRO refer to:
   * J. Kohn, N. Gildemeister, S. Grimme, D. Fazzi, A. Hansen,
     J. Chem. Phys., 2023, just accepted.
   
   for PTB refer to:
   * S. Grimme, M. Mueller, A. Hansen, J. Chem. Phys., 2023, 158, 124111.
     DOI: 10.1063/5.0137838
   
   with help from (in alphabetical order)
   P. Atkinson, C. Bannwarth, F. Bohle, G. Brandenburg, E. Caldeweyher
   M. Checinski, S. Dohm, S. Ehlert, S. Ehrlich, I. Gerasimov, C. Hölzer
   A. Katbashev, J. Kohn, J. Koopman, C. Lavigne, S. Lehtola, F. März, M. Müller,
   F. Musil, H. Neugebauer, J. Pisarek, C. Plett, P. Pracht, F. Pultar,
   J. Seibert, P. Shushkov, S. Spicher, M. Stahn, M. Steiner, T. Strunk,
   J. Stückrath, T. Rose, and J. Unsleber
   
 * started run on 2026/08/31 at 22:22:05.022     
   ID    Z sym.   atoms
    1    6 C      1, 2, 4, 5, 7-11, 13, 15, 16, 18, 20-24, 26-29, 33-35
    2    7 N      3, 6, 12, 14, 19, 25, 30-32, 67, 69, 71, 73, 75, 77, 79,
                  81, 83, 85, 87, 89, 91, 93, 95, 97, 99, 101, 103, 105, 107,
                  109, 111, 113, 115, 117, 119, 121, 123, 125, 127, 129, 131,
                  133, 135, 137
    3    9 F      17
    4    1 H      36-65
    5    5 B      66, 68, 70, 72, 74, 76, 78, 80, 82, 84, 86, 88, 90, 92, 94,
                  96, 98, 100, 102, 104, 106, 108, 110, 112, 114, 116, 118,
                  120, 122, 124, 126, 128, 130, 132, 134, 136

           -------------------------------------------------
          |                Calculation Setup                |
           -------------------------------------------------

          program call               : "c:\Users\Andre\Proyectos doctorado\kras-pancreatic-gC3N4-ai\tools\xtb\xtb-6.7.1\bin\xtb.exe" "c:\Users\Andre\Proyectos doctorado\nano-qsar-ai-therapeutics\calculations\tnbc\Abemaciclib\Abemaciclib_B36N36_clean_complex.xyz" --gfn 2 --sp --chrg 0 --uhf 0 --etemp 300 --iterations 500 --norestart
          coordinate file            : c:\Users\Andre\Proyectos doctorado\nano-qsar-ai-therapeutics\calculations\tnbc\Abemaciclib\Abemaciclib_B36N36_clean_complex.xyz
          omp threads                :                    16


molecular fragmentation (1/2 indicates fragments):
111111111111111111111111111111111111111111111111111111111111111112222222
22222222222222222222222222222222222222222222222222222222222222222
# atoms in fragment 1/2:    65    72
 fragment masses (1/2) :      475.57      893.44
CMA distance (Bohr)    :  20.158
constraining FC (au)   :  0.0500

           -------------------------------------------------
          |                 G F N 2 - x T B                 |
           -------------------------------------------------

        Reference                      10.1021/acs.jctc.8b01176
      * Hamiltonian:
        H0-scaling (s, p, d)           1.850000    2.230000    2.230000
        zeta-weighting                 0.500000
      * Dispersion:
        s8                             2.700000
        a1                             0.520000
        a2                             5.000000
        s9                             5.000000
      * Repulsion:
        kExp                           1.500000    1.000000
        rExp                           1.000000
      * Coulomb:
        alpha                          2.000000
        third order                    shell-resolved
        anisotropic                    true
        a3                             3.000000
        a5                             4.000000
        cn-shift                       1.200000
        cn-exp                         4.000000
        max-rad                        5.000000


          ...................................................
          :                      SETUP                      :
          :.................................................:
          :  # basis functions                 458          :
          :  # atomic orbitals                 458          :
          :  # shells                          244          :
          :  # electrons                       470          :
          :  max. iterations                   500          :
          :  Hamiltonian                  GFN2-xTB          :
          :  restarted?                      false          :
          :  GBSA solvation                  false          :
          :  PC potential                    false          :
          :  electronic temp.          300.0000000     K    :
          :  accuracy                    1.0000000          :
          :  -> integral cutoff          0.2500000E+02      :
          :  -> integral neglect         0.1000000E-07      :
          :  -> SCF convergence          0.1000000E-05 Eh   :
          :  -> wf. convergence          0.1000000E-03 e    :
          :  Broyden damping             0.4000000          :
          :  net charge                          0          :
          :  unpaired electrons                  0          :
          ...................................................

 iter      E             dE          RMSdq      gap      omega  full diag
   1   -251.8910233 -0.251891E+03  0.104E+01    0.59       0.0  T
   2   -252.3257049 -0.434682E+00  0.636E+00    0.43       1.0  T
   3   -249.2826533  0.304305E+01  0.417E+00    0.15       1.0  T
   4   -251.2609243 -0.197827E+01  0.225E+00    0.44       1.0  T
   5   -251.4456945 -0.184770E+00  0.190E+00    0.10       1.0  T
   6   -252.8031820 -0.135749E+01  0.778E-01    0.81       1.0  T
   7   -252.8252544 -0.220725E-01  0.530E-01    0.79       1.0  T
   8   -252.8218380  0.341642E-02  0.406E-01    0.77       1.0  T
   9   -252.8204658  0.137220E-02  0.244E-01    0.70       1.0  T
  10   -252.8255030 -0.503720E-02  0.120E-01    0.71       1.0  T
  11   -252.8282857 -0.278264E-02  0.519E-02    0.65       1.0  T
  12   -252.8285491 -0.263432E-03  0.369E-02    0.67       1.0  T
  13   -252.8286028 -0.537379E-04  0.287E-02    0.67       1.0  T
  14   -252.8286519 -0.490353E-04  0.217E-02    0.67       1.0  T
  15   -252.8286784 -0.264964E-04  0.122E-02    0.68       1.0  T
  16   -252.8286871 -0.872930E-05  0.656E-03    0.68       1.3  T
  17   -252.8286896 -0.246159E-05  0.225E-03    0.68       3.8  T
  18   -252.8286899 -0.368567E-06  0.572E-04    0.68      14.9  T
  19   -252.8286900 -0.244763E-07  0.270E-04    0.68      31.7  T

   *** convergence criteria satisfied after 19 iterations ***

         #    Occupation            Energy/Eh            Energy/eV
      -------------------------------------------------------------
         1        2.0000           -0.8258332             -22.4721
       ...           ...                  ...                  ...
       229        2.0000           -0.3272912              -8.9060
       230        2.0000           -0.3245422              -8.8312
       231        2.0000           -0.3232921              -8.7972
       232        2.0000           -0.3207152              -8.7271
       233        2.0000           -0.3153762              -8.5818
       234        2.0000           -0.3134411              -8.5292
       235        2.0000           -0.3081586              -8.3854 (HOMO)
       236        0.0000           -0.2832009              -7.7063 (LUMO)
       237                         -0.2786632              -7.5828
       238                         -0.2749275              -7.4812
       239                         -0.2644021              -7.1947
       240                         -0.2598353              -7.0705
       ...                                ...                  ...
       458                          1.0914064              29.6987
      -------------------------------------------------------------
                  HL-Gap            0.0249577 Eh            0.6791 eV
             Fermi-level           -0.2956818 Eh           -8.0459 eV

 SCC (total)                   0 d,  0 h,  0 min,  1.366 sec
 SCC setup                      ...        0 min,  0.001 sec (  0.073%)
 Dispersion                     ...        0 min,  0.007 sec (  0.512%)
 classical contributions        ...        0 min,  0.000 sec (  0.000%)
 integral evaluation            ...        0 min,  0.016 sec (  1.171%)
 iterations                     ...        0 min,  1.292 sec ( 94.583%)
 molecular gradient             ...        0 min,  0.046 sec (  3.367%)
 printout                       ...        0 min,  0.004 sec (  0.293%)

         :::::::::::::::::::::::::::::::::::::::::::::::::::::
         ::                     SUMMARY                     ::
         :::::::::::::::::::::::::::::::::::::::::::::::::::::
         :: total energy            -250.082969159811 Eh    ::
         :: gradient norm              0.113628127428 Eh/a0 ::
         :: HOMO-LUMO gap              0.679134103225 eV    ::
         ::.................................................::
         :: SCC energy              -252.814171665708 Eh    ::
         :: -> isotropic ES            0.712868338896 Eh    ::
         :: -> anisotropic ES         -0.015885944008 Eh    ::
         :: -> anisotropic XC          0.144015474963 Eh    ::
         :: -> dispersion             -0.213837555419 Eh    ::
         :: repulsion energy           2.731202505897 Eh    ::
         :: add. restraining           0.000000000000 Eh    ::
         :: total charge              -0.000000000163 e     ::
         :::::::::::::::::::::::::::::::::::::::::::::::::::::

           -------------------------------------------------
          |                Property Printout                |
           -------------------------------------------------

    * Orbital Energies and Occupations

         #    Occupation            Energy/Eh            Energy/eV
      -------------------------------------------------------------
         1        2.0000           -0.8258332             -22.4721
       ...           ...                  ...                  ...
       223        2.0000           -0.3385556              -9.2126
       224        2.0000           -0.3376409              -9.1877
       225        2.0000           -0.3347797              -9.1098
       226        2.0000           -0.3324326              -9.0460
       227        2.0000           -0.3299145              -8.9774
       228        2.0000           -0.3288879              -8.9495
       229        2.0000           -0.3272912              -8.9060
       230        2.0000           -0.3245422              -8.8312
       231        2.0000           -0.3232921              -8.7972
       232        2.0000           -0.3207152              -8.7271
       233        2.0000           -0.3153762              -8.5818
       234        2.0000           -0.3134411              -8.5292
       235        2.0000           -0.3081586              -8.3854 (HOMO)
       236        0.0000           -0.2832009              -7.7063 (LUMO)
       237                         -0.2786632              -7.5828
       238                         -0.2749275              -7.4812
       239                         -0.2644021              -7.1947
       240                         -0.2598353              -7.0705
       241                         -0.2572684              -7.0006
       242                         -0.2522374              -6.8637
       243                         -0.2513390              -6.8393
       244                         -0.2453122              -6.6753
       245                         -0.2430654              -6.6141
       246                         -0.2345314              -6.3819
       ...                                ...                  ...
       458                          1.0914064              29.6987
      -------------------------------------------------------------
                  HL-Gap            0.0249577 Eh            0.6791 eV
             Fermi-level           -0.2956818 Eh           -8.0459 eV

     #   Z          covCN         q      C6AA      α(0)
     1   6 C        3.748    -0.106    22.600     6.780
     2   6 C        3.748     0.015    20.381     6.439
     3   7 N        2.721    -0.190    25.129     7.445
     4   6 C        3.743     0.004    20.580     6.472
     5   6 C        3.746     0.004    20.583     6.471
     6   7 N        2.720    -0.188    25.069     7.436
     7   6 C        3.754     0.008    20.498     6.456
     8   6 C        2.957    -0.003    28.100     8.695
     9   6 C        2.926    -0.017    28.442     8.746
    10   6 C        2.914    -0.060    29.495     8.906
    11   6 C        2.861     0.156    24.624     8.134
    12   7 N        2.699    -0.163    24.520     7.354
    13   6 C        2.837     0.237    23.051     7.868
    14   7 N        1.835    -0.241    27.146     7.721
    15   6 C        2.908     0.053    26.802     8.489
    16   6 C        2.767     0.126    25.218     8.224
    17   9 F        0.786    -0.222    11.463     3.999
    18   6 C        2.879     0.154    24.662     8.141
    19   7 N        2.698    -0.154    24.334     7.326
    20   6 C        2.850     0.162    24.489     8.111
    21   6 C        2.910    -0.056    29.386     8.889
    22   6 C        2.930    -0.008    28.222     8.712
    23   6 C        2.961    -0.005    28.151     8.703
    24   6 C        1.905     0.107    28.453     8.615
    25   7 N        0.911    -0.239    26.247     7.410
    26   6 C        2.927     0.103    25.721     8.317
    27   6 C        3.853    -0.010    20.727     6.475
    28   6 C        3.753    -0.099    22.447     6.756
    29   6 C        3.751    -0.104    22.555     6.773
    30   7 N        1.844    -0.265    27.745     7.806
    31   7 N        1.843    -0.308    28.839     7.959
    32   7 N        1.834    -0.236    27.013     7.702
    33   6 C        2.887     0.048    26.928     8.508
    34   6 C        3.747     0.007    20.519     6.461
    35   6 C        3.749     0.009    20.488     6.456
    36   1 H        0.924     0.036     2.507     2.476
    37   1 H        0.924     0.047     2.358     2.401
    38   1 H        0.924     0.036     2.502     2.474
    39   1 H        0.924     0.008     2.917     2.671
    40   1 H        0.924     0.032     2.555     2.500
    41   1 H        0.924     0.029     2.596     2.520
    42   1 H        0.924     0.029     2.601     2.522
    43   1 H        0.923     0.032     2.556     2.500
    44   1 H        0.924     0.027     2.632     2.537
    45   1 H        0.923     0.042     2.426     2.436
    46   1 H        0.923     0.018     2.768     2.602
    47   1 H        0.925     0.053     2.286     2.365
    48   1 H        0.925     0.043     2.404     2.425
    49   1 H        0.860     0.198     1.115     1.654
    50   1 H        0.925     0.079     1.985     2.203
    51   1 H        0.860     0.209     1.062     1.614
    52   1 H        0.925     0.060     2.198     2.318
    53   1 H        0.925     0.046     2.371     2.408
    54   1 H        0.924     0.041     2.433     2.439
    55   1 H        0.924     0.033     2.538     2.491
    56   1 H        0.924     0.045     2.381     2.413
    57   1 H        0.924     0.044     2.390     2.418
    58   1 H        0.924     0.052     2.291     2.367
    59   1 H        0.924     0.036     2.500     2.472
    60   1 H        0.924     0.039     2.458     2.452
    61   1 H        0.925     0.047     2.357     2.401
    62   1 H        0.923     0.028     2.616     2.529
    63   1 H        0.924     0.036     2.507     2.476
    64   1 H        0.923     0.018     2.764     2.600
    65   1 H        0.924     0.036     2.501     2.473
    66   5 B        2.781     0.076    20.202     7.515
    67   7 N        2.774    -0.228    25.970     7.569
    68   5 B        2.788     0.092    19.933     7.463
    69   7 N        2.524    -0.314    28.125     7.876
    70   5 B        2.779     0.083    20.085     7.494
    71   7 N        2.655    -0.271    27.009     7.719
    72   5 B        2.849     0.241    17.662     7.017
    73   7 N        2.529    -0.272    27.082     7.729
    74   5 B        3.195     0.150    18.928     7.256
    75   7 N        2.979    -0.110    23.398     7.184
    76   5 B        2.644     0.373    16.320     6.813
    77   7 N        2.669    -0.212    25.629     7.519
    78   5 B        3.181     0.022    20.996     7.642
    79   7 N        2.888    -0.222    25.833     7.549
    80   5 B        3.009     0.209    18.074     7.092
    81   7 N        2.660    -0.163    24.527     7.355
    82   5 B        2.906     0.320    16.605     6.800
    83   7 N        3.156    -0.082    22.826     7.096
    84   5 B        2.779     0.094    19.912     7.461
    85   7 N        3.037    -0.124    23.696     7.230
    86   5 B        2.758     0.090    20.006     7.484
    87   7 N        2.634    -0.309    27.959     7.853
    88   5 B        3.040     0.226    17.829     7.043
    89   7 N        2.981    -0.000    21.265     6.849
    90   5 B        2.582     0.326    17.304     7.087
    91   7 N        2.596    -0.360    29.286     8.037
    92   5 B        3.287     0.340    16.338     6.741
    93   7 N        2.784    -0.253    26.565     7.655
    94   5 B        2.559     0.320    17.597     7.185
    95   7 N        2.579    -0.368    29.523     8.070
    96   5 B        2.530     0.301    18.227     7.377
    97   7 N        2.665    -0.205    25.459     7.494
    98   5 B        2.698     0.196    18.508     7.220
    99   7 N        2.844    -0.167    24.609     7.368
   100   5 B        2.758     0.082    20.130     7.507
   101   7 N        2.672    -0.174    24.766     7.391
   102   5 B        2.877     0.110    19.575     7.385
   103   7 N        2.663    -0.145    24.135     7.296
   104   5 B        2.594     0.312    17.390     7.086
   105   7 N        2.519    -0.354    29.162     8.020
   106   5 B        2.684     0.184    18.724     7.269
   107   7 N        3.008    -0.128    23.778     7.242
   108   5 B        2.677     0.210    18.358     7.202
   109   7 N        2.716    -0.249    26.479     7.642
   110   5 B        2.647     0.164    19.166     7.380
   111   7 N        2.825    -0.206    25.482     7.497
   112   5 B        3.321     0.230    17.784     7.032
   113   7 N        2.531    -0.286    27.406     7.775
   114   5 B        2.950     0.036    20.775     7.605
   115   7 N        2.783    -0.185    25.006     7.427
   116   5 B        2.796     0.085    20.040     7.482
   117   7 N        2.673    -0.156    24.367     7.331
   118   5 B        3.021     0.211    18.052     7.087
   119   7 N        3.272     0.015    20.985     6.804
   120   5 B        2.869     0.305    16.806     6.843
   121   7 N        3.154    -0.117    23.536     7.205
   122   5 B        3.263     0.320    16.584     6.792
   123   7 N        2.833    -0.061    22.413     7.031
   124   5 B        3.303     0.231    17.765     7.029
   125   7 N        2.656    -0.182    24.950     7.419
   126   5 B        2.838     0.112    19.568     7.387
   127   7 N        2.834    -0.224    25.879     7.556
   128   5 B        2.863     0.252    17.504     6.985
   129   7 N        2.654    -0.231    26.054     7.581
   130   5 B        3.011     0.114    19.488     7.364
   131   7 N        3.153    -0.086    22.910     7.109
   132   5 B        2.674     0.202    18.492     7.230
   133   7 N        2.696    -0.232    26.073     7.584
   134   5 B        2.585     0.369    16.719     6.962
   135   7 N        2.881    -0.180    24.885     7.409
   136   5 B        2.825     0.106    19.673     7.409
   137   7 N        2.827    -0.253    26.557     7.654

 Mol. C6AA /au·bohr⁶  :     306584.196369
 Mol. C8AA /au·bohr⁸  :    8270303.160630
 Mol. α(0) /au        :        865.760351


Wiberg/Mayer (AO) data.
largest (>0.10) Wiberg bond orders for each atom

 ---------------------------------------------------------------------------
     #   Z sym  total        # sym  WBO       # sym  WBO       # sym  WBO
 ---------------------------------------------------------------------------
     1   6 C    3.996 --     2 C    1.016    37 H    0.987    38 H    0.986
                            36 H    0.985
     2   6 C    3.987 --     1 C    1.016     3 N    1.001    40 H    0.974
                            39 H    0.968
     3   7 N    3.100 --     2 C    1.001     4 C    0.999    35 C    0.997
     4   6 C    3.988 --     3 N    0.999     5 C    0.990    41 H    0.973
                            42 H    0.970
     5   6 C    3.986 --     6 N    0.999     4 C    0.990    44 H    0.973
                            43 H    0.972
     6   7 N    3.098 --     5 C    0.999     7 C    0.995    34 C    0.993
     7   6 C    3.987 --     8 C    1.003     6 N    0.995    46 H    0.964
                            45 H    0.958
     8   6 C    3.981 --    33 C    1.422     9 C    1.389     7 C    1.003
     9   6 C    3.988 --    10 C    1.469     8 C    1.389    47 H    0.968
                            32 N    0.101
    10   6 C    3.986 --     9 C    1.469    11 C    1.354    48 H    0.968
                            33 C    0.111
    11   6 C    3.963 --    32 N    1.388    10 C    1.354    12 N    1.064
    12   7 N    3.402 --    13 C    1.151    11 C    1.064    49 H    0.921
    13   6 C    3.965 --    14 N    1.350    31 N    1.322    12 N    1.151
    14   7 N    3.037 --    15 C    1.414    13 C    1.350
    15   6 C    3.973 --    16 C    1.418    14 N    1.414    50 H    0.957
    16   6 C    3.873 --    15 C    1.418    18 C    1.296    17 F    0.955
    17   9 F    1.083 --    16 C    0.955
    18   6 C    3.971 --    31 N    1.367    16 C    1.296    19 N    1.114
    19   7 N    3.436 --    20 C    1.123    18 C    1.114    51 H    0.919
    20   6 C    3.948 --    30 N    1.354    21 C    1.338    19 N    1.123
    21   6 C    3.984 --    22 C    1.477    20 C    1.338    52 H    0.963
    22   6 C    3.987 --    21 C    1.477    23 C    1.345    53 H    0.969
    23   6 C    3.980 --    22 C    1.345    26 C    1.337    24 C    1.089
    24   6 C    3.940 --    25 N    2.795    23 C    1.089
    25   7 N    2.975 --    24 C    2.795
    26   6 C    3.969 --    30 N    1.405    23 C    1.337    27 C    0.996
    27   6 C    3.993 --    29 C    1.000    26 C    0.996    28 C    0.989
                            54 H    0.963
    28   6 C    3.994 --    27 C    0.989    55 H    0.987    56 H    0.986
                            57 H    0.983
    29   6 C    3.994 --    27 C    1.000    59 H    0.987    60 H    0.986
                            58 H    0.985
    30   7 N    3.041 --    26 C    1.405    20 C    1.354
    31   7 N    3.021 --    18 C    1.367    13 C    1.322
    32   7 N    3.050 --    33 C    1.416    11 C    1.388     9 C    0.101
    33   6 C    3.979 --     8 C    1.422    32 N    1.416    61 H    0.962
                            10 C    0.111
    34   6 C    3.985 --    35 C    1.005     6 N    0.993    63 H    0.973
                            62 H    0.969
    35   6 C    3.988 --    34 C    1.005     3 N    0.997    65 H    0.972
                            64 H    0.969
    36   1 H    0.999 --     1 C    0.985
    37   1 H    0.998 --     1 C    0.987
    38   1 H    0.998 --     1 C    0.986
    39   1 H    1.000 --     2 C    0.968
    40   1 H    0.999 --     2 C    0.974
    41   1 H    0.999 --     4 C    0.973
    42   1 H    0.999 --     4 C    0.970
    43   1 H    0.999 --     5 C    0.972
    44   1 H    0.999 --     5 C    0.973
    45   1 H    0.997 --     7 C    0.958
    46   1 H    0.999 --     7 C    0.964
    47   1 H    0.997 --     9 C    0.968
    48   1 H    0.998 --    10 C    0.968
    49   1 H    0.960 --    12 N    0.921
    50   1 H    0.993 --    15 C    0.957
    51   1 H    0.956 --    19 N    0.919
    52   1 H    0.994 --    21 C    0.963
    53   1 H    0.997 --    22 C    0.969
    54   1 H    0.998 --    27 C    0.963
    55   1 H    0.999 --    28 C    0.987
    56   1 H    0.998 --    28 C    0.986
    57   1 H    0.997 --    28 C    0.983
    58   1 H    0.997 --    29 C    0.985
    59   1 H    0.999 --    29 C    0.987
    60   1 H    0.998 --    29 C    0.986
    61   1 H    0.998 --    33 C    0.962
    62   1 H    0.999 --    34 C    0.969
    63   1 H    0.998 --    34 C    0.973
    64   1 H    1.000 --    35 C    0.969
    65   1 H    0.998 --    35 C    0.972
    66   5 B    3.478 --   135 N    1.283   118 B    1.000   112 B    0.970
    67   7 N    3.398 --   112 B    1.143   125 N    1.007   124 B    1.001
    68   5 B    3.464 --   113 N    1.276   136 B    0.978   124 B    0.958
    69   7 N    3.530 --   128 B    1.152   126 B    1.150    96 B    1.018
    70   5 B    3.464 --   103 N    1.241   132 B    0.996   106 B    0.990
    71   7 N    3.263 --    92 B    1.200   134 B    0.967   129 N    0.888
    72   5 B    3.407 --   105 N    1.176    79 N    1.034    88 B    0.963
    73   7 N    3.568 --    86 B    1.277    74 B    1.158   130 B    0.973
    74   5 B    3.393 --    73 N    1.158   116 B    0.932   114 B    0.640
                            78 B    0.294
    75   7 N    3.322 --    80 B    1.113   119 N    1.043   131 N    0.945
    76   5 B    3.433 --    77 N    1.187    87 N    1.127   115 N    0.961
    77   7 N    3.445 --    76 B    1.187   104 B    1.086   117 N    0.967
    78   5 B    3.456 --   114 B    1.284   130 B    1.004   128 B    0.627
                            74 B    0.294
    79   7 N    3.428 --    82 B    1.233    72 B    1.034    93 N    0.929
    80   5 B    3.390 --    75 N    1.113    99 N    1.039   126 B    1.005
    81   7 N    3.510 --    84 B    1.206   104 B    1.123   101 N    0.999
    82   5 B    3.514 --    79 N    1.233   107 N    1.073   127 N    1.000
    83   7 N    3.350 --   132 B    1.142   135 N    0.991    85 N    0.983
    84   5 B    3.414 --    81 N    1.206   102 B    1.008   116 B    0.926
    85   7 N    3.329 --   120 B    1.137    83 N    0.983    89 N    0.974
    86   5 B    3.464 --    73 N    1.277   100 B    0.978   110 B    0.932
    87   7 N    3.218 --    76 B    1.127    90 B    1.067   115 N    0.792
    88   5 B    3.368 --   101 N    1.152    93 N    0.992    72 B    0.963
    89   7 N    3.098 --   107 N    1.013    85 N    0.974   133 N    0.938
    90   5 B    3.511 --   127 N    1.246    87 N    1.067   105 N    0.989
    91   7 N    3.433 --    96 B    1.202   124 B    1.061   112 B    0.925
    92   5 B    3.481 --    71 N    1.200   109 N    1.042    95 N    0.981
    93   7 N    3.282 --    98 B    1.169    88 B    0.992    79 N    0.929
    94   5 B    3.524 --   129 N    1.210   133 N    1.121   121 N    1.033
    95   7 N    3.430 --   108 B    1.220   122 B    0.993    92 B    0.981
    96   5 B    3.520 --    91 N    1.202   137 N    1.098    69 N    1.018
    97   7 N    3.442 --   134 B    1.261   108 B    0.997   123 N    0.990
    98   5 B    3.445 --    93 N    1.169   125 N    1.123   136 B    0.923
    99   7 N    3.469 --   100 B    1.260    80 B    1.039   131 N    0.984
   100   5 B    3.420 --    99 N    1.260    86 B    0.978   108 B    0.959
   101   7 N    3.511 --   136 B    1.171    88 B    1.152    81 N    0.999
   102   5 B    3.347 --   114 B    1.009    84 B    1.008   113 N    0.963
   103   7 N    3.509 --    70 B    1.241   106 B    1.092   109 N    1.035
   104   5 B    3.515 --    81 N    1.123   105 N    1.104    77 N    1.086
   105   7 N    3.477 --    72 B    1.176   104 B    1.104    90 B    0.989
   106   5 B    3.464 --   111 N    1.179   103 N    1.092    70 B    0.990
   107   7 N    3.263 --    82 B    1.073    89 N    1.013   121 N    0.975
   108   5 B    3.390 --    95 N    1.220    97 N    0.997   100 B    0.959
   109   7 N    3.371 --    92 B    1.042   103 N    1.035   122 B    0.985
   110   5 B    3.454 --   123 N    1.191   117 N    1.079    86 B    0.932
   111   7 N    3.406 --   106 B    1.179   118 B    1.072   119 N    0.959
   112   5 B    3.365 --    67 N    1.143    66 B    0.970    91 N    0.925
                           124 B    0.127
   113   7 N    3.561 --    68 B    1.276   128 B    1.106   102 B    0.963
   114   5 B    3.367 --    78 B    1.284   102 B    1.009    74 B    0.640
                           128 B    0.186
   115   7 N    2.986 --   123 N    1.045    76 B    0.961    87 N    0.792
   116   5 B    3.455 --   117 N    1.266    74 B    0.932    84 B    0.926
   117   7 N    3.481 --   116 B    1.266   110 B    1.079    77 N    0.967
   118   5 B    3.442 --   137 N    1.131   111 N    1.072    66 B    1.000
   119   7 N    3.186 --    75 N    1.043   111 N    0.959   137 N    0.950
   120   5 B    3.523 --   125 N    1.163    85 N    1.137   135 N    0.993
   121   7 N    3.217 --    94 B    1.033   127 N    0.984   107 N    0.975
   122   5 B    3.507 --   131 N    1.265    95 N    0.993   109 N    0.985
   123   7 N    3.440 --   110 B    1.191   115 N    1.045    97 N    0.990
   124   5 B    3.327 --    91 N    1.061    67 N    1.001    68 B    0.958
                           112 B    0.127
   125   7 N    3.491 --   120 B    1.163    98 B    1.123    67 N    1.007
   126   5 B    3.386 --    69 N    1.150    80 B    1.005   130 B    1.002
   127   7 N    3.446 --    90 B    1.246    82 B    1.000   121 N    0.984
   128   5 B    3.443 --    69 N    1.152   113 N    1.106    78 B    0.627
                           114 B    0.186   130 B    0.120
   129   7 N    3.332 --    94 B    1.210   134 B    1.036    71 N    0.888
   130   5 B    3.334 --    78 B    1.004   126 B    1.002    73 N    0.973
                           128 B    0.120
   131   7 N    3.440 --   122 B    1.265    99 N    0.984    75 N    0.945
   132   5 B    3.446 --    83 N    1.142   133 N    1.116    70 B    0.996
   133   7 N    3.394 --    94 B    1.121   132 B    1.116    89 N    0.938
   134   5 B    3.439 --    97 N    1.261   129 N    1.036    71 N    0.967
   135   7 N    3.475 --    66 B    1.283   120 B    0.993    83 N    0.991
   136   5 B    3.360 --   101 N    1.171    68 B    0.978    98 B    0.923
   137   7 N    3.418 --   118 B    1.131    96 B    1.098   119 N    0.950
 ---------------------------------------------------------------------------

Topologies differ in total number of bonds
Writing topology from bond orders to xtbtopo.mol

molecular dipole:
                 x           y           z       tot (Debye)
 q only:        3.168       2.177      -3.832
   full:        1.874       1.270      -1.577       7.012
molecular quadrupole (traceless):
                xx          xy          yy          xz          yz          zz
 q only:      -23.588     -23.674      -1.532      57.013      -0.989      25.120
  q+dip:      -21.440     -32.393      13.231      76.870       6.506       8.209
   full:      -16.690     -32.091       7.169      82.145       9.810       9.521


           -------------------------------------------------
          | TOTAL ENERGY             -250.082969159811 Eh   |
          | GRADIENT NORM               0.113628127428 Eh/α |
          | HOMO-LUMO GAP               0.679134103225 eV   |
           -------------------------------------------------

------------------------------------------------------------------------
 * finished run on 2026/08/31 at 22:22:06.464     
------------------------------------------------------------------------
 total:
 * wall-time:     0 d,  0 h,  0 min,  1.441 sec
 *  cpu-time:     0 d,  0 h,  0 min, 10.953 sec
 * ratio c/w:     7.601 speedup
 SCF:
 * wall-time:     0 d,  0 h,  0 min,  1.370 sec
 *  cpu-time:     0 d,  0 h,  0 min, 10.547 sec
 * ratio c/w:     7.698 speedup

normal termination of xtb
