137
Drug@B36N36 non-overlapping complex
C     10.397771      1.111601     11.769722
C      9.399560      0.041996     11.338788
N      8.012839      0.451067     11.584957
C      7.640456      0.443171     13.014745
C      6.645094     -0.667747     13.424819
N      5.398948     -0.718339     12.634238
C      4.304913      0.004810     13.301731
C      2.960656     -0.211747     12.654053
C      2.433430     -1.487036     12.458667
C      1.180874     -1.632104     11.863764
C      0.461185     -0.500853     11.477056
N     -0.797214     -0.699648     10.884058
C     -1.605812      0.275973     10.305585
N     -1.085322      1.263669      9.560718
C     -1.944119      2.146573      9.022317
C     -3.300253      2.062139      9.186339
F     -4.122196      2.967737      8.638211
C     -3.776238      1.006855      9.945979
N     -5.173122      0.870816     10.092291
C     -5.903396     -0.099897     10.772408
C     -5.522673     -1.431579     10.841478
C     -6.328611     -2.338499     11.526934
C     -7.512670     -1.901665     12.121497
C     -8.320524     -2.839178     12.840091
N     -8.971320     -3.602714     13.423513
C     -7.857953     -0.555337     11.990348
C     -9.115841      0.026682     12.618627
C     -8.776552      0.688177     13.954973
C     -9.808537      1.026293     11.685870
N     -7.057681      0.329064     11.328650
N     -2.930121      0.103414     10.487788
N      0.956694      0.737390     11.673904
C      2.177903      0.858234     12.244773
C      5.621128     -0.207469     11.260721
C      7.079493     -0.367561     10.783701
H     10.385422      1.279038     12.850581
H     10.189880      2.065186     11.272578
H     11.412683      0.805906     11.494637
H      9.625849     -0.910238     11.834294
H      9.549111     -0.114921     10.262763
H      7.180970      1.415126     13.234852
H      8.518135      0.373772     13.667324
H      7.147756     -1.636440     13.301738
H      6.433917     -0.591304     14.498771
H      4.204430     -0.350246     14.336280
H      4.534464      1.076727     13.366588
H      3.001769     -2.366182     12.752345
H      0.780431     -2.625738     11.691595
H     -1.393314     -1.278132     11.457858
H     -1.498122      2.944298      8.439469
H     -5.639675      1.764132     10.214802
H     -4.613205     -1.776526     10.361499
H     -6.024428     -3.381199     11.589467
H     -9.843161     -0.772040     12.803281
H     -8.321427     -0.030078     14.645970
H     -8.071290      1.517202     13.826574
H     -9.679390      1.084649     14.431692
H     -9.187839      1.909475     11.497628
H    -10.037608      0.564620     10.718954
H    -10.750999      1.371509     12.124771
H      2.515151      1.884644     12.362312
H      5.359270      0.857122     11.185709
H      4.963188     -0.750614     10.572459
H      7.353499     -1.430874     10.820612
H      7.143740     -0.053160      9.735182
B      3.459180     -1.454569      1.628037
N      3.456400      1.129904      0.940040
B      2.539920      2.362499     -1.261047
N      2.293067     -0.641637     -2.730603
B      0.690534     -3.561069      2.702709
N     -2.939724     -2.654773      1.709476
B     -1.038202      4.085096      1.831238
N     -0.619347      0.017651     -3.941904
B     -0.473710      1.445324     -4.091730
N      1.209559     -3.786796     -1.739405
B     -3.844500      2.209440     -0.493722
N     -2.772864      2.763562     -1.211833
B      1.405725      0.818091     -4.889311
N     -0.235789      3.364215      2.833544
B      0.898320     -2.879798     -2.813849
N     -0.491833      3.766578     -1.010119
B     -0.805996      2.182269      3.281874
N      1.656110     -1.274433      3.503622
B     -0.248484      3.469937     -2.379863
N      1.308703      0.068898      3.816981
B     -1.597441     -0.559934     -3.084689
N     -3.832496      1.776842      0.831624
B      0.337602      4.495994      1.183894
N      0.043256     -0.013955      4.456653
B     -2.708837      2.226751      1.601242
N      3.772728     -0.132624     -0.765541
B     -2.253381     -3.639412      1.008482
N      1.055818      3.733398      2.235734
B     -1.825620     -0.777460      3.219840
N     -2.436768     -3.601880     -0.450773
B      3.018658     -1.073670     -1.502768
N     -3.157960     -1.252592     -0.384321
B      2.034656      2.922326      1.561722
N     -0.507447     -2.900148     -2.432795
B     -1.673548     -2.112882     -2.491621
N      0.590135      3.964583     -0.110225
B      1.090314      2.959649     -3.182489
N      0.077350     -4.359230      1.721289
B     -1.784034      3.452384     -0.408220
N     -2.013520      3.418515      1.031553
B      1.465878     -4.212148      1.499138
N     -0.797987      1.064153      4.194581
B     -2.666242     -2.402096     -1.175256
N     -1.074388     -4.484335      0.991235
B     -2.503710      0.491370     -2.109143
N      2.352728     -3.887335      0.453103
B      3.912327     -0.202357      0.725926
N      1.928548      1.957009     -2.465077
B      1.001184      2.254351     -4.622507
N     -4.186016      0.829005     -0.347538
B     -1.338881      2.453658     -3.114870
N     -2.359649      1.932605     -2.305841
B      3.073063     -2.645483      0.601111
N      2.335213     -3.673670     -0.970876
B      2.217863      0.545803      2.808407
N     -2.026423      0.611912      3.601492
B     -1.101749     -4.183787     -0.441007
N     -3.218144      0.041654     -0.958566
B      3.447752      1.258593     -0.514065
N      2.582085      1.632977      1.936454
B      1.472054     -1.555001     -3.515610
N     -2.102601      1.754194      2.760799
B      2.040765      0.711921     -3.211483
N     -2.720915     -1.341699      2.320567
B      0.658648     -0.538875     -4.486937
N     -0.168664     -3.759421     -1.356472
B      0.485560     -2.105634      3.433764
N     -0.587253     -1.205033      3.824488
B     -3.224373     -1.451411      1.000320
N      2.671324     -0.855529      2.621135
B      1.878557      3.339348     -0.106427
N      2.876911     -2.331783     -0.793563
