      -----------------------------------------------------------      
     |                   =====================                   |     
     |                           x T B                           |     
     |                   =====================                   |     
     |                         S. Grimme                         |     
     |          Mulliken Center for Theoretical Chemistry        |     
     |                    University of Bonn                     |     
      -----------------------------------------------------------      

   * xtb version 6.7.1pre (5071a88) compiled by 'Marcel@Raven' on 2024-07-23

   xtb is free software: you can redistribute it and/or modify it under
   the terms of the GNU Lesser General Public License as published by
   the Free Software Foundation, either version 3 of the License, or
   (at your option) any later version.
   
   xtb is distributed in the hope that it will be useful,
   but WITHOUT ANY WARRANTY; without even the implied warranty of
   MERCHANTABILITY or FITNESS FOR A PARTICULAR PURPOSE.  See the
   GNU Lesser General Public License for more details.
   
   Cite this work as:
   * C. Bannwarth, E. Caldeweyher, S. Ehlert, A. Hansen, P. Pracht,
     J. Seibert, S. Spicher, S. Grimme, WIREs Comput. Mol. Sci., 2020, 11,
     e01493. DOI: 10.1002/wcms.1493
   
   for GFN2-xTB:
   * C. Bannwarth, S. Ehlert and S. Grimme., J. Chem. Theory Comput., 2019,
     15, 1652-1671. DOI: 10.1021/acs.jctc.8b01176
   for GFN1-xTB:
   * S. Grimme, C. Bannwarth, P. Shushkov, J. Chem. Theory Comput., 2017,
     13, 1989-2009. DOI: 10.1021/acs.jctc.7b00118
   for GFN0-xTB:
   * P. Pracht, E. Caldeweyher, S. Ehlert, S. Grimme, ChemRxiv, 2019, preprint.
     DOI: 10.26434/chemrxiv.8326202.v1
   for GFN-FF:
   * S. Spicher and S. Grimme, Angew. Chem. Int. Ed., 2020, 59, 15665-15673.
     DOI: 10.1002/anie.202004239
   
   for ALPB and GBSA implicit solvation:
   * S. Ehlert, M. Stahn, S. Spicher, S. Grimme, J. Chem. Theory Comput.,
     2021, 17, 4250-4261. DOI: 10.1021/acs.jctc.1c00471
   
   for ddCOSMO and CPCM-X implicit solvation:
   * M. Stahn, S. Ehlert, S. Grimme, J. Phys. Chem. A,
     2023, XX, XXXX-XXXX. DOI: 10.1021/acs.jpca.3c04382
   
   for DFT-D4:
   * E. Caldeweyher, C. Bannwarth and S. Grimme, J. Chem. Phys., 2017,
     147, 034112. DOI: 10.1063/1.4993215
   * E. Caldeweyher, S. Ehlert, A. Hansen, H. Neugebauer, S. Spicher,
     C. Bannwarth and S. Grimme, J. Chem. Phys., 2019, 150, 154122.
     DOI: 10.1063/1.5090222
   * E. Caldeweyher, J.-M. Mewes, S. Ehlert and S. Grimme, Phys. Chem. Chem. Phys.
     2020, 22, 8499-8512. DOI: 10.1039/D0CP00502A
   
   for sTDA-xTB:
   * S. Grimme and C. Bannwarth, J. Chem. Phys., 2016, 145, 054103.
     DOI: 10.1063/1.4959605
   
   in the mass-spec context:
   * V. Asgeirsson, C. Bauer and S. Grimme, Chem. Sci., 2017, 8, 4879.
     DOI: 10.1039/c7sc00601b
   * J. Koopman and S. Grimme, ACS Omega 2019, 4, 12, 15120-15133.
     DOI: 10.1021/acsomega.9b02011
   
   for metadynamics refer to:
   * S. Grimme, J. Chem. Theory Comput., 2019, 155, 2847-2862
     DOI: 10.1021/acs.jctc.9b00143
   
   for SPH calculations refer to:
   * S. Spicher and S. Grimme, J. Chem. Theory Comput., 2021, 17, 1701-1714
     DOI: 10.1021/acs.jctc.0c01306
   
   for ONIOM refer to:
   * C. Plett, A. Katbashev, S. Ehlert, S. Grimme, M. Bursch,
     Phys. Chem. Chem. Phys., 2023, 25, 17860-17868. DOI: 10.1039/D3CP02178E
   
   for DIPRO refer to:
   * J. Kohn, N. Gildemeister, S. Grimme, D. Fazzi, A. Hansen,
     J. Chem. Phys., 2023, just accepted.
   
   for PTB refer to:
   * S. Grimme, M. Mueller, A. Hansen, J. Chem. Phys., 2023, 158, 124111.
     DOI: 10.1063/5.0137838
   
   with help from (in alphabetical order)
   P. Atkinson, C. Bannwarth, F. Bohle, G. Brandenburg, E. Caldeweyher
   M. Checinski, S. Dohm, S. Ehlert, S. Ehrlich, I. Gerasimov, C. Hölzer
   A. Katbashev, J. Kohn, J. Koopman, C. Lavigne, S. Lehtola, F. März, M. Müller,
   F. Musil, H. Neugebauer, J. Pisarek, C. Plett, P. Pracht, F. Pultar,
   J. Seibert, P. Shushkov, S. Spicher, M. Stahn, M. Steiner, T. Strunk,
   J. Stückrath, T. Rose, and J. Unsleber
   
 * started run on 2026/08/31 at 21:13:32.610     
   ID    Z sym.   atoms
    1    6 C      1, 2, 4, 5, 7-11, 13, 15, 16, 18, 20-24, 26-29, 33-35
    2    7 N      3, 6, 12, 14, 19, 25, 30-32, 67, 69, 71, 73, 75, 77, 79,
                  81, 83, 85, 87, 89, 91, 93, 95, 97, 99, 101, 103, 105, 107,
                  109, 111, 113, 115, 117, 119, 121, 123, 125, 127, 129, 131,
                  133, 135, 137
    3    9 F      17
    4    1 H      36-65
    5    5 B      66, 68, 70, 72, 74, 76, 78, 80, 82, 84, 86, 88, 90, 92, 94,
                  96, 98, 100, 102, 104, 106, 108, 110, 112, 114, 116, 118,
                  120, 122, 124, 126, 128, 130, 132, 134, 136

           -------------------------------------------------
          |                Calculation Setup                |
           -------------------------------------------------

          program call               : "c:\Users\Andre\Proyectos doctorado\kras-pancreatic-gC3N4-ai\tools\xtb\xtb-6.7.1\bin\xtb.exe" "c:\Users\Andre\Proyectos doctorado\nano-qsar-ai-therapeutics\calculations\tnbc\Abemaciclib\Abemaciclib_B36N36_phys_complex.xyz" --gfn 2 --sp --chrg 0 --uhf 0 --etemp 300 --iterations 500 --norestart
          coordinate file            : c:\Users\Andre\Proyectos doctorado\nano-qsar-ai-therapeutics\calculations\tnbc\Abemaciclib\Abemaciclib_B36N36_phys_complex.xyz
          omp threads                :                    16


molecular fragmentation (1/2 indicates fragments):
111111111111111111111111111111111111111111111111111111111111111112222222
22222222222222222222222222222222222222222222222222222222222222222
# atoms in fragment 1/2:    65    72
 fragment masses (1/2) :      475.57      893.44
CMA distance (Bohr)    :  21.633
constraining FC (au)   :  0.0500

           -------------------------------------------------
          |                 G F N 2 - x T B                 |
           -------------------------------------------------

        Reference                      10.1021/acs.jctc.8b01176
      * Hamiltonian:
        H0-scaling (s, p, d)           1.850000    2.230000    2.230000
        zeta-weighting                 0.500000
      * Dispersion:
        s8                             2.700000
        a1                             0.520000
        a2                             5.000000
        s9                             5.000000
      * Repulsion:
        kExp                           1.500000    1.000000
        rExp                           1.000000
      * Coulomb:
        alpha                          2.000000
        third order                    shell-resolved
        anisotropic                    true
        a3                             3.000000
        a5                             4.000000
        cn-shift                       1.200000
        cn-exp                         4.000000
        max-rad                        5.000000


          ...................................................
          :                      SETUP                      :
          :.................................................:
          :  # basis functions                 458          :
          :  # atomic orbitals                 458          :
          :  # shells                          244          :
          :  # electrons                       470          :
          :  max. iterations                   500          :
          :  Hamiltonian                  GFN2-xTB          :
          :  restarted?                      false          :
          :  GBSA solvation                  false          :
          :  PC potential                    false          :
          :  electronic temp.          300.0000000     K    :
          :  accuracy                    1.0000000          :
          :  -> integral cutoff          0.2500000E+02      :
          :  -> integral neglect         0.1000000E-07      :
          :  -> SCF convergence          0.1000000E-05 Eh   :
          :  -> wf. convergence          0.1000000E-03 e    :
          :  Broyden damping             0.4000000          :
          :  net charge                          0          :
          :  unpaired electrons                  0          :
          ...................................................

 iter      E             dE          RMSdq      gap      omega  full diag
   1   -251.8906500 -0.251891E+03  0.104E+01    0.59       0.0  T
   2   -252.3235418 -0.432892E+00  0.636E+00    0.43       1.0  T
   3   -249.2669113  0.305663E+01  0.418E+00    0.15       1.0  T
   4   -251.2531183 -0.198621E+01  0.225E+00    0.46       1.0  T
   5   -251.3886272 -0.135509E+00  0.193E+00    0.11       1.0  T
   6   -252.8024607 -0.141383E+01  0.778E-01    0.82       1.0  T
   7   -252.8239677 -0.215069E-01  0.532E-01    0.79       1.0  T
   8   -252.8207349  0.323274E-02  0.402E-01    0.79       1.0  T
   9   -252.8184798  0.225515E-02  0.248E-01    0.70       1.0  T
  10   -252.8243870 -0.590719E-02  0.117E-01    0.71       1.0  T
  11   -252.8270706 -0.268364E-02  0.498E-02    0.66       1.0  T
  12   -252.8272905 -0.219912E-03  0.353E-02    0.68       1.0  T
  13   -252.8273370 -0.465035E-04  0.274E-02    0.67       1.0  T
  14   -252.8273785 -0.414371E-04  0.211E-02    0.68       1.0  T
  15   -252.8274037 -0.252187E-04  0.121E-02    0.68       1.0  T
  16   -252.8274123 -0.859689E-05  0.666E-03    0.68       1.3  T
  17   -252.8274148 -0.251311E-05  0.233E-03    0.68       3.7  T
  18   -252.8274152 -0.397668E-06  0.591E-04    0.68      14.4  T
  19   -252.8274152 -0.274666E-07  0.276E-04    0.68      30.9  T

   *** convergence criteria satisfied after 19 iterations ***

         #    Occupation            Energy/Eh            Energy/eV
      -------------------------------------------------------------
         1        2.0000           -0.8272483             -22.5106
       ...           ...                  ...                  ...
       229        2.0000           -0.3272801              -8.9057
       230        2.0000           -0.3245430              -8.8313
       231        2.0000           -0.3232881              -8.7971
       232        2.0000           -0.3206933              -8.7265
       233        2.0000           -0.3153643              -8.5815
       234        2.0000           -0.3134272              -8.5288
       235        2.0000           -0.3083424              -8.3904 (HOMO)
       236        0.0000           -0.2831960              -7.7062 (LUMO)
       237        0.0000           -0.2798832              -7.6160
       238                         -0.2749457              -7.4817
       239                         -0.2643812              -7.1942
       240                         -0.2608676              -7.0986
       ...                                ...                  ...
       458                          1.0907798              29.6816
      -------------------------------------------------------------
                  HL-Gap            0.0251464 Eh            0.6843 eV
             Fermi-level           -0.2957811 Eh           -8.0486 eV

 SCC (total)                   0 d,  0 h,  0 min,  0.769 sec
 SCC setup                      ...        0 min,  0.001 sec (  0.130%)
 Dispersion                     ...        0 min,  0.004 sec (  0.520%)
 classical contributions        ...        0 min,  0.000 sec (  0.000%)
 integral evaluation            ...        0 min,  0.014 sec (  1.821%)
 iterations                     ...        0 min,  0.707 sec ( 91.938%)
 molecular gradient             ...        0 min,  0.040 sec (  5.202%)
 printout                       ...        0 min,  0.003 sec (  0.390%)

         :::::::::::::::::::::::::::::::::::::::::::::::::::::
         ::                     SUMMARY                     ::
         :::::::::::::::::::::::::::::::::::::::::::::::::::::
         :: total energy            -250.081903679832 Eh    ::
         :: gradient norm              0.113538961585 Eh/a0 ::
         :: HOMO-LUMO gap              0.684269336701 eV    ::
         ::.................................................::
         :: SCC energy              -252.813106185729 Eh    ::
         :: -> isotropic ES            0.712917558821 Eh    ::
         :: -> anisotropic ES         -0.015844088829 Eh    ::
         :: -> anisotropic XC          0.144005106283 Eh    ::
         :: -> dispersion             -0.212772792239 Eh    ::
         :: repulsion energy           2.731202505897 Eh    ::
         :: add. restraining           0.000000000000 Eh    ::
         :: total charge              -0.000000000003 e     ::
         :::::::::::::::::::::::::::::::::::::::::::::::::::::

           -------------------------------------------------
          |                Property Printout                |
           -------------------------------------------------

    * Orbital Energies and Occupations

         #    Occupation            Energy/Eh            Energy/eV
      -------------------------------------------------------------
         1        2.0000           -0.8272483             -22.5106
       ...           ...                  ...                  ...
       223        2.0000           -0.3385496              -9.2124
       224        2.0000           -0.3380434              -9.1986
       225        2.0000           -0.3347507              -9.1090
       226        2.0000           -0.3324194              -9.0456
       227        2.0000           -0.3299450              -8.9783
       228        2.0000           -0.3288593              -8.9487
       229        2.0000           -0.3272801              -8.9057
       230        2.0000           -0.3245430              -8.8313
       231        2.0000           -0.3232881              -8.7971
       232        2.0000           -0.3206933              -8.7265
       233        2.0000           -0.3153643              -8.5815
       234        2.0000           -0.3134272              -8.5288
       235        2.0000           -0.3083424              -8.3904 (HOMO)
       236        0.0000           -0.2831960              -7.7062 (LUMO)
       237        0.0000           -0.2798832              -7.6160
       238                         -0.2749457              -7.4817
       239                         -0.2643812              -7.1942
       240                         -0.2608676              -7.0986
       241                         -0.2584194              -7.0320
       242                         -0.2533855              -6.8950
       243                         -0.2513554              -6.8397
       244                         -0.2453062              -6.6751
       245                         -0.2442967              -6.6477
       246                         -0.2345359              -6.3820
       ...                                ...                  ...
       458                          1.0907798              29.6816
      -------------------------------------------------------------
                  HL-Gap            0.0251464 Eh            0.6843 eV
             Fermi-level           -0.2957811 Eh           -8.0486 eV

     #   Z          covCN         q      C6AA      α(0)
     1   6 C        3.748    -0.106    22.598     6.780
     2   6 C        3.748     0.015    20.378     6.439
     3   7 N        2.721    -0.191    25.129     7.445
     4   6 C        3.743     0.004    20.578     6.471
     5   6 C        3.746     0.004    20.581     6.471
     6   7 N        2.720    -0.188    25.071     7.437
     7   6 C        3.754     0.008    20.495     6.455
     8   6 C        2.957    -0.003    28.094     8.694
     9   6 C        2.926    -0.017    28.437     8.745
    10   6 C        2.914    -0.060    29.491     8.905
    11   6 C        2.861     0.156    24.625     8.134
    12   7 N        2.699    -0.163    24.531     7.356
    13   6 C        2.837     0.237    23.047     7.867
    14   7 N        1.835    -0.243    27.197     7.728
    15   6 C        2.908     0.053    26.800     8.489
    16   6 C        2.767     0.126    25.223     8.225
    17   9 F        0.786    -0.221    11.457     3.998
    18   6 C        2.879     0.154    24.658     8.141
    19   7 N        2.698    -0.154    24.336     7.327
    20   6 C        2.850     0.162    24.489     8.111
    21   6 C        2.910    -0.056    29.382     8.888
    22   6 C        2.930    -0.008    28.218     8.712
    23   6 C        2.961    -0.005    28.147     8.702
    24   6 C        1.905     0.107    28.452     8.614
    25   7 N        0.911    -0.239    26.236     7.408
    26   6 C        2.927     0.103    25.717     8.317
    27   6 C        3.853    -0.010    20.726     6.475
    28   6 C        3.753    -0.099    22.445     6.756
    29   6 C        3.751    -0.104    22.554     6.773
    30   7 N        1.844    -0.265    27.741     7.806
    31   7 N        1.843    -0.308    28.844     7.959
    32   7 N        1.834    -0.236    27.020     7.703
    33   6 C        2.887     0.048    26.922     8.507
    34   6 C        3.747     0.008    20.513     6.460
    35   6 C        3.749     0.009    20.484     6.455
    36   1 H        0.924     0.036     2.508     2.477
    37   1 H        0.924     0.047     2.358     2.401
    38   1 H        0.924     0.036     2.502     2.474
    39   1 H        0.924     0.008     2.918     2.671
    40   1 H        0.924     0.032     2.555     2.500
    41   1 H        0.924     0.029     2.597     2.520
    42   1 H        0.924     0.029     2.600     2.522
    43   1 H        0.923     0.032     2.556     2.500
    44   1 H        0.924     0.027     2.632     2.537
    45   1 H        0.923     0.042     2.425     2.435
    46   1 H        0.923     0.018     2.767     2.601
    47   1 H        0.925     0.053     2.285     2.364
    48   1 H        0.925     0.043     2.406     2.426
    49   1 H        0.860     0.198     1.115     1.654
    50   1 H        0.925     0.079     1.992     2.207
    51   1 H        0.860     0.209     1.061     1.614
    52   1 H        0.925     0.060     2.203     2.321
    53   1 H        0.925     0.046     2.370     2.408
    54   1 H        0.924     0.041     2.432     2.439
    55   1 H        0.924     0.033     2.538     2.491
    56   1 H        0.924     0.045     2.381     2.413
    57   1 H        0.924     0.045     2.388     2.417
    58   1 H        0.924     0.052     2.291     2.367
    59   1 H        0.924     0.036     2.500     2.472
    60   1 H        0.924     0.039     2.457     2.451
    61   1 H        0.925     0.047     2.356     2.400
    62   1 H        0.923     0.028     2.619     2.531
    63   1 H        0.924     0.035     2.512     2.479
    64   1 H        0.923     0.018     2.765     2.600
    65   1 H        0.924     0.036     2.502     2.473
    66   5 B        2.781     0.076    20.200     7.515
    67   7 N        2.774    -0.228    25.970     7.569
    68   5 B        2.788     0.092    19.933     7.463
    69   7 N        2.524    -0.314    28.126     7.876
    70   5 B        2.779     0.083    20.084     7.493
    71   7 N        2.655    -0.271    27.005     7.718
    72   5 B        2.849     0.241    17.663     7.018
    73   7 N        2.529    -0.272    27.082     7.729
    74   5 B        3.195     0.150    18.928     7.256
    75   7 N        2.979    -0.110    23.398     7.184
    76   5 B        2.644     0.373    16.321     6.813
    77   7 N        2.669    -0.212    25.630     7.519
    78   5 B        3.181     0.022    20.996     7.642
    79   7 N        2.888    -0.222    25.832     7.549
    80   5 B        3.009     0.209    18.074     7.092
    81   7 N        2.660    -0.163    24.528     7.355
    82   5 B        2.906     0.320    16.607     6.801
    83   7 N        3.156    -0.082    22.828     7.096
    84   5 B        2.779     0.094    19.912     7.461
    85   7 N        3.037    -0.125    23.708     7.232
    86   5 B        2.758     0.090    20.006     7.484
    87   7 N        2.634    -0.309    27.960     7.853
    88   5 B        3.040     0.226    17.829     7.043
    89   7 N        2.981    -0.001    21.277     6.851
    90   5 B        2.582     0.326    17.305     7.087
    91   7 N        2.596    -0.360    29.287     8.037
    92   5 B        3.287     0.340    16.338     6.741
    93   7 N        2.784    -0.253    26.568     7.655
    94   5 B        2.559     0.320    17.598     7.185
    95   7 N        2.579    -0.368    29.523     8.070
    96   5 B        2.530     0.301    18.226     7.377
    97   7 N        2.665    -0.205    25.459     7.494
    98   5 B        2.698     0.196    18.508     7.220
    99   7 N        2.844    -0.167    24.609     7.368
   100   5 B        2.758     0.082    20.130     7.507
   101   7 N        2.672    -0.174    24.767     7.391
   102   5 B        2.877     0.110    19.575     7.385
   103   7 N        2.663    -0.145    24.134     7.296
   104   5 B        2.594     0.312    17.390     7.086
   105   7 N        2.519    -0.354    29.164     8.020
   106   5 B        2.684     0.184    18.723     7.269
   107   7 N        3.008    -0.128    23.773     7.242
   108   5 B        2.677     0.210    18.358     7.202
   109   7 N        2.716    -0.249    26.478     7.642
   110   5 B        2.647     0.164    19.166     7.380
   111   7 N        2.825    -0.206    25.482     7.497
   112   5 B        3.321     0.230    17.783     7.032
   113   7 N        2.531    -0.286    27.406     7.775
   114   5 B        2.950     0.036    20.776     7.605
   115   7 N        2.783    -0.185    25.005     7.427
   116   5 B        2.796     0.085    20.040     7.482
   117   7 N        2.673    -0.156    24.367     7.331
   118   5 B        3.021     0.211    18.052     7.087
   119   7 N        3.272     0.015    20.985     6.804
   120   5 B        2.869     0.305    16.805     6.843
   121   7 N        3.154    -0.116    23.518     7.203
   122   5 B        3.263     0.320    16.584     6.792
   123   7 N        2.833    -0.061    22.413     7.031
   124   5 B        3.303     0.231    17.765     7.029
   125   7 N        2.656    -0.182    24.954     7.419
   126   5 B        2.838     0.112    19.568     7.387
   127   7 N        2.834    -0.224    25.879     7.556
   128   5 B        2.863     0.252    17.504     6.985
   129   7 N        2.654    -0.231    26.049     7.580
   130   5 B        3.011     0.114    19.488     7.364
   131   7 N        3.153    -0.086    22.910     7.109
   132   5 B        2.674     0.202    18.491     7.230
   133   7 N        2.696    -0.231    26.065     7.582
   134   5 B        2.585     0.369    16.720     6.962
   135   7 N        2.881    -0.180    24.886     7.409
   136   5 B        2.825     0.106    19.673     7.409
   137   7 N        2.827    -0.253    26.557     7.654

 Mol. C6AA /au·bohr⁶  :     306587.932076
 Mol. C8AA /au·bohr⁸  :    8270333.001745
 Mol. α(0) /au        :        865.765586


Wiberg/Mayer (AO) data.
largest (>0.10) Wiberg bond orders for each atom

 ---------------------------------------------------------------------------
     #   Z sym  total        # sym  WBO       # sym  WBO       # sym  WBO
 ---------------------------------------------------------------------------
     1   6 C    3.996 --     2 C    1.016    37 H    0.987    38 H    0.986
                            36 H    0.985
     2   6 C    3.987 --     1 C    1.016     3 N    1.001    40 H    0.974
                            39 H    0.968
     3   7 N    3.100 --     2 C    1.001     4 C    0.999    35 C    0.997
     4   6 C    3.988 --     3 N    0.999     5 C    0.990    41 H    0.973
                            42 H    0.970
     5   6 C    3.986 --     6 N    0.998     4 C    0.990    44 H    0.973
                            43 H    0.972
     6   7 N    3.098 --     5 C    0.998     7 C    0.995    34 C    0.993
     7   6 C    3.987 --     8 C    1.003     6 N    0.995    46 H    0.964
                            45 H    0.958
     8   6 C    3.981 --    33 C    1.422     9 C    1.389     7 C    1.003
     9   6 C    3.988 --    10 C    1.469     8 C    1.389    47 H    0.968
                            32 N    0.101
    10   6 C    3.986 --     9 C    1.469    11 C    1.354    48 H    0.968
                            33 C    0.111
    11   6 C    3.963 --    32 N    1.388    10 C    1.354    12 N    1.063
    12   7 N    3.401 --    13 C    1.151    11 C    1.063    49 H    0.921
    13   6 C    3.965 --    14 N    1.350    31 N    1.322    12 N    1.151
    14   7 N    3.036 --    15 C    1.413    13 C    1.350
    15   6 C    3.973 --    16 C    1.418    14 N    1.413    50 H    0.957
    16   6 C    3.873 --    15 C    1.418    18 C    1.295    17 F    0.956
    17   9 F    1.084 --    16 C    0.956
    18   6 C    3.971 --    31 N    1.367    16 C    1.295    19 N    1.115
    19   7 N    3.436 --    20 C    1.122    18 C    1.115    51 H    0.919
    20   6 C    3.948 --    30 N    1.354    21 C    1.338    19 N    1.122
    21   6 C    3.984 --    22 C    1.476    20 C    1.338    52 H    0.963
    22   6 C    3.987 --    21 C    1.476    23 C    1.346    53 H    0.969
    23   6 C    3.980 --    22 C    1.346    26 C    1.337    24 C    1.089
    24   6 C    3.940 --    25 N    2.796    23 C    1.089
    25   7 N    2.975 --    24 C    2.796
    26   6 C    3.969 --    30 N    1.405    23 C    1.337    27 C    0.996
    27   6 C    3.993 --    29 C    1.000    26 C    0.996    28 C    0.989
                            54 H    0.963
    28   6 C    3.994 --    27 C    0.989    55 H    0.987    56 H    0.986
                            57 H    0.983
    29   6 C    3.994 --    27 C    1.000    59 H    0.987    60 H    0.986
                            58 H    0.985
    30   7 N    3.041 --    26 C    1.405    20 C    1.354
    31   7 N    3.021 --    18 C    1.367    13 C    1.322
    32   7 N    3.049 --    33 C    1.416    11 C    1.388     9 C    0.101
    33   6 C    3.979 --     8 C    1.422    32 N    1.416    61 H    0.962
                            10 C    0.111
    34   6 C    3.985 --    35 C    1.005     6 N    0.993    63 H    0.973
                            62 H    0.969
    35   6 C    3.988 --    34 C    1.005     3 N    0.997    65 H    0.972
                            64 H    0.969
    36   1 H    0.999 --     1 C    0.985
    37   1 H    0.998 --     1 C    0.987
    38   1 H    0.998 --     1 C    0.986
    39   1 H    1.000 --     2 C    0.968
    40   1 H    0.999 --     2 C    0.974
    41   1 H    0.999 --     4 C    0.973
    42   1 H    0.999 --     4 C    0.970
    43   1 H    0.999 --     5 C    0.972
    44   1 H    0.999 --     5 C    0.973
    45   1 H    0.997 --     7 C    0.958
    46   1 H    0.999 --     7 C    0.964
    47   1 H    0.997 --     9 C    0.968
    48   1 H    0.998 --    10 C    0.968
    49   1 H    0.960 --    12 N    0.921
    50   1 H    0.993 --    15 C    0.957
    51   1 H    0.956 --    19 N    0.919
    52   1 H    0.994 --    21 C    0.963
    53   1 H    0.997 --    22 C    0.969
    54   1 H    0.998 --    27 C    0.963
    55   1 H    0.999 --    28 C    0.987
    56   1 H    0.998 --    28 C    0.986
    57   1 H    0.997 --    28 C    0.983
    58   1 H    0.997 --    29 C    0.985
    59   1 H    0.999 --    29 C    0.987
    60   1 H    0.998 --    29 C    0.986
    61   1 H    0.998 --    33 C    0.962
    62   1 H    0.999 --    34 C    0.969
    63   1 H    0.998 --    34 C    0.973
    64   1 H    1.000 --    35 C    0.969
    65   1 H    0.998 --    35 C    0.972
    66   5 B    3.478 --   135 N    1.282   118 B    1.000   112 B    0.970
    67   7 N    3.398 --   112 B    1.143   125 N    1.007   124 B    1.001
    68   5 B    3.464 --   113 N    1.276   136 B    0.978   124 B    0.958
    69   7 N    3.530 --   128 B    1.152   126 B    1.150    96 B    1.018
    70   5 B    3.464 --   103 N    1.241   132 B    0.996   106 B    0.990
    71   7 N    3.263 --    92 B    1.200   134 B    0.967   129 N    0.888
    72   5 B    3.407 --   105 N    1.176    79 N    1.034    88 B    0.963
    73   7 N    3.568 --    86 B    1.277    74 B    1.158   130 B    0.973
    74   5 B    3.393 --    73 N    1.158   116 B    0.932   114 B    0.640
                            78 B    0.294
    75   7 N    3.323 --    80 B    1.113   119 N    1.043   131 N    0.945
    76   5 B    3.433 --    77 N    1.187    87 N    1.127   115 N    0.961
    77   7 N    3.445 --    76 B    1.187   104 B    1.086   117 N    0.967
    78   5 B    3.456 --   114 B    1.284   130 B    1.004   128 B    0.627
                            74 B    0.294
    79   7 N    3.429 --    82 B    1.233    72 B    1.034    93 N    0.929
    80   5 B    3.390 --    75 N    1.113    99 N    1.039   126 B    1.005
    81   7 N    3.510 --    84 B    1.206   104 B    1.123   101 N    0.999
    82   5 B    3.514 --    79 N    1.233   107 N    1.073   127 N    1.001
    83   7 N    3.350 --   132 B    1.142   135 N    0.991    85 N    0.983
    84   5 B    3.414 --    81 N    1.206   102 B    1.008   116 B    0.926
    85   7 N    3.329 --   120 B    1.137    83 N    0.983    89 N    0.974
    86   5 B    3.464 --    73 N    1.277   100 B    0.978   110 B    0.932
    87   7 N    3.218 --    76 B    1.127    90 B    1.067   115 N    0.792
    88   5 B    3.368 --   101 N    1.152    93 N    0.992    72 B    0.963
    89   7 N    3.097 --   107 N    1.013    85 N    0.974   133 N    0.938
    90   5 B    3.511 --   127 N    1.247    87 N    1.067   105 N    0.989
    91   7 N    3.433 --    96 B    1.202   124 B    1.061   112 B    0.925
    92   5 B    3.481 --    71 N    1.200   109 N    1.042    95 N    0.981
    93   7 N    3.282 --    98 B    1.169    88 B    0.992    79 N    0.929
    94   5 B    3.524 --   129 N    1.210   133 N    1.121   121 N    1.034
    95   7 N    3.430 --   108 B    1.220   122 B    0.993    92 B    0.981
    96   5 B    3.520 --    91 N    1.202   137 N    1.099    69 N    1.018
    97   7 N    3.442 --   134 B    1.261   108 B    0.997   123 N    0.990
    98   5 B    3.445 --    93 N    1.169   125 N    1.123   136 B    0.923
    99   7 N    3.469 --   100 B    1.260    80 B    1.039   131 N    0.984
   100   5 B    3.420 --    99 N    1.260    86 B    0.978   108 B    0.959
   101   7 N    3.511 --   136 B    1.171    88 B    1.152    81 N    0.999
   102   5 B    3.347 --   114 B    1.009    84 B    1.008   113 N    0.963
   103   7 N    3.509 --    70 B    1.241   106 B    1.093   109 N    1.035
   104   5 B    3.515 --    81 N    1.123   105 N    1.104    77 N    1.086
   105   7 N    3.477 --    72 B    1.176   104 B    1.104    90 B    0.989
   106   5 B    3.464 --   111 N    1.179   103 N    1.093    70 B    0.990
   107   7 N    3.263 --    82 B    1.073    89 N    1.013   121 N    0.975
   108   5 B    3.390 --    95 N    1.220    97 N    0.997   100 B    0.959
   109   7 N    3.371 --    92 B    1.042   103 N    1.035   122 B    0.985
   110   5 B    3.454 --   123 N    1.191   117 N    1.079    86 B    0.932
   111   7 N    3.406 --   106 B    1.179   118 B    1.072   119 N    0.959
   112   5 B    3.365 --    67 N    1.143    66 B    0.970    91 N    0.925
                           124 B    0.127
   113   7 N    3.561 --    68 B    1.276   128 B    1.105   102 B    0.963
   114   5 B    3.367 --    78 B    1.284   102 B    1.009    74 B    0.640
                           128 B    0.186
   115   7 N    2.986 --   123 N    1.045    76 B    0.961    87 N    0.792
   116   5 B    3.455 --   117 N    1.266    74 B    0.932    84 B    0.926
   117   7 N    3.481 --   116 B    1.266   110 B    1.079    77 N    0.967
   118   5 B    3.442 --   137 N    1.131   111 N    1.072    66 B    1.000
   119   7 N    3.186 --    75 N    1.043   111 N    0.959   137 N    0.950
   120   5 B    3.523 --   125 N    1.163    85 N    1.137   135 N    0.993
   121   7 N    3.218 --    94 B    1.034   127 N    0.984   107 N    0.975
   122   5 B    3.507 --   131 N    1.265    95 N    0.993   109 N    0.985
   123   7 N    3.440 --   110 B    1.191   115 N    1.045    97 N    0.990
   124   5 B    3.327 --    91 N    1.061    67 N    1.001    68 B    0.958
                           112 B    0.127
   125   7 N    3.491 --   120 B    1.163    98 B    1.123    67 N    1.007
   126   5 B    3.386 --    69 N    1.150    80 B    1.005   130 B    1.002
   127   7 N    3.446 --    90 B    1.247    82 B    1.001   121 N    0.984
   128   5 B    3.443 --    69 N    1.152   113 N    1.105    78 B    0.627
                           114 B    0.186   130 B    0.120
   129   7 N    3.332 --    94 B    1.210   134 B    1.036    71 N    0.888
   130   5 B    3.334 --    78 B    1.004   126 B    1.002    73 N    0.973
                           128 B    0.120
   131   7 N    3.440 --   122 B    1.265    99 N    0.984    75 N    0.945
   132   5 B    3.446 --    83 N    1.142   133 N    1.117    70 B    0.996
   133   7 N    3.394 --    94 B    1.121   132 B    1.117    89 N    0.938
   134   5 B    3.439 --    97 N    1.261   129 N    1.036    71 N    0.967
   135   7 N    3.475 --    66 B    1.282   120 B    0.993    83 N    0.991
   136   5 B    3.360 --   101 N    1.171    68 B    0.978    98 B    0.923
   137   7 N    3.418 --   118 B    1.131    96 B    1.099   119 N    0.950
 ---------------------------------------------------------------------------

Topologies differ in total number of bonds
Writing topology from bond orders to xtbtopo.mol

molecular dipole:
                 x           y           z       tot (Debye)
 q only:        3.151       2.164      -3.814
   full:        1.857       1.257      -1.556       6.937
molecular quadrupole (traceless):
                xx          xy          yy          xz          yz          zz
 q only:      -23.676     -23.579      -2.508      59.489      -1.027      26.184
  q+dip:      -21.809     -32.308      12.037      80.097       6.345       9.772
   full:      -17.059     -32.004       5.974      85.374       9.646      11.085


           -------------------------------------------------
          | TOTAL ENERGY             -250.081903679832 Eh   |
          | GRADIENT NORM               0.113538961585 Eh/α |
          | HOMO-LUMO GAP               0.684269336701 eV   |
           -------------------------------------------------

------------------------------------------------------------------------
 * finished run on 2026/08/31 at 21:13:33.441     
------------------------------------------------------------------------
 total:
 * wall-time:     0 d,  0 h,  0 min,  0.830 sec
 *  cpu-time:     0 d,  0 h,  0 min,  8.359 sec
 * ratio c/w:    10.072 speedup
 SCF:
 * wall-time:     0 d,  0 h,  0 min,  0.771 sec
 *  cpu-time:     0 d,  0 h,  0 min,  7.812 sec
 * ratio c/w:    10.133 speedup

normal termination of xtb
