68
Epirubicin GFN2 opt
C      -6.09333448      0.72556719      0.57494696
C      -4.71455219      1.20234395      0.13991632
C      -4.75007231      2.66066771     -0.35255446
C      -3.31713618      3.13420914     -0.68101041
C      -2.43375343      2.91541841      0.54316427
C      -2.51782526      1.46064034      1.00791716
O      -3.84136104      1.05866104      1.25073303
O      -1.88424827      0.65764188      0.05246127
C      -1.48244266     -0.63336850      0.49411655
C      -2.52248132     -1.68685299      0.08447121
C      -1.90855861     -3.06688506     -0.15884148
C      -0.87259370     -2.93374369     -1.27867474
C       0.18679734     -1.95239763     -0.88498461
C      -0.09949168     -0.89454342     -0.05608124
C       0.92222488      0.00560500      0.34009437
C       2.22542471     -0.15225756     -0.15853288
C       2.51438518     -1.23623445     -1.02010423
C       1.50255361     -2.14400745     -1.36721813
O       1.72709255     -3.20253188     -2.14629653
C       3.85523531     -1.43520187     -1.54546702
O       4.14016486     -2.39083477     -2.27579214
C       4.88277552     -0.44473576     -1.18307069
C       4.59734858      0.63525134     -0.33525269
C       3.25595005      0.81081794      0.23375224
O       2.99700027      1.73314131      1.01291000
C       5.63108071      1.55474037     -0.03211595
C       6.90115051      1.35871716     -0.58328427
C       7.15795960      0.28472442     -1.41284588
C       6.15594179     -0.61659512     -1.71513685
O       5.32928318      2.57927447      0.77593158
C       6.31506718      3.52821205      1.10793250
O       0.59739600      0.96950348      1.19304784
C      -1.24975796     -3.61002254      1.11667798
O      -1.24282982     -3.01483681      2.16888790
C      -0.64235226     -4.98987369      1.02288622
O      -0.28917089     -5.47754439      2.28250486
O      -2.88295305     -3.99839122     -0.59500530
N      -3.25494835      4.51786262     -1.11618988
O      -5.60314893      2.81175648     -1.46565468
H      -6.40190856      1.27687041      1.45841627
H      -6.80843625      0.90043034     -0.22357527
H      -6.06733085     -0.33266290      0.81727706
H      -4.34696142      0.57918998     -0.69347302
H      -5.18090598      3.29737420      0.42877359
H      -2.93269891      2.51889096     -1.50616156
H      -1.39887678      3.15157735      0.30425349
H      -2.76934488      3.55818831      1.35883175
H      -2.01994110      1.34982539      1.98352054
H      -1.39260218     -0.61908462      1.58989289
H      -2.99012783     -1.36389562     -0.84772443
H      -3.29317654     -1.73961099      0.85683871
H      -1.39101068     -2.58712491     -2.17638676
H      -0.42981854     -3.89936130     -1.51912165
H       2.68940873     -3.18176147     -2.40360664
H       7.69783439      2.05060554     -0.36180802
H       8.14745837      0.15428859     -1.82418295
H       6.33491796     -1.46172178     -2.36124877
H       6.68665421      4.05122704      0.22121419
H       7.15236578      3.06968662      1.64313417
H       5.81658758      4.24053324      1.76301729
H       1.42344820      1.51399573      1.34600818
H       0.25051332     -4.92290148      0.38203365
H      -1.35111918     -5.67383059      0.54154325
H      -0.38191228     -4.73845156      2.90690566
H      -3.62999906     -3.98394636      0.01497343
H      -3.93702317      4.66716723     -1.85410729
H      -3.50572419      5.13304457     -0.34796868
H      -5.26208961      2.26756064     -2.18588734
