68
drug @complex
C      -5.62764428      0.70151939      6.28645166
C      -4.33775125      1.06714664      7.00645598
C      -4.19116558      2.58771838      7.19244451
C      -2.88252136      2.87906460      7.96213949
C      -2.89460282      2.09676484      9.27328835
C      -3.15723056      0.61257691      9.00953688
O      -4.33776621      0.41412631      8.27089794
O      -2.03870404      0.05149197      8.37980330
C      -1.82467026     -1.31813936      8.66361721
C      -2.85528359     -2.19364047      7.94004844
C      -2.51636814     -3.67753722      8.06955677
C      -1.18761121     -3.92666032      7.36161395
C      -0.13335076     -2.92328806      7.71748455
C      -0.41067547     -1.70177604      8.29318336
C       0.64283075     -0.80045617      8.59506220
C       1.93620172     -1.08133291      8.13013491
C       2.21537302     -2.32406691      7.52585443
C       1.19651355     -3.27289671      7.38593323
O       1.41847302     -4.49501347      6.90122352
C       3.52094714     -2.59984180      6.94674981
O       3.85504131     -3.72695350      6.57343658
C       4.38859376     -1.43243413      6.71854883
C       4.08679075     -0.18306134      7.27561356
C       2.94753485     -0.02558058      8.19268938
O       2.81907596      0.95088403      8.92965417
C       4.85430134      0.94041364      6.89299709
C       5.91890105      0.76504798      6.00501435
C       6.22573155     -0.48471705      5.50213131
C       5.46362971     -1.58355835      5.84996302
O       4.49148034      2.13065113      7.38820259
C       5.04289694      3.30542216      6.83936225
O       0.37298411      0.29609917      9.29036658
C      -2.51685785     -4.11768359      9.54275894
O      -2.99452081     -3.44630417     10.42869362
C      -2.00248825     -5.50421109      9.84768936
O      -2.28821699     -5.87331194     11.16427737
O      -3.48948221     -4.49239266      7.42874341
N      -2.67568966      4.29350538      8.22298458
O      -4.23149706      3.27782427      5.96571402
H      -6.47971577      0.97086851      6.90576338
H      -5.67509592      1.24073437      5.34519572
H      -5.65705030     -0.36604695      6.08972636
H      -3.47212939      0.71802691      6.41810057
H      -5.04825121      2.96620861      7.76645523
H      -2.04101762      2.53069260      7.35508756
H      -1.93348187      2.20174818      9.77194241
H      -3.68423781      2.47779126      9.92444157
H      -3.35228719      0.09678168      9.96462575
H      -1.93370579     -1.45840221      9.75453198
H      -2.85612067     -1.92134171      6.88271744
H      -3.84286512     -1.98672573      8.35939049
H      -1.37343424     -3.85635843      6.28506816
H      -0.81902151     -4.93549403      7.54469540
H       2.37346899     -4.53841095      6.63347554
H       6.51028186      1.61136205      5.69658930
H       7.05738289     -0.59494783      4.82405734
H       5.66928855     -2.56329298      5.44931228
H       4.88897816      3.34690855      5.75644224
H       6.10911776      3.39509493      7.07342166
H       4.50262129      4.12217286      7.31480214
H       1.20749718      0.83899408      9.33001840
H      -0.91378510     -5.50926897      9.68887672
H      -2.45494805     -6.22034469      9.15094752
H      -2.65742703     -5.08741551     11.60222174
H      -4.36919568     -4.19181066      7.68623558
H      -2.61110271      4.78666238      7.33904982
H      -3.47285149      4.67200496      8.72664461
H      -3.53983620      2.91910524      5.39253623
