146
Etoposide/B36N36 GFN2 opt
C      -0.14597568      8.38282763     11.47156304
C      -0.50602310      6.96018849     11.08427584
O      -0.16541139      6.11244111     12.14686993
C      -0.44079608      4.75438638     11.88748256
C       0.32384578      4.32719461     10.63143347
C      -0.06207355      5.30064923      9.50845454
O       0.19511754      6.63088853      9.90105569
C       0.76048752      4.94633064      8.27301726
C       0.48089321      3.48403900      7.90824282
C       0.71542848      2.55223320      9.11551174
O       0.00610724      3.01104226     10.26521131
O       0.24228253      1.31326607      8.79541956
C       0.67087607      0.21003388      9.61089974
C      -0.55642254     -0.52197989     10.13516741
C      -1.70127706      0.29937071     10.72443392
O      -2.88138125     -0.44323611     10.42047010
C      -2.67102665     -1.33092627      9.43230654
O      -3.53309541     -2.05943775      9.03363747
C      -1.24268597     -1.18504610      8.94683003
C      -0.43603130     -2.40027486      8.49161803
C       0.98320913     -1.93570162      8.24844248
C       1.77690943     -2.76061079      7.44374778
C       3.02986306     -2.32523213      7.10438765
C       3.52613601     -1.11028406      7.57927255
C       2.79072285     -0.32670941      8.42689477
C       1.49360907     -0.74215481      8.75629456
O       4.78388651     -0.90645871      7.08116284
C       5.03102527     -1.99307201      6.21014588
O       3.96593230     -2.91685391      6.30556508
C      -0.52612557     -3.51731191      9.50899079
C       0.42883434     -3.69689108     10.48974131
C       0.29596010     -4.67510807     11.47985673
C      -0.84274410     -5.47948995     11.48288377
C      -1.80547696     -5.29819251     10.47382593
C      -1.64435254     -4.34380210      9.48988901
O      -2.88965768     -6.13788987     10.58084763
C      -3.97098476     -5.92682141      9.70069410
O      -1.07641641     -6.44359079     12.43110433
O       1.32373119     -4.70663866     12.37481803
C       1.37302700     -5.71421242     13.36167359
O       1.35577903      3.11585346      6.85182491
O       0.45253708      5.73076757      7.15042316
H      -0.68042418      8.65257630     12.37599496
H      -0.41141515      9.05858078     10.66556088
H       0.92212851      8.43683132     11.65514951
H      -1.59371649      6.86152556     10.87806697
H      -1.51618199      4.59215773     11.72818011
H      -0.11483057      4.19675057     12.76513982
H       1.40507080      4.42843643     10.82410184
H      -1.13503441      5.17668856      9.28253300
H       1.82873817      5.06365914      8.52575355
H      -0.55698902      3.35909750      7.57211177
H       1.79914267      2.54907512      9.35313818
H       1.27735990      0.59583236     10.43952569
H      -0.23549927     -1.28682412     10.84931963
H      -1.65553642      0.41490478     11.80838579
H      -1.75953946      1.28432053     10.25149084
H      -1.27044806     -0.46854882      8.11337175
H      -0.84178616     -2.75705949      7.53977702
H       1.39167553     -3.69005281      7.06184694
H       3.18876613      0.60159331      8.79930414
H       5.96925341     -2.48787771      6.50552023
H       5.10722243     -1.62590307      5.17322106
H       1.32158823     -3.09273754     10.51351501
H      -2.38545654     -4.20645646      8.72256312
H      -4.75779913     -6.59947802     10.03930788
H      -4.32257306     -4.89283551      9.74376674
H      -3.69737432     -6.17518089      8.67135656
H      -1.92800667     -6.84537676     12.20840890
H       0.53187909     -5.64409665     14.05382799
H       1.38767470     -6.71098491     12.91622364
H       2.30470164     -5.54144807     13.89995680
H       1.37554730      3.86633314      6.23437454
H       0.40971101      6.65233261      7.43272037
B       0.49523152     -4.13192014      2.39863549
N       0.65043913     -3.88013851      3.82285384
B      -0.79114159     -3.73219146      3.68079128
N      -0.94511988     -4.33835449      2.36584114
N      -4.43941090     -0.97638584      1.39524299
B      -4.22206098     -0.43191050      2.72860983
N      -4.39951439      0.97979060      2.41991679
B      -4.24703778      0.43144636      1.08181409
B      -1.61804197     -3.50080824      1.43078383
N      -2.70217759     -2.65834639      1.91276351
B      -3.37678390     -1.80912421      0.94237754
N      -2.73927169     -1.48426812     -0.32654646
B      -1.65693040     -2.34764933     -0.77469134
N      -0.95336119     -3.20290225      0.16941432
N       0.53836792     -0.56957203     -2.51818360
B       0.41828671     -1.88484911     -1.90663857
N      -1.02372002     -2.04758128     -2.01540636
B      -0.89508151     -0.62080239     -2.27128132
B      -2.55921424      0.05030049      4.43727226
N      -3.28712285     -0.93951674      3.65860455
B      -2.60523684     -2.16230762      3.27919505
N      -1.53931712     -2.62760322      4.14777477
B      -0.80076515     -1.63890052      4.91919515
N      -1.49775494     -0.42752644      5.29849599
N       0.73415896      0.50517496      6.08769660
B       0.67655220      1.91600246      5.63177598
N      -0.81778342      2.00311631      5.67726243
B      -0.69604940      0.57684586      5.90458791
N      -1.63090886      0.38452687     -1.60165485
B      -2.66759264     -0.07875695     -0.69573782
N      -3.34216027      0.92168412      0.11031461
B      -2.62248016      2.13303100      0.46313046
N      -1.58784195      2.58174171     -0.45261892
B      -0.90073780      1.59358889     -1.26364525
B       2.30630371     -2.61086643      1.82810411
N       1.23656749     -3.48588149      1.38069919
B       0.49964208     -3.12718199      0.18344325
N       1.19740613     -2.33763489     -0.81649232
B       2.26750800     -1.45551355     -0.38522329
N       2.99280531     -1.82625553      0.81603510
N      -2.65564820      2.63136969      1.82775533
B      -3.30001037      1.79086223      2.82824909
N      -2.61493282      1.45463234      4.06285539
B      -1.48960883      2.29252965      4.46459771
N      -0.82611502      3.15595721      3.49422919
B      -1.53892120      3.45779651      2.26561213
B       0.53319715      4.06084321      1.20445806
N       0.62302311      3.81263122     -0.22764624
B      -0.81139966      3.68259389     -0.01935159
N      -0.90063617      4.29113860      1.29925436
N       2.33594532     -0.09205323     -0.88923825
B       1.22187513      0.37618183     -1.70082751
N       0.54912209      1.62769477     -1.38475282
B       1.26464044      2.58231211     -0.54978493
N       2.38074133      2.14987171      0.27729682
B       3.02314601      0.88964586     -0.06205351
B       1.35255708     -0.43918086      5.24258843
N       0.64905699     -1.68462094      4.95206940
B       1.32021489     -2.65298714      4.10579768
N       2.40687439     -2.24025041      3.22858128
B       3.08142853     -0.98870832      3.54359538
N       2.45096520      0.00216612      4.39400632
N       1.30945717      3.40239503      2.18376235
B       0.62420936      3.04521768      3.42008671
N       1.36096700      2.27780516      4.39504329
B       2.37171491      1.37005048      3.90457913
N       3.05804811      1.72382740      2.66729267
B       2.34268790      2.51529680      1.68683791
N       4.15631985     -0.57178805      2.69926803
B       3.93146482     -0.88146263      1.29439855
N       4.11526179      0.45108896      0.74077966
B       3.95961269      0.76522267      2.15416821
