74
Etoposide GFN2 opt
C       8.38604201     -0.52236299      1.46527408
C       6.98053849     -0.04010859      1.15392470
O       6.13410970     -0.44355347      2.19688035
C       4.79098389     -0.06490303      1.99861671
C       4.29617899     -0.65886922      0.67828426
C       5.26872319     -0.21072225     -0.41904721
O       6.58917192     -0.58508731     -0.08675711
C       4.85681577     -0.86044444     -1.73577672
C       3.38701177     -0.51974035     -2.03276901
C       2.48558563     -0.79286178     -0.81568099
O       2.99712827     -0.22074577      0.38095905
O       1.26219142     -0.22475182     -1.07255961
C       0.19986002     -0.55903711     -0.16334587
C      -0.38755151      0.71957103      0.41795482
C       0.55810207      1.76406807      1.00393333
O      -0.08523002      3.01600996      0.76373883
C      -1.01431249      2.92002692     -0.20091695
O      -1.66692854      3.85635464     -0.56377507
C      -1.01606446      1.49775125     -0.73049978
C      -2.31287089      0.82386721     -1.17537643
C      -2.01955152     -0.63988735     -1.42930439
C      -2.97548791     -1.34989226     -2.16622949
C      -2.76338166     -2.68342962     -2.39529771
C      -1.62617324     -3.32908557     -1.90696341
C      -0.68532967     -2.65286374     -1.17718416
C      -0.88817956     -1.28816517     -0.93452754
O      -1.66039384     -4.64856285     -2.26949452
C      -2.85291605     -4.81406288     -3.00716771
O      -3.53688116     -3.58064427     -3.07858045
C      -3.40447266      1.00900023     -0.14119367
C      -3.67386254      0.05875839      0.82291538
C      -4.64295696      0.26266399      1.80958610
C      -5.33993894      1.46993046      1.82986710
C      -5.06302840      2.43123273      0.84199607
C      -4.12320096      2.19942780     -0.14182588
O      -5.80116765      3.58572905      0.96517211
C      -5.49087312      4.65729741      0.10431526
O      -6.28733774      1.77104739      2.77543244
O      -4.78052926     -0.77820831      2.67852052
C      -5.78555250     -0.74705116      3.66854736
O       2.90761213     -1.30105291     -3.08916195
O       5.62448732     -0.40459937     -2.82180555
H       8.70225282     -0.11107482      2.41789412
H       9.06260515     -0.20579066      0.67835172
H       8.37905242     -1.60599325      1.52477573
H       6.94470475      1.06872156      1.07158962
H       4.69165966      1.02982720      1.96027526
H       4.22833655     -0.45071754      2.84866012
H       4.32854527     -1.75926789      0.74578108
H       5.20638605      0.88737975     -0.52021693
H       4.95737200     -1.95362176     -1.63599711
H       3.31700928      0.55162553     -2.27337095
H       2.41375405     -1.89118257     -0.68375742
H       0.59888928     -1.20117182      0.62886169
H      -1.15639810      0.45465767      1.15001093
H       0.71407156      1.67099867      2.07908904
H       1.52547872      1.74781344      0.49198873
H      -0.31091192      1.48553932     -1.57274301
H      -2.65281705      1.28394078     -2.10851741
H      -3.85783282     -0.85610724     -2.53742321
H       0.18848291     -3.15880198     -0.80290362
H      -3.49262182     -5.56140282     -2.51075570
H      -2.61192471     -5.16150158     -4.02465496
H      -3.15401743     -0.88606747      0.83731278
H      -3.91612233      2.94111518     -0.89327397
H      -6.08861792      5.49751349      0.45486859
H      -4.42907930      4.91261318      0.15267914
H      -5.76292723      4.42520139     -0.92968869
H      -6.60268151      2.66334291      2.57400876
H      -5.62116843      0.05940202      4.38574637
H      -6.77889132     -0.63795118      3.22898328
H      -5.71542680     -1.70817989      4.17711312
H       3.49839812     -1.15968027     -3.84045466
H       6.55407075     -0.49322231     -2.57959627
